O  C  H  Co                             
   1.00000000000000     
    25.9932904847728672    0.0002021738448111   -0.0007268678538382
    12.9968200374878027   22.5096243834931080   -0.0007684708431392
    -0.0001904345603106   -0.0001238422080055    6.8196648759510170
   O    C    H    Co
    54    72    18    18
Direct
  0.0615371025975746  0.2519191759743365  0.3224501618235076
  0.0378776714712487  0.2963977426101477  0.9605156338219278
  0.1061177690054305  0.2566052275382849  0.7254386809783849
  0.3935564921154418  0.5845526832489296  0.6549013887651922
  0.6890904049073703  0.0594222452123091  0.3226827187816979
  0.6680221831050048  0.0358213277171455  0.9614571222331365
  0.6398701286231953  0.1038623033826964  0.7257300073405597
  0.0244311197478950  0.3915041336569864  0.6554864224821363
  0.2540909949959116  0.6874896230208862  0.3219245668667604
  0.2984172416389702  0.6668769662236257  0.9593586185256013
  0.2586875258778563  0.6382012784683965  0.7248470500568193
  0.5871775007695961  0.0216361444952832  0.6557474561037119
  0.3001376343987101  0.0343103400129308  0.3760930647963824
  0.2320080045469986  0.0742396697073563  0.6114973075765170
  0.6337353363597870  0.3691266583656446  0.7092112054399344
  0.5655010945184243  0.4085056777097776  0.9445451909219904
  0.2764813301658096  0.0788302479092729  0.0144494636873231
  0.6686440283928369  0.2977977181306828  0.3753846815780322
  0.6965582172932107  0.2298226290426733  0.6112601714224128
  0.9997099228331592  0.6316919145492308  0.7100505654605647
  0.0286825938647022  0.5633650152320057  0.9450623013594950
  0.6475837788439710  0.2741892935852806  0.0141895197693568
  0.0368640622270892  0.6658454886040884  0.3764324124520067
  0.0766455995611340  0.6943211030168388  0.6114656262080925
  0.3714080145959887  0.9974304981226683  0.7097191514414430
  0.4109385087716292  0.0261211938546087  0.9450186202355531
  0.0812699198394470  0.6451381390540346  0.0144652292884763
  0.7030447945083277  0.9646025331060769  0.6279622939378278
  0.7711100561967168  0.9247601958296702  0.3922800637195100
  0.3695627120178487  0.6289125425211356  0.2923689672176409
  0.4380075783795455  0.5895198870328668  0.0578345949138262
  0.7267661761903239  0.9200136346403799  0.9892792734776101
  0.3363584581591276  0.7001604590040057  0.6258659519557564
  0.3076298403885734  0.7685825690911939  0.3913846163562208
  0.0039427003203890  0.3675426118841487  0.2934845837536288
  0.9750208977057828  0.4358731414618514  0.0585336745400043
  0.3568319958443670  0.7239750135793116  0.9883971541441838
  0.9666769442496530  0.3335156840393426  0.6270650969355186
  0.9268319436977487  0.3051463191962360  0.3919158729296794
  0.6317468838453754  0.0010066074333978  0.2943749916590686
  0.5923562648792515  0.9722061345017370  0.0589006937136067
  0.9221908899462735  0.3542421597780416  0.9889451667644323
  0.9419341548857882  0.7473751238840834  0.6812095350171584
  0.9656329712715598  0.7028152041483968  0.0429606465945623
  0.8974463349407806  0.7425741697401991  0.2782499724189740
  0.6098164307695403  0.4136506880652581  0.3476858230140231
  0.3137508720960013  0.9394225804741650  0.6810301104042962
  0.3345163912622299  0.9631303455505876  0.0428212421897695
  0.3631780691229896  0.8948660301417488  0.2779276163582782
  0.9792369649188221  0.6077190046141541  0.3481483089762869
  0.7495030337051433  0.3117474407249626  0.6809068119993574
  0.7048742167211404  0.3326977392786559  0.0421618382132741
  0.7446069488253211  0.3610570909243190  0.2778202092302383
  0.4159638627033540  0.9768062387241788  0.3479990981507031
  0.1131912345052797  0.2105761990599842  0.2427549587184726
  0.1543926285891333  0.1652779907967956  0.3640935812366875
  0.0893990103274722  0.2564557495468477  0.9002201490113056
  0.1287028517638653  0.2101165133147353  0.0412847893196068
  0.4454706565934195  0.5436776876360826  0.5753447105043273
  0.4870901132186418  0.4987570277877015  0.6968279741499451
  0.6788044248176177  0.1110643941152644  0.2429390829477594
  0.6829919903728048  0.1522356416079170  0.3641434472745322
  0.6566289201567217  0.0872371108045382  0.9006487757599089
  0.6637418739842347  0.1265507762967398  0.0414711224698478
  0.0133551052771699  0.4434437920609109  0.5759957240925604
  0.0166648054474409  0.4850624376037145  0.6974495405687365
  0.2127831520410480  0.6771123104415802  0.2423147953743167
  0.1675604686303482  0.6810896661304882  0.3637788458888237
  0.2585476280515398  0.6551336480358675  0.8995438227519196
  0.2123077728121998  0.6620589529717722  0.0408448954904623
  0.5463122935218568  0.0105658129684945  0.5762293527767872
  0.5013412137071958  0.0139484610567983  0.6975887394439861
  0.2486620768415398  0.0743104764452741  0.4365840444032326
  0.2093217941786946  0.1206359761885521  0.2955520784640671
  0.5820683144766532  0.4087162117403963  0.7696104048720349
  0.5423514797747547  0.4547144918806281  0.6284753986829787
  0.2248203649481207  0.1201755962965425  0.0940943096169039
  0.1836312075787040  0.1654722045566796  0.9727541220844268
  0.6799210235272439  0.2464201027682420  0.4362467848625912
  0.6728202411886360  0.2071067079159928  0.2954116084576380
  0.0118276169854713  0.5799916632132114  0.7702083085413834
  0.0054964636980188  0.5403073628363019  0.6290534180013774
  0.6577944190148610  0.2225736535822376  0.0939327810757394
  0.6535639667068626  0.1814246458478598  0.9727501369569950
  0.0767559887734257  0.6775182707274972  0.4366250777047306
  0.1229956564287137  0.6706574693423792  0.2954315508931731
  0.4111094790970885  0.0093491359892551  0.7700860219409746
  0.4571962882899507  0.0029014600144140  0.6290420563277099
  0.1225379944633583  0.6555902176103110  0.0939961641105247
  0.1677422940646597  0.6516270016601284  0.9725242635731234
  0.7545266245855388  0.9246713088533141  0.5672713346036903
  0.7939709203585920  0.8783968757158868  0.7082331875762797
  0.4213039366639508  0.5893253985244683  0.2326087180155001
  0.4609406312519451  0.5433574714606136  0.3739340831243320
  0.7784968894014553  0.8787945916019536  0.9096622745246189
  0.8197748888051360  0.8335670695953823  0.0309761532402146
  0.3245135093126474  0.7518162265307157  0.5661244337107743
  0.3312578551875322  0.7912200709067583  0.7074277058198338
  0.9918601241862522  0.4192359422525493  0.2333913965726486
 -0.0018008959848824  0.4589085304526780  0.3745881835554613
  0.3463208479787344  0.7757115500654224  0.9088573543336911
  0.3501544321481155  0.8170394701560894  0.0303180999182469
  0.9267425125021295  0.3219169207181892  0.5667940298446114
  0.8804700496078436  0.3287996098795199  0.7078379079402064
  0.5921198624480101  0.9890045207445486  0.2338349349712887
  0.5460309035855709  0.9953987432426601  0.3748200707484684
  0.8809023532481252  0.3438363136981163  0.9093124057067421
  0.8356440491540942  0.3478171237459320  0.0305925244622921
  0.8902373893763267  0.7886274323720599  0.7609427938680475
  0.8489551530437268  0.8338747522081703  0.6396484578704839
  0.9141240951732638  0.7427268551848034  0.1034126573752399
  0.8747534011364613  0.7890351000463395  0.9624046928542571
  0.5578314734631874  0.4544327392113603  0.4271213087744285
  0.5162056454083027  0.4993107998534478  0.3056055026858410
  0.3244041071638479  0.8876316909185435  0.7605728678080911
  0.3206234934019090  0.8462867930720184  0.6391007429357456
  0.3463045016135554  0.9115464091756611  0.1031227240186120
  0.3395320374520679  0.8721009473451036  0.9619802299346805
  0.9903328922373607  0.5557741620634327  0.4276582279383908
  0.9870251783289246  0.5141562281742432  0.3062068888528503
  0.7907086792126052  0.3222824094956553  0.7605537964204022
  0.8359285833302532  0.3183618844835203  0.6392523163702789
  0.7447760560230687  0.3442758410181948  0.1029013766274311
  0.7911049576265715  0.3373762490720842  0.9620042882822788
  0.4568905478403198  0.9877685219837576  0.4276076634798092
  0.5018967788760125  0.9843358256785144  0.3062812423203873
  0.1430104488787019  0.1651676360272289  0.5179174194747143
  0.4758008132810860  0.4984638540785523  0.8506401265104293
  0.6944812056955876  0.1408672939669728  0.5179751033214913
  0.0282318526431222  0.4737854329343070  0.8512722460153188
  0.1674651635263023  0.6925752060248135  0.5175964228016379
  0.5010491215825387  0.0255115152907250  0.8514267899905567
  0.1950204822561432  0.1655862878219519  0.8189429096132607
  0.6420506918386164  0.1928022611246623  0.8189398289191170
  0.1678476265895978  0.6401271439995280  0.8187226591991024
  0.8084165272587366  0.8334013241598500  0.1847865764862157
  0.3616825961001645  0.8056635442476433  0.1841098804046243
  0.8354684918972766  0.3593382828515276  0.1844184012982166
  0.8603129631359820  0.8340340914944757  0.4858299326275181
  0.5274992717510983  0.4996012270370800  0.1517963230360828
  0.3090978526992770  0.8576563535787828  0.4853067024048107
  0.9754497856107440  0.5254425432146650  0.1523932933321796
  0.8360805541870135  0.3068612903109466  0.4854190305287328
  0.5021994851939403  0.9727587235303508  0.1524495228621496
  0.3144824964447748  0.6410482493089785  0.5253345017941550
  0.0473836348343014  0.3123203371875914  0.5259385978065959
  0.6431405494519884  0.0449878952191757  0.5262817066743224
  0.0209840313229076  0.6911680844106987  0.8108445987159818
  0.3555438417548353  0.0226919110443360  0.1444073715612465
  0.2907675466077718  0.0185192370720741  0.8108457979157540
  0.6244739099727282  0.3532861610335946  0.1440234318179272
  0.6934558305663183  0.2886200544681224  0.8105253826757868
  0.0251410980721009  0.6222184817580526  0.1446099531955842
  0.6475896337954006  0.9759321643457528  0.8593871970968487
  0.9825093741429884  0.3081849512699928  0.1925954693429425
  0.3793561519531636  0.6450002073958859  0.8583519857110277
  0.7122151482291967  0.9803079041729357  0.1929263404765511
  0.9784513196692821  0.3770576218290951  0.8590496687521514
  0.3105577813708097  0.7099445415521614  0.1919632439493177
  0.6890993245295730  0.3576932325444845  0.4773541655119450
  0.9562092525144603  0.6869334138284886  0.4777294933220603
  0.3598106855739693  0.9537450181050098  0.4774950841202847
 
  0.00000000E+00  0.00000000E+00  0.00000000E+00
  0.00000000E+00  0.00000000E+00  0.00000000E+00
  0.00000000E+00  0.00000000E+00  0.00000000E+00
  0.00000000E+00  0.00000000E+00  0.00000000E+00
  0.00000000E+00  0.00000000E+00  0.00000000E+00
  0.00000000E+00  0.00000000E+00  0.00000000E+00
  0.00000000E+00  0.00000000E+00  0.00000000E+00
  0.00000000E+00  0.00000000E+00  0.00000000E+00
  0.00000000E+00  0.00000000E+00  0.00000000E+00
  0.00000000E+00  0.00000000E+00  0.00000000E+00
  0.00000000E+00  0.00000000E+00  0.00000000E+00
  0.00000000E+00  0.00000000E+00  0.00000000E+00
  0.00000000E+00  0.00000000E+00  0.00000000E+00
  0.00000000E+00  0.00000000E+00  0.00000000E+00
  0.00000000E+00  0.00000000E+00  0.00000000E+00
  0.00000000E+00  0.00000000E+00  0.00000000E+00
  0.00000000E+00  0.00000000E+00  0.00000000E+00
  0.00000000E+00  0.00000000E+00  0.00000000E+00
  0.00000000E+00  0.00000000E+00  0.00000000E+00
  0.00000000E+00  0.00000000E+00  0.00000000E+00
  0.00000000E+00  0.00000000E+00  0.00000000E+00
  0.00000000E+00  0.00000000E+00  0.00000000E+00
  0.00000000E+00  0.00000000E+00  0.00000000E+00
  0.00000000E+00  0.00000000E+00  0.00000000E+00
  0.00000000E+00  0.00000000E+00  0.00000000E+00
  0.00000000E+00  0.00000000E+00  0.00000000E+00
  0.00000000E+00  0.00000000E+00  0.00000000E+00
  0.00000000E+00  0.00000000E+00  0.00000000E+00
  0.00000000E+00  0.00000000E+00  0.00000000E+00
  0.00000000E+00  0.00000000E+00  0.00000000E+00
  0.00000000E+00  0.00000000E+00  0.00000000E+00
  0.00000000E+00  0.00000000E+00  0.00000000E+00
  0.00000000E+00  0.00000000E+00  0.00000000E+00
  0.00000000E+00  0.00000000E+00  0.00000000E+00
  0.00000000E+00  0.00000000E+00  0.00000000E+00
  0.00000000E+00  0.00000000E+00  0.00000000E+00
  0.00000000E+00  0.00000000E+00  0.00000000E+00
  0.00000000E+00  0.00000000E+00  0.00000000E+00
  0.00000000E+00  0.00000000E+00  0.00000000E+00
  0.00000000E+00  0.00000000E+00  0.00000000E+00
  0.00000000E+00  0.00000000E+00  0.00000000E+00
  0.00000000E+00  0.00000000E+00  0.00000000E+00
  0.00000000E+00  0.00000000E+00  0.00000000E+00
  0.00000000E+00  0.00000000E+00  0.00000000E+00
  0.00000000E+00  0.00000000E+00  0.00000000E+00
  0.00000000E+00  0.00000000E+00  0.00000000E+00
  0.00000000E+00  0.00000000E+00  0.00000000E+00
  0.00000000E+00  0.00000000E+00  0.00000000E+00
  0.00000000E+00  0.00000000E+00  0.00000000E+00
  0.00000000E+00  0.00000000E+00  0.00000000E+00
  0.00000000E+00  0.00000000E+00  0.00000000E+00
  0.00000000E+00  0.00000000E+00  0.00000000E+00
  0.00000000E+00  0.00000000E+00  0.00000000E+00
  0.00000000E+00  0.00000000E+00  0.00000000E+00
  0.00000000E+00  0.00000000E+00  0.00000000E+00
  0.00000000E+00  0.00000000E+00  0.00000000E+00
  0.00000000E+00  0.00000000E+00  0.00000000E+00
  0.00000000E+00  0.00000000E+00  0.00000000E+00
  0.00000000E+00  0.00000000E+00  0.00000000E+00
  0.00000000E+00  0.00000000E+00  0.00000000E+00
  0.00000000E+00  0.00000000E+00  0.00000000E+00
  0.00000000E+00  0.00000000E+00  0.00000000E+00
  0.00000000E+00  0.00000000E+00  0.00000000E+00
  0.00000000E+00  0.00000000E+00  0.00000000E+00
  0.00000000E+00  0.00000000E+00  0.00000000E+00
  0.00000000E+00  0.00000000E+00  0.00000000E+00
  0.00000000E+00  0.00000000E+00  0.00000000E+00
  0.00000000E+00  0.00000000E+00  0.00000000E+00
  0.00000000E+00  0.00000000E+00  0.00000000E+00
  0.00000000E+00  0.00000000E+00  0.00000000E+00
  0.00000000E+00  0.00000000E+00  0.00000000E+00
  0.00000000E+00  0.00000000E+00  0.00000000E+00
  0.00000000E+00  0.00000000E+00  0.00000000E+00
  0.00000000E+00  0.00000000E+00  0.00000000E+00
  0.00000000E+00  0.00000000E+00  0.00000000E+00
  0.00000000E+00  0.00000000E+00  0.00000000E+00
  0.00000000E+00  0.00000000E+00  0.00000000E+00
  0.00000000E+00  0.00000000E+00  0.00000000E+00
  0.00000000E+00  0.00000000E+00  0.00000000E+00
  0.00000000E+00  0.00000000E+00  0.00000000E+00
  0.00000000E+00  0.00000000E+00  0.00000000E+00
  0.00000000E+00  0.00000000E+00  0.00000000E+00
  0.00000000E+00  0.00000000E+00  0.00000000E+00
  0.00000000E+00  0.00000000E+00  0.00000000E+00
  0.00000000E+00  0.00000000E+00  0.00000000E+00
  0.00000000E+00  0.00000000E+00  0.00000000E+00
  0.00000000E+00  0.00000000E+00  0.00000000E+00
  0.00000000E+00  0.00000000E+00  0.00000000E+00
  0.00000000E+00  0.00000000E+00  0.00000000E+00
  0.00000000E+00  0.00000000E+00  0.00000000E+00
  0.00000000E+00  0.00000000E+00  0.00000000E+00
  0.00000000E+00  0.00000000E+00  0.00000000E+00
  0.00000000E+00  0.00000000E+00  0.00000000E+00
  0.00000000E+00  0.00000000E+00  0.00000000E+00
  0.00000000E+00  0.00000000E+00  0.00000000E+00
  0.00000000E+00  0.00000000E+00  0.00000000E+00
  0.00000000E+00  0.00000000E+00  0.00000000E+00
  0.00000000E+00  0.00000000E+00  0.00000000E+00
  0.00000000E+00  0.00000000E+00  0.00000000E+00
  0.00000000E+00  0.00000000E+00  0.00000000E+00
  0.00000000E+00  0.00000000E+00  0.00000000E+00
  0.00000000E+00  0.00000000E+00  0.00000000E+00
  0.00000000E+00  0.00000000E+00  0.00000000E+00
  0.00000000E+00  0.00000000E+00  0.00000000E+00
  0.00000000E+00  0.00000000E+00  0.00000000E+00
  0.00000000E+00  0.00000000E+00  0.00000000E+00
  0.00000000E+00  0.00000000E+00  0.00000000E+00
  0.00000000E+00  0.00000000E+00  0.00000000E+00
  0.00000000E+00  0.00000000E+00  0.00000000E+00
  0.00000000E+00  0.00000000E+00  0.00000000E+00
  0.00000000E+00  0.00000000E+00  0.00000000E+00
  0.00000000E+00  0.00000000E+00  0.00000000E+00
  0.00000000E+00  0.00000000E+00  0.00000000E+00
  0.00000000E+00  0.00000000E+00  0.00000000E+00
  0.00000000E+00  0.00000000E+00  0.00000000E+00
  0.00000000E+00  0.00000000E+00  0.00000000E+00
  0.00000000E+00  0.00000000E+00  0.00000000E+00
  0.00000000E+00  0.00000000E+00  0.00000000E+00
  0.00000000E+00  0.00000000E+00  0.00000000E+00
  0.00000000E+00  0.00000000E+00  0.00000000E+00
  0.00000000E+00  0.00000000E+00  0.00000000E+00
  0.00000000E+00  0.00000000E+00  0.00000000E+00
  0.00000000E+00  0.00000000E+00  0.00000000E+00
  0.00000000E+00  0.00000000E+00  0.00000000E+00
  0.00000000E+00  0.00000000E+00  0.00000000E+00
  0.00000000E+00  0.00000000E+00  0.00000000E+00
  0.00000000E+00  0.00000000E+00  0.00000000E+00
  0.00000000E+00  0.00000000E+00  0.00000000E+00
  0.00000000E+00  0.00000000E+00  0.00000000E+00
  0.00000000E+00  0.00000000E+00  0.00000000E+00
  0.00000000E+00  0.00000000E+00  0.00000000E+00
  0.00000000E+00  0.00000000E+00  0.00000000E+00
  0.00000000E+00  0.00000000E+00  0.00000000E+00
  0.00000000E+00  0.00000000E+00  0.00000000E+00
  0.00000000E+00  0.00000000E+00  0.00000000E+00
  0.00000000E+00  0.00000000E+00  0.00000000E+00
  0.00000000E+00  0.00000000E+00  0.00000000E+00
  0.00000000E+00  0.00000000E+00  0.00000000E+00
  0.00000000E+00  0.00000000E+00  0.00000000E+00
  0.00000000E+00  0.00000000E+00  0.00000000E+00
  0.00000000E+00  0.00000000E+00  0.00000000E+00
  0.00000000E+00  0.00000000E+00  0.00000000E+00
  0.00000000E+00  0.00000000E+00  0.00000000E+00
  0.00000000E+00  0.00000000E+00  0.00000000E+00
  0.00000000E+00  0.00000000E+00  0.00000000E+00
  0.00000000E+00  0.00000000E+00  0.00000000E+00
  0.00000000E+00  0.00000000E+00  0.00000000E+00
  0.00000000E+00  0.00000000E+00  0.00000000E+00
  0.00000000E+00  0.00000000E+00  0.00000000E+00
  0.00000000E+00  0.00000000E+00  0.00000000E+00
  0.00000000E+00  0.00000000E+00  0.00000000E+00
  0.00000000E+00  0.00000000E+00  0.00000000E+00
  0.00000000E+00  0.00000000E+00  0.00000000E+00
  0.00000000E+00  0.00000000E+00  0.00000000E+00
  0.00000000E+00  0.00000000E+00  0.00000000E+00
  0.00000000E+00  0.00000000E+00  0.00000000E+00
  0.00000000E+00  0.00000000E+00  0.00000000E+00
  0.00000000E+00  0.00000000E+00  0.00000000E+00
  0.00000000E+00  0.00000000E+00  0.00000000E+00
  0.00000000E+00  0.00000000E+00  0.00000000E+00
  0.00000000E+00  0.00000000E+00  0.00000000E+00
  0.00000000E+00  0.00000000E+00  0.00000000E+00
