O  C  H  Co Li                          
   1.00000000000000     
    25.7315207611024555   -0.3988751555839387   -0.2170404290791784
    12.5164509821255336   21.8955645034544339   -0.1944925365182638
    -0.0574344288426891   -0.0256908475472274    6.6676791676283953
   O    C    H    Co   Li
    60    75    18    18     4
Direct
  0.0597411687269638  0.2288553580071012  0.2983720955895309
  0.0329841735942064  0.2683010278335963  0.9029219532436409
  0.1087901208860507  0.2432854128106465  0.7004326758986938
  0.3909854448466478  0.5816780483968652  0.6503011173697404
  0.6978168258603373  0.0718053037312829  0.3570462143824606
  0.6943950077163443  0.0342000382617761  0.9511673477740573
  0.6374537591950299  0.1053595182008303  0.7349865522892931
  0.0299667451829383  0.3732745536430344  0.6294474917503522
  0.2491261251481877  0.6921935788439318  0.3137763650891696
  0.2883307228142437  0.6811611636211011  0.9222281570696376
  0.2596663576143020  0.6323287885951049  0.7072099607668841
  0.6014048395912280  0.0243496944754696  0.6727618657073061
  0.3140568181457399  0.0422736649396858  0.3975981773223904
  0.2409172396204822  0.0698677360507550  0.6141708289591035
  0.6500653432732502  0.4360554521540888  0.7663056489298293
  0.5777738970093996  0.4355213691179396  0.9481245429378482
  0.2873569756801270  0.0837188746997545  0.0156837544923394
  0.6224409413904524  0.3321355219682547  0.3986484508395530
  0.6352250981195451  0.2672031735183278  0.6420944614574553
  0.9868112444058715  0.6262323710785590  0.7162194875668650
  0.0304276545047435  0.5498364565699504  0.9272054890704861
  0.5691587433187716  0.3032002208646428  0.0379623744560987
  0.0490592014044060  0.6383254879205055  0.3874387334055760
  0.0799521313376898  0.6846994498961705  0.6037177828834993
  0.3869788991132020  0.9937845724337036  0.7299735497410006
  0.4210930761303193  0.0344644886173164  0.9579376528296718
  0.0884917022407597  0.6259862743828556 -0.0033421875750253
  0.7120505698765686  0.9606733372641296  0.6182041417416811
  0.7864162140150054  0.9369064577197366  0.4086720675428079
  0.3591995159798967  0.6200742873266963  0.2525063112047189
  0.4319778191775421  0.5978951524483478  0.0387358542425351
  0.7417767253990540  0.9195029733419570  0.0039563608020157
  0.3492486183035067  0.6928572142673123  0.5931902478715023
  0.3100206906660538  0.7685960409963248  0.3791647835553814
  0.0183277271491376  0.3430916428238691  0.2380981445637730
  0.9768956462652367  0.4165117327745940  0.0126685819361268
  0.3633120920290969  0.7192027604626161  0.9844991608949869
  0.9634036124442007  0.3277440919624931  0.5700388637514852
  0.9268603809113426  0.2886904035747886  0.3456059535171637
  0.6397206351708103  0.0137624814122324  0.2855197967976486
  0.6078997945651693  0.9689970121720475  0.0664027422370421
  0.9217002694450543  0.3467276071870749  0.9514760703832960
  0.9496865842629280  0.7417342694472238  0.6676988389305106
  0.9771444690948837  0.6991185137645326  0.0533937118606223
  0.9034399643084922  0.7336288499827456  0.2701870001817623
  0.6165913931948745  0.4388890321857148  0.3479511373001717
  0.3239531414417952  0.9392199111122309  0.6819130716039913
  0.3393699857268777  0.9658721662224358  0.0623215885377613
  0.3770789204022540  0.8922791863516720  0.2865325201667840
  0.9747380983258802  0.5977141732356630  0.3220682101108882
  0.7357384076032187  0.3185944510403491  0.6277484896593976
  0.7052928317898312  0.3228658835265511  0.0559983507921522
  0.7415296463708445  0.3733892012283378  0.2292281498929203
  0.4285353656961381  0.9768550632461881  0.3516333244491900
  0.7196033984930986  0.4625310402560920  0.5085921500909117
  0.6409904873817934  0.5567217684926260  0.5177443401958701
  0.6941607241134413  0.5204206903757780  0.2293034992114402
  0.7767228546171865  0.1545871690325258  0.5463290111522879
  0.7449201423567405  0.2126490694542514  0.8232395154830496
  0.7448875246435779  0.1220254331370809  0.8021606434704713
  0.1143461983313110  0.1943376441016539  0.2235165752419472
  0.1582878507701559  0.1523812190169332  0.3515582424513640
  0.0889476470307752  0.2388411871124040  0.8695417371481260
  0.1308424347636626  0.1981078186906493  0.0226476642109423
  0.4452047309021613  0.5505276619893207  0.5674119194746445
  0.4921767616291988  0.5137778459346637  0.6956693710246165
  0.6627159860397417  0.1271944122715616  0.2706256921557017
  0.6490934956234978  0.1777290515102809  0.3929230496478678
  0.6589566973509905  0.0899774446357319  0.9109735417840128
  0.6427462588177221  0.1372146884782484  0.0673815555029213
  0.0157651291676284  0.4269831839820973  0.5455109414400212
  0.0177428830791308  0.4708742700603416  0.6704582644670750
  0.2109374478059838  0.6759972981079655  0.2304914949030681
  0.1672154117980081  0.6765155346333563  0.3531768630169548
  0.2561016953640294  0.6564486512107752  0.8792552041785231
  0.2128949456521569  0.6574862081761396  0.0258838535861841
  0.5591158615441643  0.0140647843882142  0.5880430011999829
  0.5131087102641140  0.0196286160422706  0.7099709016906862
  0.2587817519302085  0.0738171122889523  0.4418577939421902
  0.2167081870477682  0.1156403591716909  0.2914634135528593
  0.5961979546223433  0.4477407679213409  0.7894863624895230
  0.5503341627230024  0.4799722855427828  0.6320325442041640
  0.2330778895881245  0.1192286722015425  0.0905407772539398
  0.1893451549858715  0.1612735414425639  0.9628693869146726
  0.6244520606623333  0.2833779314687890  0.4585417217493202
  0.6206599316500494  0.2371342161795969  0.3227589055371547
  0.0076639772437524  0.5696054293857559  0.7561174953917591
  0.0033377458542239  0.5285719781858165  0.6048144561227324
  0.5982698117117926  0.2451170809318423  0.1256902363933466
  0.6080743908422259  0.1968507225739440  0.0029568747861532
  0.0830082124786000  0.6614849966234451  0.4314672175947734
  0.1262248367885563  0.6590568765539614  0.2840967454107048
  0.4234703758418000  0.0126815773788831  0.7835046866497676
  0.4691799333879257  0.0065903304838955  0.6393170685194972
  0.1277186285131121  0.6408560373541125  0.0791710983535527
  0.1719737839159702  0.6398460864847076  0.9568958271041813
  0.7669199682889357  0.9287227075729546  0.5737039530427284
  0.8071292414755528  0.8804749017219970  0.7124715968601110
  0.4148025939919686  0.5917563325407944  0.2102715940335201
  0.4586991413289050  0.5521726404596917  0.3610110407831125
  0.7921231389591414  0.8782316278952059  0.9168065987828329
  0.8322377512068999  0.8300849330766606  0.0336553104766295
  0.3313996013337566  0.7491833734280122  0.5519109947299251
  0.3383840423552832  0.7885059605470619  0.7012644183407150
  0.9978443562352497  0.3987052730013232  0.1885423319276333
  0.9996673285845883  0.4420049591577969  0.3383785866831286
  0.3552125870966641  0.7715883506905343  0.9051099853594650
  0.3618375195708517  0.8128833604800515  0.0309874875675111
  0.9248264487031945  0.3110481536888231  0.5195272268994829
  0.8780811158999484  0.3200136978926310  0.6610294111911705
  0.6045464952339223  0.9917177318564792  0.2393706200337150
  0.5598930446111449  0.9962975565497941  0.3837452790821586
  0.8792916087285083  0.3369538854520832  0.8651255837297301
  0.8335893121429266  0.3423106455324604  0.9876224644608895
  0.9005266602240818  0.7854358707978571  0.7530629129641401
  0.8607722270106277  0.8348735768663478  0.6369573946854138
  0.9231844125489997  0.7365886188608750  0.1002112535716014
  0.8854934854181956  0.7843832320286934  0.9580580032856822
  0.5630877258728091  0.4778115039529358  0.4248319777695161
  0.5170012233907608  0.5158688696270598  0.2963911919158195
  0.3337037088170698  0.8864330190200271  0.7601059385707702
  0.3277030332964840  0.8450528375809796  0.6342679648686174
  0.3568001372084338  0.9105714171088712  0.1117953706341559
  0.3506575370111022  0.8697090110120868  0.9643002661317541
  0.9870195720083964  0.5441234047328011  0.3994511377917593
  0.9853184333523276  0.4999169245714274  0.2728581709852261
  0.7826803134368155  0.3212524455172228  0.7114813309929952
  0.8308746126152233  0.3116796888429970  0.5913661906185222
  0.7413593015777491  0.3439266521347068  0.0710751389680650
  0.7860401883847018  0.3347942929048691  0.9184583247716325
  0.4699634469139031  0.9883281066920624  0.4345945666174658
  0.5159260344281067  0.9832338604198950  0.3128643582848820
  0.6815303258854256  0.5177305115311548  0.4107793064156393
  0.7551032184246371  0.1620375211861494  0.7282757506339594
  0.6103802729335003  0.3197423399563259  0.0035666148443768
  0.1464209596776810  0.1487714427316343  0.5048425619933347
  0.4822890705540047  0.5132489177575192  0.8533006136374958
  0.6635993412049456  0.1704005667082456  0.5493257514965428
  0.0304779882144178  0.4593084255761764  0.8269408161280813
  0.1656189403458078  0.6905877114009449  0.5092123645261506
  0.5121784735230260  0.0335964202917132  0.8659833646691517
  0.2012925627577822  0.1643634477617913  0.8093119771145844
  0.5926829724251477  0.2054313241053016  0.8475898465914181
  0.1737069228722986  0.6257414295794059  0.8007909747980690
  0.8211008673820742  0.8279906694848204  0.1892541901785818
  0.3751083997207610  0.8006615755069395  0.1868761280649633
  0.8378785640300591  0.3496567683459200  0.1472859774085045
  0.8718725670077733  0.8369212039260764  0.4811023281906851
  0.5268824051954571  0.5168276851714857  0.1390569638317940
  0.3148896482105834  0.8570766848091881  0.4780611050678138
  0.9730586396430730  0.5112758780014601  0.1158518991620624
  0.8305411383722610  0.2994553670341019  0.4337306244414057
  0.5166228627178541  0.9696000476272314  0.1566122321455436
  0.3131833239337617  0.6381563072310378  0.5087342107210218
  0.0531363874822569  0.2932440515641594  0.4896544838998961
  0.6469221173592101  0.0497251508730956  0.5228836067519556
  0.0245733063715613  0.6788915338996945  0.8011694424123372
  0.3652624538428501  0.0270356498603471  0.1535702454264937
  0.3032024552326218  0.0182638071383810  0.8182285136414109
  0.6149628957328322  0.3758187445879634  0.1532271845336170
  0.6713841349431222  0.2926555217651040  0.8455366507755926
  0.0274090070541482  0.6105678985027314  0.1322365637069279
  0.6650815067333313  0.9723605527313793  0.8734925315338137
  0.9840463060032736  0.2871290732749729  0.1449817243167913
  0.3806608860832664  0.6490037991602744  0.8274636843480695
  0.7266396468995151  0.9867412581568722  0.2021264082912575
  0.9744374698635078  0.3639238524255943  0.8017116535968059
  0.3070981366091358  0.7105712581192514  0.1807955927609507
  0.6918070852642307  0.4001672306348514  0.4855433095493765
  0.9610843049916321  0.6752474262940358  0.4669608649110070
  0.3717061503217388  0.9552569940256629  0.4847582488903285
  0.7564729408524046  0.4413213525472167  0.2488315837749141
  0.6678788625438266  0.5043529562467451  0.7427938349923081
  0.7571928734681599  0.0873319882557606  0.5346311168609069
  0.7651846347269119  0.2341149194541184  0.5579281262283077
 
  0.00000000E+00  0.00000000E+00  0.00000000E+00
  0.00000000E+00  0.00000000E+00  0.00000000E+00
  0.00000000E+00  0.00000000E+00  0.00000000E+00
  0.00000000E+00  0.00000000E+00  0.00000000E+00
  0.00000000E+00  0.00000000E+00  0.00000000E+00
  0.00000000E+00  0.00000000E+00  0.00000000E+00
  0.00000000E+00  0.00000000E+00  0.00000000E+00
  0.00000000E+00  0.00000000E+00  0.00000000E+00
  0.00000000E+00  0.00000000E+00  0.00000000E+00
  0.00000000E+00  0.00000000E+00  0.00000000E+00
  0.00000000E+00  0.00000000E+00  0.00000000E+00
  0.00000000E+00  0.00000000E+00  0.00000000E+00
  0.00000000E+00  0.00000000E+00  0.00000000E+00
  0.00000000E+00  0.00000000E+00  0.00000000E+00
  0.00000000E+00  0.00000000E+00  0.00000000E+00
  0.00000000E+00  0.00000000E+00  0.00000000E+00
  0.00000000E+00  0.00000000E+00  0.00000000E+00
  0.00000000E+00  0.00000000E+00  0.00000000E+00
  0.00000000E+00  0.00000000E+00  0.00000000E+00
  0.00000000E+00  0.00000000E+00  0.00000000E+00
  0.00000000E+00  0.00000000E+00  0.00000000E+00
  0.00000000E+00  0.00000000E+00  0.00000000E+00
  0.00000000E+00  0.00000000E+00  0.00000000E+00
  0.00000000E+00  0.00000000E+00  0.00000000E+00
  0.00000000E+00  0.00000000E+00  0.00000000E+00
  0.00000000E+00  0.00000000E+00  0.00000000E+00
  0.00000000E+00  0.00000000E+00  0.00000000E+00
  0.00000000E+00  0.00000000E+00  0.00000000E+00
  0.00000000E+00  0.00000000E+00  0.00000000E+00
  0.00000000E+00  0.00000000E+00  0.00000000E+00
  0.00000000E+00  0.00000000E+00  0.00000000E+00
  0.00000000E+00  0.00000000E+00  0.00000000E+00
  0.00000000E+00  0.00000000E+00  0.00000000E+00
  0.00000000E+00  0.00000000E+00  0.00000000E+00
  0.00000000E+00  0.00000000E+00  0.00000000E+00
  0.00000000E+00  0.00000000E+00  0.00000000E+00
  0.00000000E+00  0.00000000E+00  0.00000000E+00
  0.00000000E+00  0.00000000E+00  0.00000000E+00
  0.00000000E+00  0.00000000E+00  0.00000000E+00
  0.00000000E+00  0.00000000E+00  0.00000000E+00
  0.00000000E+00  0.00000000E+00  0.00000000E+00
  0.00000000E+00  0.00000000E+00  0.00000000E+00
  0.00000000E+00  0.00000000E+00  0.00000000E+00
  0.00000000E+00  0.00000000E+00  0.00000000E+00
  0.00000000E+00  0.00000000E+00  0.00000000E+00
  0.00000000E+00  0.00000000E+00  0.00000000E+00
  0.00000000E+00  0.00000000E+00  0.00000000E+00
  0.00000000E+00  0.00000000E+00  0.00000000E+00
  0.00000000E+00  0.00000000E+00  0.00000000E+00
  0.00000000E+00  0.00000000E+00  0.00000000E+00
  0.00000000E+00  0.00000000E+00  0.00000000E+00
  0.00000000E+00  0.00000000E+00  0.00000000E+00
  0.00000000E+00  0.00000000E+00  0.00000000E+00
  0.00000000E+00  0.00000000E+00  0.00000000E+00
  0.00000000E+00  0.00000000E+00  0.00000000E+00
  0.00000000E+00  0.00000000E+00  0.00000000E+00
  0.00000000E+00  0.00000000E+00  0.00000000E+00
  0.00000000E+00  0.00000000E+00  0.00000000E+00
  0.00000000E+00  0.00000000E+00  0.00000000E+00
  0.00000000E+00  0.00000000E+00  0.00000000E+00
  0.00000000E+00  0.00000000E+00  0.00000000E+00
  0.00000000E+00  0.00000000E+00  0.00000000E+00
  0.00000000E+00  0.00000000E+00  0.00000000E+00
  0.00000000E+00  0.00000000E+00  0.00000000E+00
  0.00000000E+00  0.00000000E+00  0.00000000E+00
  0.00000000E+00  0.00000000E+00  0.00000000E+00
  0.00000000E+00  0.00000000E+00  0.00000000E+00
  0.00000000E+00  0.00000000E+00  0.00000000E+00
  0.00000000E+00  0.00000000E+00  0.00000000E+00
  0.00000000E+00  0.00000000E+00  0.00000000E+00
  0.00000000E+00  0.00000000E+00  0.00000000E+00
  0.00000000E+00  0.00000000E+00  0.00000000E+00
  0.00000000E+00  0.00000000E+00  0.00000000E+00
  0.00000000E+00  0.00000000E+00  0.00000000E+00
  0.00000000E+00  0.00000000E+00  0.00000000E+00
  0.00000000E+00  0.00000000E+00  0.00000000E+00
  0.00000000E+00  0.00000000E+00  0.00000000E+00
  0.00000000E+00  0.00000000E+00  0.00000000E+00
  0.00000000E+00  0.00000000E+00  0.00000000E+00
  0.00000000E+00  0.00000000E+00  0.00000000E+00
  0.00000000E+00  0.00000000E+00  0.00000000E+00
  0.00000000E+00  0.00000000E+00  0.00000000E+00
  0.00000000E+00  0.00000000E+00  0.00000000E+00
  0.00000000E+00  0.00000000E+00  0.00000000E+00
  0.00000000E+00  0.00000000E+00  0.00000000E+00
  0.00000000E+00  0.00000000E+00  0.00000000E+00
  0.00000000E+00  0.00000000E+00  0.00000000E+00
  0.00000000E+00  0.00000000E+00  0.00000000E+00
  0.00000000E+00  0.00000000E+00  0.00000000E+00
  0.00000000E+00  0.00000000E+00  0.00000000E+00
  0.00000000E+00  0.00000000E+00  0.00000000E+00
  0.00000000E+00  0.00000000E+00  0.00000000E+00
  0.00000000E+00  0.00000000E+00  0.00000000E+00
  0.00000000E+00  0.00000000E+00  0.00000000E+00
  0.00000000E+00  0.00000000E+00  0.00000000E+00
  0.00000000E+00  0.00000000E+00  0.00000000E+00
  0.00000000E+00  0.00000000E+00  0.00000000E+00
  0.00000000E+00  0.00000000E+00  0.00000000E+00
  0.00000000E+00  0.00000000E+00  0.00000000E+00
  0.00000000E+00  0.00000000E+00  0.00000000E+00
  0.00000000E+00  0.00000000E+00  0.00000000E+00
  0.00000000E+00  0.00000000E+00  0.00000000E+00
  0.00000000E+00  0.00000000E+00  0.00000000E+00
  0.00000000E+00  0.00000000E+00  0.00000000E+00
  0.00000000E+00  0.00000000E+00  0.00000000E+00
  0.00000000E+00  0.00000000E+00  0.00000000E+00
  0.00000000E+00  0.00000000E+00  0.00000000E+00
  0.00000000E+00  0.00000000E+00  0.00000000E+00
  0.00000000E+00  0.00000000E+00  0.00000000E+00
  0.00000000E+00  0.00000000E+00  0.00000000E+00
  0.00000000E+00  0.00000000E+00  0.00000000E+00
  0.00000000E+00  0.00000000E+00  0.00000000E+00
  0.00000000E+00  0.00000000E+00  0.00000000E+00
  0.00000000E+00  0.00000000E+00  0.00000000E+00
  0.00000000E+00  0.00000000E+00  0.00000000E+00
  0.00000000E+00  0.00000000E+00  0.00000000E+00
  0.00000000E+00  0.00000000E+00  0.00000000E+00
  0.00000000E+00  0.00000000E+00  0.00000000E+00
  0.00000000E+00  0.00000000E+00  0.00000000E+00
  0.00000000E+00  0.00000000E+00  0.00000000E+00
  0.00000000E+00  0.00000000E+00  0.00000000E+00
  0.00000000E+00  0.00000000E+00  0.00000000E+00
  0.00000000E+00  0.00000000E+00  0.00000000E+00
  0.00000000E+00  0.00000000E+00  0.00000000E+00
  0.00000000E+00  0.00000000E+00  0.00000000E+00
  0.00000000E+00  0.00000000E+00  0.00000000E+00
  0.00000000E+00  0.00000000E+00  0.00000000E+00
  0.00000000E+00  0.00000000E+00  0.00000000E+00
  0.00000000E+00  0.00000000E+00  0.00000000E+00
  0.00000000E+00  0.00000000E+00  0.00000000E+00
  0.00000000E+00  0.00000000E+00  0.00000000E+00
  0.00000000E+00  0.00000000E+00  0.00000000E+00
  0.00000000E+00  0.00000000E+00  0.00000000E+00
  0.00000000E+00  0.00000000E+00  0.00000000E+00
  0.00000000E+00  0.00000000E+00  0.00000000E+00
  0.00000000E+00  0.00000000E+00  0.00000000E+00
  0.00000000E+00  0.00000000E+00  0.00000000E+00
  0.00000000E+00  0.00000000E+00  0.00000000E+00
  0.00000000E+00  0.00000000E+00  0.00000000E+00
  0.00000000E+00  0.00000000E+00  0.00000000E+00
  0.00000000E+00  0.00000000E+00  0.00000000E+00
  0.00000000E+00  0.00000000E+00  0.00000000E+00
  0.00000000E+00  0.00000000E+00  0.00000000E+00
  0.00000000E+00  0.00000000E+00  0.00000000E+00
  0.00000000E+00  0.00000000E+00  0.00000000E+00
  0.00000000E+00  0.00000000E+00  0.00000000E+00
  0.00000000E+00  0.00000000E+00  0.00000000E+00
  0.00000000E+00  0.00000000E+00  0.00000000E+00
  0.00000000E+00  0.00000000E+00  0.00000000E+00
  0.00000000E+00  0.00000000E+00  0.00000000E+00
  0.00000000E+00  0.00000000E+00  0.00000000E+00
  0.00000000E+00  0.00000000E+00  0.00000000E+00
  0.00000000E+00  0.00000000E+00  0.00000000E+00
  0.00000000E+00  0.00000000E+00  0.00000000E+00
  0.00000000E+00  0.00000000E+00  0.00000000E+00
  0.00000000E+00  0.00000000E+00  0.00000000E+00
  0.00000000E+00  0.00000000E+00  0.00000000E+00
  0.00000000E+00  0.00000000E+00  0.00000000E+00
  0.00000000E+00  0.00000000E+00  0.00000000E+00
  0.00000000E+00  0.00000000E+00  0.00000000E+00
  0.00000000E+00  0.00000000E+00  0.00000000E+00
  0.00000000E+00  0.00000000E+00  0.00000000E+00
  0.00000000E+00  0.00000000E+00  0.00000000E+00
  0.00000000E+00  0.00000000E+00  0.00000000E+00
  0.00000000E+00  0.00000000E+00  0.00000000E+00
  0.00000000E+00  0.00000000E+00  0.00000000E+00
  0.00000000E+00  0.00000000E+00  0.00000000E+00
  0.00000000E+00  0.00000000E+00  0.00000000E+00
  0.00000000E+00  0.00000000E+00  0.00000000E+00
  0.00000000E+00  0.00000000E+00  0.00000000E+00
  0.00000000E+00  0.00000000E+00  0.00000000E+00
  0.00000000E+00  0.00000000E+00  0.00000000E+00
  0.00000000E+00  0.00000000E+00  0.00000000E+00
  0.00000000E+00  0.00000000E+00  0.00000000E+00
  0.00000000E+00  0.00000000E+00  0.00000000E+00
