O  C  H  Co Li                          
   1.00000000000000     
    25.7720407428440410   -0.3325317586711502   -0.2266314995518140
    12.5941760009776331   21.9893571707057411   -0.1861923346828333
    -0.0599452920843110   -0.0219645785263266    6.6762397246382141
   O    C    H    Co   Li
    60    75    18    18     4
Direct
  0.0625433168828302  0.2337279836099706  0.3030797783395641
  0.0352391160468045  0.2746314140293686  0.9167281361438628
  0.1097191165267683  0.2486172661747702  0.7068855552692290
  0.3910760822487219  0.5826941720797738  0.6503065256974581
  0.6971792854126949  0.0715426592307711  0.3557368691988331
  0.6940559174159588  0.0339462232622795  0.9508137399667368
  0.6368627278502673  0.1046837377211304  0.7338416133100771
  0.0227254687550097  0.3785706993585423  0.6357685207007086
  0.2493724862810360  0.6944880607495120  0.3147187291222063
  0.2885349230827842  0.6832808981192889  0.9225925561621141
  0.2595340014664724  0.6349509205252362  0.7085249195388867
  0.6018972893036135  0.0233918453081162  0.6713254834436897
  0.3137252475894910  0.0386775117724561  0.3881521594298597
  0.2418422859254715  0.0700785439038479  0.6116166437563644
  0.6500859761090495  0.4338238944423573  0.7631360254385832
  0.5776201572475015  0.4339279715590464  0.9452321715071567
  0.2876105836295669  0.0823553061714900  0.0129462849050370
  0.6211659375136095  0.3305204697659570  0.3960913394245765
  0.6323969319731443  0.2665387844688935  0.6402998945916730
  0.9920577526604853  0.6257798550578647  0.7127125201782114
  0.0316566198354536  0.5504972216165622  0.9287827560060862
  0.5672352232064682  0.3022937238752998  0.0368081911261774
  0.0489583360837013  0.6420142520174852  0.3852716865966637
  0.0807304830187903  0.6865616354965697  0.6045925192465125
  0.3857725274772516  0.9964519126427710  0.7216110370893392
  0.4217821629999778  0.0335729666847363  0.9547208994015337
  0.0892004810427963  0.6282824710560838 -0.0012719259947236
  0.7124161875904672  0.9606915962860300  0.6185580739956639
  0.7867140692819584  0.9369349548092910  0.4093533776066735
  0.3590623455198454  0.6210432270069345  0.2531326406060569
  0.4318767683284613  0.5979381208993259  0.0391264449946110
  0.7423040429931665  0.9199038428095363  0.0041905118480462
  0.3500805605388173  0.6933103304187540  0.5928653181376298
  0.3117261999388528  0.7687502112536799  0.3782324883396957
  0.0094848329572343  0.3489432166737201  0.2536530076986908
  0.9700098818320159  0.4202084130602625  0.0201695448540499
  0.3644542432930548  0.7193661690221075  0.9838697142036590
  0.9643824106206020  0.3237726693059622  0.5845114349391022
  0.9291958895966299  0.2851378343960583  0.3542451842897323
  0.6400106576014343  0.0132015600149168  0.2848234984594715
  0.6084166678741365  0.9686541682903693  0.0654586299609882
  0.9213850669011026  0.3428149808598946  0.9590382900112562
  0.9500307040308189  0.7419927569607149  0.6693370933535939
  0.9764052161339913  0.6975749295586637  0.0491425562010657
  0.9040990322879838  0.7345650673421478  0.2714458591689151
  0.6158031235458501  0.4364383881583440  0.3460946959105812
  0.3260632045999635  0.9381066430661918  0.6796407773758036
  0.3441928726654453  0.9635768981687920  0.0539896982442344
  0.3788887395437469  0.8914993019028414  0.2837522463351017
  0.9766772832903757  0.5987046882518761  0.3241735154033331
  0.7361165306772228  0.3163611468269149  0.6243218343482531
  0.7037440971273005  0.3206264065813573  0.0512336797076887
  0.7410256985051454  0.3692864009138954  0.2269564465106445
  0.4290839210918542  0.9769150447667078  0.3492469445208452
  0.7205656430430553  0.4581421708618445  0.5029639106564034
  0.6431090871905999  0.5528837811514618  0.5094255837962500
  0.6965757542570574  0.5152729589864127  0.2226409934726303
  0.7750900470104005  0.1537966724180921  0.5418630023282219
  0.7428929513076461  0.2118422621382267  0.8174892813888226
  0.7440230645859965  0.1211806573799713  0.7984012309391568
  0.1167431553719289  0.1982455983678014  0.2273985260920321
  0.1602527087309277  0.1554447033722329  0.3539408017640627
  0.0907094681765287  0.2440494460346599  0.8771068654926197
  0.1328934254843026  0.2017318552808124  0.0262545773387910
  0.4451276723809727  0.5508001860327519  0.5670917788908122
  0.4921381806606877  0.5138296124839775  0.6949864613859748
  0.6616782931737708  0.1266700945746596  0.2690730974713009
  0.6474814551947420  0.1770862640025933  0.3913626888205206
  0.6583970702801677  0.0894765269919377  0.9097926340504907
  0.6418822845950094  0.1366472892207417  0.0658192535196197
  0.0095719214592003  0.4316492608829191  0.5514512878674438
  0.0136196622350244  0.4743117590084177  0.6752627308449515
  0.2111603336275356  0.6785473564811516  0.2313094363141713
  0.1674544761668862  0.6791623615679712  0.3537948432725078
  0.2561653944255862  0.6589407994469726  0.8802261901577831
  0.2131079052365475  0.6600809576401903  0.0272125681767105
  0.5596763589394724  0.0132549295812597  0.5864120317371164
  0.5136921714207344  0.0188525343027000  0.7078305033547051
  0.2593903959499050  0.0730176015148471  0.4379328623574925
  0.2178722383761118  0.1167251599623878  0.2905531788412764
  0.5961106057054955  0.4460935098308835  0.7871037598078485
  0.5500770311736483  0.4789267712408556  0.6304879214192861
  0.2339464504077807  0.1197159705743341  0.0891015464176206
  0.1907812349596344  0.1632607154906210  0.9633535572527100
  0.6223973299045198  0.2823609504071252  0.4565732236285974
  0.6187871801386774  0.2363058419102141  0.3209869912435798
  0.0096098312699204  0.5703381280108121  0.7569867712773630
  0.0023134631578165  0.5306797725965791  0.6081949128785925
  0.5966458004267488  0.2442320817903933  0.1239038591418776
  0.6069528950604184  0.1960900817970415  0.0010943935123163
  0.0833615662267464  0.6641323116244404  0.4315516439884465
  0.1266745831970421  0.6616536575316305  0.2849151674359772
  0.4234860379397953  0.0130445154391054  0.7790980683754545
  0.4696939174677286  0.0062647182142913  0.6365367981640794
  0.1282901238169596  0.6432961743031483  0.0806571837572137
  0.1724067165754954  0.6423395372654439  0.9585425146835739
  0.7673085428322709  0.9287893905608647  0.5742750625215932
  0.8075780759064480  0.8806543084985309  0.7132643325518918
  0.4146084717746282  0.5919044733607791  0.2102852094861496
  0.4583755257291034  0.5516520249469201  0.3602289674827291
  0.7926622899307627  0.8786249712329828  0.9174865495359206
  0.8328099391897239  0.8306073095712689  0.0346051087070808
  0.3327419682382320  0.7493171568076088  0.5512082275098619
  0.3398448400758273  0.7882887528612724  0.7004188767922289
  0.9903778862258787  0.4035695215310259  0.1975626752193645
  0.9935695783546038  0.4467029050966951  0.3443710066401038
  0.3565713473778550  0.7714109398419620  0.9041422769522631
  0.3634492662140451  0.8124164661700608  0.0293968661417975
  0.9261548929566691  0.3074101375829636  0.5284665741020593
  0.8788025570111521  0.3162221651692771  0.6659013857773697
  0.6049917548108789  0.9912353255754598  0.2382774052688984
  0.5604071902996173  0.9957411015884738  0.3822330515099657
  0.8795013843050481  0.3325064599257426  0.8708778702064848
  0.8338814389296437  0.3370807619599469  0.9913079170405070
  0.9008325983146953  0.7856763910071610  0.7540994455856150
  0.8611658955075321  0.8350025925957691  0.6379661202755035
  0.9233676277168067  0.7364935329549246  0.0997635037452907
  0.8858419805446726  0.7846964672876601  0.9587286564354932
  0.5625001523746493  0.4759731341104288  0.4230018774826085
  0.5163733202503064  0.5141542092732031  0.2947531014860776
  0.3356923554995810  0.8855331036205288  0.7580921429599988
  0.3293951418689094  0.8445067101535789  0.6329214000922063
  0.3596200630689715  0.9093156941676088  0.1078212040819495
  0.3527241302372708  0.8687895571152359  0.9619703017515927
  0.9862620433084378  0.5462465956380834  0.4026925656273665
  0.9817206995853430  0.5035534016595206  0.2772628555877814
  0.7831475343536694  0.3178575669994499  0.7109028753574561
  0.8317907028213689  0.3083366270016738  0.5932223890804895
  0.7407337453832853  0.3402498257319136  0.0684494825124939
  0.7862410291079189  0.3303103037303961  0.9186607246546641
  0.4705243712011728  0.9881389783529507  0.4321852872602988
  0.5165078311480947  0.9828598551854565  0.3109582435688935
  0.6834191409155769  0.5132831575325868  0.4039656636108391
  0.7536207335865983  0.1612302683623913  0.7235865520747559
  0.6082729577822157  0.3187159643923193  0.0013593646652792
  0.1485104089082182  0.1525038825280076  0.5077518889148438
  0.4824799866597858  0.5139379361182077  0.8529486685737743
  0.6618844856527309  0.1697576058167587  0.5477139247921209
  0.0263517236002988  0.4623536787650414  0.8314219622148752
  0.1656235327038523  0.6934060520798442  0.5093601704978169
  0.5127479578843612  0.0326680774663815  0.8636532808853521
  0.2025640447753396  0.1662374583166294  0.8095572470346414
  0.5918112105203662  0.2046105788757462  0.8455942251813101
  0.1742962031178244  0.6282444411273653  0.8027711131249153
  0.8217389381758514  0.8287475312380680  0.1902737105794531
  0.3766526836850724  0.8003169163714565  0.1851733487332966
  0.8378546261906118  0.3439710752129731  0.1512803683490281
  0.8722444366531772  0.8369382302630062  0.4823109063619159
  0.5260489917823288  0.5143897845545558  0.1369858385650938
  0.3166422898671241  0.8564488021882518  0.4767847735258351
  0.9695940388411971  0.5153612628248514  0.1205894443801176
  0.8316908027665179  0.2967137322608530  0.4352185366717132
  0.5172841894052143  0.9692931253159968  0.1549317763498868
  0.3132373116043453  0.6396108646086776  0.5095933693065737
  0.0514590517597145  0.2976114832542736  0.5000367764285283
  0.6468887526603232  0.0491175542494842  0.5220451484238712
  0.0260571770151342  0.6803381062891138  0.8022224176050852
  0.3663258944463999  0.0262864091847039  0.1496201548285520
  0.3036678462845297  0.0176575144648086  0.8146760526241914
  0.6137105772776442  0.3741508381717872  0.1507262808096030
  0.6691809700908893  0.2909609712481668  0.8432187495516690
  0.0292908196821331  0.6106086502632750  0.1338343702506877
  0.6654419995181177  0.9720192398582980  0.8730619831785185
  0.9846178966077997  0.2873201521505265  0.1542001020972269
  0.3810863047331590  0.6495601720529782  0.8275688545808514
  0.7267756978020722  0.9866971620385324  0.2022352829642431
  0.9709882394687037  0.3650529517970525  0.8112503866495829
  0.3079815965342780  0.7114993625474791  0.1811660302493729
  0.6913559760629542  0.3973989836804228  0.4821667898583681
  0.9617984558893905  0.6764837304874786  0.4675037717222398
  0.3730038057324946  0.9540580925079277  0.4815429853282489
  0.7577033891604955  0.4358020498879124  0.2437894806951786
  0.6689270200095907  0.5009683870966493  0.7354304611285714
  0.7564619601290926  0.0863378609709801  0.5320288723776850
  0.7630949494289456  0.2332091571260222  0.5522872174754881
 
  0.00000000E+00  0.00000000E+00  0.00000000E+00
  0.00000000E+00  0.00000000E+00  0.00000000E+00
  0.00000000E+00  0.00000000E+00  0.00000000E+00
  0.00000000E+00  0.00000000E+00  0.00000000E+00
  0.00000000E+00  0.00000000E+00  0.00000000E+00
  0.00000000E+00  0.00000000E+00  0.00000000E+00
  0.00000000E+00  0.00000000E+00  0.00000000E+00
  0.00000000E+00  0.00000000E+00  0.00000000E+00
  0.00000000E+00  0.00000000E+00  0.00000000E+00
  0.00000000E+00  0.00000000E+00  0.00000000E+00
  0.00000000E+00  0.00000000E+00  0.00000000E+00
  0.00000000E+00  0.00000000E+00  0.00000000E+00
  0.00000000E+00  0.00000000E+00  0.00000000E+00
  0.00000000E+00  0.00000000E+00  0.00000000E+00
  0.00000000E+00  0.00000000E+00  0.00000000E+00
  0.00000000E+00  0.00000000E+00  0.00000000E+00
  0.00000000E+00  0.00000000E+00  0.00000000E+00
  0.00000000E+00  0.00000000E+00  0.00000000E+00
  0.00000000E+00  0.00000000E+00  0.00000000E+00
  0.00000000E+00  0.00000000E+00  0.00000000E+00
  0.00000000E+00  0.00000000E+00  0.00000000E+00
  0.00000000E+00  0.00000000E+00  0.00000000E+00
  0.00000000E+00  0.00000000E+00  0.00000000E+00
  0.00000000E+00  0.00000000E+00  0.00000000E+00
  0.00000000E+00  0.00000000E+00  0.00000000E+00
  0.00000000E+00  0.00000000E+00  0.00000000E+00
  0.00000000E+00  0.00000000E+00  0.00000000E+00
  0.00000000E+00  0.00000000E+00  0.00000000E+00
  0.00000000E+00  0.00000000E+00  0.00000000E+00
  0.00000000E+00  0.00000000E+00  0.00000000E+00
  0.00000000E+00  0.00000000E+00  0.00000000E+00
  0.00000000E+00  0.00000000E+00  0.00000000E+00
  0.00000000E+00  0.00000000E+00  0.00000000E+00
  0.00000000E+00  0.00000000E+00  0.00000000E+00
  0.00000000E+00  0.00000000E+00  0.00000000E+00
  0.00000000E+00  0.00000000E+00  0.00000000E+00
  0.00000000E+00  0.00000000E+00  0.00000000E+00
  0.00000000E+00  0.00000000E+00  0.00000000E+00
  0.00000000E+00  0.00000000E+00  0.00000000E+00
  0.00000000E+00  0.00000000E+00  0.00000000E+00
  0.00000000E+00  0.00000000E+00  0.00000000E+00
  0.00000000E+00  0.00000000E+00  0.00000000E+00
  0.00000000E+00  0.00000000E+00  0.00000000E+00
  0.00000000E+00  0.00000000E+00  0.00000000E+00
  0.00000000E+00  0.00000000E+00  0.00000000E+00
  0.00000000E+00  0.00000000E+00  0.00000000E+00
  0.00000000E+00  0.00000000E+00  0.00000000E+00
  0.00000000E+00  0.00000000E+00  0.00000000E+00
  0.00000000E+00  0.00000000E+00  0.00000000E+00
  0.00000000E+00  0.00000000E+00  0.00000000E+00
  0.00000000E+00  0.00000000E+00  0.00000000E+00
  0.00000000E+00  0.00000000E+00  0.00000000E+00
  0.00000000E+00  0.00000000E+00  0.00000000E+00
  0.00000000E+00  0.00000000E+00  0.00000000E+00
  0.00000000E+00  0.00000000E+00  0.00000000E+00
  0.00000000E+00  0.00000000E+00  0.00000000E+00
  0.00000000E+00  0.00000000E+00  0.00000000E+00
  0.00000000E+00  0.00000000E+00  0.00000000E+00
  0.00000000E+00  0.00000000E+00  0.00000000E+00
  0.00000000E+00  0.00000000E+00  0.00000000E+00
  0.00000000E+00  0.00000000E+00  0.00000000E+00
  0.00000000E+00  0.00000000E+00  0.00000000E+00
  0.00000000E+00  0.00000000E+00  0.00000000E+00
  0.00000000E+00  0.00000000E+00  0.00000000E+00
  0.00000000E+00  0.00000000E+00  0.00000000E+00
  0.00000000E+00  0.00000000E+00  0.00000000E+00
  0.00000000E+00  0.00000000E+00  0.00000000E+00
  0.00000000E+00  0.00000000E+00  0.00000000E+00
  0.00000000E+00  0.00000000E+00  0.00000000E+00
  0.00000000E+00  0.00000000E+00  0.00000000E+00
  0.00000000E+00  0.00000000E+00  0.00000000E+00
  0.00000000E+00  0.00000000E+00  0.00000000E+00
  0.00000000E+00  0.00000000E+00  0.00000000E+00
  0.00000000E+00  0.00000000E+00  0.00000000E+00
  0.00000000E+00  0.00000000E+00  0.00000000E+00
  0.00000000E+00  0.00000000E+00  0.00000000E+00
  0.00000000E+00  0.00000000E+00  0.00000000E+00
  0.00000000E+00  0.00000000E+00  0.00000000E+00
  0.00000000E+00  0.00000000E+00  0.00000000E+00
  0.00000000E+00  0.00000000E+00  0.00000000E+00
  0.00000000E+00  0.00000000E+00  0.00000000E+00
  0.00000000E+00  0.00000000E+00  0.00000000E+00
  0.00000000E+00  0.00000000E+00  0.00000000E+00
  0.00000000E+00  0.00000000E+00  0.00000000E+00
  0.00000000E+00  0.00000000E+00  0.00000000E+00
  0.00000000E+00  0.00000000E+00  0.00000000E+00
  0.00000000E+00  0.00000000E+00  0.00000000E+00
  0.00000000E+00  0.00000000E+00  0.00000000E+00
  0.00000000E+00  0.00000000E+00  0.00000000E+00
  0.00000000E+00  0.00000000E+00  0.00000000E+00
  0.00000000E+00  0.00000000E+00  0.00000000E+00
  0.00000000E+00  0.00000000E+00  0.00000000E+00
  0.00000000E+00  0.00000000E+00  0.00000000E+00
  0.00000000E+00  0.00000000E+00  0.00000000E+00
  0.00000000E+00  0.00000000E+00  0.00000000E+00
  0.00000000E+00  0.00000000E+00  0.00000000E+00
  0.00000000E+00  0.00000000E+00  0.00000000E+00
  0.00000000E+00  0.00000000E+00  0.00000000E+00
  0.00000000E+00  0.00000000E+00  0.00000000E+00
  0.00000000E+00  0.00000000E+00  0.00000000E+00
  0.00000000E+00  0.00000000E+00  0.00000000E+00
  0.00000000E+00  0.00000000E+00  0.00000000E+00
  0.00000000E+00  0.00000000E+00  0.00000000E+00
  0.00000000E+00  0.00000000E+00  0.00000000E+00
  0.00000000E+00  0.00000000E+00  0.00000000E+00
  0.00000000E+00  0.00000000E+00  0.00000000E+00
  0.00000000E+00  0.00000000E+00  0.00000000E+00
  0.00000000E+00  0.00000000E+00  0.00000000E+00
  0.00000000E+00  0.00000000E+00  0.00000000E+00
  0.00000000E+00  0.00000000E+00  0.00000000E+00
  0.00000000E+00  0.00000000E+00  0.00000000E+00
  0.00000000E+00  0.00000000E+00  0.00000000E+00
  0.00000000E+00  0.00000000E+00  0.00000000E+00
  0.00000000E+00  0.00000000E+00  0.00000000E+00
  0.00000000E+00  0.00000000E+00  0.00000000E+00
  0.00000000E+00  0.00000000E+00  0.00000000E+00
  0.00000000E+00  0.00000000E+00  0.00000000E+00
  0.00000000E+00  0.00000000E+00  0.00000000E+00
  0.00000000E+00  0.00000000E+00  0.00000000E+00
  0.00000000E+00  0.00000000E+00  0.00000000E+00
  0.00000000E+00  0.00000000E+00  0.00000000E+00
  0.00000000E+00  0.00000000E+00  0.00000000E+00
  0.00000000E+00  0.00000000E+00  0.00000000E+00
  0.00000000E+00  0.00000000E+00  0.00000000E+00
  0.00000000E+00  0.00000000E+00  0.00000000E+00
  0.00000000E+00  0.00000000E+00  0.00000000E+00
  0.00000000E+00  0.00000000E+00  0.00000000E+00
  0.00000000E+00  0.00000000E+00  0.00000000E+00
  0.00000000E+00  0.00000000E+00  0.00000000E+00
  0.00000000E+00  0.00000000E+00  0.00000000E+00
  0.00000000E+00  0.00000000E+00  0.00000000E+00
  0.00000000E+00  0.00000000E+00  0.00000000E+00
  0.00000000E+00  0.00000000E+00  0.00000000E+00
  0.00000000E+00  0.00000000E+00  0.00000000E+00
  0.00000000E+00  0.00000000E+00  0.00000000E+00
  0.00000000E+00  0.00000000E+00  0.00000000E+00
  0.00000000E+00  0.00000000E+00  0.00000000E+00
  0.00000000E+00  0.00000000E+00  0.00000000E+00
  0.00000000E+00  0.00000000E+00  0.00000000E+00
  0.00000000E+00  0.00000000E+00  0.00000000E+00
  0.00000000E+00  0.00000000E+00  0.00000000E+00
  0.00000000E+00  0.00000000E+00  0.00000000E+00
  0.00000000E+00  0.00000000E+00  0.00000000E+00
  0.00000000E+00  0.00000000E+00  0.00000000E+00
  0.00000000E+00  0.00000000E+00  0.00000000E+00
  0.00000000E+00  0.00000000E+00  0.00000000E+00
  0.00000000E+00  0.00000000E+00  0.00000000E+00
  0.00000000E+00  0.00000000E+00  0.00000000E+00
  0.00000000E+00  0.00000000E+00  0.00000000E+00
  0.00000000E+00  0.00000000E+00  0.00000000E+00
  0.00000000E+00  0.00000000E+00  0.00000000E+00
  0.00000000E+00  0.00000000E+00  0.00000000E+00
  0.00000000E+00  0.00000000E+00  0.00000000E+00
  0.00000000E+00  0.00000000E+00  0.00000000E+00
  0.00000000E+00  0.00000000E+00  0.00000000E+00
  0.00000000E+00  0.00000000E+00  0.00000000E+00
  0.00000000E+00  0.00000000E+00  0.00000000E+00
  0.00000000E+00  0.00000000E+00  0.00000000E+00
  0.00000000E+00  0.00000000E+00  0.00000000E+00
  0.00000000E+00  0.00000000E+00  0.00000000E+00
  0.00000000E+00  0.00000000E+00  0.00000000E+00
  0.00000000E+00  0.00000000E+00  0.00000000E+00
  0.00000000E+00  0.00000000E+00  0.00000000E+00
  0.00000000E+00  0.00000000E+00  0.00000000E+00
  0.00000000E+00  0.00000000E+00  0.00000000E+00
  0.00000000E+00  0.00000000E+00  0.00000000E+00
  0.00000000E+00  0.00000000E+00  0.00000000E+00
  0.00000000E+00  0.00000000E+00  0.00000000E+00
  0.00000000E+00  0.00000000E+00  0.00000000E+00
  0.00000000E+00  0.00000000E+00  0.00000000E+00
  0.00000000E+00  0.00000000E+00  0.00000000E+00
  0.00000000E+00  0.00000000E+00  0.00000000E+00
  0.00000000E+00  0.00000000E+00  0.00000000E+00
  0.00000000E+00  0.00000000E+00  0.00000000E+00
  0.00000000E+00  0.00000000E+00  0.00000000E+00
