O  C  H  Co Li                          
   1.00000000000000     
    25.7457114823380167   -0.4002192020088671   -0.2249742976148675
    12.5217790568500877   21.8681181068175263   -0.2020889934338768
    -0.0595303247008027   -0.0267792755300788    6.6685665895296626
   O    C    H    Co   Li
    60    75    18    18     4
Direct
  0.0599312205063361  0.2258974568779387  0.2947273470531793
  0.0333721612489269  0.2649687317997525  0.8976149001192759
  0.1094724116763291  0.2403265548430681  0.6971711060147501
  0.3903244984203616  0.5815955193900667  0.6520423066032658
  0.6981411280858275  0.0727397045152490  0.3594985538721082
  0.6948517464612985  0.0348400160794443  0.9535388467761807
  0.6382155852999971  0.1061119965047483  0.7369876939754608
  0.0329864175912611  0.3699081306112442  0.6263446401142789
  0.2478222760820801  0.6912038581314062  0.3159190142862604
  0.2869813454836736  0.6802466750897095  0.9249558610024136
  0.2587798088625016  0.6310499208625248  0.7095739978577605
  0.6012445622496448  0.0256671206985472  0.6740698706329360
  0.3149259204711826  0.0411942563714707  0.3972178315765471
  0.2418078848575373  0.0687529997296154  0.6134640876936084
  0.6499593580680820  0.4389532216849532  0.7658678045029559
  0.5783885369817404  0.4374298683180859  0.9488266650417645
  0.2883357992905975  0.0829114661383834  0.0154473804843930
  0.6228867533835584  0.3338030524467939  0.3985962272390216
  0.6363094610085835  0.2687169768776669  0.6421794963929077
  0.9869928285438542  0.6240854234780896  0.7149427172556942
  0.0305547608310322  0.5478406503517765  0.9268446778183480
  0.5705644582021933  0.3042116768265517  0.0376692660515282
  0.0473853134679258  0.6380674293675173  0.3867263942208891
  0.0785413949241842  0.6838860738686593  0.6046267546189740
  0.3880143235882304  0.9931002363382293  0.7301388283452582
  0.4217662276606625  0.0339959616036922  0.9588216891459613
  0.0870895279567019  0.6253929856989840 -0.0025599669657471
  0.7118718840159808  0.9614669416567651  0.6202338706649025
  0.7863080683946986  0.9366579327539007  0.4104577048145940
  0.3580005030689448  0.6200620465197589  0.2551877417706751
  0.4304090999883677  0.5983846832164728  0.0404836648751412
  0.7414860025639874  0.9200939477385577  0.0060224774574052
  0.3466184450271584  0.6933004705641582  0.5958899812418722
  0.3075036438353885  0.7690243701362524  0.3814400557026046
  0.0214766095207560  0.3397775197000372  0.2328922470505024
  0.9798342775666045  0.4137679496744817  0.0094169712787867
  0.3606394666984055  0.7197227380863213  0.9865951362349846
  0.9645756473669764  0.3268017435391249  0.5653741811478471
  0.9269984986869342  0.2885815560773630  0.3416081136793411
  0.6396372976909862  0.0149974013578039  0.2870350219770091
  0.6077986381005709  0.9702724837009392  0.0675211787774334
  0.9230778859368213  0.3462916227854442  0.9477033442679675
  0.9479790139074107  0.7401652053772303  0.6683381111526500
  0.9751464591611059  0.6971121282457580  0.0520611773757054
  0.9018307815972513  0.7322259038218941  0.2705068967194403
  0.6162410691397416  0.4411533796164515  0.3484979281154970
  0.3250963245853551  0.9383148609446256  0.6818244947310875
  0.3409179116011010  0.9648473706783606  0.0615708148790014
  0.3776480611199628  0.8914335488084575  0.2867707192650660
  0.9743813502526074  0.5957833949704310  0.3219953377258366
  0.7351320712236240  0.3214511142436071  0.6255173175515465
  0.7054298838142266  0.3258453222675586  0.0547682283372458
  0.7412803832296753  0.3771099392362512  0.2258538529786050
  0.4295811851723169  0.9762800763938423  0.3525558697226991
  0.7191171807860667  0.4657874866322170  0.5083469577280392
  0.6405919142228896  0.5601847082471948  0.5184571595541659
  0.6939559131979240  0.5242137013874572  0.2303188389551082
  0.7772407271255154  0.1566940160220017  0.5468096344891719
  0.7459304048554378  0.2151175311734193  0.8231729310874927
  0.7450657748269315  0.1248379057333215  0.8033521742600298
  0.1146981620286658  0.1918486483467729  0.2204801408045751
  0.1587902164582750  0.1502269226829614  0.3490786211015394
  0.0894143181931663  0.2359833956008186  0.8658596143077980
  0.1313150483094498  0.1958204940656307  0.0200477736389134
  0.4446133435021883  0.5511316508278477  0.5692598043104036
  0.4919472635838906  0.5150320662280611  0.6973030284574729
  0.6633622765657912  0.1281956768336864  0.2725573760384620
  0.6498970255669213  0.1789050101092172  0.3942344502025816
  0.6596457973725596  0.0907124695174024  0.9130883316609131
  0.6436115565099310  0.1381076834608685  0.0690601016675028
  0.0183045836369467  0.4238380717791208  0.5429257133882340
  0.0197344717217887  0.4679777837343993  0.6684239998625354
  0.2097114875560522  0.6749598357473088  0.2323297805738627
  0.1659917157185953  0.6754928580326276  0.3548114543859676
  0.2549525645464971  0.6553526276187359  0.8815141581253763
  0.2117026053324506  0.6564358728785251  0.0277064655168594
  0.5592151626784254  0.0149766048395161  0.5892758544677215
  0.5133867829175613  0.0201183920103761  0.7110203712763359
  0.2596029280739715  0.0725950384679675  0.4410107363405719
  0.2174064026110389  0.1140810287691883  0.2900601844374643
  0.5963359249603589  0.4500080268280262  0.7899547578032183
  0.5501312194468502  0.4818233428988689  0.6331327315382429
  0.2338754635496258  0.1179297231958436  0.0896499761611126
  0.1900372103768694  0.1596721257530954  0.9614727133038345
  0.6253641878320922  0.2848131874345262  0.4586170737550296
  0.6217931571550108  0.2383163775542098  0.3232462336457905
  0.0080791306445375  0.5674354329996921  0.7552949499788753
  0.0043982599804210  0.5260673906279826  0.6037112483521883
  0.5996102330174438  0.2461768375077728  0.1259551553937268
  0.6093288370559697  0.1977615451359705  0.0037791270154775
  0.0815218535268392  0.6608643402540918  0.4320211608195994
  0.1249036088782656  0.6582561579407555  0.2852698750956421
  0.4242593584060675  0.0122588180844414  0.7841964124189926
  0.4698092296157750  0.0065777974210379  0.6402559794704353
  0.1264083519526471  0.6400872635130612  0.0802887068767898
  0.1707525793726083  0.6388962183176475  0.9583685699535389
  0.7666570730030244  0.9288403717394046  0.5755981023993751
  0.8064808220340667  0.8802216442900949  0.7142020472717868
  0.4135347481400417  0.5920813620297939  0.2122812383341552
  0.4578153792110602  0.5527843411527540  0.3626294428088391
  0.7914682091298518  0.8781910183725036  0.9186247364382015
  0.8311477818951383  0.8295621048469977  0.0350440433392283
  0.3289665066210348  0.7496003281300802  0.5541058242607567
  0.3364738938969157  0.7887783328343828  0.7030266230596590
  0.0007117450425112  0.3956718660120931  0.1851268832837876
  0.0019696021901188  0.4390065495651555  0.3361601988780758
  0.3531661701541977  0.7718762668427287  0.9069646876681156
  0.3604944700679000  0.8128361156063578  0.0324512795379133
  0.9253835419532971  0.3108743337216389  0.5154048491128660
  0.8784898619285010  0.3207519955626474  0.6572809806456086
  0.6045242267813591  0.9928773136189993  0.2407144715636468
  0.5600537887007234  0.9971462958165960  0.3849875973851368
  0.8800256283933382  0.3376665053009515  0.8611932251972356
  0.8338604173304204  0.3443333090871022  0.9838790381262796
  0.8990769587752067  0.7842574293179274  0.7539189082933316
  0.8597393242911945  0.8340305349385664  0.6382261853699521
  0.9214655015208159  0.7350578287965288  0.1002849333586494
  0.8840198627356411  0.7832997670868633  0.9588656984124181
  0.5626244083188854  0.4795625517433791  0.4257286452006462
  0.5161255185438981  0.5170201405247314  0.2974421123652112
  0.3337070213140813  0.8859573312097963  0.7606406050910460
  0.3267437745531003  0.8449906314922359  0.6353735185780280
  0.3574600418382454  0.9097651296268352  0.1119874590075391
  0.3503964986852294  0.8692680262778372  0.9650427209115691
  0.9876354170875226  0.5417813517167073  0.3988007326035790
  0.9865979197426937  0.4973277264245108  0.2715279390931128
  0.7823607571994848  0.3237208380672989  0.7086935932880271
  0.8306699266694516  0.3133617251822575  0.5881431414451354
  0.7412314615860391  0.3472313267396432  0.0685869450188387
  0.7858635680249403  0.3375685024710174  0.9154372385492100
  0.4706962326649683  0.9882317688599415  0.4355736937272902
  0.5164285209324223  0.9835906223506923  0.3139615916193432
  0.6811716556004956  0.5212548043360177  0.4112806448615962
  0.7556995849885570  0.1644719027582691  0.7287761741949617
  0.6114218878171652  0.3212110110850603  0.0035468070380320
  0.1468592859252156  0.1464113379303921  0.5019590481408959
  0.4823562820467912  0.5144601495931981  0.8551320269990054
  0.6641568268720849  0.1717706355229754  0.5509245121696089
  0.0327144766426885  0.4563626851446860  0.8246741219672026
  0.1644348075540549  0.6894956140726741  0.5109458305095649
  0.5123460081348319  0.0341272346198045  0.8669889146831450
  0.2020595598720211  0.1630375646604545  0.8083309735233805
  0.5941279660026824  0.2062392479509420  0.8482319956622076
  0.1724525492871951  0.6247990890752431  0.8022585392848640
  0.8199547071926315  0.8275854301833906  0.1906641725132013
  0.3735904739303901  0.8006185752453310  0.1884152569960135
  0.8381763649380235  0.3521139579779403  0.1432214353562915
  0.8708530766969610  0.8359429572571906  0.4823783038577706
  0.5257093620054194  0.5179867990212872  0.1398585116083239
  0.3140448868396196  0.8570485632291346  0.4790914775347574
  0.9741539552262624  0.5088018270770668  0.1147895154206783
  0.8300687805416453  0.3011960676988602  0.4305387701379597
  0.5172768774768144  0.9698864513755179  0.1577259222053240
  0.3120214546534022  0.6374168687969851  0.5112587142539199
  0.0546269506003577  0.2901981133495212  0.4849848581903016
  0.6471007672081448  0.0507257678837159  0.5246392512900265
  0.0233091014683693  0.6778599849499178  0.8014911051653373
  0.3662622639383712  0.0262186933055263  0.1541061267764443
  0.3042748946876708  0.0174648984465625  0.8177145646328310
  0.6154216260682867  0.3776147746319886  0.1538782150436281
  0.6720932280162260  0.2949111102493554  0.8446794816286299
  0.0266225478087576  0.6089495876085868  0.1322514966483801
  0.6649619783291253  0.9734033857466674  0.8751541057471340
  0.9849357639373996  0.2854170998386268  0.1408109530760589
  0.3787769023807727  0.6492537035767083  0.8295998409949088
  0.7267208158596943  0.9873361461695004  0.2046631183900480
  0.9765934925429750  0.3619280520472524  0.7976884914568999
  0.3050486592856576  0.7106014656954788  0.1832417497675454
  0.6917111965870740  0.4032475893329374  0.4841570469432681
  0.9597318810571998  0.6737884698576425  0.4669657992953891
  0.3729809913516201  0.9542495884547765  0.4848315764119498
  0.7561709012014097  0.4449332032868277  0.2489405047943004
  0.6672542784517367  0.5074277761448921  0.7422881790476246
  0.7571653914192942  0.0895991977825091  0.5366481947888216
  0.7656623689459660  0.2364205272764573  0.5567385944526219
 
  0.00000000E+00  0.00000000E+00  0.00000000E+00
  0.00000000E+00  0.00000000E+00  0.00000000E+00
  0.00000000E+00  0.00000000E+00  0.00000000E+00
  0.00000000E+00  0.00000000E+00  0.00000000E+00
  0.00000000E+00  0.00000000E+00  0.00000000E+00
  0.00000000E+00  0.00000000E+00  0.00000000E+00
  0.00000000E+00  0.00000000E+00  0.00000000E+00
  0.00000000E+00  0.00000000E+00  0.00000000E+00
  0.00000000E+00  0.00000000E+00  0.00000000E+00
  0.00000000E+00  0.00000000E+00  0.00000000E+00
  0.00000000E+00  0.00000000E+00  0.00000000E+00
  0.00000000E+00  0.00000000E+00  0.00000000E+00
  0.00000000E+00  0.00000000E+00  0.00000000E+00
  0.00000000E+00  0.00000000E+00  0.00000000E+00
  0.00000000E+00  0.00000000E+00  0.00000000E+00
  0.00000000E+00  0.00000000E+00  0.00000000E+00
  0.00000000E+00  0.00000000E+00  0.00000000E+00
  0.00000000E+00  0.00000000E+00  0.00000000E+00
  0.00000000E+00  0.00000000E+00  0.00000000E+00
  0.00000000E+00  0.00000000E+00  0.00000000E+00
  0.00000000E+00  0.00000000E+00  0.00000000E+00
  0.00000000E+00  0.00000000E+00  0.00000000E+00
  0.00000000E+00  0.00000000E+00  0.00000000E+00
  0.00000000E+00  0.00000000E+00  0.00000000E+00
  0.00000000E+00  0.00000000E+00  0.00000000E+00
  0.00000000E+00  0.00000000E+00  0.00000000E+00
  0.00000000E+00  0.00000000E+00  0.00000000E+00
  0.00000000E+00  0.00000000E+00  0.00000000E+00
  0.00000000E+00  0.00000000E+00  0.00000000E+00
  0.00000000E+00  0.00000000E+00  0.00000000E+00
  0.00000000E+00  0.00000000E+00  0.00000000E+00
  0.00000000E+00  0.00000000E+00  0.00000000E+00
  0.00000000E+00  0.00000000E+00  0.00000000E+00
  0.00000000E+00  0.00000000E+00  0.00000000E+00
  0.00000000E+00  0.00000000E+00  0.00000000E+00
  0.00000000E+00  0.00000000E+00  0.00000000E+00
  0.00000000E+00  0.00000000E+00  0.00000000E+00
  0.00000000E+00  0.00000000E+00  0.00000000E+00
  0.00000000E+00  0.00000000E+00  0.00000000E+00
  0.00000000E+00  0.00000000E+00  0.00000000E+00
  0.00000000E+00  0.00000000E+00  0.00000000E+00
  0.00000000E+00  0.00000000E+00  0.00000000E+00
  0.00000000E+00  0.00000000E+00  0.00000000E+00
  0.00000000E+00  0.00000000E+00  0.00000000E+00
  0.00000000E+00  0.00000000E+00  0.00000000E+00
  0.00000000E+00  0.00000000E+00  0.00000000E+00
  0.00000000E+00  0.00000000E+00  0.00000000E+00
  0.00000000E+00  0.00000000E+00  0.00000000E+00
  0.00000000E+00  0.00000000E+00  0.00000000E+00
  0.00000000E+00  0.00000000E+00  0.00000000E+00
  0.00000000E+00  0.00000000E+00  0.00000000E+00
  0.00000000E+00  0.00000000E+00  0.00000000E+00
  0.00000000E+00  0.00000000E+00  0.00000000E+00
  0.00000000E+00  0.00000000E+00  0.00000000E+00
  0.00000000E+00  0.00000000E+00  0.00000000E+00
  0.00000000E+00  0.00000000E+00  0.00000000E+00
  0.00000000E+00  0.00000000E+00  0.00000000E+00
  0.00000000E+00  0.00000000E+00  0.00000000E+00
  0.00000000E+00  0.00000000E+00  0.00000000E+00
  0.00000000E+00  0.00000000E+00  0.00000000E+00
  0.00000000E+00  0.00000000E+00  0.00000000E+00
  0.00000000E+00  0.00000000E+00  0.00000000E+00
  0.00000000E+00  0.00000000E+00  0.00000000E+00
  0.00000000E+00  0.00000000E+00  0.00000000E+00
  0.00000000E+00  0.00000000E+00  0.00000000E+00
  0.00000000E+00  0.00000000E+00  0.00000000E+00
  0.00000000E+00  0.00000000E+00  0.00000000E+00
  0.00000000E+00  0.00000000E+00  0.00000000E+00
  0.00000000E+00  0.00000000E+00  0.00000000E+00
  0.00000000E+00  0.00000000E+00  0.00000000E+00
  0.00000000E+00  0.00000000E+00  0.00000000E+00
  0.00000000E+00  0.00000000E+00  0.00000000E+00
  0.00000000E+00  0.00000000E+00  0.00000000E+00
  0.00000000E+00  0.00000000E+00  0.00000000E+00
  0.00000000E+00  0.00000000E+00  0.00000000E+00
  0.00000000E+00  0.00000000E+00  0.00000000E+00
  0.00000000E+00  0.00000000E+00  0.00000000E+00
  0.00000000E+00  0.00000000E+00  0.00000000E+00
  0.00000000E+00  0.00000000E+00  0.00000000E+00
  0.00000000E+00  0.00000000E+00  0.00000000E+00
  0.00000000E+00  0.00000000E+00  0.00000000E+00
  0.00000000E+00  0.00000000E+00  0.00000000E+00
  0.00000000E+00  0.00000000E+00  0.00000000E+00
  0.00000000E+00  0.00000000E+00  0.00000000E+00
  0.00000000E+00  0.00000000E+00  0.00000000E+00
  0.00000000E+00  0.00000000E+00  0.00000000E+00
  0.00000000E+00  0.00000000E+00  0.00000000E+00
  0.00000000E+00  0.00000000E+00  0.00000000E+00
  0.00000000E+00  0.00000000E+00  0.00000000E+00
  0.00000000E+00  0.00000000E+00  0.00000000E+00
  0.00000000E+00  0.00000000E+00  0.00000000E+00
  0.00000000E+00  0.00000000E+00  0.00000000E+00
  0.00000000E+00  0.00000000E+00  0.00000000E+00
  0.00000000E+00  0.00000000E+00  0.00000000E+00
  0.00000000E+00  0.00000000E+00  0.00000000E+00
  0.00000000E+00  0.00000000E+00  0.00000000E+00
  0.00000000E+00  0.00000000E+00  0.00000000E+00
  0.00000000E+00  0.00000000E+00  0.00000000E+00
  0.00000000E+00  0.00000000E+00  0.00000000E+00
  0.00000000E+00  0.00000000E+00  0.00000000E+00
  0.00000000E+00  0.00000000E+00  0.00000000E+00
  0.00000000E+00  0.00000000E+00  0.00000000E+00
  0.00000000E+00  0.00000000E+00  0.00000000E+00
  0.00000000E+00  0.00000000E+00  0.00000000E+00
  0.00000000E+00  0.00000000E+00  0.00000000E+00
  0.00000000E+00  0.00000000E+00  0.00000000E+00
  0.00000000E+00  0.00000000E+00  0.00000000E+00
  0.00000000E+00  0.00000000E+00  0.00000000E+00
  0.00000000E+00  0.00000000E+00  0.00000000E+00
  0.00000000E+00  0.00000000E+00  0.00000000E+00
  0.00000000E+00  0.00000000E+00  0.00000000E+00
  0.00000000E+00  0.00000000E+00  0.00000000E+00
  0.00000000E+00  0.00000000E+00  0.00000000E+00
  0.00000000E+00  0.00000000E+00  0.00000000E+00
  0.00000000E+00  0.00000000E+00  0.00000000E+00
  0.00000000E+00  0.00000000E+00  0.00000000E+00
  0.00000000E+00  0.00000000E+00  0.00000000E+00
  0.00000000E+00  0.00000000E+00  0.00000000E+00
  0.00000000E+00  0.00000000E+00  0.00000000E+00
  0.00000000E+00  0.00000000E+00  0.00000000E+00
  0.00000000E+00  0.00000000E+00  0.00000000E+00
  0.00000000E+00  0.00000000E+00  0.00000000E+00
  0.00000000E+00  0.00000000E+00  0.00000000E+00
  0.00000000E+00  0.00000000E+00  0.00000000E+00
  0.00000000E+00  0.00000000E+00  0.00000000E+00
  0.00000000E+00  0.00000000E+00  0.00000000E+00
  0.00000000E+00  0.00000000E+00  0.00000000E+00
  0.00000000E+00  0.00000000E+00  0.00000000E+00
  0.00000000E+00  0.00000000E+00  0.00000000E+00
  0.00000000E+00  0.00000000E+00  0.00000000E+00
  0.00000000E+00  0.00000000E+00  0.00000000E+00
  0.00000000E+00  0.00000000E+00  0.00000000E+00
  0.00000000E+00  0.00000000E+00  0.00000000E+00
  0.00000000E+00  0.00000000E+00  0.00000000E+00
  0.00000000E+00  0.00000000E+00  0.00000000E+00
  0.00000000E+00  0.00000000E+00  0.00000000E+00
  0.00000000E+00  0.00000000E+00  0.00000000E+00
  0.00000000E+00  0.00000000E+00  0.00000000E+00
  0.00000000E+00  0.00000000E+00  0.00000000E+00
  0.00000000E+00  0.00000000E+00  0.00000000E+00
  0.00000000E+00  0.00000000E+00  0.00000000E+00
  0.00000000E+00  0.00000000E+00  0.00000000E+00
  0.00000000E+00  0.00000000E+00  0.00000000E+00
  0.00000000E+00  0.00000000E+00  0.00000000E+00
  0.00000000E+00  0.00000000E+00  0.00000000E+00
  0.00000000E+00  0.00000000E+00  0.00000000E+00
  0.00000000E+00  0.00000000E+00  0.00000000E+00
  0.00000000E+00  0.00000000E+00  0.00000000E+00
  0.00000000E+00  0.00000000E+00  0.00000000E+00
  0.00000000E+00  0.00000000E+00  0.00000000E+00
  0.00000000E+00  0.00000000E+00  0.00000000E+00
  0.00000000E+00  0.00000000E+00  0.00000000E+00
  0.00000000E+00  0.00000000E+00  0.00000000E+00
  0.00000000E+00  0.00000000E+00  0.00000000E+00
  0.00000000E+00  0.00000000E+00  0.00000000E+00
  0.00000000E+00  0.00000000E+00  0.00000000E+00
  0.00000000E+00  0.00000000E+00  0.00000000E+00
  0.00000000E+00  0.00000000E+00  0.00000000E+00
  0.00000000E+00  0.00000000E+00  0.00000000E+00
  0.00000000E+00  0.00000000E+00  0.00000000E+00
  0.00000000E+00  0.00000000E+00  0.00000000E+00
  0.00000000E+00  0.00000000E+00  0.00000000E+00
  0.00000000E+00  0.00000000E+00  0.00000000E+00
  0.00000000E+00  0.00000000E+00  0.00000000E+00
  0.00000000E+00  0.00000000E+00  0.00000000E+00
  0.00000000E+00  0.00000000E+00  0.00000000E+00
  0.00000000E+00  0.00000000E+00  0.00000000E+00
  0.00000000E+00  0.00000000E+00  0.00000000E+00
  0.00000000E+00  0.00000000E+00  0.00000000E+00
  0.00000000E+00  0.00000000E+00  0.00000000E+00
  0.00000000E+00  0.00000000E+00  0.00000000E+00
  0.00000000E+00  0.00000000E+00  0.00000000E+00
  0.00000000E+00  0.00000000E+00  0.00000000E+00
  0.00000000E+00  0.00000000E+00  0.00000000E+00
  0.00000000E+00  0.00000000E+00  0.00000000E+00
