O  C  H  Co Li                          
   1.00000000000000     
    25.7457408074920444   -0.4002416275326337   -0.2250351294002965
    12.5217734095363689   21.8680407408067374   -0.2021045532632035
    -0.0595459082618466   -0.0267748314241206    6.6685835752709162
   O    C    H    Co   Li
    60    75    18    18     4
Direct
  0.0599346851736659  0.2258904329460061  0.2947215625886209
  0.0333759354355020  0.2649636005608519  0.8976194517521682
  0.1094755194021701  0.2403201766524098  0.6971690097887328
  0.3903220666743791  0.5815942539565334  0.6520415971531756
  0.6981421321206019  0.0727437428975538  0.3594990710651375
  0.6948531001539321  0.0348439773118080  0.9535362542188864
  0.6382163033686803  0.1061155300617100  0.7369854275215187
  0.0329899903405351  0.3699030598270046  0.6263386186941537
  0.2478188213535923  0.6912048129017325  0.3159196342780582
  0.2869809594055687  0.6802450662640204  0.9249587260929576
  0.2587759702213686  0.6310509287957107  0.7095834652277102
  0.6012440860069717  0.0256714982074762  0.6740721139170573
  0.3149286615665443  0.0411909231652236  0.3972188024861642
  0.2418122469978674  0.0687495828678999  0.6134610252906563
  0.6499585902327817  0.4389598948051677  0.7658664317977361
  0.5783884354476688  0.4374355335398002  0.9488275293379522
  0.2883382549998285  0.0829082058841807  0.0154439214813448
  0.6228832571788714  0.3338074413107466  0.3986026577784901
  0.6363076099090976  0.2687221527366452  0.6421866876322329
  0.9869934164092476  0.6240790467537378  0.7149379000313103
  0.0305538716285244  0.5478369824965772  0.9268394409985914
  0.5705641616792413  0.3042148111294761  0.0376692315494018
  0.0473797830370956  0.6380695669798436  0.3867171339790356
  0.0785381766703650  0.6838838535333593  0.6046229751852720
  0.3880180247228262  0.9930997500067782  0.7301366002181823
  0.4217712383139198  0.0339937524340608  0.9588207661318201
  0.0870864952829531  0.6253930133118248 -0.0025558676974610
  0.7118717319246302  0.9614701560810189  0.6202290276102517
  0.7863078311641266  0.9366591790206243  0.4104639149207430
  0.3579969459491765  0.6200618627921294  0.2551906908147933
  0.4304065536924723  0.5983829223854777  0.0404826511855010
  0.7414860776484498  0.9200976175864288  0.0060253315778158
  0.3466149689669973  0.6932994012498611  0.5959000666922476
  0.3074994692054677  0.7690258457239338  0.3814448177361513
  0.0214782004761884  0.3397710146324704  0.2328903227975557
  0.9798382138810625  0.4137614320074728  0.0094213258559980
  0.3606364013654451  0.7197218021090105  0.9865979788003421
  0.9645780205612507  0.3267948525523910  0.5653704898972248
  0.9270014935812033  0.2885742519979081  0.3416085587119400
  0.6396370738075275  0.0150021078128264  0.2870427714190649
  0.6077977690740450  0.9702771360582443  0.0675236875332832
  0.9230835226037395  0.3462865648303149  0.9477055952995334
  0.9479753100742736  0.7401615650153993  0.6683398830090154
  0.9751393365841444  0.6971095536337680  0.0520592718068108
  0.9018268036523817  0.7322237219963139  0.2705057623166642
  0.6162393257202187  0.4411584542831614  0.3485015009117217
  0.3251026443140133  0.9383111874537985  0.6818276313530615
  0.3409253070303786  0.9648437458025192  0.0615634930567188
  0.3776533530748578  0.8914288982516544  0.2867789828342417
  0.9743810858429428  0.5957773828255061  0.3219943426381748
  0.7351287934056162  0.3214557371362181  0.6255137884111538
  0.7054272148351804  0.3258516480776985  0.0547719096629613
  0.7412779886525245  0.3771172710657933  0.2258554375942438
  0.4295854525814889  0.9762776052112908  0.3525595083276125
  0.7191165109006430  0.4657929985170425  0.5083423205356142
  0.6405909065059890  0.5601936875169424  0.5184584157186793
  0.6939570701623599  0.5242194359768997  0.2303222507967388
  0.7772405196889558  0.1566995534023471  0.5468077774065911
  0.7459288785138033  0.2151250377382523  0.8231698350848135
  0.7450676432288499  0.1248408802009511  0.8033537896103597
  0.1146991777149797  0.1918452513569103  0.2204742385896350
  0.1587953245430335  0.1502201988119363  0.3490779987379276
  0.0894160463388725  0.2359797790924589  0.8658556486381125
  0.1313180567898655  0.1958147897973594  0.0200514864710835
  0.4446122427029917  0.5511311763982696  0.5692596179392915
  0.4919439057403479  0.5150363623407627  0.6973049690456196
  0.6633632091009569  0.1282001638047972  0.2725580269837745
  0.6498971242291470  0.1789086675140789  0.3942387528017990
  0.6596497631253412  0.0907134195175315  0.9130969035811639
  0.6436136996291486  0.1381100664740993  0.0690641194036999
  0.0183082332034958  0.4238304172874579  0.5429258566527375
  0.0197374336041898  0.4679739168223674  0.6684238830657176
  0.2097080544705640  0.6749606113663473  0.2323392133496890
  0.1659875196395618  0.6754926787801470  0.3548145746224415
  0.2549479314331980  0.6553510711839693  0.8815125913041394
  0.2116988375527337  0.6564360837900226  0.0277012969359060
  0.5592171227938704  0.0149794168767727  0.5892758821801305
  0.5133881718275527  0.0201209964599905  0.7110243228455714
  0.2596088087004600  0.0725893352071884  0.4410131086987329
  0.2174105462337438  0.1140746576011927  0.2900657546414645
  0.5963334634608701  0.4500142056034234  0.7899537918781483
  0.5501316472743022  0.4818264519092683  0.6331418571441794
  0.2338769834132683  0.1179266999955095  0.0896416703473285
  0.1900408171935824  0.1596659946157925  0.9614672160754567
  0.6253614151970263  0.2848175013444922  0.4586118734662057
  0.6217915519036027  0.2383194290662301  0.3232423502555818
  0.0080798397193218  0.5674315133892802  0.7552918971366344
  0.0043992829115758  0.5260609971127221  0.6037072413408138
  0.5996090852729499  0.2461800717970525  0.1259598185808306
  0.6093280977239806  0.1977668929744384  0.0037785812778434
  0.0815175307924097  0.6608654510796360  0.4320256199179513
  0.1249003358259455  0.6582576885210328  0.2852777093537281
  0.4242614233335114  0.0122581610543791  0.7841968992125250
  0.4698097591531811  0.0065787227152710  0.6402616418873851
  0.1264028352547447  0.6400875001027874  0.0802827832835427
  0.1707491747695100  0.6388977804454458  0.9583702270541804
  0.7666573376416536  0.9288424203774120  0.5755993734675260
  0.8064809504563005  0.8802218723609310  0.7142047021582939
  0.4135320711361174  0.5920806731165058  0.2122808831063693
  0.4578128363128122  0.5527848508226312  0.3626314318200765
  0.7914676444093940  0.8781931055362052  0.9186276272146343
  0.8311448388455543  0.8295633388849611  0.0350444607707301
  0.3289629608009116  0.7495993778346672  0.5541057855150241
  0.3364725433868363  0.7887778989912030  0.7030282274636007
  0.0007153150950108  0.3956666476070266  0.1851244340465703
  0.0019728554120607  0.4389991739415300  0.3361589106055525
  0.3531648249251608  0.7718752268332955  0.9069701077275566
  0.3604961666294196  0.8128326257053455  0.0324544274168183
  0.9253859161884057  0.3108703395421527  0.5154023887900372
  0.8784887583004894  0.3207510036501399  0.6572860583555866
  0.6045252029063978  0.9928819287561498  0.2407177029122337
  0.5600577275530033  0.9971484071866734  0.3849811037464481
  0.8800253864547232  0.3376648525384809  0.8611884806528867
  0.8338612250709653  0.3443339279203392  0.9838747633618649
  0.8990738003749755  0.7842556957815491  0.7539241484810936
  0.8597377137708583  0.8340294498173620  0.6382276765739323
  0.9214612537989419  0.7350553480267490  0.1002853785746482
  0.8840163425911403  0.7833000896164509  0.9588581932636394
  0.5626249190342228  0.4795644490073163  0.4257265663107684
  0.5161199254447456  0.5170241190488760  0.2974377972976169
  0.3337112205576609  0.8859541396314344  0.7606396007636246
  0.3267458732193712  0.8449890816897518  0.6353751207799078
  0.3574662412585118  0.9097607821987355  0.1119927136328040
  0.3504005356982640  0.8692639635749707  0.9650434540421086
  0.9876351880142514  0.5417750339443559  0.3987898963602896
  0.9865998409995363  0.4973229704162081  0.2715266737973947
  0.7823593842957858  0.3237255921089389  0.7086891715526958
  0.8306694105910259  0.3133633921758905  0.5881444578197380
  0.7412286089876896  0.3472366053322098  0.0685824729060974
  0.7858644419352182  0.3375721763590741  0.9154318153817924
  0.4706993476726564  0.9882308469712774  0.4355728426778580
  0.5164313649029365  0.9835918178329285  0.3139621992229449
  0.6811717115294219  0.5212625004650535  0.4112757121501525
  0.7556981849574139  0.1644755687266478  0.7287697138346514
  0.6114203174716435  0.3212163375897750  0.0035483232522246
  0.1468615504416707  0.1464078185414127  0.5019558839977325
  0.4823555630821247  0.5144625984538886  0.8551373864544000
  0.6641562205173913  0.1717751602803344  0.5509248958017341
  0.0327172349633981  0.4563578697902794  0.8246666559896672
  0.1644317625730057  0.6894950864791349  0.5109478310762020
  0.5123482768168066  0.0341293433975314  0.8669918048194514
  0.2020625461075126  0.1630312198802978  0.8083228851143608
  0.5941289757910606  0.2062419404989937  0.8482385450471038
  0.1724494661519079  0.6247993563995047  0.8022597421813988
  0.8199524536450769  0.8275849961763728  0.1906660713915111
  0.3735906981136768  0.8006148755249600  0.1884147746110971
  0.8381766340375407  0.3521142820276164  0.1432215158521214
  0.8708523966172128  0.8359418497261510  0.4823785617082103
  0.5257059000847173  0.5179881062802161  0.1398608287539569
  0.3140478031333785  0.8570459564930294  0.4790928866060452
  0.9741552744783800  0.5087960847454249  0.1147885699278194
  0.8300655622715094  0.3011976769650577  0.4305332646110124
  0.5172801801511867  0.9698881234443663  0.1577280925740936
  0.3120176024245679  0.6374162894964989  0.5112586307329410
  0.0546295705190072  0.2901906782002681  0.4849841671915875
  0.6471026159324905  0.0507292837964666  0.5246383585134372
  0.0233056059394471  0.6778595492586145  0.8014880468895497
  0.3662667288323252  0.0262163397904838  0.1541077129939404
  0.3042796195268879  0.0174610696315032  0.8177127309850991
  0.6154190888005752  0.3776193496415474  0.1538768971815075
  0.6720897105742587  0.2949172011040691  0.8446794819988735
  0.0266195614137978  0.6089485536272510  0.1322462484620257
  0.6649622478846451  0.9734077274438310  0.8751534430075535
  0.9849371346045851  0.2854114493326352  0.1408114560625834
  0.3787723789366310  0.6492546178202029  0.8296011534912093
  0.7267220696935800  0.9873385763576124  0.2046658211812138
  0.9765974050668492  0.3619207863760101  0.7976867629396943
  0.3050459134376123  0.7106024138436738  0.1832462604234582
  0.6917098865047164  0.4032542663013847  0.4841516421336362
  0.9597276077896194  0.6737870505951821  0.4669613664459025
  0.3729863841226095  0.9542463340497763  0.4848279015705810
  0.7561694451093909  0.4449393189318011  0.2489398144912336
  0.6672528385057684  0.5074352578251727  0.7422845859426412
  0.7571665458918341  0.0896040761005071  0.5366458684923826
  0.7656605063916744  0.2364264893901104  0.5567365435672003
 
  0.00000000E+00  0.00000000E+00  0.00000000E+00
  0.00000000E+00  0.00000000E+00  0.00000000E+00
  0.00000000E+00  0.00000000E+00  0.00000000E+00
  0.00000000E+00  0.00000000E+00  0.00000000E+00
  0.00000000E+00  0.00000000E+00  0.00000000E+00
  0.00000000E+00  0.00000000E+00  0.00000000E+00
  0.00000000E+00  0.00000000E+00  0.00000000E+00
  0.00000000E+00  0.00000000E+00  0.00000000E+00
  0.00000000E+00  0.00000000E+00  0.00000000E+00
  0.00000000E+00  0.00000000E+00  0.00000000E+00
  0.00000000E+00  0.00000000E+00  0.00000000E+00
  0.00000000E+00  0.00000000E+00  0.00000000E+00
  0.00000000E+00  0.00000000E+00  0.00000000E+00
  0.00000000E+00  0.00000000E+00  0.00000000E+00
  0.00000000E+00  0.00000000E+00  0.00000000E+00
  0.00000000E+00  0.00000000E+00  0.00000000E+00
  0.00000000E+00  0.00000000E+00  0.00000000E+00
  0.00000000E+00  0.00000000E+00  0.00000000E+00
  0.00000000E+00  0.00000000E+00  0.00000000E+00
  0.00000000E+00  0.00000000E+00  0.00000000E+00
  0.00000000E+00  0.00000000E+00  0.00000000E+00
  0.00000000E+00  0.00000000E+00  0.00000000E+00
  0.00000000E+00  0.00000000E+00  0.00000000E+00
  0.00000000E+00  0.00000000E+00  0.00000000E+00
  0.00000000E+00  0.00000000E+00  0.00000000E+00
  0.00000000E+00  0.00000000E+00  0.00000000E+00
  0.00000000E+00  0.00000000E+00  0.00000000E+00
  0.00000000E+00  0.00000000E+00  0.00000000E+00
  0.00000000E+00  0.00000000E+00  0.00000000E+00
  0.00000000E+00  0.00000000E+00  0.00000000E+00
  0.00000000E+00  0.00000000E+00  0.00000000E+00
  0.00000000E+00  0.00000000E+00  0.00000000E+00
  0.00000000E+00  0.00000000E+00  0.00000000E+00
  0.00000000E+00  0.00000000E+00  0.00000000E+00
  0.00000000E+00  0.00000000E+00  0.00000000E+00
  0.00000000E+00  0.00000000E+00  0.00000000E+00
  0.00000000E+00  0.00000000E+00  0.00000000E+00
  0.00000000E+00  0.00000000E+00  0.00000000E+00
  0.00000000E+00  0.00000000E+00  0.00000000E+00
  0.00000000E+00  0.00000000E+00  0.00000000E+00
  0.00000000E+00  0.00000000E+00  0.00000000E+00
  0.00000000E+00  0.00000000E+00  0.00000000E+00
  0.00000000E+00  0.00000000E+00  0.00000000E+00
  0.00000000E+00  0.00000000E+00  0.00000000E+00
  0.00000000E+00  0.00000000E+00  0.00000000E+00
  0.00000000E+00  0.00000000E+00  0.00000000E+00
  0.00000000E+00  0.00000000E+00  0.00000000E+00
  0.00000000E+00  0.00000000E+00  0.00000000E+00
  0.00000000E+00  0.00000000E+00  0.00000000E+00
  0.00000000E+00  0.00000000E+00  0.00000000E+00
  0.00000000E+00  0.00000000E+00  0.00000000E+00
  0.00000000E+00  0.00000000E+00  0.00000000E+00
  0.00000000E+00  0.00000000E+00  0.00000000E+00
  0.00000000E+00  0.00000000E+00  0.00000000E+00
  0.00000000E+00  0.00000000E+00  0.00000000E+00
  0.00000000E+00  0.00000000E+00  0.00000000E+00
  0.00000000E+00  0.00000000E+00  0.00000000E+00
  0.00000000E+00  0.00000000E+00  0.00000000E+00
  0.00000000E+00  0.00000000E+00  0.00000000E+00
  0.00000000E+00  0.00000000E+00  0.00000000E+00
  0.00000000E+00  0.00000000E+00  0.00000000E+00
  0.00000000E+00  0.00000000E+00  0.00000000E+00
  0.00000000E+00  0.00000000E+00  0.00000000E+00
  0.00000000E+00  0.00000000E+00  0.00000000E+00
  0.00000000E+00  0.00000000E+00  0.00000000E+00
  0.00000000E+00  0.00000000E+00  0.00000000E+00
  0.00000000E+00  0.00000000E+00  0.00000000E+00
  0.00000000E+00  0.00000000E+00  0.00000000E+00
  0.00000000E+00  0.00000000E+00  0.00000000E+00
  0.00000000E+00  0.00000000E+00  0.00000000E+00
  0.00000000E+00  0.00000000E+00  0.00000000E+00
  0.00000000E+00  0.00000000E+00  0.00000000E+00
  0.00000000E+00  0.00000000E+00  0.00000000E+00
  0.00000000E+00  0.00000000E+00  0.00000000E+00
  0.00000000E+00  0.00000000E+00  0.00000000E+00
  0.00000000E+00  0.00000000E+00  0.00000000E+00
  0.00000000E+00  0.00000000E+00  0.00000000E+00
  0.00000000E+00  0.00000000E+00  0.00000000E+00
  0.00000000E+00  0.00000000E+00  0.00000000E+00
  0.00000000E+00  0.00000000E+00  0.00000000E+00
  0.00000000E+00  0.00000000E+00  0.00000000E+00
  0.00000000E+00  0.00000000E+00  0.00000000E+00
  0.00000000E+00  0.00000000E+00  0.00000000E+00
  0.00000000E+00  0.00000000E+00  0.00000000E+00
  0.00000000E+00  0.00000000E+00  0.00000000E+00
  0.00000000E+00  0.00000000E+00  0.00000000E+00
  0.00000000E+00  0.00000000E+00  0.00000000E+00
  0.00000000E+00  0.00000000E+00  0.00000000E+00
  0.00000000E+00  0.00000000E+00  0.00000000E+00
  0.00000000E+00  0.00000000E+00  0.00000000E+00
  0.00000000E+00  0.00000000E+00  0.00000000E+00
  0.00000000E+00  0.00000000E+00  0.00000000E+00
  0.00000000E+00  0.00000000E+00  0.00000000E+00
  0.00000000E+00  0.00000000E+00  0.00000000E+00
  0.00000000E+00  0.00000000E+00  0.00000000E+00
  0.00000000E+00  0.00000000E+00  0.00000000E+00
  0.00000000E+00  0.00000000E+00  0.00000000E+00
  0.00000000E+00  0.00000000E+00  0.00000000E+00
  0.00000000E+00  0.00000000E+00  0.00000000E+00
  0.00000000E+00  0.00000000E+00  0.00000000E+00
  0.00000000E+00  0.00000000E+00  0.00000000E+00
  0.00000000E+00  0.00000000E+00  0.00000000E+00
  0.00000000E+00  0.00000000E+00  0.00000000E+00
  0.00000000E+00  0.00000000E+00  0.00000000E+00
  0.00000000E+00  0.00000000E+00  0.00000000E+00
  0.00000000E+00  0.00000000E+00  0.00000000E+00
  0.00000000E+00  0.00000000E+00  0.00000000E+00
  0.00000000E+00  0.00000000E+00  0.00000000E+00
  0.00000000E+00  0.00000000E+00  0.00000000E+00
  0.00000000E+00  0.00000000E+00  0.00000000E+00
  0.00000000E+00  0.00000000E+00  0.00000000E+00
  0.00000000E+00  0.00000000E+00  0.00000000E+00
  0.00000000E+00  0.00000000E+00  0.00000000E+00
  0.00000000E+00  0.00000000E+00  0.00000000E+00
  0.00000000E+00  0.00000000E+00  0.00000000E+00
  0.00000000E+00  0.00000000E+00  0.00000000E+00
  0.00000000E+00  0.00000000E+00  0.00000000E+00
  0.00000000E+00  0.00000000E+00  0.00000000E+00
  0.00000000E+00  0.00000000E+00  0.00000000E+00
  0.00000000E+00  0.00000000E+00  0.00000000E+00
  0.00000000E+00  0.00000000E+00  0.00000000E+00
  0.00000000E+00  0.00000000E+00  0.00000000E+00
  0.00000000E+00  0.00000000E+00  0.00000000E+00
  0.00000000E+00  0.00000000E+00  0.00000000E+00
  0.00000000E+00  0.00000000E+00  0.00000000E+00
  0.00000000E+00  0.00000000E+00  0.00000000E+00
  0.00000000E+00  0.00000000E+00  0.00000000E+00
  0.00000000E+00  0.00000000E+00  0.00000000E+00
  0.00000000E+00  0.00000000E+00  0.00000000E+00
  0.00000000E+00  0.00000000E+00  0.00000000E+00
  0.00000000E+00  0.00000000E+00  0.00000000E+00
  0.00000000E+00  0.00000000E+00  0.00000000E+00
  0.00000000E+00  0.00000000E+00  0.00000000E+00
  0.00000000E+00  0.00000000E+00  0.00000000E+00
  0.00000000E+00  0.00000000E+00  0.00000000E+00
  0.00000000E+00  0.00000000E+00  0.00000000E+00
  0.00000000E+00  0.00000000E+00  0.00000000E+00
  0.00000000E+00  0.00000000E+00  0.00000000E+00
  0.00000000E+00  0.00000000E+00  0.00000000E+00
  0.00000000E+00  0.00000000E+00  0.00000000E+00
  0.00000000E+00  0.00000000E+00  0.00000000E+00
  0.00000000E+00  0.00000000E+00  0.00000000E+00
  0.00000000E+00  0.00000000E+00  0.00000000E+00
  0.00000000E+00  0.00000000E+00  0.00000000E+00
  0.00000000E+00  0.00000000E+00  0.00000000E+00
  0.00000000E+00  0.00000000E+00  0.00000000E+00
  0.00000000E+00  0.00000000E+00  0.00000000E+00
  0.00000000E+00  0.00000000E+00  0.00000000E+00
  0.00000000E+00  0.00000000E+00  0.00000000E+00
  0.00000000E+00  0.00000000E+00  0.00000000E+00
  0.00000000E+00  0.00000000E+00  0.00000000E+00
  0.00000000E+00  0.00000000E+00  0.00000000E+00
  0.00000000E+00  0.00000000E+00  0.00000000E+00
  0.00000000E+00  0.00000000E+00  0.00000000E+00
  0.00000000E+00  0.00000000E+00  0.00000000E+00
  0.00000000E+00  0.00000000E+00  0.00000000E+00
  0.00000000E+00  0.00000000E+00  0.00000000E+00
  0.00000000E+00  0.00000000E+00  0.00000000E+00
  0.00000000E+00  0.00000000E+00  0.00000000E+00
  0.00000000E+00  0.00000000E+00  0.00000000E+00
  0.00000000E+00  0.00000000E+00  0.00000000E+00
  0.00000000E+00  0.00000000E+00  0.00000000E+00
  0.00000000E+00  0.00000000E+00  0.00000000E+00
  0.00000000E+00  0.00000000E+00  0.00000000E+00
  0.00000000E+00  0.00000000E+00  0.00000000E+00
  0.00000000E+00  0.00000000E+00  0.00000000E+00
  0.00000000E+00  0.00000000E+00  0.00000000E+00
  0.00000000E+00  0.00000000E+00  0.00000000E+00
  0.00000000E+00  0.00000000E+00  0.00000000E+00
  0.00000000E+00  0.00000000E+00  0.00000000E+00
  0.00000000E+00  0.00000000E+00  0.00000000E+00
  0.00000000E+00  0.00000000E+00  0.00000000E+00
  0.00000000E+00  0.00000000E+00  0.00000000E+00
  0.00000000E+00  0.00000000E+00  0.00000000E+00
  0.00000000E+00  0.00000000E+00  0.00000000E+00
