O  C  H  Co Li                          
   1.00000000000000     
    25.7673271547644731   -0.2234502460213347   -0.2042668468683805
    12.6873608784258849   22.1655097270708339   -0.1493653995911330
    -0.0538762210838769   -0.0144064307841267    6.7003948516763128
   O    C    H    Co   Li
    60    75    18    18     4
Direct
  0.0614427614645439  0.2408630506138570  0.2982790701704759
  0.0371614897469940  0.2869824915868294  0.9346508376794832
  0.1066024812129181  0.2526544671896242  0.7010157765415914
  0.3908513396921668  0.5872610278435928  0.6461199804596889
  0.6990190276441126  0.0666704917507796  0.3551792350238713
  0.6957071742249780  0.0293326138825893  0.9502307207900427
  0.6386923952393834  0.1000395970020030  0.7341424674978254
  0.0178581302748553  0.3839006674877253  0.6342783294200205
  0.2507474947922267  0.6996997927790762  0.3086055300708910
  0.2907070108590565  0.6872639591343238  0.9189118763253994
  0.2601474474963139  0.6413643042744889  0.7039744393099692
  0.6017941505426859  0.0209815859792468  0.6691579074609456
  0.3117426205988807  0.0424042376778700  0.3863144551421368
  0.2392681983297105  0.0741786370131544  0.6072569421739843
  0.6472658618023750  0.4275026169126918  0.7642462138539549
  0.5730525176327301  0.4300446359927387  0.9423022301562606
  0.2858600093901064  0.0846625626194093  0.0091018963488036
  0.6201812138768453  0.3255206100718314  0.3906140370923223
  0.6347948348078760  0.2610505994320801  0.6355740011357521
 -0.0003140930520565  0.6248252743702942  0.7115198529733181
  0.0358964766860114  0.5512640772910863  0.9330618195459675
  0.5678347001755053  0.2961164833690667  0.0345894014970717
  0.0525043639460464  0.6447020071122491  0.3828509760051311
  0.0842158703629453  0.6882094034568011  0.6034822125501749
  0.3840955975132275 -0.0030354624072831  0.7202769461551660
  0.4205997454466454  0.0332135909041802  0.9516231356363291
  0.0934147466975077  0.6298111209021925  0.0001740019115619
  0.7124952140377558  0.9569724050795205  0.6174938347586928
  0.7868103507470947  0.9324634111352017  0.4075373179871629
  0.3606569163902826  0.6260569587530476  0.2506232556955115
  0.4339148474114019  0.5996258242901937  0.0359124502892638
  0.7423737530606622  0.9161355127270000  0.0025979486911573
  0.3533880333746481  0.6961508473549173  0.5891276098126572
  0.3138660530264177  0.7713310394304239  0.3754383990402851
  0.9939778876617955  0.3608407857177658  0.2714580356211536
  0.9657888105266429  0.4292152763458150  0.0313272264128646
  0.3675595495968497  0.7218490719596989  0.9791300335645449
  0.9649861458631973  0.3157449506571349  0.5984034592036906
  0.9246094115923347  0.2882559252661123  0.3503102860630251
  0.6403888757539075  0.0105136736341675  0.2846858079727341
  0.6074112592307712  0.9683063657084497  0.0642522659896061
  0.9193151995948574  0.3390714578370765  0.9557506435704369
  0.9530140404021947  0.7416245650792144  0.6721978599640660
  0.9795280330967387  0.6971175976704251  0.0476045420646661
  0.9083903134552598  0.7348909607637913  0.2745555659568342
  0.6137968968527364  0.4311964839580057  0.3451735915230616
  0.3220248814747397  0.9420063796750191  0.6769842349067472
  0.3391928795549475  0.9675416044699733  0.0527284033156988
  0.3748883006731376  0.8955568172014922  0.2808099234156476
  0.9821509190207676  0.5997588483282829  0.3298725424461912
  0.7343363611943422  0.3119929715021927  0.6282156133393004
  0.7021578100300651  0.3166964153251930  0.0520297793933757
  0.7386429721304097  0.3653252558896029  0.2280650005100745
  0.4268338373461482  0.9784857168797408  0.3470720575107569
  0.7194829765130282  0.4508597342021154  0.5130780236435065
  0.6440817472661968  0.5463447327030911  0.5275694399139780
  0.6971702558967203  0.5100436824230066  0.2401461601202883
  0.7768320764507903  0.1497939623358396  0.5478099105148244
  0.7439102055386546  0.2072072464999691  0.8231654489150584
  0.7447743631976426  0.1173371479605781  0.8007453047344099
  0.1155773110536025  0.2037480761352333  0.2232224118719879
  0.1584024843100608  0.1605191721911731  0.3495915207479827
  0.0904110076005773  0.2506564358259643  0.8770655352049501
  0.1319688229393480  0.2062264369409980  0.0224460571894579
  0.4444617540203178  0.5525985984630476  0.5627230910891926
  0.4900687673258455  0.5131735381957131  0.6905310651224077
  0.6635884952039559  0.1215511063535276  0.2679770470201280
  0.6493913837865872  0.1717677071708678  0.3890133873543203
  0.6601889725014676  0.0847415107121187  0.9095453581373657
  0.6437825508825180  0.1314456499580365  0.0652677668457483
  0.0086040359496888  0.4360834693478503  0.5560265937685486
  0.0159128865633201  0.4762933429797629  0.6803856604723031
  0.2133552826758613  0.6826504052908099  0.2272066284737522
  0.1702659253232390  0.6824039924324571  0.3508247191698991
  0.2578114841273387  0.6638030118766678  0.8765639238991912
  0.2154777006420460  0.6640413821055687  0.0242949012976747
  0.5590770129762449  0.0118767447065349  0.5840601361842451
  0.5128855193577280  0.0177424745798871  0.7051150549466219
  0.2571483037920539  0.0769754630187672  0.4344830071379279
  0.2159706922704526  0.1206215959675566  0.2865341739579512
  0.5926536149980323  0.4413574686132919  0.7855175979994089
  0.5477457593636993  0.4755446366472441  0.6274398727453333
  0.2322432479808849  0.1226136784960004  0.0850431760895133
  0.1893947785986985  0.1661890672132466  0.9588553374347886
  0.6235070971848566  0.2769536534239637  0.4526899078258379
  0.6204497342018771  0.2307201052837000  0.3186301779757335
  0.0151763833695383  0.5704887557832765  0.7599356767040031
  0.0067040767679446  0.5316988509852729  0.6127078269275021
  0.5981092213779422  0.2385348338460441  0.1223693350810976
  0.6086939498278461  0.1905877188168145  0.0006655403881279
  0.0869016562690429  0.6663501806912897  0.4305131120910944
  0.1300824783012763  0.6641785363416017  0.2839413691394830
  0.4221082514388618  0.0130720117457440  0.7766118881988355
  0.4683461792724773  0.0061538025511831  0.6339821389264200
  0.1318903489415511  0.6456142719827160  0.0808328335036076
  0.1755080694775276  0.6453359950060802  0.9579248713767696
  0.7674775346367949  0.9249624629262095  0.5731074830566918
  0.8081470072178454  0.8776369579231958  0.7128596421576692
  0.4161049715360194  0.5946203928920812  0.2069281995317180
  0.4585878769168817  0.5528683220620219  0.3569297015226966
  0.7933438592175085  0.8756910567901159  0.9167831136125366
  0.8344850585046064  0.8286422881819986  0.0347953923984229
  0.3350749789233587  0.7520224940881296  0.5478197762962961
  0.3408965503785240  0.7911982221199422  0.6967973510274368
  0.9829970544869602  0.4128090223107430  0.2092904360529916
  0.9917388779534019  0.4525106548591897  0.3525345556906435
  0.3578654775850847  0.7742754893514388  0.8996573396440444
  0.3628194211059293  0.8158615610690690  0.0250833529255582
  0.9242526773150663  0.3051161049468385  0.5294089136376036
  0.8763412576192713  0.3136951978299157  0.6668015069646384
  0.6043937618195211  0.9901088411495924  0.2370441102943758
  0.5593802572114753  0.9951951424066218  0.3801152960167752
  0.8774920340458925  0.3290471898012413  0.8714078040460718
  0.8317637012880507  0.3336823199028971  0.9918161602696743
  0.9030644576624332  0.7845300434770978  0.7559453002398637
  0.8624070244345244  0.8328223714492612  0.6387853355936418
  0.9267961746963762  0.7361801238212630  0.1012040639916297
  0.8882880177982811  0.7836817984551948  0.9601959223972149
  0.5610019123363328  0.4724781128880157  0.4208966802394065
  0.5161759020147746  0.5127696390985014  0.2927452121162651
  0.3331483243145995  0.8892510704418417  0.7553206772703578
  0.3285978956872143  0.8477301402457778  0.6302134324393938
  0.3556667347298873  0.9132515356955959  0.1052730244483292
  0.3502421803896515  0.8725665114662206  0.9587147613441370
  0.9902636284941891  0.5481869858502787  0.4086365549086633
  0.9827863681134051  0.5077712369788021  0.2843291752238760
  0.7809874785184681  0.3147398063583091  0.7134650090028428
  0.8291084712492216  0.3062512891565545  0.5948070196666826
  0.7387361047422277  0.3365910129497780  0.0699400038109676
  0.7840594800257817  0.3271361807420503  0.9202029613222259
  0.4687112972334431  0.9888798946303587  0.4298045528252648
  0.5148322308514869  0.9834797100508067  0.3088090035959614
  0.6836530654697466  0.5070691640960528  0.4192058548211260
  0.7547196163402213  0.1571652868001515  0.7283094909140608
  0.6079474088496475  0.3134747205073830  0.9966793232548912
  0.1465036344232769  0.1583817569380959  0.5034173322331640
  0.4795493307232539  0.5138177122182689  0.8475443815624245
  0.6637036187582871  0.1645840811502933  0.5450327574668493
  0.0288038566546829  0.4640539098577331  0.8358744850318688
  0.1684895611416591  0.6965441215623908  0.5057160922106509
  0.5122755578355260  0.0309464065396656  0.8606692521712904
  0.2012859154680935  0.1683601203745723  0.8050084151417051
  0.5935057039164227  0.1991208006532594  0.8457170430501787
  0.1775175310728045  0.6310081819527709  0.8031857255144677
  0.8235942143505860  0.8267021407802830  0.1901259630840183
  0.3759517351977476  0.8039300429291164  0.1804868751599811
  0.8362296027550863  0.3399148592519306  0.1514233099185668
  0.8732320329943511  0.8346175199412001  0.4832392586437048
  0.5264492567215172  0.5126700186006453  0.1359313379704471
  0.3156901524886033  0.8594910277505649  0.4746537087497605
  0.9698969474578643  0.5199820524224584  0.1288118751115249
  0.8284980066704988  0.2953476525296536  0.4370086041663316
  0.5152163889483307  0.9706174708101095  0.1529546183686345
  0.3139289802962655  0.6454048131233344  0.5047579801456060
  0.0428415799620870  0.3041087082458893  0.4993578020272329
  0.6479408967983871  0.0454376368569049  0.5213724738002928
  0.0302428457445961  0.6810304881333874  0.8028679343687424
  0.3640944881440394  0.0278474583221439  0.1462804771867726
  0.3008281849584313  0.0206915468725013  0.8105236632802839
  0.6115206529148510  0.3694947068846742  0.1445029209368333
  0.6693802654787774  0.2870401967357036  0.8408967251526784
  0.0339654198086788  0.6112885503840586  0.1348927966171552
  0.6654841490186589  0.9693043032015163  0.8717564659701218
  0.9820821446108050  0.2942909891972648  0.1609528012387911
  0.3835061570048413  0.6524975764065509  0.8238978406974315
  0.7274807831760117  0.9823693672700275  0.2011239044886720
  0.9732070762193542  0.3659439012841758  0.8305946702033798
  0.3103756024860361  0.7153491814967081  0.1756480541464111
  0.6889213919746435  0.3920706010733695  0.4844076885738786
  0.9662996728030077  0.6769760596342045  0.4699879015206582
  0.3695598216101750  0.9573437059818216  0.4787440402386641
  0.7572612496400505  0.4298609964994192  0.2558239538910769
  0.6687233643905253  0.4921665873548043  0.7458052886133696
  0.7576603793145598  0.0835433341539534  0.5338292297893483
  0.7656895488004916  0.2280941846020987  0.5620384990472473
 
  0.00000000E+00  0.00000000E+00  0.00000000E+00
  0.00000000E+00  0.00000000E+00  0.00000000E+00
  0.00000000E+00  0.00000000E+00  0.00000000E+00
  0.00000000E+00  0.00000000E+00  0.00000000E+00
  0.00000000E+00  0.00000000E+00  0.00000000E+00
  0.00000000E+00  0.00000000E+00  0.00000000E+00
  0.00000000E+00  0.00000000E+00  0.00000000E+00
  0.00000000E+00  0.00000000E+00  0.00000000E+00
  0.00000000E+00  0.00000000E+00  0.00000000E+00
  0.00000000E+00  0.00000000E+00  0.00000000E+00
  0.00000000E+00  0.00000000E+00  0.00000000E+00
  0.00000000E+00  0.00000000E+00  0.00000000E+00
  0.00000000E+00  0.00000000E+00  0.00000000E+00
  0.00000000E+00  0.00000000E+00  0.00000000E+00
  0.00000000E+00  0.00000000E+00  0.00000000E+00
  0.00000000E+00  0.00000000E+00  0.00000000E+00
  0.00000000E+00  0.00000000E+00  0.00000000E+00
  0.00000000E+00  0.00000000E+00  0.00000000E+00
  0.00000000E+00  0.00000000E+00  0.00000000E+00
  0.00000000E+00  0.00000000E+00  0.00000000E+00
  0.00000000E+00  0.00000000E+00  0.00000000E+00
  0.00000000E+00  0.00000000E+00  0.00000000E+00
  0.00000000E+00  0.00000000E+00  0.00000000E+00
  0.00000000E+00  0.00000000E+00  0.00000000E+00
  0.00000000E+00  0.00000000E+00  0.00000000E+00
  0.00000000E+00  0.00000000E+00  0.00000000E+00
  0.00000000E+00  0.00000000E+00  0.00000000E+00
  0.00000000E+00  0.00000000E+00  0.00000000E+00
  0.00000000E+00  0.00000000E+00  0.00000000E+00
  0.00000000E+00  0.00000000E+00  0.00000000E+00
  0.00000000E+00  0.00000000E+00  0.00000000E+00
  0.00000000E+00  0.00000000E+00  0.00000000E+00
  0.00000000E+00  0.00000000E+00  0.00000000E+00
  0.00000000E+00  0.00000000E+00  0.00000000E+00
  0.00000000E+00  0.00000000E+00  0.00000000E+00
  0.00000000E+00  0.00000000E+00  0.00000000E+00
  0.00000000E+00  0.00000000E+00  0.00000000E+00
  0.00000000E+00  0.00000000E+00  0.00000000E+00
  0.00000000E+00  0.00000000E+00  0.00000000E+00
  0.00000000E+00  0.00000000E+00  0.00000000E+00
  0.00000000E+00  0.00000000E+00  0.00000000E+00
  0.00000000E+00  0.00000000E+00  0.00000000E+00
  0.00000000E+00  0.00000000E+00  0.00000000E+00
  0.00000000E+00  0.00000000E+00  0.00000000E+00
  0.00000000E+00  0.00000000E+00  0.00000000E+00
  0.00000000E+00  0.00000000E+00  0.00000000E+00
  0.00000000E+00  0.00000000E+00  0.00000000E+00
  0.00000000E+00  0.00000000E+00  0.00000000E+00
  0.00000000E+00  0.00000000E+00  0.00000000E+00
  0.00000000E+00  0.00000000E+00  0.00000000E+00
  0.00000000E+00  0.00000000E+00  0.00000000E+00
  0.00000000E+00  0.00000000E+00  0.00000000E+00
  0.00000000E+00  0.00000000E+00  0.00000000E+00
  0.00000000E+00  0.00000000E+00  0.00000000E+00
  0.00000000E+00  0.00000000E+00  0.00000000E+00
  0.00000000E+00  0.00000000E+00  0.00000000E+00
  0.00000000E+00  0.00000000E+00  0.00000000E+00
  0.00000000E+00  0.00000000E+00  0.00000000E+00
  0.00000000E+00  0.00000000E+00  0.00000000E+00
  0.00000000E+00  0.00000000E+00  0.00000000E+00
  0.00000000E+00  0.00000000E+00  0.00000000E+00
  0.00000000E+00  0.00000000E+00  0.00000000E+00
  0.00000000E+00  0.00000000E+00  0.00000000E+00
  0.00000000E+00  0.00000000E+00  0.00000000E+00
  0.00000000E+00  0.00000000E+00  0.00000000E+00
  0.00000000E+00  0.00000000E+00  0.00000000E+00
  0.00000000E+00  0.00000000E+00  0.00000000E+00
  0.00000000E+00  0.00000000E+00  0.00000000E+00
  0.00000000E+00  0.00000000E+00  0.00000000E+00
  0.00000000E+00  0.00000000E+00  0.00000000E+00
  0.00000000E+00  0.00000000E+00  0.00000000E+00
  0.00000000E+00  0.00000000E+00  0.00000000E+00
  0.00000000E+00  0.00000000E+00  0.00000000E+00
  0.00000000E+00  0.00000000E+00  0.00000000E+00
  0.00000000E+00  0.00000000E+00  0.00000000E+00
  0.00000000E+00  0.00000000E+00  0.00000000E+00
  0.00000000E+00  0.00000000E+00  0.00000000E+00
  0.00000000E+00  0.00000000E+00  0.00000000E+00
  0.00000000E+00  0.00000000E+00  0.00000000E+00
  0.00000000E+00  0.00000000E+00  0.00000000E+00
  0.00000000E+00  0.00000000E+00  0.00000000E+00
  0.00000000E+00  0.00000000E+00  0.00000000E+00
  0.00000000E+00  0.00000000E+00  0.00000000E+00
  0.00000000E+00  0.00000000E+00  0.00000000E+00
  0.00000000E+00  0.00000000E+00  0.00000000E+00
  0.00000000E+00  0.00000000E+00  0.00000000E+00
  0.00000000E+00  0.00000000E+00  0.00000000E+00
  0.00000000E+00  0.00000000E+00  0.00000000E+00
  0.00000000E+00  0.00000000E+00  0.00000000E+00
  0.00000000E+00  0.00000000E+00  0.00000000E+00
  0.00000000E+00  0.00000000E+00  0.00000000E+00
  0.00000000E+00  0.00000000E+00  0.00000000E+00
  0.00000000E+00  0.00000000E+00  0.00000000E+00
  0.00000000E+00  0.00000000E+00  0.00000000E+00
  0.00000000E+00  0.00000000E+00  0.00000000E+00
  0.00000000E+00  0.00000000E+00  0.00000000E+00
  0.00000000E+00  0.00000000E+00  0.00000000E+00
  0.00000000E+00  0.00000000E+00  0.00000000E+00
  0.00000000E+00  0.00000000E+00  0.00000000E+00
  0.00000000E+00  0.00000000E+00  0.00000000E+00
  0.00000000E+00  0.00000000E+00  0.00000000E+00
  0.00000000E+00  0.00000000E+00  0.00000000E+00
  0.00000000E+00  0.00000000E+00  0.00000000E+00
  0.00000000E+00  0.00000000E+00  0.00000000E+00
  0.00000000E+00  0.00000000E+00  0.00000000E+00
  0.00000000E+00  0.00000000E+00  0.00000000E+00
  0.00000000E+00  0.00000000E+00  0.00000000E+00
  0.00000000E+00  0.00000000E+00  0.00000000E+00
  0.00000000E+00  0.00000000E+00  0.00000000E+00
  0.00000000E+00  0.00000000E+00  0.00000000E+00
  0.00000000E+00  0.00000000E+00  0.00000000E+00
  0.00000000E+00  0.00000000E+00  0.00000000E+00
  0.00000000E+00  0.00000000E+00  0.00000000E+00
  0.00000000E+00  0.00000000E+00  0.00000000E+00
  0.00000000E+00  0.00000000E+00  0.00000000E+00
  0.00000000E+00  0.00000000E+00  0.00000000E+00
  0.00000000E+00  0.00000000E+00  0.00000000E+00
  0.00000000E+00  0.00000000E+00  0.00000000E+00
  0.00000000E+00  0.00000000E+00  0.00000000E+00
  0.00000000E+00  0.00000000E+00  0.00000000E+00
  0.00000000E+00  0.00000000E+00  0.00000000E+00
  0.00000000E+00  0.00000000E+00  0.00000000E+00
  0.00000000E+00  0.00000000E+00  0.00000000E+00
  0.00000000E+00  0.00000000E+00  0.00000000E+00
  0.00000000E+00  0.00000000E+00  0.00000000E+00
  0.00000000E+00  0.00000000E+00  0.00000000E+00
  0.00000000E+00  0.00000000E+00  0.00000000E+00
  0.00000000E+00  0.00000000E+00  0.00000000E+00
  0.00000000E+00  0.00000000E+00  0.00000000E+00
  0.00000000E+00  0.00000000E+00  0.00000000E+00
  0.00000000E+00  0.00000000E+00  0.00000000E+00
  0.00000000E+00  0.00000000E+00  0.00000000E+00
  0.00000000E+00  0.00000000E+00  0.00000000E+00
  0.00000000E+00  0.00000000E+00  0.00000000E+00
  0.00000000E+00  0.00000000E+00  0.00000000E+00
  0.00000000E+00  0.00000000E+00  0.00000000E+00
  0.00000000E+00  0.00000000E+00  0.00000000E+00
  0.00000000E+00  0.00000000E+00  0.00000000E+00
  0.00000000E+00  0.00000000E+00  0.00000000E+00
  0.00000000E+00  0.00000000E+00  0.00000000E+00
  0.00000000E+00  0.00000000E+00  0.00000000E+00
  0.00000000E+00  0.00000000E+00  0.00000000E+00
  0.00000000E+00  0.00000000E+00  0.00000000E+00
  0.00000000E+00  0.00000000E+00  0.00000000E+00
  0.00000000E+00  0.00000000E+00  0.00000000E+00
  0.00000000E+00  0.00000000E+00  0.00000000E+00
  0.00000000E+00  0.00000000E+00  0.00000000E+00
  0.00000000E+00  0.00000000E+00  0.00000000E+00
  0.00000000E+00  0.00000000E+00  0.00000000E+00
  0.00000000E+00  0.00000000E+00  0.00000000E+00
  0.00000000E+00  0.00000000E+00  0.00000000E+00
  0.00000000E+00  0.00000000E+00  0.00000000E+00
  0.00000000E+00  0.00000000E+00  0.00000000E+00
  0.00000000E+00  0.00000000E+00  0.00000000E+00
  0.00000000E+00  0.00000000E+00  0.00000000E+00
  0.00000000E+00  0.00000000E+00  0.00000000E+00
  0.00000000E+00  0.00000000E+00  0.00000000E+00
  0.00000000E+00  0.00000000E+00  0.00000000E+00
  0.00000000E+00  0.00000000E+00  0.00000000E+00
  0.00000000E+00  0.00000000E+00  0.00000000E+00
  0.00000000E+00  0.00000000E+00  0.00000000E+00
  0.00000000E+00  0.00000000E+00  0.00000000E+00
  0.00000000E+00  0.00000000E+00  0.00000000E+00
  0.00000000E+00  0.00000000E+00  0.00000000E+00
  0.00000000E+00  0.00000000E+00  0.00000000E+00
  0.00000000E+00  0.00000000E+00  0.00000000E+00
  0.00000000E+00  0.00000000E+00  0.00000000E+00
  0.00000000E+00  0.00000000E+00  0.00000000E+00
  0.00000000E+00  0.00000000E+00  0.00000000E+00
  0.00000000E+00  0.00000000E+00  0.00000000E+00
  0.00000000E+00  0.00000000E+00  0.00000000E+00
  0.00000000E+00  0.00000000E+00  0.00000000E+00
  0.00000000E+00  0.00000000E+00  0.00000000E+00
  0.00000000E+00  0.00000000E+00  0.00000000E+00
  0.00000000E+00  0.00000000E+00  0.00000000E+00
