O  C  H  Co Li                          
   1.00000000000000     
    25.7460304917293890   -0.4004084846056415   -0.2246389080080382
    12.5217906968009558   21.8694238222423074   -0.2021313175562773
    -0.0594473253786229   -0.0268437846853099    6.6683001741909047
   O    C    H    Co   Li
    60    75    18    18     4
Direct
  0.0598494298509470  0.2260695886015057  0.2948163861592877
  0.0332857990201364  0.2651039518513248  0.8976354733760706
  0.1093857076627051  0.2405263453479377  0.6972746789916713
  0.3903906602095503  0.5816077137824823  0.6520107189338796
  0.6981050481425917  0.0726334473832553  0.3594399100633016
  0.6947978369590424  0.0347603444139890  0.9534620933559581
  0.6381612763684451  0.1060245103677319  0.7369149398180492
  0.0328891236832701  0.3700874777258749  0.6264206895268264
  0.2479336675836190  0.6911843038983480  0.3158691337216463
  0.2870308083019643  0.6803039680108663  0.9247711074222553
  0.2588993136637412  0.6310189546514386  0.7095193947328426
  0.6012385799984343  0.0255347370284925  0.6740643609556054
  0.3148097646137285  0.0413080160539313  0.3972273242433273
  0.2416868686064967  0.0688708500430949  0.6134570610282872
  0.6499796858294331  0.4387666287353181  0.7659334851158807
  0.5783758003763698  0.4372897007334841  0.9487939396056677
  0.2882337735903387  0.0830373929950219  0.0154461133115038
  0.6229729727244935  0.3336587596206786  0.3985854738257587
  0.6363913750775019  0.2685676591358607  0.6421287431008329
  0.9869341431739433  0.6242240176127715  0.7151756728948496
  0.0305661365777389  0.5479439360912552  0.9269165616356172
  0.5706097069761076  0.3041034658326220  0.0375858152516847
  0.0475216199099342  0.6380119726240693  0.3868532394374746
  0.0786225431992716  0.6839216443074131  0.6045897922860169
  0.3879143110007803  0.9931487704341968  0.7301926874690994
  0.4216874677854689  0.0340217650820326  0.9587946162842151
  0.0871930345404259  0.6253895650863486 -0.0026089218311926
  0.7118837172347308  0.9614004564777837  0.6202490602285272
  0.7862945586114038  0.9366178477861827  0.4103955585960894
  0.3580988315897065  0.6200484592563279  0.2549950645089401
  0.4305317215732888  0.5984097268124295  0.0404625088244355
  0.7414776903614159  0.9199996678949718  0.0059550365390335
  0.3467833135838081  0.6932774734348796  0.5957297320637516
  0.3075917664162503  0.7690113375915939  0.3813066836935312
  0.0213975896114702  0.3399502175562253  0.2329564500880964
  0.9797093976152232  0.4139526998720673  0.0095345363220434
  0.3607320185316003  0.7197447189475841  0.9864984456051863
  0.9644797126645592  0.3270027704835509  0.5654006213245587
  0.9269315633173394  0.2887646038255940  0.3415620277354023
  0.6396085357196537  0.0148686882893155  0.2869820826568589
  0.6077979278618068  0.9701181521376920  0.0675683943287366
  0.9229940443618955  0.3464182322622139  0.9477638187617219
  0.9480763267010867  0.7402303154583679  0.6683486619844768
  0.9752860601582557  0.6972225356209527  0.0522622800813206
  0.9019391307663515  0.7322684465973445  0.2705477845591356
  0.6162804650094550  0.4410200982133368  0.3485021657421819
  0.3249465748415866  0.9384237034629160  0.6817877446562092
  0.3406996137384188  0.9650020970942852  0.0616699999259440
  0.3775093388255867  0.8915464692527026  0.2867471544746927
  0.9743932825623558  0.5959109532910685  0.3220560286960823
  0.7352385776547888  0.3212659599766671  0.6255355144466873
  0.7054897606825168  0.3256849385386607  0.0547208290312209
  0.7413089189836342  0.3769564587176091  0.2259215523209750
  0.4294597611188430  0.9763310414110374  0.3524690108234694
  0.7191564496071349  0.4656106761780325  0.5084178083822534
  0.6406105892756351  0.5599843390667100  0.5184509768568646
  0.6939778322434581  0.5240050029233311  0.2303207989845218
  0.7772485991724869  0.1565354323121538  0.5468808333228258
  0.7459846992479952  0.2149694699655307  0.8232080384329656
  0.7450382400683615  0.1247245859453495  0.8034411622773989
  0.1146132120331213  0.1920133101844088  0.2205399130050288
  0.1586921080551388  0.1503696508992267  0.3491122011480897
  0.0893342347532822  0.2361492370030083  0.8659450221667599
  0.1312309111543728  0.1959915906253564  0.0201175900928195
  0.4446703413916337  0.5511109265541745  0.5692160002011025
  0.4919828130837034  0.5149649778492071  0.6972578085215982
  0.6633462174667613  0.1280904175193574  0.2725066826006003
  0.6499041309354208  0.1787910426634500  0.3941886240061708
  0.6595946259328037  0.0906253877666585  0.9130166563988736
  0.6435820569292505  0.1380122712334108  0.0690122854600589
  0.0182371494486576  0.4240070564894385  0.5430087218332440
  0.0196740412104022  0.4681372254579832  0.6685140695174858
  0.2098141990632284  0.6749481624522266  0.2323053028268731
  0.1660892101406836  0.6754927773556980  0.3547852086633012
  0.2550509710902513  0.6553518033791198  0.8814041974246253
  0.2118058803294851  0.6564202021912345  0.0276680310945731
  0.5591865671690111  0.0148776385291390  0.5892517840739712
  0.5133403950890649  0.0200565688429985  0.7110141912902257
  0.2594910359451229  0.0727095387417364  0.4410150745574115
  0.2173040021826308  0.1142032461554643  0.2900678669649103
  0.5963472054840792  0.4498584037951553  0.7899594763800217
  0.5501594720517240  0.4817131612053679  0.6331023343464083
  0.2337798396479550  0.1180626423844122  0.0896705973680443
  0.1899476326641226  0.1598298081586883  0.9615360315482135
  0.6254329404306378  0.2846786966104371  0.4585830989802782
  0.6218252293450930  0.2382010342946845  0.3232007356318323
  0.0080549910442318  0.5675587981061478  0.7554115924964668
  0.0043688058172417  0.5262125951351664  0.6037911222203050
  0.5996301727826833  0.2460750592484277  0.1259154622720204
  0.6093140872696329  0.1976671103478495  0.0037389650029831
  0.0816289597868756  0.6608574784085830  0.4320343742619202
  0.1250084297596332  0.6582475404764575  0.2852481863834154
  0.4241749336225030  0.0122815857002809  0.7841952138281115
  0.4697277625584376  0.0065645800277136  0.6402381820551679
  0.1265187400529710  0.6400745519924337  0.0802592918723848
  0.1708614812392742  0.6388793549795501  0.9583285221445498
  0.7666628617396096  0.9287944865724332  0.5755656766529240
  0.8065048434288179  0.8801962320776425  0.7141732636245652
  0.4136346581636914  0.5920890663595885  0.2121965771797973
  0.4578918753376994  0.5527760071098670  0.3625997146709217
  0.7914907474796298  0.8781501503953772  0.9185985711323725
  0.8312120714612555  0.8295504771032765  0.0350462527069628
  0.3290565850499248  0.7495985541609156  0.5539905750926227
  0.3364891153509079  0.7888286215542466  0.7029708134068047
  0.0006227695881569  0.3958462503389367  0.1852034342484942
  0.0019093640181473  0.4391746069150292  0.3362362570216154
  0.3531989730248725  0.7719231682701029  0.9069080007149286
  0.3604771360691715  0.8129070709839649  0.0323889342751653
  0.9253231427620434  0.3110232798487264  0.5154301176241481
  0.8784625395099142  0.3207968316334469  0.6573356887831631
  0.6044985534123845  0.9927494353222964  0.2407225681726352
  0.5600250619645220  0.9970473529775259  0.3849712120482923
  0.8799864528802580  0.3377133109573452  0.8612824322965756
  0.8338517278848679  0.3443042340888061  0.9839467958649479
  0.8991574966649423  0.7842885541279717  0.7539373455650665
  0.8597874055916249  0.8340385342391526  0.6382198678869228
  0.9215747314821003  0.7351212919121989  0.1003429674593535
  0.8841118825087269  0.7833240040823876  0.9588955121831098
  0.5626715016342189  0.4794635021451604  0.4257185444954703
  0.5162030935490515  0.5169750171562434  0.2974370140843949
  0.3336038686194479  0.8860500869094281  0.7605454325371204
  0.3266886536107715  0.8450588775430231  0.6352968668602101
  0.3573100247299067  0.9098985394969771  0.1119783900618422
  0.3503041988811466  0.8693618715750761  0.9649499810374578
  0.9876283039923707  0.5419173597792464  0.3988648212236131
  0.9865694693085945  0.4974790028506647  0.2715801280939726
  0.7824273692266259  0.3235943967323027  0.7087140895210394
  0.8307045503520510  0.3133089292622757  0.5881730292274234
  0.7412800368463650  0.3470813428888965  0.0686134152962077
  0.7859113051022785  0.3374515815039801  0.9154630086017177
  0.4706061569031650  0.9882294094134902  0.4355316454726245
  0.5163703680850412  0.9835384712571213  0.3139390848499597
  0.6811972145759376  0.5210606342041798  0.4113207878712653
  0.7557067533039934  0.1643338142423217  0.7288572920937002
  0.6114859456970048  0.3210792703268752  0.0034806779974239
  0.1467441214615468  0.1465705798493359  0.5019990202247546
  0.4823816651095952  0.5143871091669421  0.8550799649680298
  0.6641589039033456  0.1716566657636401  0.5508842110665937
  0.0326185989759778  0.4565431154469474  0.8247927834414837
  0.1645155936031151  0.6895202192898146  0.5108921163988180
  0.5123142704816983  0.0340541619974741  0.8670282257188677
  0.2019666074659964  0.1632015405815003  0.8083871431399992
  0.5940893794623059  0.2061612513949785  0.8482212338164671
  0.1725688795856136  0.6247836377249841  0.8022156225569934
  0.8200403512943761  0.8275361444373842  0.1906770157971611
  0.3735986926301251  0.8006945342219169  0.1883130145164859
  0.8381470171854059  0.3520986563792537  0.1432654328712498
  0.8709074242567862  0.8359446276974103  0.4823522315952474
  0.5257935967911016  0.5179601008374496  0.1398634666770941
  0.3140018491210139  0.8570868072351826  0.4790234805628253
  0.9741066510986855  0.5089825064244238  0.1148581553017149
  0.8301186784143746  0.3011463770398649  0.4306021239647671
  0.5172131167703196  0.9698397539352966  0.1576726863338586
  0.3121287247351393  0.6374243217624378  0.5111674335626526
  0.0545407577824728  0.2903694894314313  0.4850528081307973
  0.6470593980468162  0.0506329027181126  0.5246201523147868
  0.0233853554974798  0.6779012713969012  0.8015356594871387
  0.3661383657574950  0.0263147898304567  0.1540770016686334
  0.3041473886457628  0.0175714390535319  0.8177528083627823
  0.6154646420272905  0.3774847306763808  0.1538405885482818
  0.6721678824366403  0.2947723807685318  0.8446555862396146
  0.0266769928511123  0.6090311976946052  0.1322832146731194
  0.6649445456620814  0.9732878664795386  0.8751347067094645
  0.9848613613959656  0.2855865802892576  0.1408577629034332
  0.3788829744598667  0.6492682776031773  0.8295145095756656
  0.7266875439259924  0.9872355963726482  0.2045623373440484
  0.9764785580604940  0.3620938530735964  0.7977124421383293
  0.3051467322895591  0.7105907173308756  0.1830949410842800
  0.6917457456891236  0.4030666058801343  0.4842017140145903
  0.9598264705710553  0.6738584412677624  0.4670487686753302
  0.3728471776888396  0.9543407863557775  0.4848494810660423
  0.7561951267593335  0.4447505544276983  0.2489965490788483
  0.6672779884309989  0.5072508512929289  0.7423294066243858
  0.7571474720073635  0.0894627311216138  0.5367658899263844
  0.7657205562667522  0.2362375809944415  0.5567848595012085
 
  0.00000000E+00  0.00000000E+00  0.00000000E+00
  0.00000000E+00  0.00000000E+00  0.00000000E+00
  0.00000000E+00  0.00000000E+00  0.00000000E+00
  0.00000000E+00  0.00000000E+00  0.00000000E+00
  0.00000000E+00  0.00000000E+00  0.00000000E+00
  0.00000000E+00  0.00000000E+00  0.00000000E+00
  0.00000000E+00  0.00000000E+00  0.00000000E+00
  0.00000000E+00  0.00000000E+00  0.00000000E+00
  0.00000000E+00  0.00000000E+00  0.00000000E+00
  0.00000000E+00  0.00000000E+00  0.00000000E+00
  0.00000000E+00  0.00000000E+00  0.00000000E+00
  0.00000000E+00  0.00000000E+00  0.00000000E+00
  0.00000000E+00  0.00000000E+00  0.00000000E+00
  0.00000000E+00  0.00000000E+00  0.00000000E+00
  0.00000000E+00  0.00000000E+00  0.00000000E+00
  0.00000000E+00  0.00000000E+00  0.00000000E+00
  0.00000000E+00  0.00000000E+00  0.00000000E+00
  0.00000000E+00  0.00000000E+00  0.00000000E+00
  0.00000000E+00  0.00000000E+00  0.00000000E+00
  0.00000000E+00  0.00000000E+00  0.00000000E+00
  0.00000000E+00  0.00000000E+00  0.00000000E+00
  0.00000000E+00  0.00000000E+00  0.00000000E+00
  0.00000000E+00  0.00000000E+00  0.00000000E+00
  0.00000000E+00  0.00000000E+00  0.00000000E+00
  0.00000000E+00  0.00000000E+00  0.00000000E+00
  0.00000000E+00  0.00000000E+00  0.00000000E+00
  0.00000000E+00  0.00000000E+00  0.00000000E+00
  0.00000000E+00  0.00000000E+00  0.00000000E+00
  0.00000000E+00  0.00000000E+00  0.00000000E+00
  0.00000000E+00  0.00000000E+00  0.00000000E+00
  0.00000000E+00  0.00000000E+00  0.00000000E+00
  0.00000000E+00  0.00000000E+00  0.00000000E+00
  0.00000000E+00  0.00000000E+00  0.00000000E+00
  0.00000000E+00  0.00000000E+00  0.00000000E+00
  0.00000000E+00  0.00000000E+00  0.00000000E+00
  0.00000000E+00  0.00000000E+00  0.00000000E+00
  0.00000000E+00  0.00000000E+00  0.00000000E+00
  0.00000000E+00  0.00000000E+00  0.00000000E+00
  0.00000000E+00  0.00000000E+00  0.00000000E+00
  0.00000000E+00  0.00000000E+00  0.00000000E+00
  0.00000000E+00  0.00000000E+00  0.00000000E+00
  0.00000000E+00  0.00000000E+00  0.00000000E+00
  0.00000000E+00  0.00000000E+00  0.00000000E+00
  0.00000000E+00  0.00000000E+00  0.00000000E+00
  0.00000000E+00  0.00000000E+00  0.00000000E+00
  0.00000000E+00  0.00000000E+00  0.00000000E+00
  0.00000000E+00  0.00000000E+00  0.00000000E+00
  0.00000000E+00  0.00000000E+00  0.00000000E+00
  0.00000000E+00  0.00000000E+00  0.00000000E+00
  0.00000000E+00  0.00000000E+00  0.00000000E+00
  0.00000000E+00  0.00000000E+00  0.00000000E+00
  0.00000000E+00  0.00000000E+00  0.00000000E+00
  0.00000000E+00  0.00000000E+00  0.00000000E+00
  0.00000000E+00  0.00000000E+00  0.00000000E+00
  0.00000000E+00  0.00000000E+00  0.00000000E+00
  0.00000000E+00  0.00000000E+00  0.00000000E+00
  0.00000000E+00  0.00000000E+00  0.00000000E+00
  0.00000000E+00  0.00000000E+00  0.00000000E+00
  0.00000000E+00  0.00000000E+00  0.00000000E+00
  0.00000000E+00  0.00000000E+00  0.00000000E+00
  0.00000000E+00  0.00000000E+00  0.00000000E+00
  0.00000000E+00  0.00000000E+00  0.00000000E+00
  0.00000000E+00  0.00000000E+00  0.00000000E+00
  0.00000000E+00  0.00000000E+00  0.00000000E+00
  0.00000000E+00  0.00000000E+00  0.00000000E+00
  0.00000000E+00  0.00000000E+00  0.00000000E+00
  0.00000000E+00  0.00000000E+00  0.00000000E+00
  0.00000000E+00  0.00000000E+00  0.00000000E+00
  0.00000000E+00  0.00000000E+00  0.00000000E+00
  0.00000000E+00  0.00000000E+00  0.00000000E+00
  0.00000000E+00  0.00000000E+00  0.00000000E+00
  0.00000000E+00  0.00000000E+00  0.00000000E+00
  0.00000000E+00  0.00000000E+00  0.00000000E+00
  0.00000000E+00  0.00000000E+00  0.00000000E+00
  0.00000000E+00  0.00000000E+00  0.00000000E+00
  0.00000000E+00  0.00000000E+00  0.00000000E+00
  0.00000000E+00  0.00000000E+00  0.00000000E+00
  0.00000000E+00  0.00000000E+00  0.00000000E+00
  0.00000000E+00  0.00000000E+00  0.00000000E+00
  0.00000000E+00  0.00000000E+00  0.00000000E+00
  0.00000000E+00  0.00000000E+00  0.00000000E+00
  0.00000000E+00  0.00000000E+00  0.00000000E+00
  0.00000000E+00  0.00000000E+00  0.00000000E+00
  0.00000000E+00  0.00000000E+00  0.00000000E+00
  0.00000000E+00  0.00000000E+00  0.00000000E+00
  0.00000000E+00  0.00000000E+00  0.00000000E+00
  0.00000000E+00  0.00000000E+00  0.00000000E+00
  0.00000000E+00  0.00000000E+00  0.00000000E+00
  0.00000000E+00  0.00000000E+00  0.00000000E+00
  0.00000000E+00  0.00000000E+00  0.00000000E+00
  0.00000000E+00  0.00000000E+00  0.00000000E+00
  0.00000000E+00  0.00000000E+00  0.00000000E+00
  0.00000000E+00  0.00000000E+00  0.00000000E+00
  0.00000000E+00  0.00000000E+00  0.00000000E+00
  0.00000000E+00  0.00000000E+00  0.00000000E+00
  0.00000000E+00  0.00000000E+00  0.00000000E+00
  0.00000000E+00  0.00000000E+00  0.00000000E+00
  0.00000000E+00  0.00000000E+00  0.00000000E+00
  0.00000000E+00  0.00000000E+00  0.00000000E+00
  0.00000000E+00  0.00000000E+00  0.00000000E+00
  0.00000000E+00  0.00000000E+00  0.00000000E+00
  0.00000000E+00  0.00000000E+00  0.00000000E+00
  0.00000000E+00  0.00000000E+00  0.00000000E+00
  0.00000000E+00  0.00000000E+00  0.00000000E+00
  0.00000000E+00  0.00000000E+00  0.00000000E+00
  0.00000000E+00  0.00000000E+00  0.00000000E+00
  0.00000000E+00  0.00000000E+00  0.00000000E+00
  0.00000000E+00  0.00000000E+00  0.00000000E+00
  0.00000000E+00  0.00000000E+00  0.00000000E+00
  0.00000000E+00  0.00000000E+00  0.00000000E+00
  0.00000000E+00  0.00000000E+00  0.00000000E+00
  0.00000000E+00  0.00000000E+00  0.00000000E+00
  0.00000000E+00  0.00000000E+00  0.00000000E+00
  0.00000000E+00  0.00000000E+00  0.00000000E+00
  0.00000000E+00  0.00000000E+00  0.00000000E+00
  0.00000000E+00  0.00000000E+00  0.00000000E+00
  0.00000000E+00  0.00000000E+00  0.00000000E+00
  0.00000000E+00  0.00000000E+00  0.00000000E+00
  0.00000000E+00  0.00000000E+00  0.00000000E+00
  0.00000000E+00  0.00000000E+00  0.00000000E+00
  0.00000000E+00  0.00000000E+00  0.00000000E+00
  0.00000000E+00  0.00000000E+00  0.00000000E+00
  0.00000000E+00  0.00000000E+00  0.00000000E+00
  0.00000000E+00  0.00000000E+00  0.00000000E+00
  0.00000000E+00  0.00000000E+00  0.00000000E+00
  0.00000000E+00  0.00000000E+00  0.00000000E+00
  0.00000000E+00  0.00000000E+00  0.00000000E+00
  0.00000000E+00  0.00000000E+00  0.00000000E+00
  0.00000000E+00  0.00000000E+00  0.00000000E+00
  0.00000000E+00  0.00000000E+00  0.00000000E+00
  0.00000000E+00  0.00000000E+00  0.00000000E+00
  0.00000000E+00  0.00000000E+00  0.00000000E+00
  0.00000000E+00  0.00000000E+00  0.00000000E+00
  0.00000000E+00  0.00000000E+00  0.00000000E+00
  0.00000000E+00  0.00000000E+00  0.00000000E+00
  0.00000000E+00  0.00000000E+00  0.00000000E+00
  0.00000000E+00  0.00000000E+00  0.00000000E+00
  0.00000000E+00  0.00000000E+00  0.00000000E+00
  0.00000000E+00  0.00000000E+00  0.00000000E+00
  0.00000000E+00  0.00000000E+00  0.00000000E+00
  0.00000000E+00  0.00000000E+00  0.00000000E+00
  0.00000000E+00  0.00000000E+00  0.00000000E+00
  0.00000000E+00  0.00000000E+00  0.00000000E+00
  0.00000000E+00  0.00000000E+00  0.00000000E+00
  0.00000000E+00  0.00000000E+00  0.00000000E+00
  0.00000000E+00  0.00000000E+00  0.00000000E+00
  0.00000000E+00  0.00000000E+00  0.00000000E+00
  0.00000000E+00  0.00000000E+00  0.00000000E+00
  0.00000000E+00  0.00000000E+00  0.00000000E+00
  0.00000000E+00  0.00000000E+00  0.00000000E+00
  0.00000000E+00  0.00000000E+00  0.00000000E+00
  0.00000000E+00  0.00000000E+00  0.00000000E+00
  0.00000000E+00  0.00000000E+00  0.00000000E+00
  0.00000000E+00  0.00000000E+00  0.00000000E+00
  0.00000000E+00  0.00000000E+00  0.00000000E+00
  0.00000000E+00  0.00000000E+00  0.00000000E+00
  0.00000000E+00  0.00000000E+00  0.00000000E+00
  0.00000000E+00  0.00000000E+00  0.00000000E+00
  0.00000000E+00  0.00000000E+00  0.00000000E+00
  0.00000000E+00  0.00000000E+00  0.00000000E+00
  0.00000000E+00  0.00000000E+00  0.00000000E+00
  0.00000000E+00  0.00000000E+00  0.00000000E+00
  0.00000000E+00  0.00000000E+00  0.00000000E+00
  0.00000000E+00  0.00000000E+00  0.00000000E+00
  0.00000000E+00  0.00000000E+00  0.00000000E+00
  0.00000000E+00  0.00000000E+00  0.00000000E+00
  0.00000000E+00  0.00000000E+00  0.00000000E+00
  0.00000000E+00  0.00000000E+00  0.00000000E+00
  0.00000000E+00  0.00000000E+00  0.00000000E+00
  0.00000000E+00  0.00000000E+00  0.00000000E+00
  0.00000000E+00  0.00000000E+00  0.00000000E+00
  0.00000000E+00  0.00000000E+00  0.00000000E+00
  0.00000000E+00  0.00000000E+00  0.00000000E+00
  0.00000000E+00  0.00000000E+00  0.00000000E+00
  0.00000000E+00  0.00000000E+00  0.00000000E+00
