O  C  H  Co Li                          
   1.00000000000000     
    25.7374003240729294   -0.3988118871246130   -0.2235583950814297
    12.5192513868490654   21.8882384919225217   -0.2002426177960448
    -0.0591540345874140   -0.0264633441445769    6.6670602667334284
   O    C    H    Co   Li
    60    75    18    18     4
Direct
  0.0595417243788531  0.2279033624847509  0.2957306418478223
  0.0327890896250733  0.2668855907357566  0.8991516282373222
  0.1087959628847036  0.2423248417261211  0.6980641696199390
  0.3908443717678149  0.5816638755960751  0.6513190046179967
  0.6978953534448179  0.0719079754285213  0.3589708600997060
  0.6944790775152621  0.0341137018308576  0.9529590296782372
  0.6377612522936231  0.1052835153971263  0.7364927163631937
  0.0312566482149417  0.3719843345168625  0.6276838788959171
  0.2487947833490529  0.6917407490756365  0.3147578310329048
  0.2878278121925896  0.6808564163724172  0.9230906118278714
  0.2595049011244975  0.6316570499023939  0.7083320797868868
  0.6012886002395043  0.0244726212664249  0.6735499873862073
  0.3140910063849132  0.0421713640897825  0.3971410846374508
  0.2408710740846595  0.0696966227824275  0.6128815383924008
  0.6501483383413253  0.4369788146810007  0.7662156555369790
  0.5781411276007229  0.4361053107588512  0.9485345919842929
  0.2874919506239719  0.0837308512382641  0.0145600318426634
  0.6227200078582033  0.3326263334238339  0.3985164271100429
  0.6361980972128437  0.2675045743014839  0.6419704719134353
  0.9874613732855224  0.6252225142330785  0.7158880994809580
  0.0305932720785756  0.5489479978235772  0.9275734374813163
  0.5702131484670779  0.3031736976483499  0.0374136783048931
  0.0486623345703770  0.6381259587369634  0.3875655742488491
  0.0796564971293548  0.6843751022660461  0.6043158381333600
  0.3873069872551707  0.9931645066448569  0.7304094841494763
  0.4210373119346396  0.0343202847944754  0.9579688988234329
  0.0881615260472376  0.6256024303389505 -0.0027334094790492
  0.7119767475511001  0.9606753535987648  0.6197461723561130
  0.7863423943050798  0.9366036053448331  0.4101760602588830
  0.3588166047020681  0.6199934977187299  0.2536330366417044
  0.4314931647453383  0.5981937978264524  0.0398685558947944
  0.7417301095527103  0.9194567749408606  0.0055499475225567
  0.3482741351689994  0.6930143965578804  0.5943610502296479
  0.3090471408841800  0.7686652097101553  0.3798514026846859
  0.0196437939464652  0.3419349940459454  0.2348157768812112
  0.9780246618868752  0.4157254454582711  0.0107856536533602
  0.3622356371042005  0.7195188376793908  0.9853545123923281
  0.9637057126162841  0.3278285066734368  0.5671977582693986
  0.9267536669980507  0.2890243719455945  0.3430952460534004
  0.6396188710548129  0.0139194514834429  0.2867269506032943
  0.6077611291266442  0.9692676570068779  0.0670819938237928
  0.9220372135458536  0.3471591569591151  0.9490577633579094
  0.9491868134491713  0.7411004753305541  0.6686426284177628
  0.9766317756773423  0.6982911799825311  0.0534283873847764
  0.9030667673832075  0.7330559461572516  0.2709026110200599
  0.6165129844481212  0.4396225541420420  0.3483455481316793
  0.3237886981116678  0.9391242422303837  0.6811380725331122
  0.3389302431817935  0.9659713226890797  0.0621003709959759
  0.3767824867074410  0.8923362542916491  0.2860558894439667
  0.9746921582491929  0.5970653277745512  0.3225488216193673
  0.7356214864988201  0.3196084817781908  0.6265103859455704
  0.7055248779304375  0.3240944335201967  0.0553512667209134
  0.7415449759310750  0.3750140845079011  0.2275908785608325
  0.4285115619766479  0.9768520025124804  0.3515836347879435
  0.7193598451237376  0.4638718141513012  0.5090489484284031
  0.6409373133268874  0.5581786088288180  0.5187617170755738
  0.6942388295436409  0.5220778898040463  0.2305681983029705
  0.7772058351626291  0.1551656794509118  0.5475033801204606
  0.7457445377954341  0.2135577149095307  0.8237518515903922
  0.7448890217406475  0.1233619517822685  0.8037950855567579
  0.1141938519353003  0.1936035851695136  0.2211863952786735
  0.1581952603330421  0.1517740232003084  0.3494666919124803
  0.0888045657883633  0.2378761989769526  0.8668252326478866
  0.1307632144529685  0.1974793284511326  0.0205412145595283
  0.4450872900206465  0.5507580651890844  0.5685436698190839
  0.4921972142657799  0.5142507752044354  0.6966816857260387
  0.6630558204305134  0.1273058772776454  0.2720679092288535
  0.6496119236553808  0.1779359528413128  0.3938702892784612
  0.6592322740330726  0.0899156693982176  0.9125981022178521
  0.6432151589561637  0.1372251192309447  0.0686488888418139
  0.0169267695566113  0.4257535462143601  0.5441394604513657
  0.0187737984165861  0.4696658672150102  0.6695918634758230
  0.2107008151023859  0.6754332810147309  0.2313740547477669
  0.1670445622312872  0.6758990855624211  0.3541089071436528
  0.2557957367922759  0.6559205483829301  0.8802294030509353
  0.2126596503257142  0.6568963880874380  0.0267854717966783
  0.5589681597610086  0.0142319588438536  0.5886713248609560
  0.5129940716447555  0.0196909558517487  0.7103581516737499
  0.2587507769492607  0.0736204032516911  0.4406140029654567
  0.2166834892158681  0.1152667132303749  0.2898339211064124
  0.5963622944897007  0.4484756471356685  0.7897890632384614
  0.5503492313225354  0.4806037255244401  0.6327694066699535
  0.2331311037892977  0.1190102261743290  0.0891632783823672
  0.1893885937599251  0.1609992920789697  0.9613004949342385
  0.6251579803116090  0.2836974799066327  0.4584941853866178
  0.6214560077496242  0.2373119244137576  0.3229977556534721
  0.0081441192870110  0.5686588708033147  0.7561077463405302
  0.0039912100906708  0.5275420852262963  0.6046277878292234
  0.5991999174872434  0.2451851577513124  0.1257002333084349
  0.6088852921939717  0.1968193785109902  0.0035174618756086
  0.0826831121982715  0.6611391975426379  0.4320556359601155
  0.1260068494806091  0.6585477713938138  0.2849194920113276
  0.4235528025350461  0.0124179385529315  0.7836341872581308
  0.4691400517095912  0.0065565330667597  0.6395114405173917
  0.1274769074110660  0.6403551075142839  0.0799048079024903
  0.1717496077623116  0.6392648160002182  0.9577515817278659
  0.7668282685741954  0.9285407414862191  0.5753104011968763
  0.8069636950459929  0.8801989043009161  0.7140131481422135
  0.4144054574736694  0.5918697778338723  0.2113236321902936
  0.4584497191817687  0.5523391640958152  0.3619426961142181
  0.7920069482163504  0.8780644801236539  0.9184428501401019
  0.8321071706180919  0.8298323213890078  0.0352167162398158
  0.3303988954193436  0.7493249467078805  0.5527190989185786
  0.3374016239460702  0.7887199305033935  0.7018566273289872
  0.9989863058579077  0.3977281088102977  0.1865704846202132
  0.0006157929343534  0.4409404944715995  0.3373387703089679
  0.3541792947225095  0.7718788487357661  0.9058165307855557
  0.3608441655836241  0.8131998838804086  0.0314288574079651
  0.9249162824262936  0.3113448405404055  0.5170483338772005
  0.8781593331711852  0.3206027148082467  0.6587252984657482
  0.6043934189520643  0.9919519586009475  0.2402050223198524
  0.5597055044143102  0.9965264284327321  0.3842359874583988
  0.8794855478886420  0.3376327233736104  0.8626181468308386
  0.8336106830872919  0.3434979115843712  0.9852971086631207
  0.9001388352160434  0.7849440611554387  0.7540668030369216
  0.8604512539833742  0.8344294741493816  0.6381488075153573
  0.9227958979443133  0.7359702206697581  0.1008985287046155
  0.8852025518408165  0.7839642670792967  0.9591615314118026
  0.5629894418131659  0.4783376719730620  0.4254342320258162
  0.5167251150465125  0.5161606654201184  0.2970072907412766
  0.3331105925817947  0.8865365861767280  0.7598781524616398
  0.3268951709064280  0.8451783916689835  0.6344047174179926
  0.3563109865436214  0.9106758797037700  0.1115214936587264
  0.3499224762751472  0.8698974160672597  0.9642825858225927
  0.9873551802086895  0.5432661243027490  0.3994954050891250
  0.9857788948548672  0.4990712899898159  0.2724031579842622
  0.7826095937877892  0.3222715885379902  0.7098814055701901
  0.8307971576363763  0.3124294829071437  0.5895259023631394
  0.7414155706759148  0.3453645935782565  0.0698044727668898
  0.7859478731656913  0.3361252490188322  0.9166808216740193
  0.4698930314318173  0.9883770221259397  0.4346668539490506
  0.5157869778816080  0.9834226099933773  0.3130323910489543
  0.6814654113822950  0.5192157877500408  0.4117928094579952
  0.7555477721578678  0.1629742418468513  0.7293593255544014
  0.6112092712863126  0.3200113882101730  0.0033945663075282
  0.1462768799341986  0.1480278996194710  0.5025160786286773
  0.4824589841164086  0.5137294699678937  0.8544307075587937
  0.6639815670088497  0.1707427285140096  0.5505075399855889
  0.0316854669720815  0.4580405328853098  0.8259272472746657
  0.1655140582571085  0.6899360970252012  0.5101645395096122
  0.5120687477550872  0.0336018467523205  0.8664061083856278
  0.2014234712291315  0.1642804738770677  0.8079704420000560
  0.5936186130622213  0.2053235221111093  0.8480518178348619
  0.1734354711870650  0.6251498270042908  0.8017260179468160
  0.8210306322032763  0.8277595668677493  0.1909829623746524
  0.3739967540128160  0.8010690121005426  0.1873829117957051
  0.8379314192743436  0.3510832761231029  0.1448462062932513
  0.8714579555276675  0.8364384163739957  0.4821954521513532
  0.5264578344131448  0.5170599288059123  0.1394504581276642
  0.3141610169380512  0.8571190455144274  0.4780574099740640
  0.9733733855236089  0.5105839746428931  0.1156017145391940
  0.8303696673774921  0.3001270205620138  0.4320295142228069
  0.5164860785459363  0.9698170265673770  0.1566786288596884
  0.3128688811617948  0.6377933712298358  0.5098683685534200
  0.0536500746703221  0.2921788607248124  0.4865322062286236
  0.6469322082250861  0.0497898044358799  0.5242921415994259
  0.0243690071654018  0.6785163275726288  0.8017274402678209
  0.3652046495022823  0.0268763971477216  0.1531991591437651
  0.3032381529377338  0.0181784092825599  0.8172205902958470
  0.6153049698880295  0.3763491384356383  0.1535739508413577
  0.6720285002029572  0.2934940421185332  0.8450709878979696
  0.0272557850139602  0.6098578368513182  0.1326807631151527
  0.6650058739603477  0.9724007064344837  0.8746700205776847
  0.9841852987784535  0.2868259711230393  0.1420553998449351
  0.3800134632072413  0.6491550556317959  0.8286066255425637
  0.7266074956337946  0.9867277943909758  0.2040753106325468
  0.9751840897565269  0.3635127949582616  0.7991626150895993
  0.3063601481516484  0.7105421590540949  0.1816192561768513
  0.6918446581878411  0.4013581201650888  0.4848881322112760
  0.9607879849298151  0.6746484178527573  0.4675060496766760
  0.3717964475689624  0.9550777997138489  0.4843909476195564
  0.7564180081888059  0.4428335278258632  0.2496418212147599
  0.6676228293380011  0.5054907983416095  0.7428985639560853
  0.7571109456523013  0.0882309683013075  0.5366546643118738
  0.7656848701187010  0.2348008084449681  0.5576262773255485
 
  0.00000000E+00  0.00000000E+00  0.00000000E+00
  0.00000000E+00  0.00000000E+00  0.00000000E+00
  0.00000000E+00  0.00000000E+00  0.00000000E+00
  0.00000000E+00  0.00000000E+00  0.00000000E+00
  0.00000000E+00  0.00000000E+00  0.00000000E+00
  0.00000000E+00  0.00000000E+00  0.00000000E+00
  0.00000000E+00  0.00000000E+00  0.00000000E+00
  0.00000000E+00  0.00000000E+00  0.00000000E+00
  0.00000000E+00  0.00000000E+00  0.00000000E+00
  0.00000000E+00  0.00000000E+00  0.00000000E+00
  0.00000000E+00  0.00000000E+00  0.00000000E+00
  0.00000000E+00  0.00000000E+00  0.00000000E+00
  0.00000000E+00  0.00000000E+00  0.00000000E+00
  0.00000000E+00  0.00000000E+00  0.00000000E+00
  0.00000000E+00  0.00000000E+00  0.00000000E+00
  0.00000000E+00  0.00000000E+00  0.00000000E+00
  0.00000000E+00  0.00000000E+00  0.00000000E+00
  0.00000000E+00  0.00000000E+00  0.00000000E+00
  0.00000000E+00  0.00000000E+00  0.00000000E+00
  0.00000000E+00  0.00000000E+00  0.00000000E+00
  0.00000000E+00  0.00000000E+00  0.00000000E+00
  0.00000000E+00  0.00000000E+00  0.00000000E+00
  0.00000000E+00  0.00000000E+00  0.00000000E+00
  0.00000000E+00  0.00000000E+00  0.00000000E+00
  0.00000000E+00  0.00000000E+00  0.00000000E+00
  0.00000000E+00  0.00000000E+00  0.00000000E+00
  0.00000000E+00  0.00000000E+00  0.00000000E+00
  0.00000000E+00  0.00000000E+00  0.00000000E+00
  0.00000000E+00  0.00000000E+00  0.00000000E+00
  0.00000000E+00  0.00000000E+00  0.00000000E+00
  0.00000000E+00  0.00000000E+00  0.00000000E+00
  0.00000000E+00  0.00000000E+00  0.00000000E+00
  0.00000000E+00  0.00000000E+00  0.00000000E+00
  0.00000000E+00  0.00000000E+00  0.00000000E+00
  0.00000000E+00  0.00000000E+00  0.00000000E+00
  0.00000000E+00  0.00000000E+00  0.00000000E+00
  0.00000000E+00  0.00000000E+00  0.00000000E+00
  0.00000000E+00  0.00000000E+00  0.00000000E+00
  0.00000000E+00  0.00000000E+00  0.00000000E+00
  0.00000000E+00  0.00000000E+00  0.00000000E+00
  0.00000000E+00  0.00000000E+00  0.00000000E+00
  0.00000000E+00  0.00000000E+00  0.00000000E+00
  0.00000000E+00  0.00000000E+00  0.00000000E+00
  0.00000000E+00  0.00000000E+00  0.00000000E+00
  0.00000000E+00  0.00000000E+00  0.00000000E+00
  0.00000000E+00  0.00000000E+00  0.00000000E+00
  0.00000000E+00  0.00000000E+00  0.00000000E+00
  0.00000000E+00  0.00000000E+00  0.00000000E+00
  0.00000000E+00  0.00000000E+00  0.00000000E+00
  0.00000000E+00  0.00000000E+00  0.00000000E+00
  0.00000000E+00  0.00000000E+00  0.00000000E+00
  0.00000000E+00  0.00000000E+00  0.00000000E+00
  0.00000000E+00  0.00000000E+00  0.00000000E+00
  0.00000000E+00  0.00000000E+00  0.00000000E+00
  0.00000000E+00  0.00000000E+00  0.00000000E+00
  0.00000000E+00  0.00000000E+00  0.00000000E+00
  0.00000000E+00  0.00000000E+00  0.00000000E+00
  0.00000000E+00  0.00000000E+00  0.00000000E+00
  0.00000000E+00  0.00000000E+00  0.00000000E+00
  0.00000000E+00  0.00000000E+00  0.00000000E+00
  0.00000000E+00  0.00000000E+00  0.00000000E+00
  0.00000000E+00  0.00000000E+00  0.00000000E+00
  0.00000000E+00  0.00000000E+00  0.00000000E+00
  0.00000000E+00  0.00000000E+00  0.00000000E+00
  0.00000000E+00  0.00000000E+00  0.00000000E+00
  0.00000000E+00  0.00000000E+00  0.00000000E+00
  0.00000000E+00  0.00000000E+00  0.00000000E+00
  0.00000000E+00  0.00000000E+00  0.00000000E+00
  0.00000000E+00  0.00000000E+00  0.00000000E+00
  0.00000000E+00  0.00000000E+00  0.00000000E+00
  0.00000000E+00  0.00000000E+00  0.00000000E+00
  0.00000000E+00  0.00000000E+00  0.00000000E+00
  0.00000000E+00  0.00000000E+00  0.00000000E+00
  0.00000000E+00  0.00000000E+00  0.00000000E+00
  0.00000000E+00  0.00000000E+00  0.00000000E+00
  0.00000000E+00  0.00000000E+00  0.00000000E+00
  0.00000000E+00  0.00000000E+00  0.00000000E+00
  0.00000000E+00  0.00000000E+00  0.00000000E+00
  0.00000000E+00  0.00000000E+00  0.00000000E+00
  0.00000000E+00  0.00000000E+00  0.00000000E+00
  0.00000000E+00  0.00000000E+00  0.00000000E+00
  0.00000000E+00  0.00000000E+00  0.00000000E+00
  0.00000000E+00  0.00000000E+00  0.00000000E+00
  0.00000000E+00  0.00000000E+00  0.00000000E+00
  0.00000000E+00  0.00000000E+00  0.00000000E+00
  0.00000000E+00  0.00000000E+00  0.00000000E+00
  0.00000000E+00  0.00000000E+00  0.00000000E+00
  0.00000000E+00  0.00000000E+00  0.00000000E+00
  0.00000000E+00  0.00000000E+00  0.00000000E+00
  0.00000000E+00  0.00000000E+00  0.00000000E+00
  0.00000000E+00  0.00000000E+00  0.00000000E+00
  0.00000000E+00  0.00000000E+00  0.00000000E+00
  0.00000000E+00  0.00000000E+00  0.00000000E+00
  0.00000000E+00  0.00000000E+00  0.00000000E+00
  0.00000000E+00  0.00000000E+00  0.00000000E+00
  0.00000000E+00  0.00000000E+00  0.00000000E+00
  0.00000000E+00  0.00000000E+00  0.00000000E+00
  0.00000000E+00  0.00000000E+00  0.00000000E+00
  0.00000000E+00  0.00000000E+00  0.00000000E+00
  0.00000000E+00  0.00000000E+00  0.00000000E+00
  0.00000000E+00  0.00000000E+00  0.00000000E+00
  0.00000000E+00  0.00000000E+00  0.00000000E+00
  0.00000000E+00  0.00000000E+00  0.00000000E+00
  0.00000000E+00  0.00000000E+00  0.00000000E+00
  0.00000000E+00  0.00000000E+00  0.00000000E+00
  0.00000000E+00  0.00000000E+00  0.00000000E+00
  0.00000000E+00  0.00000000E+00  0.00000000E+00
  0.00000000E+00  0.00000000E+00  0.00000000E+00
  0.00000000E+00  0.00000000E+00  0.00000000E+00
  0.00000000E+00  0.00000000E+00  0.00000000E+00
  0.00000000E+00  0.00000000E+00  0.00000000E+00
  0.00000000E+00  0.00000000E+00  0.00000000E+00
  0.00000000E+00  0.00000000E+00  0.00000000E+00
  0.00000000E+00  0.00000000E+00  0.00000000E+00
  0.00000000E+00  0.00000000E+00  0.00000000E+00
  0.00000000E+00  0.00000000E+00  0.00000000E+00
  0.00000000E+00  0.00000000E+00  0.00000000E+00
  0.00000000E+00  0.00000000E+00  0.00000000E+00
  0.00000000E+00  0.00000000E+00  0.00000000E+00
  0.00000000E+00  0.00000000E+00  0.00000000E+00
  0.00000000E+00  0.00000000E+00  0.00000000E+00
  0.00000000E+00  0.00000000E+00  0.00000000E+00
  0.00000000E+00  0.00000000E+00  0.00000000E+00
  0.00000000E+00  0.00000000E+00  0.00000000E+00
  0.00000000E+00  0.00000000E+00  0.00000000E+00
  0.00000000E+00  0.00000000E+00  0.00000000E+00
  0.00000000E+00  0.00000000E+00  0.00000000E+00
  0.00000000E+00  0.00000000E+00  0.00000000E+00
  0.00000000E+00  0.00000000E+00  0.00000000E+00
  0.00000000E+00  0.00000000E+00  0.00000000E+00
  0.00000000E+00  0.00000000E+00  0.00000000E+00
  0.00000000E+00  0.00000000E+00  0.00000000E+00
  0.00000000E+00  0.00000000E+00  0.00000000E+00
  0.00000000E+00  0.00000000E+00  0.00000000E+00
  0.00000000E+00  0.00000000E+00  0.00000000E+00
  0.00000000E+00  0.00000000E+00  0.00000000E+00
  0.00000000E+00  0.00000000E+00  0.00000000E+00
  0.00000000E+00  0.00000000E+00  0.00000000E+00
  0.00000000E+00  0.00000000E+00  0.00000000E+00
  0.00000000E+00  0.00000000E+00  0.00000000E+00
  0.00000000E+00  0.00000000E+00  0.00000000E+00
  0.00000000E+00  0.00000000E+00  0.00000000E+00
  0.00000000E+00  0.00000000E+00  0.00000000E+00
  0.00000000E+00  0.00000000E+00  0.00000000E+00
  0.00000000E+00  0.00000000E+00  0.00000000E+00
  0.00000000E+00  0.00000000E+00  0.00000000E+00
  0.00000000E+00  0.00000000E+00  0.00000000E+00
  0.00000000E+00  0.00000000E+00  0.00000000E+00
  0.00000000E+00  0.00000000E+00  0.00000000E+00
  0.00000000E+00  0.00000000E+00  0.00000000E+00
  0.00000000E+00  0.00000000E+00  0.00000000E+00
  0.00000000E+00  0.00000000E+00  0.00000000E+00
  0.00000000E+00  0.00000000E+00  0.00000000E+00
  0.00000000E+00  0.00000000E+00  0.00000000E+00
  0.00000000E+00  0.00000000E+00  0.00000000E+00
  0.00000000E+00  0.00000000E+00  0.00000000E+00
  0.00000000E+00  0.00000000E+00  0.00000000E+00
  0.00000000E+00  0.00000000E+00  0.00000000E+00
  0.00000000E+00  0.00000000E+00  0.00000000E+00
  0.00000000E+00  0.00000000E+00  0.00000000E+00
  0.00000000E+00  0.00000000E+00  0.00000000E+00
  0.00000000E+00  0.00000000E+00  0.00000000E+00
  0.00000000E+00  0.00000000E+00  0.00000000E+00
  0.00000000E+00  0.00000000E+00  0.00000000E+00
  0.00000000E+00  0.00000000E+00  0.00000000E+00
  0.00000000E+00  0.00000000E+00  0.00000000E+00
  0.00000000E+00  0.00000000E+00  0.00000000E+00
  0.00000000E+00  0.00000000E+00  0.00000000E+00
  0.00000000E+00  0.00000000E+00  0.00000000E+00
  0.00000000E+00  0.00000000E+00  0.00000000E+00
  0.00000000E+00  0.00000000E+00  0.00000000E+00
  0.00000000E+00  0.00000000E+00  0.00000000E+00
  0.00000000E+00  0.00000000E+00  0.00000000E+00
  0.00000000E+00  0.00000000E+00  0.00000000E+00
  0.00000000E+00  0.00000000E+00  0.00000000E+00
