O  C  H  Co Li                          
   1.00000000000000     
    25.9869300222800774    0.0014776472087939   -0.0002841704448074
    12.9947443186480527   22.5035161465627063   -0.0005769115704474
    -0.0000740905812471   -0.0001328080293999    6.8098320633878924
   O    C    H    Co   Li
    60    75    18    18     4
Direct
  0.0619754448411691  0.2562198582066243  0.2960534713722325
  0.0372439572433791  0.3006313498484243  0.9373124495780418
  0.1051705110464954  0.2629341633484397  0.7000067029711207
  0.4013675418123843  0.5940205951440649  0.6477623926900845
  0.6933456972549606  0.0640314891942320  0.3479546272023464
  0.6786828449572684  0.0288690121813405  0.9745849423435244
  0.6288143117700269  0.0987845348351629  0.7502223379671176
  0.0149345796837091  0.3964041267298722  0.6298607492688546
  0.2585375200060160  0.6869932504342129  0.3122117386721979
  0.3048968994113020  0.6664830895472590  0.9561327491064303
  0.2680351252599277  0.6364140172909591  0.7150636700009413
  0.6043927812989861  0.0024289211505232  0.6642812225908207
  0.3042852825596488  0.0433911294735106  0.3592671429912591
  0.2346362053219267  0.0816922774530388  0.5904077076690524
  0.6397097580119028  0.3747515519700090  0.7051395082465446
  0.5775238733742066  0.4268323777643790  0.9459666261038644
  0.2798854306519402  0.0872745985349804 -0.0058117198813874
  0.6379662725352354  0.3112943010293018  0.3617640212689140
  0.6346686737799483  0.2594602752890143  0.6177682391324720
  0.9947060782351255  0.6342751369370516  0.7080658987530428
  0.0287654866667839  0.5612373728041158  0.9245710563281190
  0.5742435548099913  0.2914794158404521  0.0253283291857137
  0.0535123831468087  0.6441187255240296  0.3771447274436120
  0.0887163809953659  0.6815777818193174  0.5974662218022937
  0.3740375982439849  0.0055690469697459  0.6910682365542683
  0.4168139732334090  0.0292276205766740  0.9309615512625270
  0.0965008924440219  0.6294658680542889 -0.0015991339639792
  0.7179139429753350  0.9622331628516732  0.6439794262482369
  0.7865437416696232  0.9285481881875780  0.4079768136652234
  0.3760500520796615  0.6388207167930555  0.2905785766985871
  0.4430871741414676  0.6004125829214465  0.0507041051782428
  0.7444861853970542  0.9146283787247682  0.0023090938063961
  0.3313842111035281  0.7105872215152118  0.6242575994180174
  0.3047768452641233  0.7767503916526193  0.3817803261513001
 -0.0057601506405760  0.3731464579596729  0.2721865287586950
  0.9656667127263292  0.4404574747483872  0.0333149561690115
  0.3536044671177960  0.7345160650390765  0.9796219521316466
  0.9667760799064599  0.3282965205929783  0.6037431721604591
  0.9274940044224800  0.3018954493857020  0.3590840194724025
  0.6468447645779379 -0.0094089522785370  0.3066768446867842
  0.6111325285835973  0.9576351340484519  0.0696215967012780
  0.9193161437724883  0.3499563250356327  0.9590821833529855
  0.9561944702170053  0.7425168950477704  0.6660132451583350
  0.9856363697306100  0.7006413586926448  0.0476305957756868
  0.9147902697402596  0.7351802839563316  0.2754412424098691
  0.6154424482274524  0.4207277358676798  0.3359581828688628
  0.3160422124464852  0.9473164414660693  0.6633726263075345
  0.3365843652910604  0.9716131389804620  0.0257254250587006
  0.3643170285086804  0.9035060610979653  0.2612971097606452
  0.9779302710150529  0.6107539618298856  0.3276186137792965
  0.7533089719122259  0.2990315880354751  0.6323838826785646
  0.7093201544383937  0.3142560266635782  0.0306731879957278
  0.7468879656763092  0.3527160557835131  0.2366305472229463
  0.4208506474929826  0.9823977489695003  0.3322272077452265
  0.7068272004456746  0.4350170850104895  0.5685241442204915
  0.6409785321007080  0.5329770653945802  0.5807055603941967
  0.6943028290636695  0.4923155902620928  0.3003234020752352
  0.7774068800916494  0.1456959110076801  0.5512419746037494
  0.7409034174676369  0.2032187697724261  0.8189978792556256
  0.7353522751626067  0.1184740649565635  0.7845947272783035
  0.1145275184107827  0.2161298812591945  0.2181450012763232
  0.1562886564571749  0.1715575503623424  0.3407331433645989
  0.0893241257718663  0.2620536895742623  0.8755773118797469
  0.1301284425150952  0.2163681900262200  0.0168604154399271
  0.4538319614585457  0.5540684054775379  0.5691778130606174
  0.4965520247115928  0.5104581495891948  0.6916443603183258
  0.6603411521874225  0.1189641830101725  0.2649008129669942
  0.6494803909290131  0.1680499543523306  0.3811881939575726
  0.6494971852864561  0.0836347243923407  0.9232937779376672
  0.6391834395483380  0.1299117980486771  0.0681122888497721
  0.0049389450376976  0.4480887115643790  0.5514192423825115
  0.0102585694812965  0.4881882839616798  0.6741553219620006
  0.2200568706323408  0.6726431584732679  0.2319699134675828
  0.1761227116348525  0.6731231749977328  0.3519326355463871
  0.2667626508526280  0.6529110181257702  0.8912301277420741
  0.2211349317072927  0.6568663333278163  0.0301737002403178
  0.5609268588005462 -0.0034471103819218  0.5810784635083945
  0.5132475774309353  0.0044166840278829  0.6972420649301300
  0.2518541427599179  0.0822881970751961  0.4163799662559011
  0.2119882686645447  0.1279795202400007  0.2737559017780300
  0.5917350822550065  0.4204742313962506  0.7638178488735772
  0.5515347505642343  0.4658693948675664  0.6218589716800665
  0.2277167044985401  0.1279503918143310  0.0722749214370433
  0.1858917730393030  0.1728464530087073  0.9498039847578282
  0.6308752252002832  0.2696720322953959  0.4344987749223333
  0.6245357407239757  0.2258331486169061  0.3070488933336426
  0.0089641837555636  0.5803261350001421  0.7536529024898534
  0.0008471479178219  0.5430933544932337  0.6082696932109705
  0.6025409998193220  0.2346023901590702  0.1143142013399664
  0.6086823685733475  0.1883912353845795 -0.0005331400245384
  0.0898956891837547  0.6617091812664866  0.4252641993725783
  0.1342787548995192  0.6587035804319550  0.2824689736120689
  0.4164971659907845  0.0125349217361551  0.7559344906170908
  0.4656974359993177  0.0005103597396657  0.6201346899876887
  0.1351692859148026  0.6433391602409214  0.0802487189141788
  0.1791914133629642  0.6428442226167030  0.9600316726122843
  0.7696681395265107  0.9243798619458159  0.5807427845021346
  0.8098025515735943  0.8757169577105282  0.7144829313296852
  0.4276193348593402  0.5996272825982097  0.2267105975776465
  0.4683285198191116  0.5535061879591122  0.3665413222779064
  0.7957137737184375  0.8743328010378983  0.9173564857756662
  0.8378649524304301  0.8279454904512231  0.0331901891655882
  0.3209703155059942  0.7612161825430105  0.5579846555560986
  0.3285669270865756  0.8009794772587705  0.6962615427126404
  0.9823282940768053  0.4246410510464490  0.2089762833801181
 -0.0107854018416688  0.4644747557161268  0.3502078991714527
  0.3436012194223971  0.7858854791627516  0.8983533930009918
  0.3485582502505916  0.8269374473092271  0.0178630109210477
  0.9276597909887787  0.3165464256840053  0.5369898867115788
  0.8818538304339536  0.3206370787494845  0.6749554535368086
  0.6086495602754457  0.9765380559959765  0.2433864870543275
  0.5604681200892145  0.9839423122621357  0.3770116582185493
  0.8808045570316225  0.3360191111410081  0.8766634284410180
  0.8365031148675823  0.3362150697143108 -0.0062966293866157
  0.9057434255225842  0.7832660573883330  0.7545800655934282
  0.8637124672399616  0.8305660180989988  0.6400963562294371
  0.9323548771541443  0.7373730768312377  0.1024574836126750
  0.8920820063240179  0.7830979754687462  0.9599716451030352
  0.5649689204103436  0.4637434630331297  0.4172467818125231
  0.5230746169995329  0.5089418029762937  0.2966200631308887
  0.3248540349117521  0.8962305665219118  0.7443785137625201
  0.3195420426662242  0.8552694772370365  0.6249518404482265
  0.3474470973667541  0.9202562969141886  0.0862689491263692
  0.3394989505832637  0.8812171959970198  0.9466484753395472
  0.9854698929208201  0.5597618466583750  0.4073106019892636
  0.9794717086604272  0.5196069251250824  0.2843581384572711
  0.7933730742329000  0.3097813082515278  0.7197925750434946
  0.8393357321264147  0.3074522812574259  0.6042625269700206
  0.7472926485992245  0.3299168522428235  0.0679717483118145
  0.7928634010134831  0.3242136041133317  0.9234251413343328
  0.4650759522272023  0.9871441756564451  0.4161357888839722
  0.5132895894559540  0.9788474972832274  0.3003678241124125
  0.6780831258928146  0.4906541125457936  0.4749256991196125
  0.7504627068508380  0.1550398327525525  0.7224339129613646
  0.6127241058949172  0.3095886788157814  0.9845549583497188
  0.1446958401234976  0.1711913075225205  0.4944278987594036
  0.4859004090655837  0.5113931375102514  0.8468832590715984
  0.6628491251392522  0.1610600894217686  0.5355452142851709
  0.0219894954558335  0.4760434013125928  0.8276444954237041
  0.1749005130112316  0.6849673705060587  0.5061382154532610
  0.5131584195046207  0.0148006391370952  0.8524858587587516
  0.1974329440701425  0.1731766813263435  0.7960012264164191
  0.5930073781851435  0.1970838417649619  0.8480560335902233
  0.1806348062200847  0.6308720727280762  0.8058252467091773
  0.8275253762634140  0.8269861513706027  0.1879634099705889
  0.3600899326430136  0.8157749553000307  0.1720442030091076
  0.8384940351331939  0.3441611646837087  0.1501079057980857
  0.8740940869301347  0.8315785428157239  0.4854076296541345
  0.5335411940511855  0.5087675224300506  0.1417316213000005
  0.3081990981908488  0.8662445705276196  0.4705316134984476
  0.9676666303605291  0.5316835951951034  0.1308221166640822
  0.8413923736401281  0.2951293403715953  0.4498326000343183
  0.5132015892713170  0.9688411086236517  0.1447934131846613
  0.3205632224849670  0.6452967490726531  0.5163658556063986
  0.0438397847429193  0.3164791332143216  0.4995553790503580
  0.6486883689435615  0.0397463071011094  0.5398653777314151
  0.0344085892348283  0.6822007412571560  0.7996498968318051
  0.3596493739009921  0.0298087029583535  0.1285270023655569
  0.2934867049556104  0.0266441637761491  0.7924860830519066
  0.6177859846430491  0.3624880317117847  0.1318347361934487
  0.6709941962912591  0.2870019177112496  0.8169120565636762
  0.0354922236392492  0.6140307120281435  0.1260051519777267
  0.6636952231239954  0.9629500700447897  0.8704252714220000
  0.9817284083349203  0.3085027760896401  0.1627843265892053
  0.3818556840712107  0.6544918314429656  0.8513150368559290
  0.7273251237117914  0.9767660407586846  0.2045726744148791
  0.9723988314247070  0.3784217573886447  0.8341835477422849
  0.3110179345298204  0.7156453163478871  0.1844679848716252
  0.6897036927260091  0.3679969386324280  0.4707805490383114
  0.9632270271155737  0.6793432804370175  0.4806802722611292
  0.3624141984969284  0.9614314278344875  0.4598055478107920
  0.7573523821313803  0.4153611691609532  0.3323709168107050
  0.6644482488069232  0.4826863292464769  0.7962126937843381
  0.7527110407466606  0.0850795461256671  0.5234271555224207
  0.7787858853076459  0.2170208935954751  0.5895701965860813
 
  0.00000000E+00  0.00000000E+00  0.00000000E+00
  0.00000000E+00  0.00000000E+00  0.00000000E+00
  0.00000000E+00  0.00000000E+00  0.00000000E+00
  0.00000000E+00  0.00000000E+00  0.00000000E+00
  0.00000000E+00  0.00000000E+00  0.00000000E+00
  0.00000000E+00  0.00000000E+00  0.00000000E+00
  0.00000000E+00  0.00000000E+00  0.00000000E+00
  0.00000000E+00  0.00000000E+00  0.00000000E+00
  0.00000000E+00  0.00000000E+00  0.00000000E+00
  0.00000000E+00  0.00000000E+00  0.00000000E+00
  0.00000000E+00  0.00000000E+00  0.00000000E+00
  0.00000000E+00  0.00000000E+00  0.00000000E+00
  0.00000000E+00  0.00000000E+00  0.00000000E+00
  0.00000000E+00  0.00000000E+00  0.00000000E+00
  0.00000000E+00  0.00000000E+00  0.00000000E+00
  0.00000000E+00  0.00000000E+00  0.00000000E+00
  0.00000000E+00  0.00000000E+00  0.00000000E+00
  0.00000000E+00  0.00000000E+00  0.00000000E+00
  0.00000000E+00  0.00000000E+00  0.00000000E+00
  0.00000000E+00  0.00000000E+00  0.00000000E+00
  0.00000000E+00  0.00000000E+00  0.00000000E+00
  0.00000000E+00  0.00000000E+00  0.00000000E+00
  0.00000000E+00  0.00000000E+00  0.00000000E+00
  0.00000000E+00  0.00000000E+00  0.00000000E+00
  0.00000000E+00  0.00000000E+00  0.00000000E+00
  0.00000000E+00  0.00000000E+00  0.00000000E+00
  0.00000000E+00  0.00000000E+00  0.00000000E+00
  0.00000000E+00  0.00000000E+00  0.00000000E+00
  0.00000000E+00  0.00000000E+00  0.00000000E+00
  0.00000000E+00  0.00000000E+00  0.00000000E+00
  0.00000000E+00  0.00000000E+00  0.00000000E+00
  0.00000000E+00  0.00000000E+00  0.00000000E+00
  0.00000000E+00  0.00000000E+00  0.00000000E+00
  0.00000000E+00  0.00000000E+00  0.00000000E+00
  0.00000000E+00  0.00000000E+00  0.00000000E+00
  0.00000000E+00  0.00000000E+00  0.00000000E+00
  0.00000000E+00  0.00000000E+00  0.00000000E+00
  0.00000000E+00  0.00000000E+00  0.00000000E+00
  0.00000000E+00  0.00000000E+00  0.00000000E+00
  0.00000000E+00  0.00000000E+00  0.00000000E+00
  0.00000000E+00  0.00000000E+00  0.00000000E+00
  0.00000000E+00  0.00000000E+00  0.00000000E+00
  0.00000000E+00  0.00000000E+00  0.00000000E+00
  0.00000000E+00  0.00000000E+00  0.00000000E+00
  0.00000000E+00  0.00000000E+00  0.00000000E+00
  0.00000000E+00  0.00000000E+00  0.00000000E+00
  0.00000000E+00  0.00000000E+00  0.00000000E+00
  0.00000000E+00  0.00000000E+00  0.00000000E+00
  0.00000000E+00  0.00000000E+00  0.00000000E+00
  0.00000000E+00  0.00000000E+00  0.00000000E+00
  0.00000000E+00  0.00000000E+00  0.00000000E+00
  0.00000000E+00  0.00000000E+00  0.00000000E+00
  0.00000000E+00  0.00000000E+00  0.00000000E+00
  0.00000000E+00  0.00000000E+00  0.00000000E+00
  0.00000000E+00  0.00000000E+00  0.00000000E+00
  0.00000000E+00  0.00000000E+00  0.00000000E+00
  0.00000000E+00  0.00000000E+00  0.00000000E+00
  0.00000000E+00  0.00000000E+00  0.00000000E+00
  0.00000000E+00  0.00000000E+00  0.00000000E+00
  0.00000000E+00  0.00000000E+00  0.00000000E+00
  0.00000000E+00  0.00000000E+00  0.00000000E+00
  0.00000000E+00  0.00000000E+00  0.00000000E+00
  0.00000000E+00  0.00000000E+00  0.00000000E+00
  0.00000000E+00  0.00000000E+00  0.00000000E+00
  0.00000000E+00  0.00000000E+00  0.00000000E+00
  0.00000000E+00  0.00000000E+00  0.00000000E+00
  0.00000000E+00  0.00000000E+00  0.00000000E+00
  0.00000000E+00  0.00000000E+00  0.00000000E+00
  0.00000000E+00  0.00000000E+00  0.00000000E+00
  0.00000000E+00  0.00000000E+00  0.00000000E+00
  0.00000000E+00  0.00000000E+00  0.00000000E+00
  0.00000000E+00  0.00000000E+00  0.00000000E+00
  0.00000000E+00  0.00000000E+00  0.00000000E+00
  0.00000000E+00  0.00000000E+00  0.00000000E+00
  0.00000000E+00  0.00000000E+00  0.00000000E+00
  0.00000000E+00  0.00000000E+00  0.00000000E+00
  0.00000000E+00  0.00000000E+00  0.00000000E+00
  0.00000000E+00  0.00000000E+00  0.00000000E+00
  0.00000000E+00  0.00000000E+00  0.00000000E+00
  0.00000000E+00  0.00000000E+00  0.00000000E+00
  0.00000000E+00  0.00000000E+00  0.00000000E+00
  0.00000000E+00  0.00000000E+00  0.00000000E+00
  0.00000000E+00  0.00000000E+00  0.00000000E+00
  0.00000000E+00  0.00000000E+00  0.00000000E+00
  0.00000000E+00  0.00000000E+00  0.00000000E+00
  0.00000000E+00  0.00000000E+00  0.00000000E+00
  0.00000000E+00  0.00000000E+00  0.00000000E+00
  0.00000000E+00  0.00000000E+00  0.00000000E+00
  0.00000000E+00  0.00000000E+00  0.00000000E+00
  0.00000000E+00  0.00000000E+00  0.00000000E+00
  0.00000000E+00  0.00000000E+00  0.00000000E+00
  0.00000000E+00  0.00000000E+00  0.00000000E+00
  0.00000000E+00  0.00000000E+00  0.00000000E+00
  0.00000000E+00  0.00000000E+00  0.00000000E+00
  0.00000000E+00  0.00000000E+00  0.00000000E+00
  0.00000000E+00  0.00000000E+00  0.00000000E+00
  0.00000000E+00  0.00000000E+00  0.00000000E+00
  0.00000000E+00  0.00000000E+00  0.00000000E+00
  0.00000000E+00  0.00000000E+00  0.00000000E+00
  0.00000000E+00  0.00000000E+00  0.00000000E+00
  0.00000000E+00  0.00000000E+00  0.00000000E+00
  0.00000000E+00  0.00000000E+00  0.00000000E+00
  0.00000000E+00  0.00000000E+00  0.00000000E+00
  0.00000000E+00  0.00000000E+00  0.00000000E+00
  0.00000000E+00  0.00000000E+00  0.00000000E+00
  0.00000000E+00  0.00000000E+00  0.00000000E+00
  0.00000000E+00  0.00000000E+00  0.00000000E+00
  0.00000000E+00  0.00000000E+00  0.00000000E+00
  0.00000000E+00  0.00000000E+00  0.00000000E+00
  0.00000000E+00  0.00000000E+00  0.00000000E+00
  0.00000000E+00  0.00000000E+00  0.00000000E+00
  0.00000000E+00  0.00000000E+00  0.00000000E+00
  0.00000000E+00  0.00000000E+00  0.00000000E+00
  0.00000000E+00  0.00000000E+00  0.00000000E+00
  0.00000000E+00  0.00000000E+00  0.00000000E+00
  0.00000000E+00  0.00000000E+00  0.00000000E+00
  0.00000000E+00  0.00000000E+00  0.00000000E+00
  0.00000000E+00  0.00000000E+00  0.00000000E+00
  0.00000000E+00  0.00000000E+00  0.00000000E+00
  0.00000000E+00  0.00000000E+00  0.00000000E+00
  0.00000000E+00  0.00000000E+00  0.00000000E+00
  0.00000000E+00  0.00000000E+00  0.00000000E+00
  0.00000000E+00  0.00000000E+00  0.00000000E+00
  0.00000000E+00  0.00000000E+00  0.00000000E+00
  0.00000000E+00  0.00000000E+00  0.00000000E+00
  0.00000000E+00  0.00000000E+00  0.00000000E+00
  0.00000000E+00  0.00000000E+00  0.00000000E+00
  0.00000000E+00  0.00000000E+00  0.00000000E+00
  0.00000000E+00  0.00000000E+00  0.00000000E+00
  0.00000000E+00  0.00000000E+00  0.00000000E+00
  0.00000000E+00  0.00000000E+00  0.00000000E+00
  0.00000000E+00  0.00000000E+00  0.00000000E+00
  0.00000000E+00  0.00000000E+00  0.00000000E+00
  0.00000000E+00  0.00000000E+00  0.00000000E+00
  0.00000000E+00  0.00000000E+00  0.00000000E+00
  0.00000000E+00  0.00000000E+00  0.00000000E+00
  0.00000000E+00  0.00000000E+00  0.00000000E+00
  0.00000000E+00  0.00000000E+00  0.00000000E+00
  0.00000000E+00  0.00000000E+00  0.00000000E+00
  0.00000000E+00  0.00000000E+00  0.00000000E+00
  0.00000000E+00  0.00000000E+00  0.00000000E+00
  0.00000000E+00  0.00000000E+00  0.00000000E+00
  0.00000000E+00  0.00000000E+00  0.00000000E+00
  0.00000000E+00  0.00000000E+00  0.00000000E+00
  0.00000000E+00  0.00000000E+00  0.00000000E+00
  0.00000000E+00  0.00000000E+00  0.00000000E+00
  0.00000000E+00  0.00000000E+00  0.00000000E+00
  0.00000000E+00  0.00000000E+00  0.00000000E+00
  0.00000000E+00  0.00000000E+00  0.00000000E+00
  0.00000000E+00  0.00000000E+00  0.00000000E+00
  0.00000000E+00  0.00000000E+00  0.00000000E+00
  0.00000000E+00  0.00000000E+00  0.00000000E+00
  0.00000000E+00  0.00000000E+00  0.00000000E+00
  0.00000000E+00  0.00000000E+00  0.00000000E+00
  0.00000000E+00  0.00000000E+00  0.00000000E+00
  0.00000000E+00  0.00000000E+00  0.00000000E+00
  0.00000000E+00  0.00000000E+00  0.00000000E+00
  0.00000000E+00  0.00000000E+00  0.00000000E+00
  0.00000000E+00  0.00000000E+00  0.00000000E+00
  0.00000000E+00  0.00000000E+00  0.00000000E+00
  0.00000000E+00  0.00000000E+00  0.00000000E+00
  0.00000000E+00  0.00000000E+00  0.00000000E+00
  0.00000000E+00  0.00000000E+00  0.00000000E+00
  0.00000000E+00  0.00000000E+00  0.00000000E+00
  0.00000000E+00  0.00000000E+00  0.00000000E+00
  0.00000000E+00  0.00000000E+00  0.00000000E+00
  0.00000000E+00  0.00000000E+00  0.00000000E+00
  0.00000000E+00  0.00000000E+00  0.00000000E+00
  0.00000000E+00  0.00000000E+00  0.00000000E+00
  0.00000000E+00  0.00000000E+00  0.00000000E+00
  0.00000000E+00  0.00000000E+00  0.00000000E+00
  0.00000000E+00  0.00000000E+00  0.00000000E+00
  0.00000000E+00  0.00000000E+00  0.00000000E+00
  0.00000000E+00  0.00000000E+00  0.00000000E+00
  0.00000000E+00  0.00000000E+00  0.00000000E+00
