O  C  H  Co Li                          
   1.00000000000000     
    25.9869300222800774    0.0014776472087939   -0.0002841704448074
    12.9947443186480527   22.5035161465627063   -0.0005769115704474
    -0.0000740905812471   -0.0001328080293999    6.8098320633878924
   O    C    H    Co   Li
    60    75    18    18     4
Direct
  0.0637844924829633  0.2360258961637192  0.2961841945618523
  0.0394235233435275  0.2817062861129875  0.9301481632911811
  0.1093325022068722  0.2476836265392043  0.6993244795614241
  0.3910249929834398  0.5841508678901194  0.6505762016213822
  0.6967545081233031  0.0713565203851601  0.3558829998932860
  0.6935446757331276  0.0338964874774746  0.9532146299304300
  0.6368297321138789  0.1043583290287080  0.7353714286880576
  0.0216186639365957  0.3798579676226419  0.6306066463283392
  0.2494324450741272  0.6951776210825202  0.3147712020789097
  0.2891039430229588  0.6832023082290511  0.9260721173720949
  0.2593681096338825  0.6364695221051534  0.7109554834244262
  0.6015370169443544  0.0233957295914528  0.6713309848035425
  0.3137213071255190  0.0371749992877664  0.3829294303492712
  0.2422280998404265  0.0699819354169759  0.6073173023370216
  0.6497103273043290  0.4332610202328153  0.7618471811077064
  0.5770695198204814  0.4342740785295943  0.9444859705331369
  0.2884081027855498  0.0807896296987092  0.0100124079526926
  0.6202125248067402  0.3298979326362289  0.3912624987368151
  0.6322899340962256  0.2662008098976645  0.6363420350218889
 -0.0056364437985992  0.6253719390805770  0.7138401548807413
  0.0320831055399235  0.5511733229094371  0.9336544150005248
  0.5669130954516353  0.3016617860344393  0.0351395113436169
  0.0485554256244922  0.6442931249533004  0.3846234864544366
  0.0815539245820653  0.6863489554479666  0.6063720980695005
  0.3856103989570935 -0.0034143748789535  0.7175245724338494
  0.4224693573099711  0.0315173223192856  0.9527222473252605
  0.0895501943112680  0.6292969762758949  0.0025589405907477
  0.7123204981995374  0.9613835432427029  0.6214957178094697
  0.7861634914240411  0.9361036021139342  0.4098070787805522
  0.3592213397266568  0.6228536618405284  0.2564401683987277
  0.4316771359318818  0.5981562165181041  0.0401885643316372
  0.7421642261016596  0.9202364306849654  0.0046941575177258
  0.3492994843468838  0.6943470415766267  0.5965062755951470
  0.3118484591487478  0.7691314748982437  0.3803893155140527
  0.9994956940207961  0.3558474495970238  0.2656082789465998
  0.9691864201372492  0.4253223913086975  0.0281079105157056
  0.3639755848399812  0.7201019606000603  0.9845733353809304
  0.9677965642474171  0.3129555878745652  0.5940540518932033
  0.9266050429258156  0.2861008500024947  0.3471150415924354
  0.6400390905473196  0.0132075834963107  0.2875422702505890
  0.6081098567455403  0.9699545054185950  0.0671411227537525
  0.9226693437353106  0.3360382576962077  0.9523337907117745
  0.9500862398624103  0.7420503125001074  0.6726372897435556
  0.9761542613733121  0.6973529506253393  0.0484525797442044
  0.9050540268972262  0.7358178056407162  0.2743872427698515
  0.6151313467651675  0.4352164020222958  0.3459350399434225
  0.3266404866990588  0.9376187779492131  0.6784162883895865
  0.3458017418368441  0.9625099135258833  0.0490859487770056
  0.3782398531280999  0.8916222507875631  0.2818334475566597
  0.9779542755880386  0.5997705350349256  0.3308871481083678
  0.7340517783248535  0.3165919150157345  0.6222850486761703
  0.7024738086247048  0.3203545181896326  0.0479861660672903
  0.7395515740911601  0.3689836835487362  0.2213959544335559
  0.4295879391499819  0.9764329604950073  0.3490673778752749
  0.7203195521460585  0.4564303781706937  0.4999213861204696
  0.6440955584325539  0.5517808281935376  0.5084718471128816
  0.6973397518636475  0.5141763083722259  0.2226882335173131
  0.7744880768075467  0.1540683454179553  0.5420530595564009
  0.7423385745305379  0.2118137121768244  0.8165319103202010
  0.7431825760162379  0.1216456127919531  0.7971864882748744
  0.1178329988129282  0.1988735082451729  0.2213978903052896
  0.1606408944027836  0.1556555648329321  0.3480882262536265
  0.0928494729128392  0.2456090355633797  0.8746925660751408
  0.1342620119019552  0.2014152998105412  0.0209753093216726
  0.4449341329676725  0.5516694141123254  0.5671917913587877
  0.4919415977138825  0.5145115796732220  0.6944233145416034
  0.6614133220983290  0.1264204167764505  0.2684446304573752
  0.6471906079684845  0.1767176329948227  0.3895298855918427
  0.6581933866084054  0.0893411929859137  0.9108985485844491
  0.6418528439721944  0.1364011837811853  0.0656349587410346
  0.0106186874560785  0.4329069040448074  0.5531472278007398
  0.0158861744419061  0.4742432329587991  0.6785503891373743
  0.2115719695514257  0.6789327298182886  0.2323579947295547
  0.1682302716436441  0.6791326375495330  0.3551957736575059
  0.2563124109551825  0.6596970639643123  0.8826463516090266
  0.2132977644871915  0.6608274708321580  0.0290147486702100
  0.5596298644389358  0.0130529777841412  0.5863334338934576
  0.5138767927761442  0.0179643565433184  0.7070281893646932
  0.2595855310886341  0.0723280567755429  0.4334734262984064
  0.2182619567230361  0.1160368609212742  0.2858372774161314
  0.5956534274008022  0.4459217760214503  0.7863854717940172
  0.5497351723654881  0.4787700041687007  0.6298263903154740
  0.2346223419257630  0.1183259905383729  0.0850729235780286
  0.1917987214342208  0.1617167516636471  0.9584506248368955
  0.6220191751478998  0.2818501325005752  0.4531556525789446
  0.6186183410173022  0.2358050186762364  0.3189351565507216
  0.0112514867569032  0.5703980830051907  0.7607443315660294
  0.0045092584163251  0.5307228941694887  0.6124511785062162
  0.5966422411616951  0.2437968368040544  0.1224354969044644
  0.6071347099789264  0.1957501313838361  0.0006363538017446
  0.0837747896907787  0.6648979098064244  0.4331301878253324
  0.1272830047091835  0.6620619320963992  0.2872888722923455
  0.4238226317134152  0.0120174164969322  0.7769001939858894
  0.4700457922648266  0.0054413750160578  0.6355192936197507
  0.1286075080431888  0.6441622391173856  0.0837911516655937
  0.1724900831779361  0.6433783009561309  0.9614752347077663
  0.7670128636614804  0.9287022903327025  0.5756648573279323
  0.8073380136797558  0.8806963621229682  0.7146333571445658
  0.4145648049492230  0.5926698528962852  0.2116326107690845
  0.4581616027822575  0.5519821177278842  0.3607659885128983
  0.7925763878225072  0.8789636390945582  0.9184947880297423
  0.8329476241756223  0.8311809887090529  0.0358698141283006
  0.3325564344915880  0.7499292607703866  0.5532386439261965
  0.3398285473002382  0.7886707065041554  0.7011635255031201
  0.9867120723387706  0.4087211487116496  0.2056395908924190
  0.9936499271895334  0.4493478264524465  0.3499387613686167
  0.3561582671989446  0.7719268037310593  0.9044674786407629
  0.3628292388773807  0.8128016110123620  0.0288952499155451
  0.9265180101634939  0.3031733078141928  0.5256594021098794
  0.8782342973613425  0.3130994909654254  0.6626409663144103
  0.6047958540303627  0.9918939278732297  0.2398312329853806
  0.5602639190495836  0.9961178908458901  0.3827181237121022
  0.8798893763741488  0.3277985360677316  0.8674422021813395
  0.8336461096538809  0.3338059118817716  0.9873732046496743
  0.9008105772460289  0.7858384895167747  0.7567175230515568
  0.8609481375766704  0.8348947684854348  0.6401546691503781
  0.9237169334690536  0.7370558185914264  0.1016808835498617
  0.8860178179679343  0.7852022422384516  0.9609093327156495
  0.5620888877006086  0.4752460314794576  0.4229206386724689
  0.5159770680244845  0.5136814645218946  0.2953090494442453
  0.3360034878768675  0.8853768410932551  0.7575512423582109
  0.3297810104597361  0.8445410660411616  0.6333405502471541
  0.3598080798674828  0.9090029278798449  0.1055669020929301
  0.3525717852071037  0.8687963668364183  0.9610644442699133
  0.9879126262437239  0.5472577165486494  0.4086868271932164
  0.9825382867067622  0.5056809974954591  0.2832566135070419
  0.7815059812315629  0.3174577465211538  0.7079946450946950
  0.8300459203715628  0.3075783144941240  0.5898061864548375
  0.7393984674314766  0.3398401176134395  0.0646656101203913
  0.7850408858749925  0.3291528791650953  0.9149918836054847
  0.4707573621992752  0.9878794076385824  0.4317703850927215
  0.5165069914670970  0.9832854847530641  0.3112699668401356
  0.6839654895592460  0.5120385347193627  0.4023955038089603
  0.7529149611004448  0.1615020266971732  0.7229205629466743
  0.6075818022840075  0.3183150763341020  0.9974610674191207
  0.1486589305221429  0.1533775928103263  0.5015023064907432
  0.4823638339901009  0.5150934450958805  0.8519815040870192
  0.6613636864937292  0.1694537606857893  0.5454569019031233
  0.0287898368893043  0.4620258998362800  0.8338583415351447
  0.1668075281420644  0.6928718557116800  0.5103026009268797
  0.5129112386842278  0.0313609554983013  0.8624208396149712
  0.2037743844356919  0.1640331356872340  0.8050527237596475
  0.5921007137419428  0.2042992847538817  0.8457262901723376
  0.1739758619590020  0.6296372999587396  0.8063330418296226
  0.8219518348761015  0.8295027742109974  0.1910603502765971
  0.3756818004046078  0.8007699837561479  0.1843575540663530
  0.8382531936601467  0.3398084732423924  0.1468530502263166
  0.8718975197337624  0.8364461652419068  0.4847257334364959
  0.5255586295950051  0.5135322384941938  0.1379729414294419
  0.3173460852343080  0.8564285817932396  0.4775947750966228
  0.9696385756896534  0.5178512703841428  0.1278989915156788
  0.8292154834140433  0.2969788941205310  0.4319276316665108
  0.5172520276216492  0.9702408336216445  0.1555663981054972
  0.3128757391892898  0.6410041152393618  0.5111881686095252
  0.0463237017670114  0.2995758221796468  0.4965734398521435
  0.6466748014600410  0.0491316866790366  0.5233759345725947
  0.0267214299070786  0.6805761544563965  0.8041689861706128
  0.3670892755319496  0.0248030595381057  0.1474745046085193
  0.3040193033792936  0.0170460709841826  0.8107353104561918
  0.6129692575668761  0.3733310990828062  0.1462296941798781
  0.6683334485618659  0.2911224378368205  0.8394610484796713
  0.0298042689618166  0.6112762098475069  0.1363279894708397
  0.6650693131461648  0.9726156027767220  0.8744210189554371
  0.9848538800740856  0.2902776879973578  0.1583370960778873
  0.3809014923043426  0.6503110942170103  0.8294638203354210
  0.7265518485381451  0.9864747667265407  0.2036591831005835
  0.9769903753337394  0.3620921204573541  0.8270877830772176
  0.3079641689640054  0.7125408712189863  0.1824548168698867
  0.6905493204797690  0.3969181689881103  0.4808613702086042
  0.9623325609907410  0.6773342209364559  0.4709453298339735
  0.3733166375149352  0.9535042884263923  0.4795492346889144
  0.7575939960183636  0.4340006140736426  0.2412860016347483
  0.6690767687197633  0.4993447554082660  0.7319980280272241
  0.7555768280177574  0.0873457483415091  0.5317659215224217
  0.7628498163105202  0.2330195481547362  0.5536609025239171
 
  0.00000000E+00  0.00000000E+00  0.00000000E+00
  0.00000000E+00  0.00000000E+00  0.00000000E+00
  0.00000000E+00  0.00000000E+00  0.00000000E+00
  0.00000000E+00  0.00000000E+00  0.00000000E+00
  0.00000000E+00  0.00000000E+00  0.00000000E+00
  0.00000000E+00  0.00000000E+00  0.00000000E+00
  0.00000000E+00  0.00000000E+00  0.00000000E+00
  0.00000000E+00  0.00000000E+00  0.00000000E+00
  0.00000000E+00  0.00000000E+00  0.00000000E+00
  0.00000000E+00  0.00000000E+00  0.00000000E+00
  0.00000000E+00  0.00000000E+00  0.00000000E+00
  0.00000000E+00  0.00000000E+00  0.00000000E+00
  0.00000000E+00  0.00000000E+00  0.00000000E+00
  0.00000000E+00  0.00000000E+00  0.00000000E+00
  0.00000000E+00  0.00000000E+00  0.00000000E+00
  0.00000000E+00  0.00000000E+00  0.00000000E+00
  0.00000000E+00  0.00000000E+00  0.00000000E+00
  0.00000000E+00  0.00000000E+00  0.00000000E+00
  0.00000000E+00  0.00000000E+00  0.00000000E+00
  0.00000000E+00  0.00000000E+00  0.00000000E+00
  0.00000000E+00  0.00000000E+00  0.00000000E+00
  0.00000000E+00  0.00000000E+00  0.00000000E+00
  0.00000000E+00  0.00000000E+00  0.00000000E+00
  0.00000000E+00  0.00000000E+00  0.00000000E+00
  0.00000000E+00  0.00000000E+00  0.00000000E+00
  0.00000000E+00  0.00000000E+00  0.00000000E+00
  0.00000000E+00  0.00000000E+00  0.00000000E+00
  0.00000000E+00  0.00000000E+00  0.00000000E+00
  0.00000000E+00  0.00000000E+00  0.00000000E+00
  0.00000000E+00  0.00000000E+00  0.00000000E+00
  0.00000000E+00  0.00000000E+00  0.00000000E+00
  0.00000000E+00  0.00000000E+00  0.00000000E+00
  0.00000000E+00  0.00000000E+00  0.00000000E+00
  0.00000000E+00  0.00000000E+00  0.00000000E+00
  0.00000000E+00  0.00000000E+00  0.00000000E+00
  0.00000000E+00  0.00000000E+00  0.00000000E+00
  0.00000000E+00  0.00000000E+00  0.00000000E+00
  0.00000000E+00  0.00000000E+00  0.00000000E+00
  0.00000000E+00  0.00000000E+00  0.00000000E+00
  0.00000000E+00  0.00000000E+00  0.00000000E+00
  0.00000000E+00  0.00000000E+00  0.00000000E+00
  0.00000000E+00  0.00000000E+00  0.00000000E+00
  0.00000000E+00  0.00000000E+00  0.00000000E+00
  0.00000000E+00  0.00000000E+00  0.00000000E+00
  0.00000000E+00  0.00000000E+00  0.00000000E+00
  0.00000000E+00  0.00000000E+00  0.00000000E+00
  0.00000000E+00  0.00000000E+00  0.00000000E+00
  0.00000000E+00  0.00000000E+00  0.00000000E+00
  0.00000000E+00  0.00000000E+00  0.00000000E+00
  0.00000000E+00  0.00000000E+00  0.00000000E+00
  0.00000000E+00  0.00000000E+00  0.00000000E+00
  0.00000000E+00  0.00000000E+00  0.00000000E+00
  0.00000000E+00  0.00000000E+00  0.00000000E+00
  0.00000000E+00  0.00000000E+00  0.00000000E+00
  0.00000000E+00  0.00000000E+00  0.00000000E+00
  0.00000000E+00  0.00000000E+00  0.00000000E+00
  0.00000000E+00  0.00000000E+00  0.00000000E+00
  0.00000000E+00  0.00000000E+00  0.00000000E+00
  0.00000000E+00  0.00000000E+00  0.00000000E+00
  0.00000000E+00  0.00000000E+00  0.00000000E+00
  0.00000000E+00  0.00000000E+00  0.00000000E+00
  0.00000000E+00  0.00000000E+00  0.00000000E+00
  0.00000000E+00  0.00000000E+00  0.00000000E+00
  0.00000000E+00  0.00000000E+00  0.00000000E+00
  0.00000000E+00  0.00000000E+00  0.00000000E+00
  0.00000000E+00  0.00000000E+00  0.00000000E+00
  0.00000000E+00  0.00000000E+00  0.00000000E+00
  0.00000000E+00  0.00000000E+00  0.00000000E+00
  0.00000000E+00  0.00000000E+00  0.00000000E+00
  0.00000000E+00  0.00000000E+00  0.00000000E+00
  0.00000000E+00  0.00000000E+00  0.00000000E+00
  0.00000000E+00  0.00000000E+00  0.00000000E+00
  0.00000000E+00  0.00000000E+00  0.00000000E+00
  0.00000000E+00  0.00000000E+00  0.00000000E+00
  0.00000000E+00  0.00000000E+00  0.00000000E+00
  0.00000000E+00  0.00000000E+00  0.00000000E+00
  0.00000000E+00  0.00000000E+00  0.00000000E+00
  0.00000000E+00  0.00000000E+00  0.00000000E+00
  0.00000000E+00  0.00000000E+00  0.00000000E+00
  0.00000000E+00  0.00000000E+00  0.00000000E+00
  0.00000000E+00  0.00000000E+00  0.00000000E+00
  0.00000000E+00  0.00000000E+00  0.00000000E+00
  0.00000000E+00  0.00000000E+00  0.00000000E+00
  0.00000000E+00  0.00000000E+00  0.00000000E+00
  0.00000000E+00  0.00000000E+00  0.00000000E+00
  0.00000000E+00  0.00000000E+00  0.00000000E+00
  0.00000000E+00  0.00000000E+00  0.00000000E+00
  0.00000000E+00  0.00000000E+00  0.00000000E+00
  0.00000000E+00  0.00000000E+00  0.00000000E+00
  0.00000000E+00  0.00000000E+00  0.00000000E+00
  0.00000000E+00  0.00000000E+00  0.00000000E+00
  0.00000000E+00  0.00000000E+00  0.00000000E+00
  0.00000000E+00  0.00000000E+00  0.00000000E+00
  0.00000000E+00  0.00000000E+00  0.00000000E+00
  0.00000000E+00  0.00000000E+00  0.00000000E+00
  0.00000000E+00  0.00000000E+00  0.00000000E+00
  0.00000000E+00  0.00000000E+00  0.00000000E+00
  0.00000000E+00  0.00000000E+00  0.00000000E+00
  0.00000000E+00  0.00000000E+00  0.00000000E+00
  0.00000000E+00  0.00000000E+00  0.00000000E+00
  0.00000000E+00  0.00000000E+00  0.00000000E+00
  0.00000000E+00  0.00000000E+00  0.00000000E+00
  0.00000000E+00  0.00000000E+00  0.00000000E+00
  0.00000000E+00  0.00000000E+00  0.00000000E+00
  0.00000000E+00  0.00000000E+00  0.00000000E+00
  0.00000000E+00  0.00000000E+00  0.00000000E+00
  0.00000000E+00  0.00000000E+00  0.00000000E+00
  0.00000000E+00  0.00000000E+00  0.00000000E+00
  0.00000000E+00  0.00000000E+00  0.00000000E+00
  0.00000000E+00  0.00000000E+00  0.00000000E+00
  0.00000000E+00  0.00000000E+00  0.00000000E+00
  0.00000000E+00  0.00000000E+00  0.00000000E+00
  0.00000000E+00  0.00000000E+00  0.00000000E+00
  0.00000000E+00  0.00000000E+00  0.00000000E+00
  0.00000000E+00  0.00000000E+00  0.00000000E+00
  0.00000000E+00  0.00000000E+00  0.00000000E+00
  0.00000000E+00  0.00000000E+00  0.00000000E+00
  0.00000000E+00  0.00000000E+00  0.00000000E+00
  0.00000000E+00  0.00000000E+00  0.00000000E+00
  0.00000000E+00  0.00000000E+00  0.00000000E+00
  0.00000000E+00  0.00000000E+00  0.00000000E+00
  0.00000000E+00  0.00000000E+00  0.00000000E+00
  0.00000000E+00  0.00000000E+00  0.00000000E+00
  0.00000000E+00  0.00000000E+00  0.00000000E+00
  0.00000000E+00  0.00000000E+00  0.00000000E+00
  0.00000000E+00  0.00000000E+00  0.00000000E+00
  0.00000000E+00  0.00000000E+00  0.00000000E+00
  0.00000000E+00  0.00000000E+00  0.00000000E+00
  0.00000000E+00  0.00000000E+00  0.00000000E+00
  0.00000000E+00  0.00000000E+00  0.00000000E+00
  0.00000000E+00  0.00000000E+00  0.00000000E+00
  0.00000000E+00  0.00000000E+00  0.00000000E+00
  0.00000000E+00  0.00000000E+00  0.00000000E+00
  0.00000000E+00  0.00000000E+00  0.00000000E+00
  0.00000000E+00  0.00000000E+00  0.00000000E+00
  0.00000000E+00  0.00000000E+00  0.00000000E+00
  0.00000000E+00  0.00000000E+00  0.00000000E+00
  0.00000000E+00  0.00000000E+00  0.00000000E+00
  0.00000000E+00  0.00000000E+00  0.00000000E+00
  0.00000000E+00  0.00000000E+00  0.00000000E+00
  0.00000000E+00  0.00000000E+00  0.00000000E+00
  0.00000000E+00  0.00000000E+00  0.00000000E+00
  0.00000000E+00  0.00000000E+00  0.00000000E+00
  0.00000000E+00  0.00000000E+00  0.00000000E+00
  0.00000000E+00  0.00000000E+00  0.00000000E+00
  0.00000000E+00  0.00000000E+00  0.00000000E+00
  0.00000000E+00  0.00000000E+00  0.00000000E+00
  0.00000000E+00  0.00000000E+00  0.00000000E+00
  0.00000000E+00  0.00000000E+00  0.00000000E+00
  0.00000000E+00  0.00000000E+00  0.00000000E+00
  0.00000000E+00  0.00000000E+00  0.00000000E+00
  0.00000000E+00  0.00000000E+00  0.00000000E+00
  0.00000000E+00  0.00000000E+00  0.00000000E+00
  0.00000000E+00  0.00000000E+00  0.00000000E+00
  0.00000000E+00  0.00000000E+00  0.00000000E+00
  0.00000000E+00  0.00000000E+00  0.00000000E+00
  0.00000000E+00  0.00000000E+00  0.00000000E+00
  0.00000000E+00  0.00000000E+00  0.00000000E+00
  0.00000000E+00  0.00000000E+00  0.00000000E+00
  0.00000000E+00  0.00000000E+00  0.00000000E+00
  0.00000000E+00  0.00000000E+00  0.00000000E+00
  0.00000000E+00  0.00000000E+00  0.00000000E+00
  0.00000000E+00  0.00000000E+00  0.00000000E+00
  0.00000000E+00  0.00000000E+00  0.00000000E+00
  0.00000000E+00  0.00000000E+00  0.00000000E+00
  0.00000000E+00  0.00000000E+00  0.00000000E+00
  0.00000000E+00  0.00000000E+00  0.00000000E+00
  0.00000000E+00  0.00000000E+00  0.00000000E+00
  0.00000000E+00  0.00000000E+00  0.00000000E+00
  0.00000000E+00  0.00000000E+00  0.00000000E+00
  0.00000000E+00  0.00000000E+00  0.00000000E+00
  0.00000000E+00  0.00000000E+00  0.00000000E+00
  0.00000000E+00  0.00000000E+00  0.00000000E+00
  0.00000000E+00  0.00000000E+00  0.00000000E+00
  0.00000000E+00  0.00000000E+00  0.00000000E+00
