O  C  H  Co Li                          
   1.00000000000000     
    25.8435075183750591   -0.1574503744140387   -0.1548690575329484
    12.7838721461728735   22.4436511391713402   -0.1528908804024023
    -0.0409045347574662   -0.0230322660635795    6.7544921071161452
   O    C    H    Co   Li
    60    75    18    18     4
Direct
  0.0605246340916690  0.2480005654266842  0.2968891728684137
  0.0356528978465634  0.2915909845558484  0.9313043397579610
  0.1056529958590173  0.2572646903402018  0.7012758956729632
  0.3984337040157261  0.5937607940382482  0.6461450692385342
  0.6991131767784163  0.0628335957720095  0.3515564853962355
  0.6956348756956753  0.0249844889976153  0.9491692816948165
  0.6407070019695781  0.0950075957417475  0.7324941714955949
  0.0184849626033042  0.3885598228587660  0.6332790145532012
  0.2574860050261131  0.6911639561084196  0.3117487703400175
  0.3021831890754134  0.6707574801550986  0.9495438840315154
  0.2652296405149396  0.6379340985350311  0.7111857977703543
  0.6010825441508164  0.0187922556500165  0.6661779704457250
  0.3071506493738311  0.0461060048824706  0.3745885079127650
  0.2360906525856043  0.0807073491381151  0.6004998060364141
  0.6404458294509335  0.3819330915734196  0.7189811850772085
  0.5708034962799188  0.4268711412290278  0.9458674692187299
  0.2823222395005174  0.0891257467932328  0.0040098213587586
  0.6328602992847500  0.3153047341874784  0.3656849573415423
  0.6408413533569057  0.2569133405161348  0.6169921443750426
  0.0051582488960842  0.6249713844876000  0.7002412698334015
  0.0357167938024337  0.5549501703399515  0.9298279434032246
  0.5759031109250751  0.2881187986955306  0.0163982698180109
  0.0479413287614549  0.6541867055299881  0.3707032768222152
  0.0844974370755777  0.6893157141599201  0.6019265857063530
  0.3780612463758369  0.0054085463855611  0.7081941239450785
  0.4177894277472400  0.0359007998725640  0.9442565532217968
  0.0910380436366471  0.6358387065696001  0.0007763485847841
  0.7109754279019291  0.9548349748243373  0.6171636633780893
  0.7847879850139146  0.9286869170010108  0.4050163230315726
  0.3739636278757044  0.6385280220000318  0.2846797307776362
  0.4423195780055806  0.6014171369501279  0.0488660314273363
  0.7403189363055941  0.9137625347225393 -0.0006398817198102
  0.3343250781269769  0.7104432670094438  0.6191754440127065
  0.3058490564365548  0.7780980769986816  0.3809048385697728
 -0.0020305143022479  0.3643502294503330  0.2685184837211759
  0.9685765477128109  0.4327733260429226  0.0332392161811623
  0.3563946998361766  0.7346570877137268  0.9811670382693912
  0.9646196599786062  0.3246485077880415  0.5970021516127222
  0.9257387811643847  0.2950520758723730  0.3541032106820086
  0.6399315083886647  0.0082112629605876  0.2844099979709743
  0.6051488183061006  0.9689407419699625  0.0633003508393377
  0.9190432444530691  0.3458449030572078  0.9574253953239664
  0.9513117907249583  0.7418839297894937  0.6708337461568538
  0.9757862353530771  0.6956927865680688  0.0351916447281288
  0.9074253775960222  0.7354933179424908  0.2702723680687397
  0.6130464333210963  0.4232322823869231  0.3361101591072969
  0.3177855586660757  0.9485301471289437  0.6712451530355690
  0.3371190915827098  0.9737610374973362  0.0400155801410654
  0.3674236994380751  0.9044612459380814  0.2722340462918503
  0.9849598605041734  0.6009985898864925  0.3300071865747325
  0.7473035589836095  0.2990295005462730  0.6322853662121296
  0.7072492446533689  0.3128781707318987  0.0408233205557900
  0.7447848928681966  0.3547435905540512  0.2384287465452659
  0.4221810250950064  0.9846503667479206  0.3421949479635232
  0.7078280373914332  0.4380661238308191  0.5624410131089785
  0.6394570504701914  0.5349468449634002  0.5731395794236764
  0.6927671187498683  0.4950887246226726  0.2907822002302307
  0.7800957794377816  0.1428535434305125  0.5542118408146062
  0.7457101895465396  0.2008337913414386  0.8256415873101541
  0.7438342683818872  0.1133467499358424  0.7996772068773019
  0.1138469216618616  0.2100433519325079  0.2206783957899690
  0.1561980482123340  0.1668652774672137  0.3455020866426515
  0.0889393400070162  0.2555077361357582  0.8756871675682120
  0.1300230336409630  0.2115474279942610  0.0201105013297477
  0.4507196954344289  0.5540747958711814  0.5673018714788609
  0.4928255027930863  0.5102940412251610  0.6904480169269154
  0.6657012044500614  0.1169005550925246  0.2618162813687862
  0.6531275532775711  0.1669543219661968  0.3781593691138706
  0.6615895423765407  0.0798623989798615  0.9068863250912694
  0.6465038124791569  0.1262195484183321  0.0601631077260152
  0.0100341792073687  0.4397412736835756  0.5549907647268666
  0.0168591115288759  0.4798116826790040  0.6786256319807945
  0.2178791416362665  0.6774258966496982  0.2313165127644153
  0.1734639666419621  0.6796582106249848  0.3531652628052651
  0.2641081574231833  0.6557873373977698  0.8876854561922065
  0.2186283833291677  0.6603762836221081  0.0288820007381926
  0.5577038693447868  0.0113495211663105  0.5809201431212874
  0.5111417922568661  0.0179540918086590  0.7007370969496184
  0.2536361089332755  0.0822753502974805  0.4271243164104473
  0.2130580500006049  0.1261582705420116  0.2814896955869932
  0.5886183724614605  0.4229609669606267  0.7674153313978725
  0.5481471050113415  0.4668579801577079  0.6219475824801455
  0.2292926113794816  0.1274481125177419  0.0806658240456324
  0.1868947832286916  0.1708716971486589  0.9559722102747091
  0.6320392694424791  0.2696907567699884  0.4338948954816251
  0.6269333707080742  0.2247106420172997  0.3039505389021828
  0.0173102344026433  0.5727811727431841  0.7554389104799176
  0.0085201295995459  0.5341808033683719  0.6110278547614927
  0.6052246636336223  0.2319923931227055  0.1086725883753184
  0.6138206814534790  0.1844723339134456  0.9923298469063992
  0.0856858197491712  0.6702914283208293  0.4269837015177898
  0.1307388524373551  0.6655520272879758  0.2842441231462701
  0.4181762469976248  0.0175951802243941  0.7687580014238609
  0.4653681535834372  0.0089514861418555  0.6286005109747208
  0.1312447759526143  0.6487725062769079  0.0815183009598246
  0.1758664838387642  0.6463368247527350  0.9597668382838253
  0.7655987571325142  0.9222291557089380  0.5712115853659735
  0.8060252239950485  0.8756868383972969  0.7105676293887854
  0.4259322211933274  0.6001704353575789  0.2241011668398506
  0.4659262570373583  0.5542503161948160  0.3650526827278674
  0.7912690406511956  0.8740259475664081  0.9134271185698430
  0.8325404825628824  0.8277842521911267  0.0307562572928787
  0.3229685512860578  0.7617838005390037  0.5573065558392056
  0.3307841982246579  0.8015381464991074  0.6987780116137259
  0.9861540679876455  0.4161430333714707  0.2090993666466381
 -0.0056177352816113  0.4554884823000491  0.3521048522081834
  0.3465020991722349  0.7861807099085764  0.9016791646665560
  0.3518665008825587  0.8273373247337984  0.0239012648982906
  0.9255915140097366  0.3115665190985913  0.5321138244902742
  0.8794564616282218  0.3169047280378298  0.6711573552269235
  0.6027274970394750  0.9898708410637358  0.2355645413859269
  0.5572308084063448  0.9960910016467839  0.3774606935161131
  0.8790892141140741  0.3332398934676010  0.8738319113914060
  0.8341985819682695  0.3354295374489434 -0.0075573660107861
  0.9010412039698286  0.7840295858778142  0.7539999968178021
  0.8603682348733555  0.8313677389116965  0.6374134393934034
  0.9246990684368095  0.7358549873079614  0.0954214836097751
  0.8862571016797315  0.7832513394322916  0.9567966473815839
  0.5623689339197379  0.4655232187447325  0.4175511048094837
  0.5208904063603098  0.5105278369821790  0.2959931349733239
  0.3268667197821489  0.8972132010881572  0.7509021866189510
  0.3212645296640165  0.8561369658950044  0.6287544541363017
  0.3496784065891378  0.9215366480621476  0.0968401606629387
  0.3421850270562128  0.8820149830953125  0.9540593134957478
  0.9929012130123902  0.5501090027540082  0.4080991671243451
  0.9859441413623782  0.5099181559866007  0.2844579547765840
  0.7890942682531500  0.3087007468599122  0.7186491240834489
  0.8356529850272078  0.3044177965166750  0.6011893694978412
  0.7448323062418041  0.3303297613983285  0.0709576986840044
  0.7894654134777354  0.3240924466891373  0.9230153867287466
  0.4649831277913180  0.9930866420523948  0.4250400437193561
  0.5115396652760908  0.9867369984882555  0.3054377997772375
  0.6772830500634517  0.4932957439731973  0.4671349345480459
  0.7558821745967138  0.1517522718887208  0.7313107884922125
  0.6136902273333510  0.3080356562322520  0.9801021673432391
  0.1443198477826957  0.1654552141473733  0.4988206367948280
  0.4817763448241019  0.5105500493380445  0.8456946701859532
  0.6666279405630560  0.1606722160677145  0.5336069914112693
  0.0288065756176375  0.4680253285672718  0.8333812202960259
  0.1726148721050735  0.6925279243984357  0.5078405305823452
  0.5110457948481310  0.0300594150624723  0.8559047302184039
  0.1987698564249623  0.1722397245394192  0.8026125727237980
  0.5989032518848001  0.1923612460515348  0.8386134110285571
  0.1767844786011635  0.6334721000164717  0.8050337414700773
  0.8216123332582690  0.8261895724199497  0.1851416626641172
  0.3639026827087338  0.8161538469730915  0.1789341485645785
  0.8369605344809763  0.3437599478196681  0.1497940682877998
  0.8712744262474171  0.8328339514628864  0.4828326967012017
  0.5318167636304857  0.5110536879423687  0.1412376306664680
  0.3093191610924065  0.8672011592553251  0.4735888451328130
  0.9740550553002780  0.5216819755127652  0.1296379029470138
  0.8369615969997225  0.2916593863542651  0.4458355622167585
  0.5114595035005933  0.9749673999592227  0.1499666420348837
  0.3189568480852258  0.6465180704375398  0.5141790831151538
  0.0441453445168756  0.3092703453026129  0.4998245950477794
  0.6479848992941031  0.0422424420495438  0.5196138496737622
  0.0297259335165079  0.6837026615304569  0.8000117289559490
  0.3610710656122342  0.0328823086644963  0.1397028104371076
  0.2962734470370808  0.0271668582341527  0.8028682374314696
  0.6136076499297836  0.3639498886712064  0.1311921063829526
  0.6741019131329280  0.2865754303858213  0.8194479408879964
  0.0338329780612042  0.6138931515740317  0.1317110902251981
  0.6638300515744733  0.9674864472087823  0.8699588509647409
  0.9812809836183668  0.3010874881218901  0.1606725515866007
  0.3814396730668939  0.6551517242712297  0.8497177347859231
  0.7266770074340003  0.9788510717170275  0.1991303180073150
  0.9737364919352016  0.3718064072580198  0.8323595533418309
  0.3115495563400629  0.7172911039385992  0.1816990217881027
  0.6870429930385611  0.3722369275841351  0.4721276834243586
  0.9650517935882060  0.6794964461961599  0.4672853070189080
  0.3647420947005110  0.9633789304203820  0.4717793271677423
  0.7561809962808851  0.4185867134009179  0.3235098924644713
  0.6646918123237876  0.4848834436943040  0.7912997824182272
  0.7576416480038065  0.0798353489318390  0.5356173133087150
  0.7770892715888651  0.2161807771615124  0.5811403321897280
 
  0.00000000E+00  0.00000000E+00  0.00000000E+00
  0.00000000E+00  0.00000000E+00  0.00000000E+00
  0.00000000E+00  0.00000000E+00  0.00000000E+00
  0.00000000E+00  0.00000000E+00  0.00000000E+00
  0.00000000E+00  0.00000000E+00  0.00000000E+00
  0.00000000E+00  0.00000000E+00  0.00000000E+00
  0.00000000E+00  0.00000000E+00  0.00000000E+00
  0.00000000E+00  0.00000000E+00  0.00000000E+00
  0.00000000E+00  0.00000000E+00  0.00000000E+00
  0.00000000E+00  0.00000000E+00  0.00000000E+00
  0.00000000E+00  0.00000000E+00  0.00000000E+00
  0.00000000E+00  0.00000000E+00  0.00000000E+00
  0.00000000E+00  0.00000000E+00  0.00000000E+00
  0.00000000E+00  0.00000000E+00  0.00000000E+00
  0.00000000E+00  0.00000000E+00  0.00000000E+00
  0.00000000E+00  0.00000000E+00  0.00000000E+00
  0.00000000E+00  0.00000000E+00  0.00000000E+00
  0.00000000E+00  0.00000000E+00  0.00000000E+00
  0.00000000E+00  0.00000000E+00  0.00000000E+00
  0.00000000E+00  0.00000000E+00  0.00000000E+00
  0.00000000E+00  0.00000000E+00  0.00000000E+00
  0.00000000E+00  0.00000000E+00  0.00000000E+00
  0.00000000E+00  0.00000000E+00  0.00000000E+00
  0.00000000E+00  0.00000000E+00  0.00000000E+00
  0.00000000E+00  0.00000000E+00  0.00000000E+00
  0.00000000E+00  0.00000000E+00  0.00000000E+00
  0.00000000E+00  0.00000000E+00  0.00000000E+00
  0.00000000E+00  0.00000000E+00  0.00000000E+00
  0.00000000E+00  0.00000000E+00  0.00000000E+00
  0.00000000E+00  0.00000000E+00  0.00000000E+00
  0.00000000E+00  0.00000000E+00  0.00000000E+00
  0.00000000E+00  0.00000000E+00  0.00000000E+00
  0.00000000E+00  0.00000000E+00  0.00000000E+00
  0.00000000E+00  0.00000000E+00  0.00000000E+00
  0.00000000E+00  0.00000000E+00  0.00000000E+00
  0.00000000E+00  0.00000000E+00  0.00000000E+00
  0.00000000E+00  0.00000000E+00  0.00000000E+00
  0.00000000E+00  0.00000000E+00  0.00000000E+00
  0.00000000E+00  0.00000000E+00  0.00000000E+00
  0.00000000E+00  0.00000000E+00  0.00000000E+00
  0.00000000E+00  0.00000000E+00  0.00000000E+00
  0.00000000E+00  0.00000000E+00  0.00000000E+00
  0.00000000E+00  0.00000000E+00  0.00000000E+00
  0.00000000E+00  0.00000000E+00  0.00000000E+00
  0.00000000E+00  0.00000000E+00  0.00000000E+00
  0.00000000E+00  0.00000000E+00  0.00000000E+00
  0.00000000E+00  0.00000000E+00  0.00000000E+00
  0.00000000E+00  0.00000000E+00  0.00000000E+00
  0.00000000E+00  0.00000000E+00  0.00000000E+00
  0.00000000E+00  0.00000000E+00  0.00000000E+00
  0.00000000E+00  0.00000000E+00  0.00000000E+00
  0.00000000E+00  0.00000000E+00  0.00000000E+00
  0.00000000E+00  0.00000000E+00  0.00000000E+00
  0.00000000E+00  0.00000000E+00  0.00000000E+00
  0.00000000E+00  0.00000000E+00  0.00000000E+00
  0.00000000E+00  0.00000000E+00  0.00000000E+00
  0.00000000E+00  0.00000000E+00  0.00000000E+00
  0.00000000E+00  0.00000000E+00  0.00000000E+00
  0.00000000E+00  0.00000000E+00  0.00000000E+00
  0.00000000E+00  0.00000000E+00  0.00000000E+00
  0.00000000E+00  0.00000000E+00  0.00000000E+00
  0.00000000E+00  0.00000000E+00  0.00000000E+00
  0.00000000E+00  0.00000000E+00  0.00000000E+00
  0.00000000E+00  0.00000000E+00  0.00000000E+00
  0.00000000E+00  0.00000000E+00  0.00000000E+00
  0.00000000E+00  0.00000000E+00  0.00000000E+00
  0.00000000E+00  0.00000000E+00  0.00000000E+00
  0.00000000E+00  0.00000000E+00  0.00000000E+00
  0.00000000E+00  0.00000000E+00  0.00000000E+00
  0.00000000E+00  0.00000000E+00  0.00000000E+00
  0.00000000E+00  0.00000000E+00  0.00000000E+00
  0.00000000E+00  0.00000000E+00  0.00000000E+00
  0.00000000E+00  0.00000000E+00  0.00000000E+00
  0.00000000E+00  0.00000000E+00  0.00000000E+00
  0.00000000E+00  0.00000000E+00  0.00000000E+00
  0.00000000E+00  0.00000000E+00  0.00000000E+00
  0.00000000E+00  0.00000000E+00  0.00000000E+00
  0.00000000E+00  0.00000000E+00  0.00000000E+00
  0.00000000E+00  0.00000000E+00  0.00000000E+00
  0.00000000E+00  0.00000000E+00  0.00000000E+00
  0.00000000E+00  0.00000000E+00  0.00000000E+00
  0.00000000E+00  0.00000000E+00  0.00000000E+00
  0.00000000E+00  0.00000000E+00  0.00000000E+00
  0.00000000E+00  0.00000000E+00  0.00000000E+00
  0.00000000E+00  0.00000000E+00  0.00000000E+00
  0.00000000E+00  0.00000000E+00  0.00000000E+00
  0.00000000E+00  0.00000000E+00  0.00000000E+00
  0.00000000E+00  0.00000000E+00  0.00000000E+00
  0.00000000E+00  0.00000000E+00  0.00000000E+00
  0.00000000E+00  0.00000000E+00  0.00000000E+00
  0.00000000E+00  0.00000000E+00  0.00000000E+00
  0.00000000E+00  0.00000000E+00  0.00000000E+00
  0.00000000E+00  0.00000000E+00  0.00000000E+00
  0.00000000E+00  0.00000000E+00  0.00000000E+00
  0.00000000E+00  0.00000000E+00  0.00000000E+00
  0.00000000E+00  0.00000000E+00  0.00000000E+00
  0.00000000E+00  0.00000000E+00  0.00000000E+00
  0.00000000E+00  0.00000000E+00  0.00000000E+00
  0.00000000E+00  0.00000000E+00  0.00000000E+00
  0.00000000E+00  0.00000000E+00  0.00000000E+00
  0.00000000E+00  0.00000000E+00  0.00000000E+00
  0.00000000E+00  0.00000000E+00  0.00000000E+00
  0.00000000E+00  0.00000000E+00  0.00000000E+00
  0.00000000E+00  0.00000000E+00  0.00000000E+00
  0.00000000E+00  0.00000000E+00  0.00000000E+00
  0.00000000E+00  0.00000000E+00  0.00000000E+00
  0.00000000E+00  0.00000000E+00  0.00000000E+00
  0.00000000E+00  0.00000000E+00  0.00000000E+00
  0.00000000E+00  0.00000000E+00  0.00000000E+00
  0.00000000E+00  0.00000000E+00  0.00000000E+00
  0.00000000E+00  0.00000000E+00  0.00000000E+00
  0.00000000E+00  0.00000000E+00  0.00000000E+00
  0.00000000E+00  0.00000000E+00  0.00000000E+00
  0.00000000E+00  0.00000000E+00  0.00000000E+00
  0.00000000E+00  0.00000000E+00  0.00000000E+00
  0.00000000E+00  0.00000000E+00  0.00000000E+00
  0.00000000E+00  0.00000000E+00  0.00000000E+00
  0.00000000E+00  0.00000000E+00  0.00000000E+00
  0.00000000E+00  0.00000000E+00  0.00000000E+00
  0.00000000E+00  0.00000000E+00  0.00000000E+00
  0.00000000E+00  0.00000000E+00  0.00000000E+00
  0.00000000E+00  0.00000000E+00  0.00000000E+00
  0.00000000E+00  0.00000000E+00  0.00000000E+00
  0.00000000E+00  0.00000000E+00  0.00000000E+00
  0.00000000E+00  0.00000000E+00  0.00000000E+00
  0.00000000E+00  0.00000000E+00  0.00000000E+00
  0.00000000E+00  0.00000000E+00  0.00000000E+00
  0.00000000E+00  0.00000000E+00  0.00000000E+00
  0.00000000E+00  0.00000000E+00  0.00000000E+00
  0.00000000E+00  0.00000000E+00  0.00000000E+00
  0.00000000E+00  0.00000000E+00  0.00000000E+00
  0.00000000E+00  0.00000000E+00  0.00000000E+00
  0.00000000E+00  0.00000000E+00  0.00000000E+00
  0.00000000E+00  0.00000000E+00  0.00000000E+00
  0.00000000E+00  0.00000000E+00  0.00000000E+00
  0.00000000E+00  0.00000000E+00  0.00000000E+00
  0.00000000E+00  0.00000000E+00  0.00000000E+00
  0.00000000E+00  0.00000000E+00  0.00000000E+00
  0.00000000E+00  0.00000000E+00  0.00000000E+00
  0.00000000E+00  0.00000000E+00  0.00000000E+00
  0.00000000E+00  0.00000000E+00  0.00000000E+00
  0.00000000E+00  0.00000000E+00  0.00000000E+00
  0.00000000E+00  0.00000000E+00  0.00000000E+00
  0.00000000E+00  0.00000000E+00  0.00000000E+00
  0.00000000E+00  0.00000000E+00  0.00000000E+00
  0.00000000E+00  0.00000000E+00  0.00000000E+00
  0.00000000E+00  0.00000000E+00  0.00000000E+00
  0.00000000E+00  0.00000000E+00  0.00000000E+00
  0.00000000E+00  0.00000000E+00  0.00000000E+00
  0.00000000E+00  0.00000000E+00  0.00000000E+00
  0.00000000E+00  0.00000000E+00  0.00000000E+00
  0.00000000E+00  0.00000000E+00  0.00000000E+00
  0.00000000E+00  0.00000000E+00  0.00000000E+00
  0.00000000E+00  0.00000000E+00  0.00000000E+00
  0.00000000E+00  0.00000000E+00  0.00000000E+00
  0.00000000E+00  0.00000000E+00  0.00000000E+00
  0.00000000E+00  0.00000000E+00  0.00000000E+00
  0.00000000E+00  0.00000000E+00  0.00000000E+00
  0.00000000E+00  0.00000000E+00  0.00000000E+00
  0.00000000E+00  0.00000000E+00  0.00000000E+00
  0.00000000E+00  0.00000000E+00  0.00000000E+00
  0.00000000E+00  0.00000000E+00  0.00000000E+00
  0.00000000E+00  0.00000000E+00  0.00000000E+00
  0.00000000E+00  0.00000000E+00  0.00000000E+00
  0.00000000E+00  0.00000000E+00  0.00000000E+00
  0.00000000E+00  0.00000000E+00  0.00000000E+00
  0.00000000E+00  0.00000000E+00  0.00000000E+00
  0.00000000E+00  0.00000000E+00  0.00000000E+00
  0.00000000E+00  0.00000000E+00  0.00000000E+00
  0.00000000E+00  0.00000000E+00  0.00000000E+00
  0.00000000E+00  0.00000000E+00  0.00000000E+00
  0.00000000E+00  0.00000000E+00  0.00000000E+00
  0.00000000E+00  0.00000000E+00  0.00000000E+00
  0.00000000E+00  0.00000000E+00  0.00000000E+00
  0.00000000E+00  0.00000000E+00  0.00000000E+00
