O  C  H  Co Li                          
   1.00000000000000     
    25.9869300222800774    0.0014776472087939   -0.0002841704448074
    12.9947443186480527   22.5035161465627063   -0.0005769115704474
    -0.0000740905812471   -0.0001328080293999    6.8098320633878924
   O    C    H    Co   Li
    60    75    18    18     4
Direct
  0.0605761893856009  0.2458463613901725  0.3103382281491697
  0.0323973855561854  0.2901876379959537  0.9323728663057513
  0.1052344796146947  0.2561181697830091  0.7165886543287422
  0.3956724678137412  0.5934821446569751  0.6473227201947535
  0.7017080509807728  0.0536437222146015  0.3454175482759623
  0.6908154453886678  0.0181991980767091  0.9584089301496179
  0.6436288294509326  0.0910038989530107  0.7467108819256287
  0.0282240415575337  0.3886085900135827  0.6460697618032845
  0.2496153420258233  0.6972837922054341  0.3169689174275171
  0.2934958177421186  0.6834120635268524  0.9416717354418207
  0.2625021171191758  0.6422261293996747  0.7238262657931774
  0.5942099835900667  0.0123466310394940  0.6659884877989504
  0.3079198351716328  0.0474554869843267  0.3753118993307111
  0.2344349274616014  0.0814893334642616  0.5886760798749870
  0.6284916310097434  0.3740325322014028  0.6766335800449126
  0.5668378202019795  0.4268319110142827  0.9169162631872053
  0.2793737889952116  0.0911642530854923  0.9948218962117346
  0.6438985452530952  0.3060574647693557  0.3322779706910037
  0.6632349299752542  0.2465997352526039  0.5860516558439601
  0.9994569902286323  0.6283448934073388  0.7067041010843890
  0.0382537247257172  0.5547948926587115  0.9195968802031609
  0.5892843801414176  0.2780883307037755  0.0142086712002791
  0.0527149980190060  0.6460347748900762  0.3740599975632831
  0.0847770190107815  0.6869165370526814  0.5891830058029536
  0.3779560466963327  0.9926273023473460  0.7081893269148214
  0.4148224610024607  0.0282186233721153  0.9258070734482157
  0.0961902096407696  0.6325404279305753  0.9947319089532786
  0.7081978909033948  0.9487276688100851  0.6217771057459394
  0.7813225586207032  0.9185525578784282  0.4080876443507487
  0.3657576333971025  0.6370743428881951  0.2748313927811095
  0.4370921049020254  0.6035064725314062  0.0533380370379274
  0.7383432423566167  0.9048953940939760  0.0005551939213706
  0.3391426135468342  0.7085528507387666  0.6091097462909083
  0.3014834640333447  0.7805334650482095  0.3899648399066568
  0.0127189290732587  0.3609616927733303  0.2675913077203326
  0.9750159846756964  0.4339927381669896  0.0524355277492402
  0.3560423223615081  0.7362057999606260  0.9835249514819475
  0.9614968030634432  0.3400310049768945  0.5996498644705806
  0.9246965809813312  0.3058870616581748  0.3763236169807166
  0.6367300405888764  0.0004745141048385  0.2888376149614368
  0.6033141558787430  0.9612327404019078  0.0720733413147654
  0.9167390142453411  0.3567765977594058  0.9725152282941947
  0.9517428178939085  0.7436505811748746  0.6664545768219385
  0.9812712989414482  0.6987408583081812  0.0421925601586389
  0.9092765417465430  0.7338385969777039  0.2616831253464492
  0.6063647046187687  0.4256732866700397  0.3185465692456635
  0.3075565303544094  0.9492772522718762  0.6607507609601351
  0.3233176948336074  0.9771784545313879  0.0416100013973795
  0.3611624232621413  0.9037396408020075  0.2553968055630160
  0.9841864993256699  0.6005713421982551  0.3265098453404470
  0.7504454967982905  0.3086757898122569  0.6461072350170787
  0.7002503213425960  0.3372010380003128  0.0165825610641587
  0.7435735498486925  0.3630942188679354  0.2428947962954061
  0.4225459899046561  0.9764280269983416  0.3310765708800529
  0.6905006363228170  0.4469767963900874  0.5743688948023085
  0.6375638125148000  0.5469945770445807  0.5650543749129824
  0.7220192784227724  0.4974320010169085  0.3870703452977235
  0.7970958290436827  0.1493510149851307  0.5866711785537478
  0.7564243968497963  0.2062814822073406  0.8488706412887604
  0.7507987307317050  0.1221424442879913  0.7990573292162308
  0.1125791568289790  0.2097641825409961  0.2252784832855650
  0.1563927585923349  0.1667222532220041  0.3441695031899340
  0.0867386483930398  0.2546147606141059  0.8850113185729422
  0.1270066461169168  0.2113210788834840  0.0266726484229768
  0.4470799340584752  0.5567433366352009  0.5609715181984831
  0.4914217488122833  0.5144925603079712  0.6791660495209282
  0.6753450101722158  0.1071481427966320  0.2558348897231194
  0.6687982729240681  0.1552073334150930  0.3670512104476550
  0.6635792090847596  0.0737593999137943  0.9161677969079308
  0.6557416625953946  0.1179189292703191  0.0598365638092761
  0.0171003689734910  0.4391195419676167  0.5601994433420758
  0.0207815009719179  0.4807382567975566  0.6786080087416625
  0.2140106266443262  0.6809694200756332  0.2307090670383741
  0.1711711560056199  0.6794238972547707  0.3485227318451852
  0.2594329386125983  0.6631582753497476  0.8919708604299698
  0.2158090261336166  0.6655134168751043  0.0314525284218090
  0.5542333991766352  0.0027726924802232  0.5772664239326500
  0.5081079491031840  0.0072506691198054  0.6924201257564906
  0.2533395706704762  0.0829016863627210  0.4208211996599676
  0.2130632501944319  0.1259881006019036  0.2786750746554268
  0.5826787027071938  0.4204322154124279  0.7405960666492899
  0.5455240651203082  0.4692300665332043  0.6060910681829798
  0.2274467023795352  0.1274340432042080  0.0799578223638806
  0.1836201349985782  0.1705200686434084  0.9610382101941243
  0.6496949900352404  0.2587085395122627  0.4104123799967608
  0.6455618408543875  0.2128044666182278  0.2927506688244570
  0.0169957412962242  0.5741682224818035  0.7529941606535296
  0.0104565983039481  0.5355713237892135  0.6117376795181122
  0.6233609340545367  0.2210401969190988  0.1062597191877114
  0.6276490662613790  0.1762820456176291  0.9930727554802483
  0.0872682177585626  0.6660016921750728  0.4214415892420054
  0.1305924436351440  0.6635671733068803  0.2808293129673817
  0.4161688587837427  0.0076642688644015  0.7583066477822662
  0.4625275218039832  0.9993885384410703  0.6205205449126273
  0.1321885148579904  0.6483335194674754  0.0813409258891716
  0.1751927464540654  0.6497238525462370  0.9636231840336940
  0.7627186344963227  0.9143255066512618  0.5740301751803546
  0.8026797225979984  0.8693051280313810  0.7113544901841057
  0.4194016724032216  0.6009427292096459  0.2221779412938467
  0.4596796986443886  0.5558347703892784  0.3595673432335944
  0.7890905198254600  0.8677230077333916  0.9112408277051371
  0.8325675922117477  0.8229607607143633  0.0260675171874134
  0.3219466924487921  0.7621820236791786  0.5581220500262679
  0.3279487789544909  0.8013828896658794  0.6977384719497082
  0.9957862823717489  0.4148529223359134  0.2197414658875409
  0.0023346097817913  0.4534921461115941  0.3607043857131194
  0.3432900744486035  0.7870787711130137  0.8968858269900113
  0.3459027684228221  0.8293069534337900  0.0146054892866651
  0.9236792759199270  0.3248305859581739  0.5466328196883929
  0.8783137823643039  0.3307266580111420  0.6844337623165400
  0.6004649202629386  0.9825763156981432  0.2391177938017516
  0.5546335952968143  0.9891589783082291  0.3767300180276227
  0.8782797493150524  0.3447706201041651  0.8839644791423703
  0.8334920388340734  0.3465457495620736  0.9996733395791725
  0.9010594397343756  0.7814645770002502  0.7549271941652245
  0.8577476337555148  0.8264233166129589  0.6400289320418738
  0.9275671215995047  0.7353840458052057  0.0928784186714553
  0.8876744817726880  0.7802369375776921  0.9548549809330510
  0.5568065023307770  0.4667826610337330  0.4028472455122522
  0.5138121375925245  0.5115801391740451  0.2870608598585874
  0.3194696798336228  0.8986483042296998  0.7475400341261678
  0.3165130555452734  0.8564706021781819  0.6299664548931587
  0.3404824236993594  0.9231276927302980  0.0881731765898239
  0.3344780256403514  0.8844062076502125  0.9469388462907207
  0.9955321936056618  0.5500120445575969  0.4122737137087767
  0.9920176695506793  0.5083074797504160  0.2937667032228028
  0.7890420355071578  0.3216179531360667  0.7330615996790446
  0.8345687703420239  0.3187802090560306  0.6168485316991310
  0.7419981778935506  0.3457650382874363  0.0703383237415658
  0.7885276316345665  0.3369551516796273  0.9317045418283580
  0.4627813918673118  0.9856882031453451  0.4199906909575079
  0.5091587856263698  0.9809682007869174  0.3049342212519262
  0.6827322670958178  0.5011232444997010  0.5017409563551468
  0.7673249448589808  0.1585441182320414  0.7496356418416429
  0.6207518319363988  0.3023980002437055  0.9757500544190405
  0.1445748853960055  0.1650158060389892  0.4937330156496305
  0.4809237331869423  0.5142007788306461  0.8310367525032879
  0.6793424351517878  0.1481840436000525  0.5210560301317957
  0.0335332703130462  0.4682936247542097  0.8283687377680723
  0.1693016380067898  0.6925683299791809  0.4986393564711784
  0.5077312854158816  0.0191171856505731  0.8431848848753800
  0.1953807096103650  0.1722212804226338  0.8113897859332871
  0.6099553555827640  0.1866370004830682  0.8473069779567985
  0.1770717495921772  0.6366367356195136  0.8134546455678456
  0.8214781186169210  0.8211879482996195  0.1764283770864011
  0.3588591063977930  0.8171942362323062  0.1644171086043418
  0.8352814419490159  0.3561967676205542  0.1513220103613986
  0.8688247137527991  0.8280245279599213  0.4895220762005035
  0.5238893013472169  0.5116614677139844  0.1346923721215655
  0.3034433127675184  0.8685807298888299  0.4802203843027317
  0.9792735774159864  0.5207304409923033  0.1439862215274869
  0.8366068619991552  0.3045807042178225  0.4673022650461069
  0.5095745109083980  0.9690877877037682  0.1541509182049479
  0.3150252029912602  0.6473464471211693  0.5155960985230456
  0.0485874277181904  0.3102316349188003  0.5095490202319088
  0.6493912209300194  0.0360669100999145  0.5328536811938431
  0.0308276461996066  0.6853248799275203  0.7978886168076078
  0.3577313128174475  0.0314221819862772  0.1313710758729943
  0.2894381729005301  0.0270203127021140  0.7970488676285665
  0.6132032667069940  0.3652131210090655  0.1128354631155973
  0.6836826997188732  0.2888956752323074  0.8034600609866893
  0.0382641161866373  0.6108680293974076  0.1275716083625570
  0.6594993998614243  0.9602392785811370  0.8673079308395448
  0.9819536173615010  0.3040887860161957  0.1728695159088234
  0.3802766266478786  0.6575405730252393  0.8479735316385647
  0.7240775243322133  0.9720457996094664  0.2041745543179249
  0.9749719663011601  0.3779667709683189  0.8443690181012785
  0.3047429257010361  0.7224670496152776  0.1840578873624088
  0.6829545940906103  0.3794558570535469  0.4715001011431449
  0.9643287874165600  0.6784509811099859  0.4655144824195240
  0.3625422594167987  0.9583391049280927  0.4629159405791424
  0.7611111244809516  0.4167211488579595  0.3825957892266769
  0.6137500225049289  0.5024309163741032  0.6955720805802598
  0.7704098720346799  0.0940814599798367  0.5407266552942245
  0.7928541542240893  0.2226846110916193  0.6253123198236588
