O  C  H  Co                             
   1.00000000000000     
    23.9261198104165054    1.4270226320989507   -0.1702423552515908
    13.3807977504398092   19.9075722412530887    0.0070620584243260
    -0.0366049182984033    0.0428470880645103    6.8013684059336974
   O    C    H    Co
    48    64    16    18
Direct
 -0.0001148598762241  0.2572690211822096  0.3222774519393474
  0.9655887848059731  0.3083399784999893  0.9300710834724636
  0.0505711173821985  0.2527476430981829  0.7113850384094472
  0.6511836774402128  0.1194807062517373  0.3142605021843388
  0.6420312293963856  0.0847696537694580  0.9532702187195703
  0.5880413443869650  0.1651731597078893  0.7144020449566096
  0.0019457548979047  0.3877239607274585  0.6573141470178924
  0.3729796847306874  0.5823075261509655  0.3449698600430716
  0.4272216612806475  0.5447480668164540  0.9749721283790080
  0.3741502842585688  0.5252266833369300  0.7463295548116631
  0.5693536122272123  0.0510194445324090  0.6493684678417651
  0.2978732463901622  0.0000680806568009  0.3732673053537208
  0.2177245003253665  0.0401049129927939  0.6069829785837322
  0.2608508964395388  0.0505934812609443  0.0141205282614210
  0.4767971592843701  0.4266393600407862  0.3887801609152763
  0.5641804039935594  0.3494882859084693  0.6018300613663264
  0.0504878394484337  0.6039703155638442  0.7199968319643499
  0.0703477985446352  0.5285126224993371  0.9543953901523788
  0.5329845118139279  0.3845805976445588  0.0135069886440715
  0.1029559168621866  0.6229099518031335  0.3890392579472117
  0.1563098829059016  0.6404712762918882  0.6234931548641419
  0.3763689190438653  0.9731584272829942  0.7095849445108530
  0.4032459019465512  0.0183997425178923  0.9438122782384203
  0.1583288353057197  0.5821404465900851  0.0286006220823139
  0.7020135928658702  0.0014102624618194  0.6248403898143722
  0.7813995640749098  0.9595111276544067  0.3890456934843610
  0.7376706832917178  0.9512149799122998  0.9849132986069170
  0.5290941449270967  0.5740840281711221  0.6208281076223569
  0.4426265650642988  0.6505558663073231  0.4048062700625549
  0.9760534129958045  0.3729653057998486  0.2706680611522759
  0.9505241336321518  0.4547534808783977  0.0559629986962286
  0.4719611720522960  0.6169724359678976  0.9940175151097637
  0.8952396661814891  0.3934726112448111  0.5988103794704281
  0.8441336496293055  0.3678091760532335  0.3824381721117018
  0.6195631332051753  0.0327594134917145  0.2885238682454418
  0.5920743352810509  0.9884556307950793  0.0538523031665493
  0.8450329350417939  0.4229321804477917  0.9815703021046290
 -0.0027863115560329  0.7383149725805799  0.6879006419127518
  0.0248694888894966  0.6836764453517029  0.0543872518322392
  0.9429375920621963  0.7429269479800759  0.2814426292360968
  0.3493442321864892  0.8822177961017608  0.6894598329876750
  0.3606257999757090  0.9179889026868702  0.0440779766310225
  0.4116596676204349  0.8386838975413260  0.2880314817417458
  0.0187580209229345  0.5913258477379973  0.3568176845282960
  0.6332476115210547  0.4182314208044044  0.6657681648065527
  0.5784790565207566  0.4561438442261560  0.0345807570155823
  0.6313053834514989  0.4757204097470834  0.2640773334685024
  0.4299926693083931  0.9509460096087049  0.3517992860210893
  0.0617468190850334  0.2066025647919459  0.2390432250034981
  0.1148407396796576  0.1517791680538628  0.3604293089597891
  0.0288727657512119  0.2573306556600483  0.8847133880885987
  0.0773720243966496  0.2040981251813311  0.0344829622671433
  0.6177882422960412  0.1839626222477824  0.2342631962091356
  0.5962052177142182  0.2395139745725026  0.3595157982343775
  0.6109927741727252  0.1478174329502909  0.8902708946606160
  0.6010908147129723  0.2000200017942201  0.0296181226435769
  0.0073020964185296  0.4358163496240910  0.5777551883239743
  0.0273174720117512  0.4677469020011906  0.7021812253383860
  0.3237645326837744  0.5786151044518916  0.2631226845671389
  0.2678759616653258  0.5966569336193445  0.3815426150434368
  0.3769413389582455  0.5413660277718761  0.9203986991162316
  0.3231384208766089  0.5596157721188151  0.0645804682906689
  0.5355509128944218  0.0273818962800377  0.5717944163034092
  0.4920829671857559  0.0225510715509424  0.6944535328660381
  0.2346630982532131  0.0436073021216594  0.4334011918840110
  0.1818179816442466  0.0985553153982547  0.2931675541750635
  0.1975921399472062  0.0980711827092992  0.0911114519360111
  0.1441072112915318  0.1503895119529956  0.9676522937862467
  0.5350668906530561  0.3630507546229533  0.4353177243675153
  0.5615345549119817  0.3076889599016615  0.2887511147273765
  0.0521324100263390  0.5520470996594581  0.7789353172273248
  0.0313195636461576  0.5204196073272778  0.6367489022152028
  0.5534009933056379  0.3221933804050253  0.0819761330484372
  0.5707115023188131  0.2676825843555589  0.9578308793451967
  0.1544007463423400  0.6216008108686270  0.4497357667245023
  0.2119398913307786  0.5981579422752735  0.3123047731364119
  0.4096639243205254  0.9963672184458148  0.7692633850402539
  0.4556931151989920  0.9975738200695298  0.6288513167404571
  0.2106124196697815  0.5803629765879473  0.1124050959041483
  0.2674109774319047  0.5605161905040689  0.9956224496070435
  0.7649184476836025  0.9568495928140515  0.5635071796116069
  0.8171654035156005  0.9015519544303142  0.7050363057369206
  0.8003863868444890  0.9026357202663098  0.9069059068962564
  0.8520804540565147  0.8490614894707197  0.0309422069855241
  0.4709449117184007  0.6374255812937594  0.5724174310180054
  0.4432536340475163  0.6933365942833964  0.7176159755918518
  0.9712135472806255  0.4284245216670123  0.2274429080164977
  0.9920397868000571  0.4575679273277970  0.3755462938623871
  0.4506641536278553  0.6795017967143004  0.9247120265663464
  0.4317715769268348  0.7348192910723149  0.0479436903802137
  0.8464780036154482  0.3884483363075559  0.5528995133880433
  0.7917098427012816  0.4074138560520507  0.6961894187246885
  0.5866031074643919  0.0090277178224880  0.2291253734959440
  0.5417046171706511  0.0066568682362210  0.3715277033370848
  0.7932865547811718  0.4241711690934833  0.8968991811150563
  0.7373012452361676  0.4420795324981250  0.0148310066823133
  0.9351668923556095  0.7913930346321992  0.7621967565347445
  0.8838710414016037  0.8470119946173978  0.6385904021952570
  0.9643689325278033  0.7376163387651886  0.1073023980541916
  0.9178454661992123  0.7938836214295105  0.9637416344005565
  0.3843726685911900  0.8175665290765014  0.7695888544177488
  0.4075795723807578  0.7614505289694807  0.6451923283923892
  0.3898475744393941  0.8558129720609708  0.1106598895313971
  0.4006265973285717  0.8024250676999677  0.9744082046079481
  0.0157389027999540  0.5419246722567324  0.4346074757907121
  0.9963403540093750  0.5099147250911709  0.3102571644103456
  0.6817545945224821  0.4230899856259146  0.7472772606228759
  0.7368192589345093  0.4068810723954622  0.6283018172712416
  0.6286127715071870  0.4596732855341954  0.0898289897003614
  0.6822067770877551  0.4420269406574902  0.9459909991319747
  0.4624686414736946  0.9761173990127237  0.4290722809706793
  0.5055431467056500  0.9814461295424232  0.3061324093242320
  0.1034232263008527  0.1519914535010344  0.5151774412068633
  0.6050739617430901  0.2290195633846003  0.5172304400603590
  0.0389924507124014  0.4513851974639295  0.8562726035295913
  0.2677340823237665  0.6109858827246800  0.5335604413248892
  0.4871353491476761  0.0384747552686687  0.8471087212680500
  0.1557942198214800  0.1495109619771205  0.8128984979263203
  0.5613567209098272  0.2778283262687656  0.8002354875324307
  0.2673331881981599  0.5466508169504312  0.8431154825570086
  0.8394835953278069  0.8499043088853799  0.1847722438267545
  0.4407279325916793  0.7251238810667613  0.2057774904509376
  0.7375414435865465  0.4554034300339782  0.1677640208318480
  0.8960382114860945  0.8466299824198918  0.4843463757004984
  0.3988719621598815  0.7714752332207028  0.4872496933638671
  0.9846847002715108  0.5263598927723692  0.1562153044271664
  0.7368651108221953  0.3930468041859634  0.4758302699725069
  0.5106634760621036  0.9654264406604550  0.1534774440474538
  0.4445643579658797  0.5133575396699460  0.5498486121471404
  0.0026021307825884  0.3207076081197179  0.5019860875559404
  0.6146638548610532  0.0908139512873487  0.5175820822896996
  0.0913051012610297  0.6532110669800595  0.8256502049047169
  0.3569771317771677 -0.0001523258697168  0.1466501275518533
  0.2926494807865875  0.9800416175572120  0.8082042496239581
  0.5198752581133941  0.4556984139233509  0.2234232602898371
  0.5585262492676375  0.4174293180484633  0.7780719559660587
  0.0814553549866486  0.5821621295266998  0.1558535062942377
  0.6427341869440250  0.0057105265670866  0.8547138386468077
  0.9133881000825103  0.3450858108113426  0.1821363422532196
  0.4858837321470432  0.5451182767556613  0.7857670472218973
  0.7037910819069981  0.0232594561024705  0.1895568163075835
  0.9268640250936062  0.4096802356087310  0.8561997792341731
  0.4475125682997932  0.5829400228100360  0.2304557678636129
  0.5613899080156737  0.4870288050418839  0.4604954741302689
  0.0033550039684087  0.6756040068602013  0.4894349653547342
  0.3853229797798179  0.9103145861427180  0.4869722100997397
 
  0.00000000E+00  0.00000000E+00  0.00000000E+00
  0.00000000E+00  0.00000000E+00  0.00000000E+00
  0.00000000E+00  0.00000000E+00  0.00000000E+00
  0.00000000E+00  0.00000000E+00  0.00000000E+00
  0.00000000E+00  0.00000000E+00  0.00000000E+00
  0.00000000E+00  0.00000000E+00  0.00000000E+00
  0.00000000E+00  0.00000000E+00  0.00000000E+00
  0.00000000E+00  0.00000000E+00  0.00000000E+00
  0.00000000E+00  0.00000000E+00  0.00000000E+00
  0.00000000E+00  0.00000000E+00  0.00000000E+00
  0.00000000E+00  0.00000000E+00  0.00000000E+00
  0.00000000E+00  0.00000000E+00  0.00000000E+00
  0.00000000E+00  0.00000000E+00  0.00000000E+00
  0.00000000E+00  0.00000000E+00  0.00000000E+00
  0.00000000E+00  0.00000000E+00  0.00000000E+00
  0.00000000E+00  0.00000000E+00  0.00000000E+00
  0.00000000E+00  0.00000000E+00  0.00000000E+00
  0.00000000E+00  0.00000000E+00  0.00000000E+00
  0.00000000E+00  0.00000000E+00  0.00000000E+00
  0.00000000E+00  0.00000000E+00  0.00000000E+00
  0.00000000E+00  0.00000000E+00  0.00000000E+00
  0.00000000E+00  0.00000000E+00  0.00000000E+00
  0.00000000E+00  0.00000000E+00  0.00000000E+00
  0.00000000E+00  0.00000000E+00  0.00000000E+00
  0.00000000E+00  0.00000000E+00  0.00000000E+00
  0.00000000E+00  0.00000000E+00  0.00000000E+00
  0.00000000E+00  0.00000000E+00  0.00000000E+00
  0.00000000E+00  0.00000000E+00  0.00000000E+00
  0.00000000E+00  0.00000000E+00  0.00000000E+00
  0.00000000E+00  0.00000000E+00  0.00000000E+00
  0.00000000E+00  0.00000000E+00  0.00000000E+00
  0.00000000E+00  0.00000000E+00  0.00000000E+00
  0.00000000E+00  0.00000000E+00  0.00000000E+00
  0.00000000E+00  0.00000000E+00  0.00000000E+00
  0.00000000E+00  0.00000000E+00  0.00000000E+00
  0.00000000E+00  0.00000000E+00  0.00000000E+00
  0.00000000E+00  0.00000000E+00  0.00000000E+00
  0.00000000E+00  0.00000000E+00  0.00000000E+00
  0.00000000E+00  0.00000000E+00  0.00000000E+00
  0.00000000E+00  0.00000000E+00  0.00000000E+00
  0.00000000E+00  0.00000000E+00  0.00000000E+00
  0.00000000E+00  0.00000000E+00  0.00000000E+00
  0.00000000E+00  0.00000000E+00  0.00000000E+00
  0.00000000E+00  0.00000000E+00  0.00000000E+00
  0.00000000E+00  0.00000000E+00  0.00000000E+00
  0.00000000E+00  0.00000000E+00  0.00000000E+00
  0.00000000E+00  0.00000000E+00  0.00000000E+00
  0.00000000E+00  0.00000000E+00  0.00000000E+00
  0.00000000E+00  0.00000000E+00  0.00000000E+00
  0.00000000E+00  0.00000000E+00  0.00000000E+00
  0.00000000E+00  0.00000000E+00  0.00000000E+00
  0.00000000E+00  0.00000000E+00  0.00000000E+00
  0.00000000E+00  0.00000000E+00  0.00000000E+00
  0.00000000E+00  0.00000000E+00  0.00000000E+00
  0.00000000E+00  0.00000000E+00  0.00000000E+00
  0.00000000E+00  0.00000000E+00  0.00000000E+00
  0.00000000E+00  0.00000000E+00  0.00000000E+00
  0.00000000E+00  0.00000000E+00  0.00000000E+00
  0.00000000E+00  0.00000000E+00  0.00000000E+00
  0.00000000E+00  0.00000000E+00  0.00000000E+00
  0.00000000E+00  0.00000000E+00  0.00000000E+00
  0.00000000E+00  0.00000000E+00  0.00000000E+00
  0.00000000E+00  0.00000000E+00  0.00000000E+00
  0.00000000E+00  0.00000000E+00  0.00000000E+00
  0.00000000E+00  0.00000000E+00  0.00000000E+00
  0.00000000E+00  0.00000000E+00  0.00000000E+00
  0.00000000E+00  0.00000000E+00  0.00000000E+00
  0.00000000E+00  0.00000000E+00  0.00000000E+00
  0.00000000E+00  0.00000000E+00  0.00000000E+00
  0.00000000E+00  0.00000000E+00  0.00000000E+00
  0.00000000E+00  0.00000000E+00  0.00000000E+00
  0.00000000E+00  0.00000000E+00  0.00000000E+00
  0.00000000E+00  0.00000000E+00  0.00000000E+00
  0.00000000E+00  0.00000000E+00  0.00000000E+00
  0.00000000E+00  0.00000000E+00  0.00000000E+00
  0.00000000E+00  0.00000000E+00  0.00000000E+00
  0.00000000E+00  0.00000000E+00  0.00000000E+00
  0.00000000E+00  0.00000000E+00  0.00000000E+00
  0.00000000E+00  0.00000000E+00  0.00000000E+00
  0.00000000E+00  0.00000000E+00  0.00000000E+00
  0.00000000E+00  0.00000000E+00  0.00000000E+00
  0.00000000E+00  0.00000000E+00  0.00000000E+00
  0.00000000E+00  0.00000000E+00  0.00000000E+00
  0.00000000E+00  0.00000000E+00  0.00000000E+00
  0.00000000E+00  0.00000000E+00  0.00000000E+00
  0.00000000E+00  0.00000000E+00  0.00000000E+00
  0.00000000E+00  0.00000000E+00  0.00000000E+00
  0.00000000E+00  0.00000000E+00  0.00000000E+00
  0.00000000E+00  0.00000000E+00  0.00000000E+00
  0.00000000E+00  0.00000000E+00  0.00000000E+00
  0.00000000E+00  0.00000000E+00  0.00000000E+00
  0.00000000E+00  0.00000000E+00  0.00000000E+00
  0.00000000E+00  0.00000000E+00  0.00000000E+00
  0.00000000E+00  0.00000000E+00  0.00000000E+00
  0.00000000E+00  0.00000000E+00  0.00000000E+00
  0.00000000E+00  0.00000000E+00  0.00000000E+00
  0.00000000E+00  0.00000000E+00  0.00000000E+00
  0.00000000E+00  0.00000000E+00  0.00000000E+00
  0.00000000E+00  0.00000000E+00  0.00000000E+00
  0.00000000E+00  0.00000000E+00  0.00000000E+00
  0.00000000E+00  0.00000000E+00  0.00000000E+00
  0.00000000E+00  0.00000000E+00  0.00000000E+00
  0.00000000E+00  0.00000000E+00  0.00000000E+00
  0.00000000E+00  0.00000000E+00  0.00000000E+00
  0.00000000E+00  0.00000000E+00  0.00000000E+00
  0.00000000E+00  0.00000000E+00  0.00000000E+00
  0.00000000E+00  0.00000000E+00  0.00000000E+00
  0.00000000E+00  0.00000000E+00  0.00000000E+00
  0.00000000E+00  0.00000000E+00  0.00000000E+00
  0.00000000E+00  0.00000000E+00  0.00000000E+00
  0.00000000E+00  0.00000000E+00  0.00000000E+00
  0.00000000E+00  0.00000000E+00  0.00000000E+00
  0.00000000E+00  0.00000000E+00  0.00000000E+00
  0.00000000E+00  0.00000000E+00  0.00000000E+00
  0.00000000E+00  0.00000000E+00  0.00000000E+00
  0.00000000E+00  0.00000000E+00  0.00000000E+00
  0.00000000E+00  0.00000000E+00  0.00000000E+00
  0.00000000E+00  0.00000000E+00  0.00000000E+00
  0.00000000E+00  0.00000000E+00  0.00000000E+00
  0.00000000E+00  0.00000000E+00  0.00000000E+00
  0.00000000E+00  0.00000000E+00  0.00000000E+00
  0.00000000E+00  0.00000000E+00  0.00000000E+00
  0.00000000E+00  0.00000000E+00  0.00000000E+00
  0.00000000E+00  0.00000000E+00  0.00000000E+00
  0.00000000E+00  0.00000000E+00  0.00000000E+00
  0.00000000E+00  0.00000000E+00  0.00000000E+00
  0.00000000E+00  0.00000000E+00  0.00000000E+00
  0.00000000E+00  0.00000000E+00  0.00000000E+00
  0.00000000E+00  0.00000000E+00  0.00000000E+00
  0.00000000E+00  0.00000000E+00  0.00000000E+00
  0.00000000E+00  0.00000000E+00  0.00000000E+00
  0.00000000E+00  0.00000000E+00  0.00000000E+00
  0.00000000E+00  0.00000000E+00  0.00000000E+00
  0.00000000E+00  0.00000000E+00  0.00000000E+00
  0.00000000E+00  0.00000000E+00  0.00000000E+00
  0.00000000E+00  0.00000000E+00  0.00000000E+00
  0.00000000E+00  0.00000000E+00  0.00000000E+00
  0.00000000E+00  0.00000000E+00  0.00000000E+00
  0.00000000E+00  0.00000000E+00  0.00000000E+00
  0.00000000E+00  0.00000000E+00  0.00000000E+00
  0.00000000E+00  0.00000000E+00  0.00000000E+00
  0.00000000E+00  0.00000000E+00  0.00000000E+00
  0.00000000E+00  0.00000000E+00  0.00000000E+00
  0.00000000E+00  0.00000000E+00  0.00000000E+00
  0.00000000E+00  0.00000000E+00  0.00000000E+00
  0.00000000E+00  0.00000000E+00  0.00000000E+00
