O  C  H  Co
 1.0000000000000000
    26.1700992584000005    0.0000000000000000    0.0000000000000000
    13.0850496292000020   22.6639707773999994    0.0000000000000000
     0.0000000000000000    0.0000000000000000    6.9479999542000002
 O   C   H   Co 
  48  64  16  18
Cartesian
  4.8720343547833131  5.6576409332151076  2.1624183217792203
  4.6922632823949693  6.6289607023815309  6.4609186505845475
  6.1671988904720614  5.8444842330673969  4.9835638337820667
 18.9749151530327147  1.0305650543198710  2.4078796390362074
 18.2064523616487719  0.5044280636677350  6.6977103929552069
 18.2558776912544474  2.1852723163359218  5.2384294051689482
  5.9763076145709642  8.8353576156186584  4.5318163346441853
 15.4778710890046707 15.7613712227907623  2.4532458647607989
 16.4905764010105962 15.0205569887427668  0.0100587983957011
 15.0959252909723975 13.8928659442169895  5.6025714515729783
 15.5910776941455111  0.5540149394748901  4.6483546071591375
  8.6053540129265773  1.0572681924670226  2.6163197850068114
  7.1931127975784799  1.9173251295477121  4.1141918437561857
  8.4775138390108236  2.0605762374299084  6.9295025268224322
 21.1076041741418052  6.4602563019689674  3.2488364329481305
 21.5355088619495625  4.6415101341412530  4.4389863956390423
 34.0954325721810036 14.4200028375930192  5.1300758502834283
  8.0452149537179736 12.7230909614400662  6.5671141150296553
 21.1258104233549346  5.6876221409395091  0.3815267418413250
  9.5916017887800642 14.7651526683789722  2.8413746652155072
 10.9691364707193237 15.7010897485658401  4.3339224086000856
 22.7867403917348881 22.4596591849487446  4.9326547437358039
 11.1159603084601173  0.6010146910149815  6.4641809730026614
 10.5561774531712889 14.4016445118694918  0.2120510810361880
 30.7299440870588043 21.5857863567181205  4.3569964818512013
 32.1429426626438470 20.7259655870306538  2.8597417863247707
 30.8576093268601035 20.5828517613109305  0.0443862306259684
 18.2308449993806505 16.1818840262755224  3.7253394915470555
 17.8018099597781188 18.0006744824976082  2.5355352038769809
  5.2418710276561198  8.2263682912999609  1.8456792599487828
 31.2925719936884512  9.9226534164323219  0.4078333095750341
 18.2129442456776758 16.9542075700003885  6.5928418599560601
 29.7462285407065714  7.8797501599665321  4.1338405796006619
 28.3693588939674939  6.9434344888230086  2.6409784734159580
 16.5502525449037883  0.1859332893050882  2.0399790634869701
 28.2206232892638162 22.0441708911810785  0.5088877614467970
 28.7813947345109362  8.2436655396180818  6.7627774277717583
 34.4664722319171517 16.9882814639844320  4.8124163732880847
 34.6458648568133114 16.0168944377540434  0.5145612326115273
 33.1700996251499873 16.8012367547326527  1.9911239894436319
 20.3631343374830145 21.6118372393517255  4.5666242242165813
 21.1317425713922020 22.1377525592954782  0.2757510054185359
 21.0826827181659731 20.4573173452460679  1.7355681274440746
 33.3609948430449776 13.8108392921822336  2.4430713354597318
 23.8598908837020467  6.8823738867680362  4.5214343088691633
 22.8476032738394395  7.6228850906186016  0.0164565211573594
 24.2413405143266232  8.7514994186170245  1.3721179721017180
 23.7463037454247754 22.0911747798144589  2.3249471125233163
  5.7383744119356130  4.8187583492976698  1.5723792825695040
  6.3022561293670973  3.8388906244353511  2.4036347240008689
  5.6542514211504562  5.8168559096084209  6.1485168756645576
  6.1287731253259814  4.8379119586162753  0.1911440728208064
 19.4139662510949087  2.1624524845225492  1.8356701030988367
 20.0571783415969058  3.0557508157094384  2.7058408440473034
 18.5338842385870990  1.7182004287588584  6.3916017021348042
 19.2658325633740795  2.5284826785006764  0.4504528758060652
  6.2545125591059945 10.0190151617113834  3.9572392339185725
  6.8224206154365685 10.9837336825118950  4.8083150884814048
 14.2788804166678354 15.4034692786149616  1.8938908655913596
 13.1179630637770028 15.5673806513022424  2.6541406007506412
 15.2951632826695416 14.5383781851791358  6.7035731424825498
 14.1661203261110060 14.8017434806843671  0.6072819292943872
 14.4300192006225281  0.2693118254004345  4.0284394441670255
 13.2788182998696733  0.2935248878333896  4.8306967201155393
  7.6853989292614644  1.9091108116935942  2.9396435892673387
  7.2253086667558701  2.8920201598704400  1.9487416316256652
  7.6145871997994705  2.9071651648925370  0.5678246461277681
  7.0538406403734060  3.8909822717823572  6.6847466927367636
 21.1222289368207825  5.1530117470615444  3.3501889000611733
 20.5888893250127616  4.2795394092739736  2.2849511654460297
  7.7437749259589292 13.1690794068845758  5.4120953610760756
  7.1509213582686550 12.2772363180445030  4.3915231138414228
 20.5162834229593436  4.6013763490010842  0.8928881867049057
 19.8337961915157699  3.7351977634972942  0.0229487874239478
 10.7527059241910585 15.2359114831044007  3.1635706268962425
 11.8465876135085626 15.1737898111104830  2.1948510897039668
 10.8890544987267219  0.1532295776162720  5.2908813328199136
 11.9963284106360533  0.0266635809185475  4.3351842996618695
 11.7072026722715545 14.6892774088378566  0.8453726993472546
 12.8789576820952600 14.4957264369156551  0.1041756827792093
 31.6504247799073681 20.7342778573159592  4.0341845611707896
 32.1109283072914025 19.7520513965566131  5.0254225276628812
 31.7211626427139421 19.7367398132030978  6.4061876419198587
 32.2823835436120063 18.7532596042420359  0.2893187067729592
 18.2155913804975000 17.4891304522729669  3.6241678892286382
 18.7490314743456992 18.3626850929875651  4.6893188098344947
 31.5937730953504428  9.4770797322085016  1.5630902090291383
  6.0164841744791744 10.3690387255736791  2.5834706161845746
 18.8223886565739846 18.0403837620178606  6.0812547478593268
 19.5049567729590301 18.9064234408949723  0.0032300094415305
 28.5853682079598386  7.4086316569662740  3.8114226141686860
 27.4912823311581000  7.4708643701125945  4.7798906180222334
 28.4478732406353920 22.4923558568881852  1.6819947025983384
 27.3408757510373306 22.6191019097206727  2.6378670531598498
 27.6305622811530860  7.9556685083473759  6.1292968672981321
 26.4588149400020143  8.1490999075998936  6.8704238775643374
 33.5992412672356622 17.8265064325779505  5.4021849502399579
 33.0348657164693194 18.8059361229362096  4.5707815179619358
 33.6832800458439365 16.8286175557722082  0.8262826011253113
 33.2083346399067878 17.8070176221528662  6.7832430439116695
 19.9239515239848046 20.4798946242621049  5.1386904104417521
 19.2806923597397883 19.5866200545150164  4.2685492346488285
 20.8045260462810297 20.9240094564465053  0.5822532684811704
 20.0724543934262982 20.1134570916125881  6.5237763079582249
 33.0828591442232991 12.6272288290065262  3.0177713430213680
 32.5147825195266194 11.6625971961125181  2.1667322095654278
 25.0588969327515514  7.2406779188916230  5.0806843901234311
 26.2199057675869653  7.0774249538096212  4.3203676365110972
 24.0427986282663397  8.1053972671926289  0.2712988300241520
 25.1717853530527975  7.8426897019211044  6.3672710259258647
 24.9073086081192585 22.3763222195473652  2.9446683241308906
 26.0584081527102285 22.3523192691328774  2.1423266493418014
  5.9771652903809018  3.8159522928453806  3.4449609984467653
 20.1356423148659118  2.7661515915357455  3.7544689044329749
  7.0219635710868795 10.6838933252454353  5.8384346875549236
 13.1827599135238334 16.0527039744997211  3.6330017033130426
 13.4031413910212827  0.5645732157671283  5.8805473244465487
  7.3780807068920966  3.9126189941993830  5.6432066900828195
 19.7508156058746671  4.0215680493089110  5.9231890610958118
 12.7718110917160228 14.0616474290341227  6.0573681105411001
 31.9578976568788953 18.7313354875923110  1.3307623956192924
 19.5881203562887798 18.6196321572534984  1.0509180259467570
 26.5660286874420244  8.5833826090387397  0.9171728526825430
 33.3601568131559034 18.8292472772160373  3.5295146093903313
 19.2014447424583992 19.8767856624198025  3.2201542912432086
 32.3150177218004941 11.9626608669864041  1.1367170724928306
 26.1553734143942300  6.5920053344282179  3.3415673209018921
 25.9340452636475476 22.0815391796340705  1.0923958683613617
 15.5092336902139856 14.7901229540010544  4.0497424752230486
  5.4530066365334564  7.0946577183664585  3.5427463522078062
 17.4201370516401148  0.9412541404937836  3.7853533546420728
  9.5469319745174577 15.6529860382649701  5.7767528082561466
  9.6897937423532294  0.6691219377436914  0.9388964339194145
  7.8697799591704118  0.6487617343873722  5.5483085754634400
 21.9146274278823263  7.0664679957660779  1.6428986381491284
 22.1932438250729724  6.1410487365804283  5.6203538058015310
  8.7386668869967661 13.9935525687124471  1.0985423560361638
 29.6465003317853082 21.9747850013644985  6.0344451217099646
 29.7909131644813385  6.9925737883236776  1.1983363494555375
 17.4232049147497570 15.5761817410730483  5.3314932236905630
 31.4669281711003670 21.9941450474614619  1.4252022356127889
 30.5989825179691302  8.6521997241554551  5.8765452884005418
 17.1447871463824306 16.5018308329873200  1.3540981712406284
 23.8281084472790674  7.8540193606631830  2.9249578223518480
 33.8848500422473862 15.5513502690452921  3.4324892933863125
 21.9173807202947017 21.7023147860177801  3.1879721315640235
