Li C  O                                 
   1.00000000000000     
    30.0000000000000000    0.0000000000000000    0.0000000000000000
     0.0000000000000000   30.0000000000000000    0.0000000000000000
     0.0000000000000000    0.0000000000000000   30.0000000000000000
   Li   C    O 
     1     2     3
Direct
  0.0790150241472545  0.1883778081638511  0.2244582467888685
  0.0015000139873783  0.1847261479212914  0.2346713113784422
  0.0412955779448965  0.2035042249476236  0.2166233730856608
  0.0372405860586190  0.2332071635220987  0.1945163356580132
  0.0038195438215555  0.1556155883119202  0.2564241329401389
  0.9688478064585883  0.1989817183589254  0.2271096949534521
 
  0.00000000E+00  0.00000000E+00  0.00000000E+00
  0.00000000E+00  0.00000000E+00  0.00000000E+00
  0.00000000E+00  0.00000000E+00  0.00000000E+00
  0.00000000E+00  0.00000000E+00  0.00000000E+00
  0.00000000E+00  0.00000000E+00  0.00000000E+00
  0.00000000E+00  0.00000000E+00  0.00000000E+00
