Li C  O                                 
   1.00000000000000     
     7.1078363438561851    2.1704247423300314   -0.2913421797203631
    -2.1670702541344413    2.2987225739294317   -0.3218746868094216
    -3.2989788085904146   -0.4386969988236372    6.9758420854420908
   Li   C    O 
     1     2     3
Direct
  0.8285212800374274  0.4022769327608949  0.4452816661745067
  0.4353483215718088  0.4221760746616376  0.6505242730593260
  0.8285394707063801  0.7781488189091101  0.4452551411423869
  0.6061614599997943  0.6955471089144692  0.7166406181191195
  0.3722661472550169  0.1493675422192765  0.7395522082686842
  0.3214211112576433  0.5031014575705391  0.5110371329651802
 
  0.00000000E+00  0.00000000E+00  0.00000000E+00
  0.00000000E+00  0.00000000E+00  0.00000000E+00
  0.00000000E+00  0.00000000E+00  0.00000000E+00
  0.00000000E+00  0.00000000E+00  0.00000000E+00
  0.00000000E+00  0.00000000E+00  0.00000000E+00
  0.00000000E+00  0.00000000E+00  0.00000000E+00
