Li C  O 
 1.0000000000000000
    30.0    0.0    0.0
    0.0    30.0    0.0
    0.0    0.0    30.0
 Li  C   O  
   1   2   3
Cartesian
  2.4381628565007718  4.7835534354709992  7.3761925752675310
 -0.4445628364815457  5.3395279002672753  7.2364081247125132
  1.8640356811169367  6.7695130705305564  5.9386800574248033
  0.9317419250731765  7.3427331491859871  5.6079538817660914
  0.5628682796440035  4.7825845246570156  7.5461079485322484
 -1.4006893333046553  5.9144674566595032  6.9087502564341943
