O  C  H  Co Li                          
   1.00000000000000     
    25.9869300222800774    0.0014776472087939   -0.0002841704448074
    12.9947443186480527   22.5035161465627063   -0.0005769115704474
    -0.0000740905812471   -0.0001328080293999    6.8098320633878924
   O    C    H    Co   Li
    60    75    18    18     4
Direct
  0.0615480806603432  0.2503061597212144  0.3128003772935369
  0.0374954076170754  0.2970250970304870  0.9556446031408322
  0.1060253986509982  0.2594674992638512  0.7192864787687047
  0.4011062631209968  0.5907119622624019  0.6505827495076981
  0.6948637654399420  0.0674000966055773  0.3434265353459946
  0.6777338481078541  0.0360233836232584  0.9686434700148151
  0.6279698923202806  0.1062244099397765  0.7459380778888181
  0.0180003835129530  0.3908114839050161  0.6484185583373652
  0.2578048164721138  0.6862664452378521  0.3184269274805691
  0.3029655394388313  0.6665100502783874  0.9592196106749187
  0.2659765748507987  0.6357083021701901  0.7211652712085121
  0.6002027105371696  0.0101928627643735  0.6671148111107290
  0.3046812614839478  0.0376030246104204  0.3658049249342400
  0.2354299531990562  0.0763186620962496  0.5997891650781948
  0.6268716476214571  0.3665069481143330  0.6928803055098617
  0.6003457833825767  0.4342950040926702  0.9308920182727970
  0.2800946768899432  0.0829293525122497  0.0059432605057314
  0.6561248769813339  0.2992811848121709  0.3613181849214575
  0.6392319730897650  0.2600622145337522  0.6320633396116494
  0.0079962760013560  0.6254658422878830  0.6974164377004670
  0.0344886787890012  0.5574759897110679  0.9342089752150126
  0.5551937512277482  0.3003359007355663  0.0752142800361372
  0.0422495739341689  0.6609365092536478  0.3656051479761593
  0.0813957719535405  0.6905920845365093  0.6005822949589891
  0.3736356743213161  0.0047431282928491  0.6975629829243569
  0.4141557471385103  0.0317938728556774  0.9362448831490130
  0.0895304638161047  0.6371917720477346  0.0063387774943677
  0.7150476793733557  0.9675043077674386  0.6415846865874764
  0.7821866082491038  0.9307927713736243  0.4017841038581724
  0.3741112757646822  0.6346289163687385  0.2918357302720919
  0.4414121680947079  0.5966491441092912  0.0529219242253717
  0.7399524251128525  0.9206256060160779 -0.0002074447008645
  0.3331539291110696  0.7071053808621396  0.6281357775923065
  0.3066890433593842  0.7739296087558847  0.3883361829553266
 -0.0033054971336717  0.3670384513482911  0.2915468942558728
  0.9687950843922027  0.4350980165036134  0.0544687496600331
  0.3550685548557019  0.7309031283525497  0.9862787506658292
  0.9681712494201868  0.3239938382315297  0.6228698409594444
  0.9278092992402341  0.2978148457883198  0.3799727265502627
  0.6399005801338865  0.0013939727390386  0.3017137873520245
  0.6054555084845332  0.9665934095700600  0.0687586935273586
  0.9205696363934135  0.3474325219020534  0.9765837512315142
  0.9490935651390877  0.7421604622404361  0.6737158720708325
  0.9728570481795646  0.6956201047078482  0.0319440404265865
  0.9047338080199850  0.7371687006942077  0.2685458292999889
  0.6145604087942161  0.4170397964556098  0.3349540346928747
  0.3187436255533893  0.9432006045748396  0.6735597450110998
  0.3424181555011933  0.9665609717776298  0.0300674347068515
  0.3679850117735189  0.8992975455870552  0.2690527087277273
  0.9848988626158334  0.6022769201941959  0.3393276227241481
  0.7523588090007515  0.2971959792264328  0.6657948634435337
  0.7087596124010929  0.3164776258222677  0.0479413735663714
  0.7474673131189141  0.3507256966371599  0.2661924142977918
  0.4214693240773940  0.9800922744798262  0.3416610346377044
  0.6994897554443903  0.4263436740647590  0.6254868175271233
  0.6399667011764216  0.5247479140605645  0.6688052522377953
  0.6962728661154022  0.4900409605588162  0.3914174997515209
  0.7787345216510693  0.1443539361033886  0.5541898892478513
  0.7478934693577890  0.1987527675982565  0.8303274417717378
  0.7406845188805304  0.1149538326942118  0.7942827096821750
  0.1144271128719239  0.2108030406675087  0.2336618335436334
  0.1565765395875182  0.1660193411431744  0.3543082404584119
  0.0893358247196425  0.2582014313498088  0.8942147333679774
  0.1299250601925160  0.2117227760045439  0.0326585834601587
  0.4536090343469401  0.5510200155066377  0.5710097131251456
  0.4979151195069733  0.5087031786086723  0.6931602637399173
  0.6608791055097191  0.1225033616400058  0.2641909281321622
  0.6509552165248774  0.1702084704638270  0.3861480306205540
  0.6481039140844479  0.0910098893944333  0.9190624679915944
  0.6374543038479877  0.1360137072154300  0.0701049516069843
  0.0095466766233531  0.4419633456472123  0.5701659058425438
  0.0158691310909709  0.4821232926748766  0.6908380985929160
  0.2178802986401819  0.6740775048020107  0.2379028464396627
  0.1726963396558050  0.6770510552263260  0.3577321053547476
  0.2646028494019542  0.6530138303839480  0.8964308020379095
  0.2183760136808310  0.6584026350724267  0.0360107340384600
  0.5572155277404076  0.0031478391364519  0.5847128910795008
  0.5103706979721316  0.0092332613468953  0.7020646248245641
  0.2526442875416027  0.0767302926308796  0.4251567246144944
  0.2122820180039800  0.1228440806977714  0.2852203269310695
  0.5952271773324898  0.4200916478598420  0.7560844301498044
  0.5518757115591759  0.4642921988158984  0.6180508175422628
  0.2277344243790593  0.1233316319696003  0.0839890448981845
  0.1856468426094884  0.1685067002696723  0.9634743687705859
  0.6373599415295027  0.2679945015333425  0.4489746967931774
  0.6230294262820020  0.2290448216872396  0.3235240571953755
  0.0174141029446068  0.5748166503061998  0.7591482186879949
  0.0081744123539215  0.5360176462503371  0.6207935672414009
  0.5955685098126193  0.2405110844128855  0.1389930384689329
  0.6023112301837381  0.1958214160793982  0.0150653503570563
  0.0820701973294945  0.6725523143871271  0.4260260186188389
  0.1290452774288852  0.6654024560018659  0.2876565821329499
  0.4149310779888689  0.0135301019993927  0.7618860938487945
  0.4639751287451590  0.0027131831639717  0.6270846243129575
  0.1296489190616619  0.6494582638168553  0.0860891193635083
  0.1749306674724898  0.6464089973897641  0.9661420734350158
  0.7660688521088038  0.9280889026837674  0.5762570988901510
  0.8052760579800955  0.8794991432683302  0.7120387030523866
  0.4257627492708055  0.5954822706700018  0.2285146838932606
  0.4667850777993233  0.5493645169482798  0.3665552443164661
  0.7904242803268204  0.8789442853656907  0.9148102089049758
  0.8308571298826655  0.8316371828337419  0.0312909012426105
  0.3229983034167744  0.7578596171036563  0.5641797287256630
  0.3310730981844248  0.7971253860646578  0.7035993962952998
  0.9861463296067372  0.4181634253935186  0.2294119011872078
  0.9947566308076737  0.4572373293731041  0.3679615372509087
  0.3459904805969716  0.7820164379629432  0.9058184542285850
  0.3517116465679022  0.8226187648528581  0.0258927588857250
  0.9286068082777188  0.3128004149568383  0.5576961960804009
  0.8823319326895270  0.3176393242103329  0.6963655212304196
  0.6028600365955242  0.9851654144664240  0.2424466263505713
  0.5565617167399358  0.9903529766639995  0.3807251293631631
  0.8816269467469130  0.3338072879098402  0.8968559995893439
  0.8371844852832330  0.3355314347507702  0.0170208036149525
  0.8988608812403458  0.7853857411180992  0.7548858761792026
  0.8586923250943401  0.8332525752516932  0.6382929389507866
  0.9222803266883760  0.7370370574136890  0.0939609248636581
  0.8840110406810089  0.7854215336544362  0.9573140769608387
  0.5635835197809055  0.4604140337499947  0.4126342844875177
  0.5209274291741721  0.5045847189840473  0.2924053995147141
  0.3281518585427673  0.8918347125138586  0.7534451923789748
  0.3224931818614555  0.8512803363602973  0.6331264123466434
  0.3516995274038817  0.9160422159883314  0.0931007137366631
  0.3431522566082592  0.8767952053176592  0.9552892463763945
  0.9933536589920160  0.5512954843843172  0.4186599057096912
  0.9870100151455085  0.5111319272416163  0.2979127758190082
  0.7932861874275362  0.3080741419469828  0.7483860477121631
  0.8390519907811649  0.3047206308341600  0.6291365582150474
  0.7479431254804125  0.3302783317577076  0.0945932249460578
  0.7934195778155140  0.3235766350843034  0.9502944144962280
  0.4639678436096342  0.9882269600068798  0.4240989301455924
  0.5108588199470073  0.9823468612422350  0.3066768386963415
  0.6763376142926547  0.4845673600361344  0.5555521772304006
  0.7550277580724897  0.1518596861615705  0.7304871446475393
  0.5732116147315405  0.3377265550796696  0.0600578529403162
  0.1453758177192522  0.1648289454798073  0.5079600012597667
  0.4889936501262312  0.5103686184668390  0.8502783139985314
  0.6674575046495074  0.1613508413644777  0.5369624230371385
  0.0272492959599473  0.4705789700695113  0.8449293345398431
  0.1717540908137578  0.6890843243360356  0.5116476391457552
  0.5101343602183320  0.0199603401875320  0.8570078203096403
  0.1968555610849184  0.1696202728717380  0.8097845545638125
  0.5824176989413498  0.2063895586641913  0.8689751428783111
  0.1760790475580365  0.6343054693562772  0.8121284303066801
  0.8198376411146544  0.8309275675731466  0.1854529252490829
  0.3633484043385065  0.8111228936460854  0.1798365750658946
  0.8383859215611603  0.3457512199260617  0.1716264002625628
  0.8695849376541335  0.8340166134012144  0.4839212570840919
  0.5303457692354662  0.5038492905217344  0.1361098274207081
  0.3109709934862042  0.8626377223166717  0.4789963873601935
  0.9755835926694806  0.5227429366037171  0.1438768767429750
  0.8406685365497305  0.2920016557916705  0.4752381379941557
  0.5111619189071847  0.9717053008467661  0.1515212264543788
  0.3197463033059093  0.6428870712496579  0.5221986309412908
  0.0478807477857781  0.3094522574610302  0.5165017407348512
  0.6474124056164202  0.0435573688836674  0.5371058683913920
  0.0302991492017609  0.6855432746315946  0.8047721544664231
  0.3619766299735275  0.0281012859604044  0.1392239427705091
  0.2928709132756647  0.0238928581058440  0.8009913242436323
  0.6212128339899157  0.3591597151997599  0.1241813664799998
  0.6843830731307396  0.2852763346019039  0.8189041241519055
  0.0321206297254420  0.6137858026551792  0.1376804454140898
  0.6611835566485876  0.9717754874626395  0.8732127883766786
  0.9808289983075343  0.3038370372380080  0.1797872559352740
  0.3816679246389582  0.6511700052868094  0.8555623121355619
  0.7202103787336912  0.9841935908273796  0.2034659980603149
  0.9735583005130288  0.3768821828042249  0.8544094118267596
  0.3112825267999582  0.7136082124623733  0.1904560851416403
  0.6847814467374920  0.3637913521237315  0.4884232948886116
  0.9602067090372057  0.6832435957576874  0.4692055179822124
  0.3649340341753864  0.9557846980416214  0.4712315755140200
  0.7549299968427374  0.4114461275312714  0.4010534910959582
  0.6489899089342746  0.4727276325430497  0.8711428995109306
  0.7545153968501790  0.0832147076328155  0.5282445003083259
  0.7823512831433461  0.2142512462181494  0.5918666724436695
 
  0.00000000E+00  0.00000000E+00  0.00000000E+00
  0.00000000E+00  0.00000000E+00  0.00000000E+00
  0.00000000E+00  0.00000000E+00  0.00000000E+00
  0.00000000E+00  0.00000000E+00  0.00000000E+00
  0.00000000E+00  0.00000000E+00  0.00000000E+00
  0.00000000E+00  0.00000000E+00  0.00000000E+00
  0.00000000E+00  0.00000000E+00  0.00000000E+00
  0.00000000E+00  0.00000000E+00  0.00000000E+00
  0.00000000E+00  0.00000000E+00  0.00000000E+00
  0.00000000E+00  0.00000000E+00  0.00000000E+00
  0.00000000E+00  0.00000000E+00  0.00000000E+00
  0.00000000E+00  0.00000000E+00  0.00000000E+00
  0.00000000E+00  0.00000000E+00  0.00000000E+00
  0.00000000E+00  0.00000000E+00  0.00000000E+00
  0.00000000E+00  0.00000000E+00  0.00000000E+00
  0.00000000E+00  0.00000000E+00  0.00000000E+00
  0.00000000E+00  0.00000000E+00  0.00000000E+00
  0.00000000E+00  0.00000000E+00  0.00000000E+00
  0.00000000E+00  0.00000000E+00  0.00000000E+00
  0.00000000E+00  0.00000000E+00  0.00000000E+00
  0.00000000E+00  0.00000000E+00  0.00000000E+00
  0.00000000E+00  0.00000000E+00  0.00000000E+00
  0.00000000E+00  0.00000000E+00  0.00000000E+00
  0.00000000E+00  0.00000000E+00  0.00000000E+00
  0.00000000E+00  0.00000000E+00  0.00000000E+00
  0.00000000E+00  0.00000000E+00  0.00000000E+00
  0.00000000E+00  0.00000000E+00  0.00000000E+00
  0.00000000E+00  0.00000000E+00  0.00000000E+00
  0.00000000E+00  0.00000000E+00  0.00000000E+00
  0.00000000E+00  0.00000000E+00  0.00000000E+00
  0.00000000E+00  0.00000000E+00  0.00000000E+00
  0.00000000E+00  0.00000000E+00  0.00000000E+00
  0.00000000E+00  0.00000000E+00  0.00000000E+00
  0.00000000E+00  0.00000000E+00  0.00000000E+00
  0.00000000E+00  0.00000000E+00  0.00000000E+00
  0.00000000E+00  0.00000000E+00  0.00000000E+00
  0.00000000E+00  0.00000000E+00  0.00000000E+00
  0.00000000E+00  0.00000000E+00  0.00000000E+00
  0.00000000E+00  0.00000000E+00  0.00000000E+00
  0.00000000E+00  0.00000000E+00  0.00000000E+00
  0.00000000E+00  0.00000000E+00  0.00000000E+00
  0.00000000E+00  0.00000000E+00  0.00000000E+00
  0.00000000E+00  0.00000000E+00  0.00000000E+00
  0.00000000E+00  0.00000000E+00  0.00000000E+00
  0.00000000E+00  0.00000000E+00  0.00000000E+00
  0.00000000E+00  0.00000000E+00  0.00000000E+00
  0.00000000E+00  0.00000000E+00  0.00000000E+00
  0.00000000E+00  0.00000000E+00  0.00000000E+00
  0.00000000E+00  0.00000000E+00  0.00000000E+00
  0.00000000E+00  0.00000000E+00  0.00000000E+00
  0.00000000E+00  0.00000000E+00  0.00000000E+00
  0.00000000E+00  0.00000000E+00  0.00000000E+00
  0.00000000E+00  0.00000000E+00  0.00000000E+00
  0.00000000E+00  0.00000000E+00  0.00000000E+00
  0.00000000E+00  0.00000000E+00  0.00000000E+00
  0.00000000E+00  0.00000000E+00  0.00000000E+00
  0.00000000E+00  0.00000000E+00  0.00000000E+00
  0.00000000E+00  0.00000000E+00  0.00000000E+00
  0.00000000E+00  0.00000000E+00  0.00000000E+00
  0.00000000E+00  0.00000000E+00  0.00000000E+00
  0.00000000E+00  0.00000000E+00  0.00000000E+00
  0.00000000E+00  0.00000000E+00  0.00000000E+00
  0.00000000E+00  0.00000000E+00  0.00000000E+00
  0.00000000E+00  0.00000000E+00  0.00000000E+00
  0.00000000E+00  0.00000000E+00  0.00000000E+00
  0.00000000E+00  0.00000000E+00  0.00000000E+00
  0.00000000E+00  0.00000000E+00  0.00000000E+00
  0.00000000E+00  0.00000000E+00  0.00000000E+00
  0.00000000E+00  0.00000000E+00  0.00000000E+00
  0.00000000E+00  0.00000000E+00  0.00000000E+00
  0.00000000E+00  0.00000000E+00  0.00000000E+00
  0.00000000E+00  0.00000000E+00  0.00000000E+00
  0.00000000E+00  0.00000000E+00  0.00000000E+00
  0.00000000E+00  0.00000000E+00  0.00000000E+00
  0.00000000E+00  0.00000000E+00  0.00000000E+00
  0.00000000E+00  0.00000000E+00  0.00000000E+00
  0.00000000E+00  0.00000000E+00  0.00000000E+00
  0.00000000E+00  0.00000000E+00  0.00000000E+00
  0.00000000E+00  0.00000000E+00  0.00000000E+00
  0.00000000E+00  0.00000000E+00  0.00000000E+00
  0.00000000E+00  0.00000000E+00  0.00000000E+00
  0.00000000E+00  0.00000000E+00  0.00000000E+00
  0.00000000E+00  0.00000000E+00  0.00000000E+00
  0.00000000E+00  0.00000000E+00  0.00000000E+00
  0.00000000E+00  0.00000000E+00  0.00000000E+00
  0.00000000E+00  0.00000000E+00  0.00000000E+00
  0.00000000E+00  0.00000000E+00  0.00000000E+00
  0.00000000E+00  0.00000000E+00  0.00000000E+00
  0.00000000E+00  0.00000000E+00  0.00000000E+00
  0.00000000E+00  0.00000000E+00  0.00000000E+00
  0.00000000E+00  0.00000000E+00  0.00000000E+00
  0.00000000E+00  0.00000000E+00  0.00000000E+00
  0.00000000E+00  0.00000000E+00  0.00000000E+00
  0.00000000E+00  0.00000000E+00  0.00000000E+00
  0.00000000E+00  0.00000000E+00  0.00000000E+00
  0.00000000E+00  0.00000000E+00  0.00000000E+00
  0.00000000E+00  0.00000000E+00  0.00000000E+00
  0.00000000E+00  0.00000000E+00  0.00000000E+00
  0.00000000E+00  0.00000000E+00  0.00000000E+00
  0.00000000E+00  0.00000000E+00  0.00000000E+00
  0.00000000E+00  0.00000000E+00  0.00000000E+00
  0.00000000E+00  0.00000000E+00  0.00000000E+00
  0.00000000E+00  0.00000000E+00  0.00000000E+00
  0.00000000E+00  0.00000000E+00  0.00000000E+00
  0.00000000E+00  0.00000000E+00  0.00000000E+00
  0.00000000E+00  0.00000000E+00  0.00000000E+00
  0.00000000E+00  0.00000000E+00  0.00000000E+00
  0.00000000E+00  0.00000000E+00  0.00000000E+00
  0.00000000E+00  0.00000000E+00  0.00000000E+00
  0.00000000E+00  0.00000000E+00  0.00000000E+00
  0.00000000E+00  0.00000000E+00  0.00000000E+00
  0.00000000E+00  0.00000000E+00  0.00000000E+00
  0.00000000E+00  0.00000000E+00  0.00000000E+00
  0.00000000E+00  0.00000000E+00  0.00000000E+00
  0.00000000E+00  0.00000000E+00  0.00000000E+00
  0.00000000E+00  0.00000000E+00  0.00000000E+00
  0.00000000E+00  0.00000000E+00  0.00000000E+00
  0.00000000E+00  0.00000000E+00  0.00000000E+00
  0.00000000E+00  0.00000000E+00  0.00000000E+00
  0.00000000E+00  0.00000000E+00  0.00000000E+00
  0.00000000E+00  0.00000000E+00  0.00000000E+00
  0.00000000E+00  0.00000000E+00  0.00000000E+00
  0.00000000E+00  0.00000000E+00  0.00000000E+00
  0.00000000E+00  0.00000000E+00  0.00000000E+00
  0.00000000E+00  0.00000000E+00  0.00000000E+00
  0.00000000E+00  0.00000000E+00  0.00000000E+00
  0.00000000E+00  0.00000000E+00  0.00000000E+00
  0.00000000E+00  0.00000000E+00  0.00000000E+00
  0.00000000E+00  0.00000000E+00  0.00000000E+00
  0.00000000E+00  0.00000000E+00  0.00000000E+00
  0.00000000E+00  0.00000000E+00  0.00000000E+00
  0.00000000E+00  0.00000000E+00  0.00000000E+00
  0.00000000E+00  0.00000000E+00  0.00000000E+00
  0.00000000E+00  0.00000000E+00  0.00000000E+00
  0.00000000E+00  0.00000000E+00  0.00000000E+00
  0.00000000E+00  0.00000000E+00  0.00000000E+00
  0.00000000E+00  0.00000000E+00  0.00000000E+00
  0.00000000E+00  0.00000000E+00  0.00000000E+00
  0.00000000E+00  0.00000000E+00  0.00000000E+00
  0.00000000E+00  0.00000000E+00  0.00000000E+00
  0.00000000E+00  0.00000000E+00  0.00000000E+00
  0.00000000E+00  0.00000000E+00  0.00000000E+00
  0.00000000E+00  0.00000000E+00  0.00000000E+00
  0.00000000E+00  0.00000000E+00  0.00000000E+00
  0.00000000E+00  0.00000000E+00  0.00000000E+00
  0.00000000E+00  0.00000000E+00  0.00000000E+00
  0.00000000E+00  0.00000000E+00  0.00000000E+00
  0.00000000E+00  0.00000000E+00  0.00000000E+00
  0.00000000E+00  0.00000000E+00  0.00000000E+00
  0.00000000E+00  0.00000000E+00  0.00000000E+00
  0.00000000E+00  0.00000000E+00  0.00000000E+00
  0.00000000E+00  0.00000000E+00  0.00000000E+00
  0.00000000E+00  0.00000000E+00  0.00000000E+00
  0.00000000E+00  0.00000000E+00  0.00000000E+00
  0.00000000E+00  0.00000000E+00  0.00000000E+00
  0.00000000E+00  0.00000000E+00  0.00000000E+00
  0.00000000E+00  0.00000000E+00  0.00000000E+00
  0.00000000E+00  0.00000000E+00  0.00000000E+00
  0.00000000E+00  0.00000000E+00  0.00000000E+00
  0.00000000E+00  0.00000000E+00  0.00000000E+00
  0.00000000E+00  0.00000000E+00  0.00000000E+00
  0.00000000E+00  0.00000000E+00  0.00000000E+00
  0.00000000E+00  0.00000000E+00  0.00000000E+00
  0.00000000E+00  0.00000000E+00  0.00000000E+00
  0.00000000E+00  0.00000000E+00  0.00000000E+00
  0.00000000E+00  0.00000000E+00  0.00000000E+00
  0.00000000E+00  0.00000000E+00  0.00000000E+00
  0.00000000E+00  0.00000000E+00  0.00000000E+00
  0.00000000E+00  0.00000000E+00  0.00000000E+00
  0.00000000E+00  0.00000000E+00  0.00000000E+00
  0.00000000E+00  0.00000000E+00  0.00000000E+00
  0.00000000E+00  0.00000000E+00  0.00000000E+00
  0.00000000E+00  0.00000000E+00  0.00000000E+00
  0.00000000E+00  0.00000000E+00  0.00000000E+00
  0.00000000E+00  0.00000000E+00  0.00000000E+00
