 175 175   0   0
  0.2275566E+02  0.2598693E-08  0.2598599E-08  0.6809832E-09  0.5000000E-15
  1.000000000000000E-004
  CAR 
 Co–organic framework                  
      6.98616072    -26.97998150  301     -0.85841936      1.00000000
    -26.980  0.0000E+00  0.0000E+00  0.0000E+00  0.0000E+00
    -26.867  0.0000E+00  0.0000E+00  0.0000E+00  0.0000E+00
    -26.754  0.0000E+00  0.0000E+00  0.0000E+00  0.0000E+00
    -26.640  0.0000E+00  0.0000E+00  0.0000E+00  0.0000E+00
    -26.527  0.0000E+00  0.0000E+00  0.0000E+00  0.0000E+00
    -26.414  0.0000E+00  0.0000E+00  0.0000E+00  0.0000E+00
    -26.301  0.0000E+00  0.0000E+00  0.0000E+00  0.0000E+00
    -26.187  0.0000E+00  0.0000E+00  0.0000E+00  0.0000E+00
    -26.074  0.0000E+00  0.0000E+00  0.0000E+00  0.0000E+00
    -25.961  0.0000E+00  0.0000E+00  0.0000E+00  0.0000E+00
    -25.848  0.0000E+00  0.0000E+00  0.0000E+00  0.0000E+00
    -25.735  0.0000E+00  0.0000E+00  0.0000E+00  0.0000E+00
    -25.621  0.2445E-12  0.7083E-09  0.2768E-13  0.8019E-10
    -25.508  0.3525E-05  0.1836E-03  0.3991E-06  0.2078E-04
    -25.395  0.3882E-02  0.7570E-02  0.4400E-03  0.8779E-03
    -25.282  0.4936E-02  0.1078E-02  0.9989E-03  0.1000E-02
    -25.168  0.1006E-04  0.5567E-07  0.1000E-02  0.1000E-02
    -25.055  0.1771E-11  0.1657E-15  0.1000E-02  0.1000E-02
    -24.942  0.0000E+00  0.0000E+00  0.1000E-02  0.1000E-02
    -24.829  0.0000E+00  0.0000E+00  0.1000E-02  0.1000E-02
    -24.716  0.1167E-12  0.0000E+00  0.1000E-02  0.1000E-02
    -24.602  0.2360E-05  0.8702E-10  0.1000E-02  0.1000E-02
    -24.489  0.3506E-02  0.7003E-04  0.1397E-02  0.1008E-02
    -24.376  0.5310E-02  0.7309E-02  0.1998E-02  0.1835E-02
    -24.263  0.3230E-02  0.1590E-01  0.2364E-02  0.3635E-02
    -24.149  0.3814E-01  0.2509E-01  0.6682E-02  0.6476E-02
    -24.036  0.5042E-01  0.4356E-01  0.1239E-01  0.1141E-01
    -23.923  0.5244E-01  0.3766E-01  0.1833E-01  0.1567E-01
    -23.810  0.5924E-02  0.2761E-01  0.1900E-01  0.1880E-01
    -23.697  0.4559E-05  0.1789E-02  0.1900E-01  0.1900E-01
    -23.583  0.6065E-12  0.5031E-07  0.1900E-01  0.1900E-01
    -23.470  0.3324E-05  0.4040E-07  0.1900E-01  0.1900E-01
    -23.357  0.3826E-02  0.9591E-03  0.1943E-01  0.1911E-01
    -23.244  0.4992E-02  0.7657E-02  0.2000E-01  0.1998E-01
    -23.130  0.1062E-04  0.2165E-03  0.2000E-01  0.2000E-01
    -23.017  0.4515E-07  0.1179E-08  0.2000E-01  0.2000E-01
    -22.904  0.9991E-03  0.9009E-04  0.2011E-01  0.2001E-01
    -22.791  0.7629E-02  0.7077E-02  0.2098E-01  0.2081E-01
    -22.678  0.2046E-03  0.2025E-02  0.2100E-01  0.2104E-01
    -22.564  0.1581E-05  0.8128E-02  0.2100E-01  0.2196E-01
    -22.451  0.5359E-02  0.1238E-01  0.2161E-01  0.2336E-01
    -22.338  0.4491E-01  0.2419E-01  0.2669E-01  0.2610E-01
    -22.225  0.6454E-01  0.3888E-01  0.3400E-01  0.3050E-01
    -22.112  0.3641E-01  0.3204E-01  0.3812E-01  0.3413E-01
    -21.998  0.7664E-02  0.3076E-01  0.3899E-01  0.3761E-01
    -21.885  0.1586E-03  0.1428E-01  0.3901E-01  0.3923E-01
    -21.772  0.1708E-01  0.3481E-01  0.4094E-01  0.4317E-01
    -21.659  0.8581E-01  0.4121E-01  0.5066E-01  0.4784E-01
    -21.545  0.4680E-01  0.4542E-01  0.5596E-01  0.5298E-01
    -21.432  0.3913E-03  0.2559E-01  0.5600E-01  0.5588E-01
    -21.319  0.8464E-09  0.1081E-02  0.5600E-01  0.5600E-01
    -21.206  0.0000E+00  0.2037E-07  0.5600E-01  0.5600E-01
    -21.093  0.0000E+00  0.2550E-16  0.5600E-01  0.5600E-01
    -20.979  0.0000E+00  0.0000E+00  0.5600E-01  0.5600E-01
    -20.866  0.0000E+00  0.0000E+00  0.5600E-01  0.5600E-01
    -20.753  0.7173E-15  0.0000E+00  0.5600E-01  0.5600E-01
    -20.640  0.1320E-06  0.7905E-11  0.5600E-01  0.5600E-01
    -20.526  0.1462E-02  0.2165E-04  0.5617E-01  0.5600E-01
    -20.413  0.7257E-02  0.5731E-02  0.5699E-01  0.5665E-01
    -20.300  0.1136E-03  0.3078E-02  0.5700E-01  0.5700E-01
    -20.187  0.6428E-03  0.2165E-03  0.5707E-01  0.5702E-01
    -20.074  0.9482E-02  0.7950E-02  0.5815E-01  0.5792E-01
    -19.960  0.7448E-02  0.8748E-02  0.5899E-01  0.5891E-01
    -19.847  0.9169E-04  0.7519E-03  0.5900E-01  0.5900E-01
    -19.734  0.6092E-06  0.2116E-07  0.5900E-01  0.5900E-01
    -19.621  0.2394E-02  0.2643E-05  0.5927E-01  0.5900E-01
    -19.507  0.6396E-02  0.3610E-02  0.6000E-01  0.5941E-01
    -19.394  0.4203E-04  0.5206E-02  0.6000E-01  0.6000E-01
    -19.281  0.3013E-10  0.1305E-04  0.6000E-01  0.6000E-01
    -19.168  0.0000E+00  0.2926E-11  0.6000E-01  0.6000E-01
    -19.055  0.0000E+00  0.0000E+00  0.6000E-01  0.6000E-01
    -18.941  0.4118E-16  0.1706E-14  0.6000E-01  0.6000E-01
    -18.828  0.2410E-07  0.2186E-06  0.6000E-01  0.6000E-01
    -18.715  0.7902E-03  0.1732E-02  0.6009E-01  0.6020E-01
    -18.602  0.7763E-02  0.7017E-02  0.6097E-01  0.6099E-01
    -18.488  0.2788E-03  0.8363E-04  0.6100E-01  0.6100E-01
    -18.375  0.5046E-07  0.2779E-06  0.6100E-01  0.6100E-01
    -18.262  0.1027E-02  0.1873E-02  0.6112E-01  0.6121E-01
    -18.149  0.7609E-02  0.6888E-02  0.6198E-01  0.6199E-01
    -18.036  0.7726E-03  0.4154E-03  0.6207E-01  0.6204E-01
    -17.922  0.2483E-01  0.2571E-01  0.6488E-01  0.6495E-01
    -17.809  0.3136E-01  0.2249E-01  0.6843E-01  0.6750E-01
    -17.696  0.5055E-02  0.1255E-01  0.6900E-01  0.6892E-01
    -17.583  0.6797E-05  0.7323E-03  0.6900E-01  0.6900E-01
    -17.469  0.8360E-12  0.1927E-07  0.6900E-01  0.6900E-01
    -17.356  0.0000E+00  0.2844E-16  0.6900E-01  0.6900E-01
    -17.243  0.0000E+00  0.0000E+00  0.6900E-01  0.6900E-01
    -17.130  0.0000E+00  0.0000E+00  0.6900E-01  0.6900E-01
    -17.017  0.0000E+00  0.0000E+00  0.6900E-01  0.6900E-01
    -16.903  0.0000E+00  0.0000E+00  0.6900E-01  0.6900E-01
    -16.790  0.0000E+00  0.0000E+00  0.6900E-01  0.6900E-01
    -16.677  0.4913E-15  0.5427E-14  0.6900E-01  0.6900E-01
    -16.564  0.1075E-06  0.4278E-06  0.6900E-01  0.6900E-01
    -16.450  0.1628E-02  0.2465E-02  0.6918E-01  0.6928E-01
    -16.337  0.1511E-01  0.1444E-01  0.7089E-01  0.7091E-01
    -16.224  0.9565E-03  0.7694E-03  0.7100E-01  0.7100E-01
    -16.111  0.1156E-01  0.1205E-01  0.7231E-01  0.7237E-01
    -15.998  0.3720E-01  0.3462E-01  0.7652E-01  0.7629E-01
    -15.884  0.2109E-01  0.2179E-01  0.7891E-01  0.7875E-01
    -15.771  0.7845E-03  0.2182E-02  0.7900E-01  0.7900E-01
    -15.658  0.1124E-07  0.3674E-06  0.7900E-01  0.7900E-01
    -15.545  0.9806E-17  0.4197E-14  0.7900E-01  0.7900E-01
    -15.431  0.0000E+00  0.0000E+00  0.7900E-01  0.7900E-01
    -15.318  0.0000E+00  0.0000E+00  0.7900E-01  0.7900E-01
    -15.205  0.5051E-14  0.3290E-12  0.7900E-01  0.7900E-01
    -15.092  0.4082E-06  0.4135E-05  0.7900E-01  0.7900E-01
    -14.979  0.2117E-02  0.4037E-02  0.7924E-01  0.7946E-01
    -14.865  0.6661E-02  0.4784E-02  0.7999E-01  0.8000E-01
    -14.752  0.3711E-02  0.3667E-02  0.8041E-01  0.8041E-01
    -14.639  0.2978E-01  0.2700E-01  0.8379E-01  0.8347E-01
    -14.526  0.2582E-01  0.1800E-01  0.8671E-01  0.8551E-01
    -14.413  0.2572E-02  0.1258E-01  0.8700E-01  0.8693E-01
    -14.299  0.4690E-06  0.5899E-03  0.8700E-01  0.8700E-01
    -14.186  0.6378E-14  0.1098E-07  0.8700E-01  0.8700E-01
    -14.073  0.3561E-14  0.4090E-12  0.8700E-01  0.8700E-01
    -13.960  0.3593E-06  0.4667E-05  0.8700E-01  0.8700E-01
    -13.846  0.2817E-02  0.4893E-02  0.8732E-01  0.8755E-01
    -13.733  0.1452E-01  0.1246E-01  0.8896E-01  0.8897E-01
    -13.620  0.1707E-02  0.2082E-02  0.8916E-01  0.8920E-01
    -13.507  0.3196E-01  0.2995E-01  0.9277E-01  0.9259E-01
    -13.394  0.2758E-01  0.2178E-01  0.9590E-01  0.9506E-01
    -13.280  0.2663E-02  0.1465E-01  0.9620E-01  0.9672E-01
    -13.167  0.6992E-02  0.2501E-02  0.9699E-01  0.9700E-01
    -13.054  0.8123E-04  0.6935E-06  0.9700E-01  0.9700E-01
    -12.941  0.1192E-09  0.1285E-13  0.9700E-01  0.9700E-01
    -12.827  0.0000E+00  0.0000E+00  0.9700E-01  0.9700E-01
    -12.714  0.0000E+00  0.0000E+00  0.9700E-01  0.9700E-01
    -12.601  0.0000E+00  0.0000E+00  0.9700E-01  0.9700E-01
    -12.488  0.0000E+00  0.0000E+00  0.9700E-01  0.9700E-01
    -12.375  0.5619E-15  0.1302E-13  0.9700E-01  0.9700E-01
    -12.261  0.1177E-06  0.7195E-06  0.9700E-01  0.9700E-01
    -12.148  0.1756E-02  0.3255E-02  0.9720E-01  0.9737E-01
    -12.035  0.1516E-01  0.1408E-01  0.9891E-01  0.9896E-01
    -11.922  0.1061E-02  0.6823E-03  0.9903E-01  0.9904E-01
    -11.808  0.2047E-01  0.1890E-01  0.1014E+00  0.1012E+00
    -11.695  0.3842E-01  0.3193E-01  0.1057E+00  0.1048E+00
    -11.582  0.1521E-01  0.2622E-01  0.1074E+00  0.1078E+00
    -11.469  0.2773E-01  0.2158E-01  0.1106E+00  0.1102E+00
    -11.356  0.2573E-01  0.2368E-01  0.1135E+00  0.1129E+00
    -11.242  0.1828E-01  0.1541E-01  0.1155E+00  0.1146E+00
    -11.129  0.4005E-02  0.1143E-01  0.1160E+00  0.1159E+00
    -11.016  0.1497E-02  0.1705E-02  0.1162E+00  0.1161E+00
    -10.903  0.1456E-01  0.1462E-01  0.1178E+00  0.1178E+00
    -10.789  0.1709E-01  0.1184E-01  0.1198E+00  0.1191E+00
    -10.676  0.9943E-02  0.1619E-01  0.1209E+00  0.1209E+00
    -10.563  0.1478E-01  0.1012E-01  0.1226E+00  0.1221E+00
    -10.450  0.1219E-01  0.1247E-01  0.1239E+00  0.1235E+00
    -10.337  0.1584E-02  0.7358E-02  0.1241E+00  0.1243E+00
    -10.223  0.1925E-01  0.1642E-01  0.1263E+00  0.1262E+00
    -10.110  0.1874E-01  0.1704E-01  0.1284E+00  0.1281E+00
     -9.997  0.2711E-01  0.2203E-01  0.1315E+00  0.1306E+00
     -9.884  0.2266E-01  0.2301E-01  0.1340E+00  0.1332E+00
     -9.770  0.2133E-01  0.2397E-01  0.1365E+00  0.1359E+00
     -9.657  0.2709E-01  0.2185E-01  0.1395E+00  0.1384E+00
     -9.544  0.2599E-01  0.2330E-01  0.1425E+00  0.1411E+00
     -9.431  0.1413E-01  0.2053E-01  0.1441E+00  0.1434E+00
     -9.318  0.3298E-01  0.3269E-01  0.1478E+00  0.1471E+00
     -9.204  0.3525E-01  0.3466E-01  0.1518E+00  0.1510E+00
     -9.091  0.2493E-01  0.2753E-01  0.1546E+00  0.1541E+00
     -8.978  0.3632E-01  0.3330E-01  0.1587E+00  0.1579E+00
     -8.865  0.4033E-01  0.4004E-01  0.1633E+00  0.1624E+00
     -8.751  0.3769E-01  0.3694E-01  0.1676E+00  0.1666E+00
     -8.638  0.4285E-01  0.3723E-01  0.1724E+00  0.1708E+00
     -8.525  0.2677E-01  0.3206E-01  0.1754E+00  0.1744E+00
     -8.412  0.3956E-01  0.3199E-01  0.1799E+00  0.1781E+00
     -8.299  0.1600E-01  0.2994E-01  0.1817E+00  0.1815E+00
     -8.185  0.2753E-01  0.2710E-01  0.1849E+00  0.1845E+00
     -8.072  0.3980E-01  0.3589E-01  0.1894E+00  0.1886E+00
     -7.959  0.2963E-01  0.2915E-01  0.1927E+00  0.1919E+00
     -7.846  0.2868E-01  0.2973E-01  0.1960E+00  0.1953E+00
     -7.733  0.2928E-01  0.3022E-01  0.1993E+00  0.1987E+00
     -7.619  0.1447E-01  0.1928E-01  0.2009E+00  0.2009E+00
     -7.506  0.1566E-01  0.1589E-01  0.2027E+00  0.2027E+00
     -7.393  0.4794E-01  0.3688E-01  0.2081E+00  0.2068E+00
     -7.280  0.3978E-01  0.3817E-01  0.2126E+00  0.2112E+00
     -7.166  0.1635E-01  0.3140E-01  0.2145E+00  0.2147E+00
     -7.053  0.5241E-01  0.4314E-01  0.2204E+00  0.2196E+00
     -6.940  0.8051E-01  0.6693E-01  0.2295E+00  0.2272E+00
     -6.827  0.4067E-01  0.4727E-01  0.2341E+00  0.2325E+00
     -6.714  0.3320E-01  0.2481E-01  0.2379E+00  0.2353E+00
     -6.600  0.1942E-01  0.3087E-01  0.2401E+00  0.2388E+00
     -6.487  0.8807E-02  0.1848E-01  0.2411E+00  0.2409E+00
     -6.374  0.8083E-02  0.2782E-02  0.2420E+00  0.2412E+00
     -6.261  0.2920E-01  0.2573E-01  0.2453E+00  0.2442E+00
     -6.147  0.3958E-01  0.2970E-01  0.2498E+00  0.2475E+00
     -6.034  0.1921E-02  0.2374E-01  0.2500E+00  0.2502E+00
     -5.921  0.7809E-02  0.1637E-01  0.2509E+00  0.2521E+00
     -5.808  0.3169E-01  0.2516E-01  0.2545E+00  0.2549E+00
     -5.695  0.3973E-01  0.1026E-01  0.2590E+00  0.2561E+00
     -5.581  0.2912E-01  0.2206E-01  0.2623E+00  0.2586E+00
     -5.468  0.2583E-01  0.3505E-01  0.2652E+00  0.2625E+00
     -5.355  0.3608E-01  0.3198E-01  0.2693E+00  0.2662E+00
     -5.242  0.3105E-01  0.4310E-01  0.2728E+00  0.2710E+00
     -5.128  0.4295E-01  0.4076E-01  0.2777E+00  0.2756E+00
     -5.015  0.4751E-01  0.3241E-01  0.2830E+00  0.2793E+00
     -4.902  0.3794E-01  0.3833E-01  0.2873E+00  0.2837E+00
     -4.789  0.3364E-01  0.3124E-01  0.2911E+00  0.2872E+00
     -4.676  0.3208E-01  0.3402E-01  0.2948E+00  0.2910E+00
     -4.562  0.2582E-01  0.3846E-01  0.2977E+00  0.2954E+00
     -4.449  0.6097E-01  0.4279E-01  0.3046E+00  0.3002E+00
     -4.336  0.3403E-01  0.5098E-01  0.3085E+00  0.3060E+00
     -4.223  0.7031E-01  0.4576E-01  0.3164E+00  0.3112E+00
     -4.109  0.6187E-01  0.3125E-01  0.3234E+00  0.3147E+00
     -3.996  0.2251E-01  0.5209E-01  0.3260E+00  0.3206E+00
     -3.883  0.1614E-01  0.3170E-01  0.3278E+00  0.3242E+00
     -3.770  0.2120E-01  0.2038E-01  0.3302E+00  0.3265E+00
     -3.657  0.3411E-01  0.3583E-01  0.3341E+00  0.3306E+00
     -3.543  0.4940E-01  0.4271E-01  0.3397E+00  0.3354E+00
     -3.430  0.4481E-01  0.4106E-01  0.3447E+00  0.3401E+00
     -3.317  0.5326E-01  0.5512E-01  0.3508E+00  0.3463E+00
     -3.204  0.3368E-01  0.3595E-01  0.3546E+00  0.3504E+00
     -3.090  0.1077E-01  0.1667E-01  0.3558E+00  0.3523E+00
     -2.977  0.2912E-01  0.3475E-01  0.3591E+00  0.3562E+00
     -2.864  0.6613E-01  0.4063E-01  0.3666E+00  0.3608E+00
     -2.751  0.5122E-01  0.6304E-01  0.3724E+00  0.3679E+00
     -2.638  0.6104E-01  0.3355E-01  0.3793E+00  0.3717E+00
     -2.524  0.4417E-01  0.3295E-01  0.3843E+00  0.3755E+00
     -2.411  0.4558E-01  0.1596E-01  0.3894E+00  0.3773E+00
     -2.298  0.1697E-01  0.1543E-01  0.3914E+00  0.3790E+00
     -2.185  0.1520E-01  0.3031E-01  0.3931E+00  0.3825E+00
     -2.071  0.3126E-01  0.2076E-01  0.3966E+00  0.3848E+00
     -1.958  0.2580E-01  0.1606E-01  0.3995E+00  0.3866E+00
     -1.845  0.1181E-01  0.1989E-01  0.4009E+00  0.3889E+00
     -1.732  0.3138E-01  0.2474E-01  0.4044E+00  0.3917E+00
     -1.619  0.2683E-01  0.1937E-01  0.4075E+00  0.3939E+00
     -1.505  0.3509E-01  0.1797E-01  0.4114E+00  0.3959E+00
     -1.392  0.2876E-01  0.3299E-01  0.4147E+00  0.3996E+00
     -1.279  0.3912E-01  0.3197E-01  0.4191E+00  0.4033E+00
     -1.166  0.4491E-01  0.3876E-01  0.4242E+00  0.4076E+00
     -1.052  0.2441E-01  0.4312E-01  0.4270E+00  0.4125E+00
     -0.939  0.2054E-03  0.2684E-01  0.4270E+00  0.4156E+00
     -0.826  0.6471E-02  0.1217E-01  0.4277E+00  0.4169E+00
     -0.713  0.1177E-01  0.4493E-02  0.4291E+00  0.4175E+00
     -0.600  0.1534E-01  0.2741E-01  0.4308E+00  0.4206E+00
     -0.486  0.2556E-01  0.1706E-01  0.4337E+00  0.4225E+00
     -0.373  0.2678E-02  0.3696E-01  0.4340E+00  0.4267E+00
     -0.260  0.2905E-06  0.2873E-02  0.4340E+00  0.4270E+00
     -0.147  0.5891E-03  0.2863E-05  0.4341E+00  0.4270E+00
     -0.034  0.1427E-01  0.4719E-02  0.4357E+00  0.4275E+00
      0.080  0.1376E-01  0.2968E-01  0.4372E+00  0.4309E+00
      0.193  0.3427E-01  0.2651E-01  0.4411E+00  0.4339E+00
      0.306  0.1246E-01  0.3588E-01  0.4425E+00  0.4380E+00
      0.419  0.1008E-01  0.1591E-01  0.4437E+00  0.4398E+00
      0.533  0.2636E-01  0.2524E-01  0.4467E+00  0.4426E+00
      0.646  0.5511E-01  0.2950E-01  0.4529E+00  0.4460E+00
      0.759  0.3470E-01  0.3816E-01  0.4568E+00  0.4503E+00
      0.872  0.9653E-02  0.3871E-01  0.4579E+00  0.4547E+00
      0.985  0.6233E-02  0.1812E-01  0.4586E+00  0.4567E+00
      1.099  0.3321E-02  0.1126E-01  0.4590E+00  0.4580E+00
      1.212  0.1922E-05  0.1047E-02  0.4590E+00  0.4581E+00
      1.325  0.8019E-13  0.7677E-02  0.4590E+00  0.4590E+00
      1.438  0.0000E+00  0.2258E-03  0.4590E+00  0.4590E+00
      1.552  0.1852E-12  0.1134E-08  0.4590E+00  0.4590E+00
      1.665  0.3034E-05  0.4009E-07  0.4590E+00  0.4590E+00
      1.778  0.3741E-02  0.9582E-03  0.4594E+00  0.4591E+00
      1.891  0.7901E-02  0.1094E-01  0.4603E+00  0.4603E+00
      2.004  0.6302E-02  0.9120E-02  0.4610E+00  0.4614E+00
      2.118  0.7960E-02  0.5899E-02  0.4619E+00  0.4620E+00
      2.231  0.2327E-01  0.2789E-01  0.4646E+00  0.4652E+00
      2.344  0.5982E-01  0.4471E-01  0.4713E+00  0.4703E+00
      2.457  0.4657E-01  0.4907E-01  0.4766E+00  0.4758E+00
      2.571  0.3045E-01  0.2034E-01  0.4801E+00  0.4781E+00
      2.684  0.1432E-01  0.2391E-01  0.4817E+00  0.4808E+00
      2.797  0.3161E-02  0.8551E-02  0.4820E+00  0.4818E+00
      2.910  0.1292E-01  0.9912E-02  0.4835E+00  0.4829E+00
      3.023  0.1178E-01  0.1719E-01  0.4848E+00  0.4849E+00
      3.137  0.7785E-02  0.1210E-01  0.4857E+00  0.4862E+00
      3.250  0.2012E-01  0.1440E-01  0.4880E+00  0.4879E+00
      3.363  0.2566E-01  0.1489E-01  0.4909E+00  0.4896E+00
      3.476  0.2034E-01  0.2584E-01  0.4932E+00  0.4925E+00
      3.590  0.7380E-02  0.1294E-01  0.4940E+00  0.4939E+00
      3.703  0.9502E-02  0.7405E-02  0.4951E+00  0.4948E+00
      3.816  0.1310E-01  0.9439E-02  0.4966E+00  0.4959E+00
      3.929  0.1312E-01  0.1778E-01  0.4981E+00  0.4979E+00
      4.042  0.2222E-01  0.1961E-01  0.5006E+00  0.5001E+00
      4.156  0.3098E-01  0.3268E-01  0.5041E+00  0.5038E+00
      4.269  0.2192E-01  0.2140E-01  0.5066E+00  0.5062E+00
      4.382  0.2411E-01  0.2807E-01  0.5093E+00  0.5094E+00
      4.495  0.2557E-01  0.2402E-01  0.5122E+00  0.5121E+00
      4.609  0.2836E-01  0.2679E-01  0.5154E+00  0.5151E+00
      4.722  0.3122E-01  0.2542E-01  0.5190E+00  0.5180E+00
      4.835  0.2338E-01  0.2956E-01  0.5216E+00  0.5214E+00
      4.948  0.4983E-01  0.3773E-01  0.5272E+00  0.5256E+00
      5.061  0.3113E-01  0.3678E-01  0.5308E+00  0.5298E+00
      5.175  0.2847E-01  0.3087E-01  0.5340E+00  0.5333E+00
      5.288  0.1542E-01  0.1735E-01  0.5357E+00  0.5353E+00
      5.401  0.3102E-01  0.2645E-01  0.5393E+00  0.5383E+00
      5.514  0.6564E-02  0.1518E-01  0.5400E+00  0.5400E+00
      5.628  0.3769E-05  0.2015E-03  0.5400E+00  0.5400E+00
      5.741  0.2463E-12  0.7136E-09  0.5400E+00  0.5400E+00
      5.854  0.0000E+00  0.0000E+00  0.5400E+00  0.5400E+00
      5.967  0.0000E+00  0.0000E+00  0.5400E+00  0.5400E+00
      6.080  0.0000E+00  0.0000E+00  0.5400E+00  0.5400E+00
      6.194  0.0000E+00  0.0000E+00  0.5400E+00  0.5400E+00
      6.307  0.0000E+00  0.0000E+00  0.5400E+00  0.5400E+00
      6.420  0.0000E+00  0.0000E+00  0.5400E+00  0.5400E+00
      6.533  0.0000E+00  0.0000E+00  0.5400E+00  0.5400E+00
      6.646  0.0000E+00  0.0000E+00  0.5400E+00  0.5400E+00
      6.760  0.0000E+00  0.0000E+00  0.5400E+00  0.5400E+00
      6.873  0.0000E+00  0.0000E+00  0.5400E+00  0.5400E+00
      6.986  0.0000E+00  0.0000E+00  0.5400E+00  0.5400E+00
