O  C  H  Co Li
 1.0000000000000000
    25.9869300222800774    0.0014776472087939   -0.0002841704448074
    12.9947443186480527   22.5035161465627063   -0.0005769115704474
    -0.0000740905812471   -0.0001328080293999    6.8098320633878924
 O   C   H   Co  Li 
  60  75  18  18   4
Direct
  0.0601485545576769  0.2438670077419059  0.3170493943836977
  0.0313491728706543  0.2856579318928988  0.9251295795062818
  0.1070479849590308  0.2570270069917145  0.7172371893277786
  0.3946535678241075  0.5899229113936028  0.6629461912036334
  0.7043366427055509  0.0605395390445961  0.3482516182340106
  0.6921404887637719  0.0270367577937406  0.9491356285499170
  0.6378925680015358  0.1014758351866939  0.7435646023312779
  0.0263498419168555  0.3877841384607130  0.6539518503626255
  0.2477340605343174  0.6978528268352061  0.3287199838110346
  0.2897994461257623  0.6858912951252774  0.9399037508206035
  0.2623707749502879  0.6383755248632317  0.7292993724064445
  0.5930850637902373  0.0209683956249694  0.6695652456136223
  0.3110728411978358  0.0495960487087949  0.3976978281773497
  0.2347548590196820  0.0798743040795822  0.6039258533717554
  0.6234068019053834  0.3670480871962524  0.6944835742781820
  0.5903482473042185  0.4363363943406182  0.9326258276581544
  0.2824827305342021  0.0915341292330341  0.0036437700924358
  0.6520135008869049  0.3053294372823607  0.3524910666062518
  0.6596275084517645  0.2484563811311556  0.6120729763869714
 -0.0090060675163573  0.6311662436708114  0.7302627169330053
  0.0360683687302279  0.5544232365451919  0.9351512488811107
  0.5635624988848270  0.2915592225843551  0.0451287957160443
  0.0520942066196595  0.6428404426852554  0.3981786057978609
  0.0821034782176765  0.6884951556404386  0.6073986478529101
  0.3834503243042275  0.9880337186426653  0.7303398666783348
  0.4158309711137996  0.0316046435252930  0.9393820937076582
  0.0944307764747874  0.6302448872835845  0.0062820404481878
  0.7075751158773896  0.9537129806628792  0.6132867556189640
  0.7838794241359108  0.9276638244416512  0.4096246548975527
  0.3638110356315251  0.6323963789281637  0.2756825953831702
  0.4382417601576141  0.6029630067990410  0.0623346744063398
  0.7369160251217003  0.9130719810632073  1.0055536551107227
  0.3433304969498585  0.7058661969747498  0.6072897788903902
  0.2988074244494052  0.7809570172273864  0.3953888610734069
  0.0145377706673054  0.3593657327106647  0.2607030466373378
  0.9674427097856716  0.4356470367012232  0.0551538973518964
  0.3572664135234986  0.7341427170194502  0.9949750240459713
  0.9574123728905497  0.3416557830010305  0.5933183340386139
  0.9273194875412403  0.2975201749085428  0.3775643099861720
  0.6342592432783773  0.0106550493369573  0.2799126731204382
  0.6043043307525424  0.9651662884622811  0.0695179363768994
  0.9147158928455146  0.3534883832851167  0.9812325202957313
  0.9509457940005213  0.7458848237726821  0.6750542797257850
  0.9794140928586176  0.7031984897110678  0.0660328902729237
  0.9035678457518684  0.7365569318465176  0.2759687064899214
  0.6102243838051679  0.4264093707857252  0.3358796649931529
  0.3086813023690022  0.9490223307755710  0.6703489204519616
  0.3222361419691142  0.9772470318696476  0.0644118038142206
  0.3664772837269170  0.9007279874799650  0.2709547621623322
  0.9774355751892128  0.6034916299078859  0.3358575317686195
  0.7572884501042690  0.2917683593819256  0.6427602995281287
  0.7043173861117524  0.3183890049507468  0.0260790349627852
  0.7416334326466150  0.3549630670954060  0.2443228524361072
  0.4257036628814936  0.9748121213840046  0.3386642583611134
  0.6993161564782190  0.4257021674803040  0.6237727740451005
  0.6414675371438326  0.5239646444453222  0.6882344876036435
  0.6981962353614912  0.4933768543562880  0.4097586755693465
  0.7961939424825450  0.1342406200209235  0.5478888181298274
  0.7672629680208640  0.1865620786341794  0.8297567454127652
  0.7532868766947323  0.1067807316119155  0.7792310107351971
  0.1130367720949785  0.2082246995171201  0.2319825717581664
  0.1567451988340142  0.1648570441690010  0.3537818866058551
  0.0874745371721562  0.2534591432176035  0.8851017826071328
  0.1283681289921015  0.2110610104927280  0.0316339884065257
  0.4467010806639433  0.5530384378927287  0.5760349591766102
  0.4911330777821110  0.5094116324280314  0.6953786900547387
  0.6714098521750018  0.1155610206261999  0.2609976542089831
  0.6618252956926997  0.1636602584973636  0.3793762070975695
  0.6605439116929122  0.0833222773921816  0.9132067641553868
  0.6495756384515785  0.1276734383744312  0.0642562397252397
  0.0140428808982326  0.4392188735463918  0.5680202780167937
  0.0182945589365121  0.4806606412720473  0.6891869338136022
  0.2119471833813733  0.6811412278988384  0.2420289409041061
  0.1684119275496490  0.6805116860079328  0.3621911081592135
  0.2578567308931384  0.6620546223743270  0.8971338563203111
  0.2145891923077641  0.6638661027306337  0.0407001805362564
  0.5538558725938613  0.0092604548262330  0.5813452180673366
  0.5079849659463876  0.0131626011265100  0.6999604093348777
  0.2549817391364945  0.0827111941547174  0.4363767536681052
  0.2144504474485510  0.1251732866093400  0.2893803144188784
  0.5890221093062620  0.4203170433254443  0.7538127471115054
  0.5459240294254434  0.4661152901905579  0.6197226819178264
  0.2297635518312876  0.1277486813259477  0.0888065521766923
  0.1860824968141144  0.1713786376494403  0.9671517006937285
  0.6474072406267402  0.2628580964809819  0.4324832924736447
  0.6350520924380489  0.2226801619452463  0.3123101200962037
  0.0120760594478274  0.5753675323020012  0.7691966379672568
  0.0061546875316811  0.5365973381708213  0.6231424979707452
  0.6096948444357025  0.2321231991617282  0.1257530947084018
  0.6152749751820991  0.1875456668590975  1.0058006821512622
  0.0853284819885945  0.6654484470494164  0.4394270884006573
  0.1283448332125481  0.6633664178250415  0.2946283168057081
  0.4187516157200291  0.0081370022324495  0.7724952160526608
  0.4639667601858785  0.0019913966443772  0.6293521179139241
  0.1307461297892126  0.6463719427967933  0.0930872209074512
  0.1745460548178819  0.6466911246057006  0.9730547101722952
  0.7636573333753491  0.9213579337803236  0.5733101572196593
  0.8031136818631106  0.8760552297309803  0.7152453247758911
  0.4192880371451648  0.5988333754182841  0.2306445725282218
  0.4600868813488475  0.5541462984056736  0.3723446695567302
  0.7880601549549384  0.8741543112156214  0.9169598602160282
  0.8298212688405442  0.8279879341534871  0.0350741888131147
  0.3222843703782960  0.7612117120512825  0.5628643656383834
  0.3279450953515082  0.8006447993950108  0.7062617922083644
  0.9919452172204797  0.4152971796840808  0.2210294030254500
  0.9970847167363737  0.4547221179426201  0.3666347083151405
  0.3448092574890096  0.7854154849142034  0.9077098046646340
  0.3489442678742094  0.8270890019038222  0.0274865762541291
  0.9240671748208926  0.3196462991498580  0.5476824733709064
  0.8806812830262669  0.3216528053351598  0.6899844050525642
  0.6002582879807983  0.9887558770148519  0.2368608481788630
  0.5552919317906998  0.9936160156845817  0.3789049588559500
  0.8783957895512904  0.3378510266561803  0.8919634810958069
  0.8340283990685877  0.3375004170798359  0.0083014099035496
  0.9001256234707028  0.7854799131820207  0.7630774818656871
  0.8584942896713633  0.8320121962375729  0.6450501693900897
  0.9240808253902398  0.7389039100156454  0.1083740649228640
  0.8852015807348773  0.7840235866966592  0.9649888954946730
  0.5583235181270444  0.4663152929648590  0.4168192811763295
  0.5154084524108440  0.5116697499115858  0.2987680657238645
  0.3203968971926424  0.8979574386336016  0.7577006150428219
  0.3159711504963031  0.8563122280315199  0.6380352311755182
  0.3428751417881992  0.9216048320470239  0.1044243382178758
  0.3369804918570853  0.8827772053888348  0.9594000140484997
  0.9892705686139098  0.5521655565036833  0.4216984801880706
  0.9848583342589640  0.5107140875633508  0.3005859744004374
  0.7949138032877705  0.3062575444224215  0.7366223752992603
  0.8401463020048967  0.3047327760304364  0.6211645791101179
  0.7440557523709425  0.3319238750268735  0.0753858307825331
  0.7913906896983129  0.3237499096682740  0.9376175181634711
  0.4652129376280877  0.9862251962960232  0.4268265300797295
  0.5112631856215948  0.9822835782126911  0.3081648559508414
  0.6775260756030861  0.4853752486398931  0.5687806135065054
  0.7715815626738771  0.1412837436411656  0.7221495861868663
  0.5668982127566274  0.3376037979348686  1.0703712558184997
  0.1441545279117400  0.1623191755625023  0.5046949595269641
  0.4808725340975690  0.5092043209310940  0.8505836864518342
  0.6767956996190376  0.1552192834958155  0.5319997008609331
  0.0326897921882968  0.4673465028667794  0.8403245660709595
  0.1658856450127744  0.6949349686531896  0.5140361199717277
  0.5067599336457040  0.0266501542087732  0.8522951755478498
  0.1986001120195618  0.1739660480237634  0.8161649890844913
  0.5932033610033816  0.1988837710423499  0.8633241466374216
  0.1772126502830829  0.6321780659713275  0.8212506793466960
  0.8172737232790210  0.8263101489036965  0.1867620742192893
  0.3631347190630719  0.8142322348003467  0.1790377207243657
  0.8340889036884244  0.3484987499622181  0.1626157224827327
  0.8710259788616226  0.8335537501202279  0.4932416351762988
  0.5262836247964919  0.5142234952572263  0.1458488115246269
  0.3017139325160144  0.8691477344699284  0.4865115570537542
  0.9705202085764699  0.5239641743150167  0.1493560965912934
  0.8435702316701071  0.2902384561487513  0.4685422129779206
  0.5125116034105180  0.9689029976033863  0.1556697446133307
  0.3148986283429046  0.6447191900094728  0.5228620113137189
  0.0482203000302232  0.3100859525722248  0.5097039935045145
  0.6476806463901837  0.0443025417698995  0.5301276297504666
  0.0281248776472010  0.6865534701996835  0.8161194281067051
  0.3598194445894369  0.0322239576065567  0.1471243300199734
  0.2912321153040288  0.0258749508507443  0.8131377272607186
  0.6069349108569283  0.3707528814606257  0.1386784104156359
  0.7030756500952524  0.2706298639077455  0.8032897082640227
  0.0352912170386530  0.6110467437869922  0.1450481603375247
  0.6590552484794387  0.9667685581974339  0.8634095520261987
  0.9822556435554718  0.2998944569442689  0.1721096430344472
  0.3810970290606001  0.6560390384412681  0.8539752109541431
  0.7247787867451503  0.9799429326830096  0.2000690456634130
  0.9712398966207483  0.3769723247281488  0.8465713616209678
  0.3030243080812964  0.7218669554744570  0.1892583822684284
  0.6832485225047316  0.3659607327615241  0.4893060344219297
  0.9596094980675368  0.6803106787810218  0.4810700525878132
  0.3664094183118370  0.9566360487652359  0.4786730733741512
  0.7523493007301606  0.4136419544896549  0.3839115585146586
  0.6448567825243108  0.4695625770688084  0.8721943612512058
  0.7638819997063178  0.0785966866327833  0.5100409058789744
  0.8019201464476859  0.2034441534376767  0.5949026964002090
