O  C  H  Co Li                          
   1.00000000000000     
    25.9506251920356874    0.3117687942592576   -0.1027237165642195
    13.2458388267309299   22.6047816538289972   -0.0280844775689454
    -0.0271827029410885    0.0071360703588351    6.8135279400602418
   O    C    H    Co   Li
    56    73    18    18     1
Direct
  0.0551349948492114  0.2586191447438654  0.3010843927692872
  0.0361892105495048  0.3078785125138346  0.9523431886240407
  0.1018633369265586  0.2641894362589938  0.7084336394251968
  0.3976431164123671  0.5879127421529862  0.6481407082013120
  0.6857454969547375  0.0600213658222869  0.3131820474922207
  0.6637658974144501  0.0379454121295451  0.9524086758219703
  0.6359501126977746  0.1058255856307256  0.7155320880783766
  0.0163675386105474  0.3980671730416622  0.6393479088002076
  0.2572472120226539  0.6889336102107273  0.3133456638809389
  0.3024633542632416  0.6675103030215108  0.9553301892438311
  0.2636433771024044  0.6376122764390288  0.7202070104676200
  0.5840162932173726  0.0239200089600042  0.6446713386221703
  0.2962940032601699  0.0371341799665540  0.3623888298961926
  0.2271198310997027  0.0781266419826187  0.5958372890376825
  0.6364774004329540  0.3647145377281161  0.7055272632120568
  0.5687644720551583  0.4083905319802005  0.9424892483371055
  0.2727605366592581  0.0817312081165883  0.0000740662254614
  0.6728578621032861  0.2928482305937534  0.3685920184659790
  0.6962363803611874  0.2263569135418498  0.6080348807787390
  0.0060466313478931  0.6304297699409477  0.6974075078028608
  0.0325749191287191  0.5627576330140801  0.9342499616049577
  0.6479085083662893  0.2729362054372627  0.0106666695967233
  0.0413700568369020  0.6652914840511811  0.3661239889172095
  0.0805802984680801  0.6939865774287157  0.6025133592941174
  0.3688539830626129 -0.0007749563514612  0.6985432158195340
  0.4080020284975852  0.0284277262682398  0.9333904903492309
  0.0866976482526876  0.6433560686169577  0.0054529975254285
  0.7015976208675474  0.9664290462418977  0.6187849500196561
  0.7699021381213818  0.9257101014681747  0.3821281287980013
  0.3743686318111023  0.6348822708915539  0.2920815869303832
  0.4427157828803393  0.5930566728812083  0.0547542699787260
  0.7260045319550887  0.9208565834242525  0.9781016949001548
  0.3336411293740450  0.7042955815834984  0.6235717180288500
  0.3043043917378791  0.7724064209648982  0.3853770944885285
  0.9867207410358356  0.3804785597600526  0.2907761702147664
  0.9684731843218209  0.4438959751785447  0.0437759865746135
  0.3588867349464760  0.7264928946193621  0.9806084790869148
  0.9716535838247315  0.3208219311162169  0.6221402582717401
  0.9150724986548229  0.3194291414566982  0.3701461242867169
  0.6294806772245343  0.0017393726439563  0.2846372819761299
  0.5901570401750261  0.9733445944641725  0.0476918816026024
  0.9105800316181023  0.3704824638046005  0.9596992757744985
  0.9447988716306976  0.7474492635231716  0.6717881106894087
  0.9692216017301635  0.7020706751335357  0.0319011699303476
  0.9006817569899096  0.7429593533645747  0.2677145360911871
  0.6157736998069975  0.4127161856237052  0.3465004369465777
  0.3108857909820453  0.9422060086402211  0.6688256277908335
  0.3319979779871483  0.9658946573687079  0.0307824083817738
  0.3613663912914125  0.8977096248077010  0.2675397057019159
  0.9833214523623390  0.6089231093747217  0.3362356557874606
  0.7585632667724066  0.2955927616061094  0.6825837806242404
  0.7049181791448498  0.3335556761780847  0.0384678937739038
  0.7521296093708987  0.3538405540527949  0.2756148632384721
  0.4135531966071699  0.9783040353339205  0.3366597380228558
  0.6887610737649624  0.4812570802689473  0.6543431348808260
  0.7767932633362081  0.4432661375612625  0.4692986047889903
  0.1078427560590089  0.2168110080709997  0.2232366568854113
  0.1488516614582094  0.1704886153625998  0.3455085057709772
  0.0860642349093974  0.2647692019761180  0.8841589280219165
  0.1244967774437727  0.2165565495615703  0.0235303085396448
  0.4503691097390090  0.5464940818000017  0.5706547060446063
  0.4916541349909438  0.5005886673135247  0.6930580337154517
  0.6757734112449002  0.1113770722186084  0.2344860015320389
  0.6808798718648645  0.1512975735607014  0.3574113995734029
  0.6526890746859012  0.0890225435249068  0.8911297878442100
  0.6603613352786489  0.1275688886222947  0.0329035625144748
  0.0078696374651791  0.4492323051819962  0.5626677918067361
  0.0150180733598156  0.4880881234755974  0.6850300724224773
  0.2163529831811255  0.6778127571052756  0.2348116322789386
  0.1711474285203886  0.6817217004893988  0.3556895530422551
  0.2630450204987497  0.6552695181522574  0.8947654287854417
  0.2165668898284393  0.6619857182559513  0.0338963663747250
  0.5433554060800435  0.0126209149591550  0.5646310092648817
  0.4983401966432984  0.0162840671122200  0.6858546907964114
  0.2441112124298260  0.0778756655876035  0.4213891770991070
  0.2045172537153599  0.1247986264349421  0.2791244296223532
  0.5855841897876931  0.4074617043560178  0.7675450991362708
  0.5472289523262216  0.4550307495053534  0.6261979526076014
  0.2206712698864305  0.1241835974896868  0.0785033510898055
  0.1798629858393624  0.1706342168456567  0.9565059503173234
  0.6807894016877039  0.2429429476251876  0.4316252473422204
  0.6717757759263377  0.2055666024671427  0.2898081808558068
  0.0159477561032295  0.5797680900097638  0.7586988623116906
  0.0069355051392083  0.5420125595736403  0.6171466679034231
  0.6566474678144479  0.2218044745374567  0.0881408650981003
  0.6509032185171441  0.1820598529410765  0.9655142057204067
  0.0810189182328745  0.6770707357095477  0.4274591427267913
  0.1272911941955262  0.6703176799673943  0.2869640050222103
  0.4083470423133833  0.0114391354056111  0.7585366595645254
  0.4543996198693211  0.0049404540822178  0.6175537815507879
  0.1274377943092787  0.6545475103505141  0.0857774399434551
  0.1725833218636268  0.6507537163482459  0.9649427961338193
  0.7535291047373995  0.9259196331767628  0.5573271684581238
  0.7940247304620148  0.8791946973520753  0.6979430904420750
  0.4258557771403832  0.5938214431247785  0.2303108870704612
  0.4662444281538963  0.5464291464162484  0.3703617850278444
  0.7786206531669929  0.8795162887357669  0.8990724760973899
  0.8209906859229193  0.8339653852540575  0.0204697123629143
  0.3222692263057786  0.7551330832198926  0.5606950171369484
  0.3298093341003614  0.7943658050843875  0.6988967091739785
  0.9819892439543407  0.4285913661132369  0.2218728600237669
  0.9922965740470033  0.4656629172672807  0.3615928205673972
  0.3462062017123012  0.7786308101470083  0.9003886374469283
  0.3495342692404577  0.8201130571129166  0.0209450464479555
  0.9264809702972258  0.3200348647620586  0.5547244353916588
  0.8829199834682832  0.3232267589287059  0.6994878271332681
  0.5897480190221587  0.9901168535698294  0.2229011124426553
  0.5434473205331449  0.9968894275840897  0.3634932462429704
  0.8750661168095066  0.3524401334300019  0.8835573782175562
  0.8255238594760178  0.3623891030617951  0.9938440964688319
  0.8922122271687132  0.7889095527559182  0.7506445615148722
  0.8498562425543710  0.8345126118014504  0.6292573030514641
  0.9172148868089810  0.7426357084734803  0.0926332372324907
  0.8768112878108194  0.7892819270279496  0.9517878873306427
  0.5634274703429299  0.4547203755569724  0.4256698963004213
  0.5220459434759320  0.5010571526705616  0.3037202339993709
  0.3221657924643459  0.8906162769297973  0.7493105453348430
  0.3184020991067184  0.8492926021188382  0.6289954490111844
  0.3442844184038444  0.9145050257595047  0.0920495167419571
  0.3378676153048450  0.8751054295573621  0.9512808663308085
  0.9916238897786848  0.5582640163360382  0.4154773584054297
  0.9847367114524044  0.5192492962132217  0.2932047493794774
  0.7952039856362512  0.3120459430943557  0.7592565725114249
  0.8447212226114332  0.3022803924887563  0.6472950925597403
  0.7455158374425230  0.3436842179213199  0.0936577394706450
  0.7878839949512165  0.3406167278965335  0.9451699937396203
  0.4543803256100858  0.9893594426105654  0.4163719444726954
  0.4994696619235327  0.9856180135895651  0.2951536486577799
  0.7325078855776952  0.4622915427784886  0.5620441673240203
  0.1368490537870966  0.1704785023233214  0.4985885442020738
  0.4795810959288948  0.5003157704392079  0.8458439179438159
  0.6924815850220231  0.1393373415571799  0.5114078252073625
  0.0268650188264866  0.4759071881183022  0.8388482351765368
  0.1704607125345953  0.6938424190974616  0.5092837058090854
  0.4979274878402513  0.0282007033492815  0.8395098341258126
  0.1920085160911666  0.1708221915428018  0.8037522522075433
  0.6392324378008086  0.1939721406055351  0.8114757510898258
  0.1731015415897218  0.6387899765499279  0.8112959663426956
  0.8098747569293893  0.8336114908123998  0.1742805721154574
  0.3617757732316832  0.8088420647972875  0.1750529776732011
  0.8147396071641437  0.3927470234590258  0.1177691896455494
  0.8609924687460707  0.8348961914126657  0.4754825362940180
  0.5338549598644241  0.5010783379885080  0.1504422917829561
  0.3061916179755878  0.8606420297269411  0.4749584617090347
  0.9730818790596248  0.5313643211420784  0.1392961187750638
  0.8540386348034001  0.2751729634916149  0.5146433489654730
  0.4998837634646678  0.9737223309491463  0.1414707089373536
  0.3160136870652872  0.6425127145983842  0.5198921107946511
  0.0414833442319642  0.3192322062256891  0.5012552775855439
  0.6397525644902424  0.0467054219034864  0.5158770579384132
  0.0253733979737769  0.6902403881931727  0.8016657307675875
  0.3525572451211637  0.0251026690131312  0.1321937409136129
  0.2871498082151131  0.0216008673787842  0.7969402267449291
  0.6262566422420334  0.3514959983854857  0.1486066758933980
  0.6947174086664394  0.2839661030668000  0.8086174087875401
  0.0302570879044094  0.6212489452873150  0.1338516802110530
  0.6453731002967606  0.9774838773082473  0.8486623080547864
  0.9768193419304936  0.3185325880576481  0.1636806264799712
  0.3841625538218110  0.6463778574320949  0.8508020031866018
  0.7099987367864169  0.9812267166675748  0.1819473593225206
  0.9730919732203427  0.3841198645933392  0.8427586971548975
  0.3108294446555311  0.7158303559576962  0.1815598675094090
  0.6926128963425358  0.3502350623302436  0.4826555694818889
  0.9602857022203239  0.6872910055643902  0.4678562455366031
  0.3571418319260057  0.9562501785569091  0.4671221088381867
  0.8262557569045079  0.3516759805395079  0.3547088924850931
 
  0.00000000E+00  0.00000000E+00  0.00000000E+00
  0.00000000E+00  0.00000000E+00  0.00000000E+00
  0.00000000E+00  0.00000000E+00  0.00000000E+00
  0.00000000E+00  0.00000000E+00  0.00000000E+00
  0.00000000E+00  0.00000000E+00  0.00000000E+00
  0.00000000E+00  0.00000000E+00  0.00000000E+00
  0.00000000E+00  0.00000000E+00  0.00000000E+00
  0.00000000E+00  0.00000000E+00  0.00000000E+00
  0.00000000E+00  0.00000000E+00  0.00000000E+00
  0.00000000E+00  0.00000000E+00  0.00000000E+00
  0.00000000E+00  0.00000000E+00  0.00000000E+00
  0.00000000E+00  0.00000000E+00  0.00000000E+00
  0.00000000E+00  0.00000000E+00  0.00000000E+00
  0.00000000E+00  0.00000000E+00  0.00000000E+00
  0.00000000E+00  0.00000000E+00  0.00000000E+00
  0.00000000E+00  0.00000000E+00  0.00000000E+00
  0.00000000E+00  0.00000000E+00  0.00000000E+00
  0.00000000E+00  0.00000000E+00  0.00000000E+00
  0.00000000E+00  0.00000000E+00  0.00000000E+00
  0.00000000E+00  0.00000000E+00  0.00000000E+00
  0.00000000E+00  0.00000000E+00  0.00000000E+00
  0.00000000E+00  0.00000000E+00  0.00000000E+00
  0.00000000E+00  0.00000000E+00  0.00000000E+00
  0.00000000E+00  0.00000000E+00  0.00000000E+00
  0.00000000E+00  0.00000000E+00  0.00000000E+00
  0.00000000E+00  0.00000000E+00  0.00000000E+00
  0.00000000E+00  0.00000000E+00  0.00000000E+00
  0.00000000E+00  0.00000000E+00  0.00000000E+00
  0.00000000E+00  0.00000000E+00  0.00000000E+00
  0.00000000E+00  0.00000000E+00  0.00000000E+00
  0.00000000E+00  0.00000000E+00  0.00000000E+00
  0.00000000E+00  0.00000000E+00  0.00000000E+00
  0.00000000E+00  0.00000000E+00  0.00000000E+00
  0.00000000E+00  0.00000000E+00  0.00000000E+00
  0.00000000E+00  0.00000000E+00  0.00000000E+00
  0.00000000E+00  0.00000000E+00  0.00000000E+00
  0.00000000E+00  0.00000000E+00  0.00000000E+00
  0.00000000E+00  0.00000000E+00  0.00000000E+00
  0.00000000E+00  0.00000000E+00  0.00000000E+00
  0.00000000E+00  0.00000000E+00  0.00000000E+00
  0.00000000E+00  0.00000000E+00  0.00000000E+00
  0.00000000E+00  0.00000000E+00  0.00000000E+00
  0.00000000E+00  0.00000000E+00  0.00000000E+00
  0.00000000E+00  0.00000000E+00  0.00000000E+00
  0.00000000E+00  0.00000000E+00  0.00000000E+00
  0.00000000E+00  0.00000000E+00  0.00000000E+00
  0.00000000E+00  0.00000000E+00  0.00000000E+00
  0.00000000E+00  0.00000000E+00  0.00000000E+00
  0.00000000E+00  0.00000000E+00  0.00000000E+00
  0.00000000E+00  0.00000000E+00  0.00000000E+00
  0.00000000E+00  0.00000000E+00  0.00000000E+00
  0.00000000E+00  0.00000000E+00  0.00000000E+00
  0.00000000E+00  0.00000000E+00  0.00000000E+00
  0.00000000E+00  0.00000000E+00  0.00000000E+00
  0.00000000E+00  0.00000000E+00  0.00000000E+00
  0.00000000E+00  0.00000000E+00  0.00000000E+00
  0.00000000E+00  0.00000000E+00  0.00000000E+00
  0.00000000E+00  0.00000000E+00  0.00000000E+00
  0.00000000E+00  0.00000000E+00  0.00000000E+00
  0.00000000E+00  0.00000000E+00  0.00000000E+00
  0.00000000E+00  0.00000000E+00  0.00000000E+00
  0.00000000E+00  0.00000000E+00  0.00000000E+00
  0.00000000E+00  0.00000000E+00  0.00000000E+00
  0.00000000E+00  0.00000000E+00  0.00000000E+00
  0.00000000E+00  0.00000000E+00  0.00000000E+00
  0.00000000E+00  0.00000000E+00  0.00000000E+00
  0.00000000E+00  0.00000000E+00  0.00000000E+00
  0.00000000E+00  0.00000000E+00  0.00000000E+00
  0.00000000E+00  0.00000000E+00  0.00000000E+00
  0.00000000E+00  0.00000000E+00  0.00000000E+00
  0.00000000E+00  0.00000000E+00  0.00000000E+00
  0.00000000E+00  0.00000000E+00  0.00000000E+00
  0.00000000E+00  0.00000000E+00  0.00000000E+00
  0.00000000E+00  0.00000000E+00  0.00000000E+00
  0.00000000E+00  0.00000000E+00  0.00000000E+00
  0.00000000E+00  0.00000000E+00  0.00000000E+00
  0.00000000E+00  0.00000000E+00  0.00000000E+00
  0.00000000E+00  0.00000000E+00  0.00000000E+00
  0.00000000E+00  0.00000000E+00  0.00000000E+00
  0.00000000E+00  0.00000000E+00  0.00000000E+00
  0.00000000E+00  0.00000000E+00  0.00000000E+00
  0.00000000E+00  0.00000000E+00  0.00000000E+00
  0.00000000E+00  0.00000000E+00  0.00000000E+00
  0.00000000E+00  0.00000000E+00  0.00000000E+00
  0.00000000E+00  0.00000000E+00  0.00000000E+00
  0.00000000E+00  0.00000000E+00  0.00000000E+00
  0.00000000E+00  0.00000000E+00  0.00000000E+00
  0.00000000E+00  0.00000000E+00  0.00000000E+00
  0.00000000E+00  0.00000000E+00  0.00000000E+00
  0.00000000E+00  0.00000000E+00  0.00000000E+00
  0.00000000E+00  0.00000000E+00  0.00000000E+00
  0.00000000E+00  0.00000000E+00  0.00000000E+00
  0.00000000E+00  0.00000000E+00  0.00000000E+00
  0.00000000E+00  0.00000000E+00  0.00000000E+00
  0.00000000E+00  0.00000000E+00  0.00000000E+00
  0.00000000E+00  0.00000000E+00  0.00000000E+00
  0.00000000E+00  0.00000000E+00  0.00000000E+00
  0.00000000E+00  0.00000000E+00  0.00000000E+00
  0.00000000E+00  0.00000000E+00  0.00000000E+00
  0.00000000E+00  0.00000000E+00  0.00000000E+00
  0.00000000E+00  0.00000000E+00  0.00000000E+00
  0.00000000E+00  0.00000000E+00  0.00000000E+00
  0.00000000E+00  0.00000000E+00  0.00000000E+00
  0.00000000E+00  0.00000000E+00  0.00000000E+00
  0.00000000E+00  0.00000000E+00  0.00000000E+00
  0.00000000E+00  0.00000000E+00  0.00000000E+00
  0.00000000E+00  0.00000000E+00  0.00000000E+00
  0.00000000E+00  0.00000000E+00  0.00000000E+00
  0.00000000E+00  0.00000000E+00  0.00000000E+00
  0.00000000E+00  0.00000000E+00  0.00000000E+00
  0.00000000E+00  0.00000000E+00  0.00000000E+00
  0.00000000E+00  0.00000000E+00  0.00000000E+00
  0.00000000E+00  0.00000000E+00  0.00000000E+00
  0.00000000E+00  0.00000000E+00  0.00000000E+00
  0.00000000E+00  0.00000000E+00  0.00000000E+00
  0.00000000E+00  0.00000000E+00  0.00000000E+00
  0.00000000E+00  0.00000000E+00  0.00000000E+00
  0.00000000E+00  0.00000000E+00  0.00000000E+00
  0.00000000E+00  0.00000000E+00  0.00000000E+00
  0.00000000E+00  0.00000000E+00  0.00000000E+00
  0.00000000E+00  0.00000000E+00  0.00000000E+00
  0.00000000E+00  0.00000000E+00  0.00000000E+00
  0.00000000E+00  0.00000000E+00  0.00000000E+00
  0.00000000E+00  0.00000000E+00  0.00000000E+00
  0.00000000E+00  0.00000000E+00  0.00000000E+00
  0.00000000E+00  0.00000000E+00  0.00000000E+00
  0.00000000E+00  0.00000000E+00  0.00000000E+00
  0.00000000E+00  0.00000000E+00  0.00000000E+00
  0.00000000E+00  0.00000000E+00  0.00000000E+00
  0.00000000E+00  0.00000000E+00  0.00000000E+00
  0.00000000E+00  0.00000000E+00  0.00000000E+00
  0.00000000E+00  0.00000000E+00  0.00000000E+00
  0.00000000E+00  0.00000000E+00  0.00000000E+00
  0.00000000E+00  0.00000000E+00  0.00000000E+00
  0.00000000E+00  0.00000000E+00  0.00000000E+00
  0.00000000E+00  0.00000000E+00  0.00000000E+00
  0.00000000E+00  0.00000000E+00  0.00000000E+00
  0.00000000E+00  0.00000000E+00  0.00000000E+00
  0.00000000E+00  0.00000000E+00  0.00000000E+00
  0.00000000E+00  0.00000000E+00  0.00000000E+00
  0.00000000E+00  0.00000000E+00  0.00000000E+00
  0.00000000E+00  0.00000000E+00  0.00000000E+00
  0.00000000E+00  0.00000000E+00  0.00000000E+00
  0.00000000E+00  0.00000000E+00  0.00000000E+00
  0.00000000E+00  0.00000000E+00  0.00000000E+00
  0.00000000E+00  0.00000000E+00  0.00000000E+00
  0.00000000E+00  0.00000000E+00  0.00000000E+00
  0.00000000E+00  0.00000000E+00  0.00000000E+00
  0.00000000E+00  0.00000000E+00  0.00000000E+00
  0.00000000E+00  0.00000000E+00  0.00000000E+00
  0.00000000E+00  0.00000000E+00  0.00000000E+00
  0.00000000E+00  0.00000000E+00  0.00000000E+00
  0.00000000E+00  0.00000000E+00  0.00000000E+00
  0.00000000E+00  0.00000000E+00  0.00000000E+00
  0.00000000E+00  0.00000000E+00  0.00000000E+00
  0.00000000E+00  0.00000000E+00  0.00000000E+00
  0.00000000E+00  0.00000000E+00  0.00000000E+00
  0.00000000E+00  0.00000000E+00  0.00000000E+00
  0.00000000E+00  0.00000000E+00  0.00000000E+00
  0.00000000E+00  0.00000000E+00  0.00000000E+00
  0.00000000E+00  0.00000000E+00  0.00000000E+00
  0.00000000E+00  0.00000000E+00  0.00000000E+00
  0.00000000E+00  0.00000000E+00  0.00000000E+00
  0.00000000E+00  0.00000000E+00  0.00000000E+00
  0.00000000E+00  0.00000000E+00  0.00000000E+00
  0.00000000E+00  0.00000000E+00  0.00000000E+00
