O  C  H  Co Li                          
   1.00000000000000     
    23.9261198104165054    1.4270226320989507   -0.1702423552515908
    13.3807977504398092   19.9075722412530887    0.0070620584243260
    -0.0366049182984033    0.0428470880645103    6.8013684059336974
   O    C    H    Co   Li
    52    66    16    18     2
Direct
  0.0258780436939000  0.2639977010914402  0.3031003783398826
 -0.0069604378939993  0.3139443112547065  0.9085514970209928
  0.0784468441881619  0.2597750715365792  0.6923289478683223
  0.6645670677871992  0.0910892656002595  0.3021148097794767
  0.6594562778245880  0.0592648166012367  0.9103889485390105
  0.5944340773826368  0.1442310124958360  0.6912086529010130
  0.0268625354835101  0.3959476122199299  0.6426263822592275
  0.3703546887204512  0.5711599919373913  0.3506592323311351
  0.4312128851945762  0.5297824559278540  0.0109527163609363
  0.3915580565821167  0.4885788297274545  0.8016153443857865
  0.5559780211119782  0.0536579595029044  0.6320977416337162
  0.3228230720425290  0.0070931577374700  0.3757988974885000
  0.2391071592731365  0.0543732573282791  0.5976162861787055
  0.2876835218351719  0.0560171325223112 -0.0120875009252715
  0.6146930690001340  0.3630638939133672  0.3355674690704412
  0.6427776400944477  0.2854783761396540  0.5808748402809227
  0.0145656047644952  0.6497700629092923  0.7245912295110262
  0.0520447181704260  0.5645011689428777  0.9406147839445473
  0.5510459348677934  0.3576710571466247  0.0140808073835492
  0.0938258663187663  0.6255543318482305  0.3908200520431884
  0.1421862615171131  0.6532183843679201  0.6101609513848055
  0.4041362983553433  0.9286185847960572  0.7103576765813460
  0.4270087496759826 -0.0187395979737935  0.9288825723125357
  0.1458060837351859  0.5955181907502981  0.0034437576420673
  0.6829505728657300  0.9782977258251503  0.5762038430157985
  0.7640009530115454  0.9484549359200243  0.3570663666411407
  0.7232172393324234  0.9328873224211087 -0.0341605076709087
  0.4239486527463348  0.6327052219643046  0.4761440704335616
  0.3250031220967610  0.7175758999319672  0.3305943891659192
  0.0064194124583348  0.3752635020265596  0.2459243103135787
  0.9651461647488692  0.4617192760069046  0.0311615337725350
  0.3865840543606924  0.6565402368370558  0.9094125420726058
  0.9240607888404803  0.4013527138169002  0.5751156878744418
  0.8823799444915880  0.3656207744451914  0.3589862442495761
  0.5967394599998168  0.0485896094660058  0.2395921281531578
  0.5856369239675565 -0.0128498382392390  0.0230473500697410
  0.8761706622426267  0.4233151041682222 -0.0293821059669961
  0.9942627355982336  0.7613969602993016  0.6627429798484187
  0.0304981966335357  0.7115374617702503  0.0595080107092019
  0.9447215597122843  0.7636939128215745  0.2746631106257094
  0.3107553543798054  0.9134408652634228  0.6495542812051567
  0.3286544009566700 -0.0651962419584164  0.0380493884874411
  0.3813990928075862  0.8452294221225757  0.2460013023339850
  0.9919504101363033  0.6300398316503195  0.3280620089322230
  0.7006972666735340  0.3659074868245786  0.6619006891476683
  0.6229341512939174  0.4286784834056632  0.0021615013044803
  0.6763941866774400  0.4420907407720223  0.2484490811746326
  0.4505617419174880  0.9188628902622369  0.3174039379008969
  0.5450639153829232  0.5026047255181154  0.6114536826113208
  0.5302322773609653  0.5833352462312358  0.8122938372544040
  0.6244663625809040  0.5230655524976254  0.6122031149638704
  0.8079281209041060  0.1976508591787027  0.0461185395398802
  0.0882430399621036  0.2135762814778625  0.2181457561791151
  0.1407082668635063  0.1591790059762133  0.3400020112680424
  0.0572879068250653  0.2636615108972097  0.8659465169569739
  0.1052253956535830  0.2114187444067254  0.0158901565663602
  0.6364124738214358  0.1543460650564938  0.2155104110978039
  0.6342354972097819  0.2019993500678144  0.3365655028660214
  0.6205446935760009  0.1252466807478626  0.8644653042944848
  0.6113793812075051  0.1750873726231889  0.0141361428245788
  0.0174200859655356  0.4523974024713022  0.5563968874750252
  0.0271763264693034  0.4925031267783538  0.6793365776281721
  0.3162499317685424  0.5747425220723802  0.2695516548324887
  0.2559675387704293  0.6028698838468611  0.3769776843382211
  0.3840337112166672  0.5213837380276044  0.9603250296015220
  0.3208106100333236  0.5504615267867493  0.0765072191671938
  0.5323219200287655  0.0199530245231640  0.5466224911636715
  0.4969307783992261  0.0040454222333088  0.6685746568087906
  0.2580995545195698  0.0535854850807789  0.4232572025342164
  0.2081700221687116  0.1057020569294244  0.2751950675979282
  0.2250693048747415  0.1041394055226533  0.0730723553176952
  0.1723702568188940  0.1577209509930683  0.9508831457694562
  0.6206237048091768  0.3089112591730634  0.4075580874230522
  0.6079561206174858  0.2695092709467188  0.2741596879810409
  0.0297100386882620  0.5895638286570423  0.7676188146295748
  0.0187599310986672  0.5527006489981945  0.6167337535982430
  0.5782767469170400  0.2934179229294571  0.0773540946643120
  0.5817638931658710  0.2435716612945500  0.9537053502677242
  0.1421862300417572  0.6314566042196539  0.4394965053500179
  0.1986519427296883  0.6082803790048231  0.2998712118199073
  0.4320847565035196 -0.0412397851360958  0.7552690926404920
  0.4695845748099027  0.9694594730289381  0.6054485467004341
  0.2000904183953991  0.5877694355112505  0.0997163800074501
  0.2625146329362014  0.5574608565453568 -0.0041212704627015
  0.7482463604158683  0.9435475275426319  0.5310494492023035
  0.8027308914901412  0.8978441167669513  0.6810213341033019
  0.7875276584559116  0.8956582302340856  0.8825430103608506
  0.8442711196434449  0.8498343537744953  0.0078539703951913
  0.3647379335452175  0.6956157984390602  0.4811203852933168
  0.3505675029834243  0.7415594340730799  0.6486309698145989
  0.9887328643524576  0.4365589102488807  0.2033345134051605
 -0.0014045832278355  0.4741993600270459  0.3543174934271464
  0.3694945069389059  0.7188875713080662  0.8483399703993666
  0.3699541841140881  0.7630296554599818  0.9803527628171400
  0.8829110249942067  0.3852148210675420  0.5327373161349165
  0.8357296077045462  0.3915330230960973  0.6831527894873853
  0.5757162833924989  0.0116879729480772  0.1956983113233922
  0.5402434452779332 -0.0007539517890059  0.3453225287363619
  0.8322909456253692  0.4123557546760878  0.8824767093092343
  0.7787904878242550  0.4223438615913387 -0.0013642780216590
  0.9292742512698446  0.8054897335459221  0.7441992049459212
  0.8726251683894021  0.8539871181182055  0.6197118737877384
  0.9651396326909371  0.7587648161131345  0.0996684276769126
  0.9136972787829053  0.8056311084974154  0.9462342102671047
  0.3273594649004774  0.8532333758050102  0.7273751496123936
  0.3264312509673704  0.8088938963341615  0.5957365121022323
  0.3544072152378095  0.8703727696203182  0.0761236083207451
  0.3500033358017860  0.8292226576659121  0.9253478601198417
  0.0002096946817725  0.5743964357986810  0.4143487670244361
  0.9898137429711058  0.5345827767220684  0.2918697950021174
  0.7399608992688190  0.3833422866657704  0.7413741068802625
  0.7910639655596273  0.3754538502633100  0.6220252216537037
  0.6729733719787041  0.4280698378908376  0.0658124507880704
  0.7312207848250063  0.4104116977014224  0.9345542319947424
  0.4766231048938758  0.9497958764322415  0.4031270213436107
  0.5133849206968069  0.9642921081022701  0.2823277059659035
  0.5675886230478641  0.5386353343981488  0.6835120567982789
  0.7506039388049783  0.2457563009585731 -0.0038899830828891
  0.1289983178114100  0.1593588730887698  0.4943658504164415
  0.6555602532909280  0.1850476415327164  0.4854367551551135
  0.0411183949535548  0.4762714097555647  0.8330193615518754
  0.2533130763685054  0.6209539169181739  0.5262501268154944
  0.4908556447894926  0.0192076272316625  0.8221184105831105
  0.1843842746261581  0.1572545268607094  0.7966967038411241
  0.5628641495515807  0.2593528938378532  0.8019928038901145
  0.2645755819308971  0.5405694645161977  0.8454785400695652
  0.8334323811034244  0.8480393965520145  0.1616889747214799
  0.3873398687490199  0.7454318771655120  0.1316996812895663
  0.7765500764352619  0.4389168702963037  0.1491906814026244
  0.8828979740913424  0.8564087800463792  0.4656132096331706
  0.3112259429867255  0.8260724000886869  0.4431286021715993
  0.9757768866533377  0.5508477135199643  0.1381969651789922
  0.7966932020405897  0.3553259233902836  0.4738209332150366
  0.5197557150246477  0.9489562760130839  0.1288063015533986
  0.4032206686510990  0.5267212647444977  0.5883334979583988
  0.0311067997587296  0.3270579715588280  0.4836385864377889
  0.6035134281202819  0.0822484136305173  0.4795668009365405
  0.0748747950116817  0.6823431584260681  0.8184757381541029
  0.3703169936640223 -0.0119687861110590  0.1402187934504549
  0.2949538780891774 -0.0134523424023533  0.8051473999225681
  0.6571201168437300  0.3149391426238758  0.0559555971547975
  0.6938925754276166  0.2962351769875782  0.7689014309953974
  0.0710036811036535  0.6067387705114804  0.1504979200550325
  0.6383108183256367 -0.0100682541133728  0.8117563817738895
  0.9475925660782046  0.3412479223757193  0.1484050525642903
  0.4461008321681231  0.5760166363482609  0.7277573797421344
  0.6992952291229912  0.0101560208861210  0.1474509391343398
  0.9482046429794044  0.4179744136539991  0.8181855939633647
  0.3885392025690848  0.6250439537596310  0.1759580251816081
  0.6274564901218629  0.4280740057163110  0.4666844757783140
  0.9901051226955044  0.6981408127590220  0.4865833898272208
  0.3851646159907095  0.9026382753611788  0.4507899207676552
  0.6827918759122700  0.4997452411070576  0.4163293665287283
  0.5317647784921967  0.4455226838895888  0.0203297047585181
 
  0.00000000E+00  0.00000000E+00  0.00000000E+00
  0.00000000E+00  0.00000000E+00  0.00000000E+00
  0.00000000E+00  0.00000000E+00  0.00000000E+00
  0.00000000E+00  0.00000000E+00  0.00000000E+00
  0.00000000E+00  0.00000000E+00  0.00000000E+00
  0.00000000E+00  0.00000000E+00  0.00000000E+00
  0.00000000E+00  0.00000000E+00  0.00000000E+00
  0.00000000E+00  0.00000000E+00  0.00000000E+00
  0.00000000E+00  0.00000000E+00  0.00000000E+00
  0.00000000E+00  0.00000000E+00  0.00000000E+00
  0.00000000E+00  0.00000000E+00  0.00000000E+00
  0.00000000E+00  0.00000000E+00  0.00000000E+00
  0.00000000E+00  0.00000000E+00  0.00000000E+00
  0.00000000E+00  0.00000000E+00  0.00000000E+00
  0.00000000E+00  0.00000000E+00  0.00000000E+00
  0.00000000E+00  0.00000000E+00  0.00000000E+00
  0.00000000E+00  0.00000000E+00  0.00000000E+00
  0.00000000E+00  0.00000000E+00  0.00000000E+00
  0.00000000E+00  0.00000000E+00  0.00000000E+00
  0.00000000E+00  0.00000000E+00  0.00000000E+00
  0.00000000E+00  0.00000000E+00  0.00000000E+00
  0.00000000E+00  0.00000000E+00  0.00000000E+00
  0.00000000E+00  0.00000000E+00  0.00000000E+00
  0.00000000E+00  0.00000000E+00  0.00000000E+00
  0.00000000E+00  0.00000000E+00  0.00000000E+00
  0.00000000E+00  0.00000000E+00  0.00000000E+00
  0.00000000E+00  0.00000000E+00  0.00000000E+00
  0.00000000E+00  0.00000000E+00  0.00000000E+00
  0.00000000E+00  0.00000000E+00  0.00000000E+00
  0.00000000E+00  0.00000000E+00  0.00000000E+00
  0.00000000E+00  0.00000000E+00  0.00000000E+00
  0.00000000E+00  0.00000000E+00  0.00000000E+00
  0.00000000E+00  0.00000000E+00  0.00000000E+00
  0.00000000E+00  0.00000000E+00  0.00000000E+00
  0.00000000E+00  0.00000000E+00  0.00000000E+00
  0.00000000E+00  0.00000000E+00  0.00000000E+00
  0.00000000E+00  0.00000000E+00  0.00000000E+00
  0.00000000E+00  0.00000000E+00  0.00000000E+00
  0.00000000E+00  0.00000000E+00  0.00000000E+00
  0.00000000E+00  0.00000000E+00  0.00000000E+00
  0.00000000E+00  0.00000000E+00  0.00000000E+00
  0.00000000E+00  0.00000000E+00  0.00000000E+00
  0.00000000E+00  0.00000000E+00  0.00000000E+00
  0.00000000E+00  0.00000000E+00  0.00000000E+00
  0.00000000E+00  0.00000000E+00  0.00000000E+00
  0.00000000E+00  0.00000000E+00  0.00000000E+00
  0.00000000E+00  0.00000000E+00  0.00000000E+00
  0.00000000E+00  0.00000000E+00  0.00000000E+00
  0.00000000E+00  0.00000000E+00  0.00000000E+00
  0.00000000E+00  0.00000000E+00  0.00000000E+00
  0.00000000E+00  0.00000000E+00  0.00000000E+00
  0.00000000E+00  0.00000000E+00  0.00000000E+00
  0.00000000E+00  0.00000000E+00  0.00000000E+00
  0.00000000E+00  0.00000000E+00  0.00000000E+00
  0.00000000E+00  0.00000000E+00  0.00000000E+00
  0.00000000E+00  0.00000000E+00  0.00000000E+00
  0.00000000E+00  0.00000000E+00  0.00000000E+00
  0.00000000E+00  0.00000000E+00  0.00000000E+00
  0.00000000E+00  0.00000000E+00  0.00000000E+00
  0.00000000E+00  0.00000000E+00  0.00000000E+00
  0.00000000E+00  0.00000000E+00  0.00000000E+00
  0.00000000E+00  0.00000000E+00  0.00000000E+00
  0.00000000E+00  0.00000000E+00  0.00000000E+00
  0.00000000E+00  0.00000000E+00  0.00000000E+00
  0.00000000E+00  0.00000000E+00  0.00000000E+00
  0.00000000E+00  0.00000000E+00  0.00000000E+00
  0.00000000E+00  0.00000000E+00  0.00000000E+00
  0.00000000E+00  0.00000000E+00  0.00000000E+00
  0.00000000E+00  0.00000000E+00  0.00000000E+00
  0.00000000E+00  0.00000000E+00  0.00000000E+00
  0.00000000E+00  0.00000000E+00  0.00000000E+00
  0.00000000E+00  0.00000000E+00  0.00000000E+00
  0.00000000E+00  0.00000000E+00  0.00000000E+00
  0.00000000E+00  0.00000000E+00  0.00000000E+00
  0.00000000E+00  0.00000000E+00  0.00000000E+00
  0.00000000E+00  0.00000000E+00  0.00000000E+00
  0.00000000E+00  0.00000000E+00  0.00000000E+00
  0.00000000E+00  0.00000000E+00  0.00000000E+00
  0.00000000E+00  0.00000000E+00  0.00000000E+00
  0.00000000E+00  0.00000000E+00  0.00000000E+00
  0.00000000E+00  0.00000000E+00  0.00000000E+00
  0.00000000E+00  0.00000000E+00  0.00000000E+00
  0.00000000E+00  0.00000000E+00  0.00000000E+00
  0.00000000E+00  0.00000000E+00  0.00000000E+00
  0.00000000E+00  0.00000000E+00  0.00000000E+00
  0.00000000E+00  0.00000000E+00  0.00000000E+00
  0.00000000E+00  0.00000000E+00  0.00000000E+00
  0.00000000E+00  0.00000000E+00  0.00000000E+00
  0.00000000E+00  0.00000000E+00  0.00000000E+00
  0.00000000E+00  0.00000000E+00  0.00000000E+00
  0.00000000E+00  0.00000000E+00  0.00000000E+00
  0.00000000E+00  0.00000000E+00  0.00000000E+00
  0.00000000E+00  0.00000000E+00  0.00000000E+00
  0.00000000E+00  0.00000000E+00  0.00000000E+00
  0.00000000E+00  0.00000000E+00  0.00000000E+00
  0.00000000E+00  0.00000000E+00  0.00000000E+00
  0.00000000E+00  0.00000000E+00  0.00000000E+00
  0.00000000E+00  0.00000000E+00  0.00000000E+00
  0.00000000E+00  0.00000000E+00  0.00000000E+00
  0.00000000E+00  0.00000000E+00  0.00000000E+00
  0.00000000E+00  0.00000000E+00  0.00000000E+00
  0.00000000E+00  0.00000000E+00  0.00000000E+00
  0.00000000E+00  0.00000000E+00  0.00000000E+00
  0.00000000E+00  0.00000000E+00  0.00000000E+00
  0.00000000E+00  0.00000000E+00  0.00000000E+00
  0.00000000E+00  0.00000000E+00  0.00000000E+00
  0.00000000E+00  0.00000000E+00  0.00000000E+00
  0.00000000E+00  0.00000000E+00  0.00000000E+00
  0.00000000E+00  0.00000000E+00  0.00000000E+00
  0.00000000E+00  0.00000000E+00  0.00000000E+00
  0.00000000E+00  0.00000000E+00  0.00000000E+00
  0.00000000E+00  0.00000000E+00  0.00000000E+00
  0.00000000E+00  0.00000000E+00  0.00000000E+00
  0.00000000E+00  0.00000000E+00  0.00000000E+00
  0.00000000E+00  0.00000000E+00  0.00000000E+00
  0.00000000E+00  0.00000000E+00  0.00000000E+00
  0.00000000E+00  0.00000000E+00  0.00000000E+00
  0.00000000E+00  0.00000000E+00  0.00000000E+00
  0.00000000E+00  0.00000000E+00  0.00000000E+00
  0.00000000E+00  0.00000000E+00  0.00000000E+00
  0.00000000E+00  0.00000000E+00  0.00000000E+00
  0.00000000E+00  0.00000000E+00  0.00000000E+00
  0.00000000E+00  0.00000000E+00  0.00000000E+00
  0.00000000E+00  0.00000000E+00  0.00000000E+00
  0.00000000E+00  0.00000000E+00  0.00000000E+00
  0.00000000E+00  0.00000000E+00  0.00000000E+00
  0.00000000E+00  0.00000000E+00  0.00000000E+00
  0.00000000E+00  0.00000000E+00  0.00000000E+00
  0.00000000E+00  0.00000000E+00  0.00000000E+00
  0.00000000E+00  0.00000000E+00  0.00000000E+00
  0.00000000E+00  0.00000000E+00  0.00000000E+00
  0.00000000E+00  0.00000000E+00  0.00000000E+00
  0.00000000E+00  0.00000000E+00  0.00000000E+00
  0.00000000E+00  0.00000000E+00  0.00000000E+00
  0.00000000E+00  0.00000000E+00  0.00000000E+00
  0.00000000E+00  0.00000000E+00  0.00000000E+00
  0.00000000E+00  0.00000000E+00  0.00000000E+00
  0.00000000E+00  0.00000000E+00  0.00000000E+00
  0.00000000E+00  0.00000000E+00  0.00000000E+00
  0.00000000E+00  0.00000000E+00  0.00000000E+00
  0.00000000E+00  0.00000000E+00  0.00000000E+00
  0.00000000E+00  0.00000000E+00  0.00000000E+00
  0.00000000E+00  0.00000000E+00  0.00000000E+00
  0.00000000E+00  0.00000000E+00  0.00000000E+00
  0.00000000E+00  0.00000000E+00  0.00000000E+00
  0.00000000E+00  0.00000000E+00  0.00000000E+00
  0.00000000E+00  0.00000000E+00  0.00000000E+00
  0.00000000E+00  0.00000000E+00  0.00000000E+00
  0.00000000E+00  0.00000000E+00  0.00000000E+00
  0.00000000E+00  0.00000000E+00  0.00000000E+00
  0.00000000E+00  0.00000000E+00  0.00000000E+00
  0.00000000E+00  0.00000000E+00  0.00000000E+00
  0.00000000E+00  0.00000000E+00  0.00000000E+00
  0.00000000E+00  0.00000000E+00  0.00000000E+00
