O  C  H  Co Li                          
   1.00000000000000     
    25.9869300199999991    0.0014776500000000   -0.0002841700000000
    12.9947443200000006   22.5035161499999994   -0.0005769100000000
    -0.0000740900000000   -0.0001328100000000    6.8098320599999997
   O    C    H    Co   Li
    52    66    16    18     2
Direct
  0.0634768335675285  0.2628716642465243  0.3201510837785086
  0.0389556269094384  0.3072414342395663  0.9629639581947829
  0.1077135499305505  0.2676774906598516  0.7273659940693198
  0.6833310296555827  0.0569110636902893  0.3414518002040308
  0.6606912905457764  0.0314157280941347  0.9844976388766397
  0.6290692982892446  0.0990570282737034  0.7453046534724206
  0.0225121458139735  0.4020082881288853  0.6555133491854656
  0.2740987162399561  0.6686177808175485  0.3414763496890523
  0.3203984089328562  0.6409898407446963  0.9793131472703033
  0.2896115967558838  0.5917556591478953  0.7884305902641512
  0.5890394034471383  0.0074895613856060  0.6684420349985857
  0.2937989379479219  0.0339510565036106  0.3597967085246108
  0.2264000280076541  0.0768434019215772  0.5978804737654683
  0.2726155153455714  0.0813507554627418  0.0040938828067701
  0.6883874184316247  0.2862120170734243  0.3378933123841814
  0.7192645386243678  0.2152419055087106  0.5690940656380665
  0.9944129334881032  0.6433007821047332  0.7346633363729715
  0.0291699337860094  0.5704954136415135  0.9527612308705495
  0.6331924618301218  0.2722561231576902  0.0167309257524358
  0.0486149047317149  0.6584024184536572  0.4024320900687950
  0.0872503733560895  0.6920919491025967  0.6254972866819480
  0.3629501095966786  0.0007083487045665  0.6920876868886237
  0.4062122844843939  0.0228442692873591  0.9360427155116303
  0.0927469683208247  0.6392287718687917  0.0285338444418766
  0.7061012124582481  0.9602483953290609  0.6498332828500929
  0.7736140518719647  0.9233697698101551  0.4109458384718707
  0.7326036326964445  0.9146346560565931  0.0079684550622145
  0.3537540960520332  0.7006170693451922  0.5162045569258927
  0.2898311992192412  0.7802442784937900  0.3525816278523892
 -0.0005514579311451  0.3790214095874423  0.2981540167735776
  0.9707774787290521  0.4472636323936200  0.0611667590625672
  0.3333305888471152  0.7305386888698709  0.9386171237844954
  0.9707109870236403  0.3382195428106284  0.6316904995098873
  0.9324831085224069  0.3084728918436039  0.3929495567831301
  0.6357160588691325 -0.0137082030717929  0.3154262318655237
  0.5973011647417358  0.9586958847550167  0.0714955972163734
  0.9202940044011180  0.3632690900303190  0.9887882526751630
  0.9519000174753608  0.7526959042277709  0.6908521534507295
  0.9804974920408103  0.7092689270821223  0.0686527163550063
  0.9107301303832180  0.7440167343917421  0.3008386090429996
  0.3048422451465390  0.9438700093847140  0.6631970891406783
  0.3272636896782784  0.9641756900911710  0.0251951352889224
  0.3551825352519770  0.8944118565051851  0.2552684083962605
  0.9749607710701684  0.6202434668693867  0.3575147647500745
  0.7615045179422700  0.3031646821235082  0.6650546308294627
  0.6881456290082325  0.3667533571501881  0.9863817778969544
  0.7367800804274774  0.3747793270209063  0.2469895536826331
  0.4122526611277077  0.9742076323929808  0.3390056444841742
  0.6372140706758549  0.4177099605788431  0.5753093121682433
  0.6189491632382119  0.4887207080915948  0.7942413407723038
  0.6615968307252150  0.4888643020010008  0.5045050255332045
  0.8144943344392349  0.1946564396774284  0.1387707745961944
  0.1139048629632222  0.2194092706788784  0.2404805993656061
  0.1535656325792895  0.1721713658930508  0.3591541573017127
  0.0902770800823432  0.2668356375982994  0.9012934262686497
  0.1290644706961311  0.2186781742566716  0.0381025855497017
  0.6720799267589497  0.1085851601378372  0.2573058197080718
  0.6844175787956642  0.1472115998986999  0.3639671975777405
  0.6454550944275551  0.0837768476214724  0.9215988447548771
  0.6499424864900011  0.1252627194159419  0.0611070388158987
  0.0102410194241738  0.4544784997929208  0.5784634298182920
  0.0139728652211688  0.4954723610691195  0.7018195989252121
  0.2302220349044259  0.6591807191024889  0.2684127494545758
  0.1806075556408137  0.6721614545092640  0.3823898471685901
  0.2847201732807068  0.6202104652059354  0.9482980476040859
  0.2350147307288654  0.6344189627934709  0.0791426429637878
  0.5472619703389883 -0.0014321778106384  0.5848023803414130
  0.5000951582901896  0.0046511003845828  0.7005980247043621
  0.2440966096639239  0.0763464237330305  0.4230849950000473
  0.2066229527452824  0.1252410266068428  0.2867244688077779
  0.2221152394956779  0.1245752890489525  0.0846074606464604
  0.1823574214712484  0.1719320127955985  0.9659142293864826
  0.6945432209281822  0.2362319884490331  0.4045933398435554
  0.6739122778908311  0.2019384467237575  0.2882822799138002
  0.0091643736111439  0.5894431663551406  0.7815309070110903
  0.0021124093639645  0.5512990773820187  0.6370267910897899
  0.6460859466363550  0.2210525208761854  0.1000495171210470
  0.6354039568890520  0.1812989311525390  0.9913053953998583
  0.0875131043870776  0.6725047638347056  0.4533085808773049
  0.1348846931610254  0.6630911760603336  0.3130064645275893
  0.4053359291350103  0.0073726043004741  0.7590885628610508
  0.4542571527690133  0.9972390885782461  0.6248686006540122
  0.1367855341512341  0.6434892753061040  0.1147817645840083
  0.1882688303311579  0.6278789999834498  0.0056102596087292
  0.7581166697251451  0.9221192386955902  0.5866114787011182
  0.7997395556800357  0.8766050791178499  0.7267770656163356
  0.7853988821420916  0.8758147057619103  0.9290304877929272
  0.8291552804620520  0.8321665796914333  0.0499788645716797
  0.3190194063040442  0.7583369065978445  0.5093081037924183
  0.3181260387637485  0.7974664673920235  0.6691508739728420
  0.9875209679756621  0.4305207961096157  0.2368489592237673
 -0.0063550447461393  0.4708942389509993  0.3779357879517009
  0.3297150121907883  0.7812361847582747  0.8716795408489383
  0.3355503420910807  0.8202284407256675 -0.0002758599403678
  0.9317763221898387  0.3257790095105778  0.5687602384967407
  0.8849042854633203  0.3319210392332198  0.7051118710057531
  0.5958300901114937  0.9756087218325977  0.2472760097386117
  0.5476030229223352  0.9838678936969719  0.3820238383396294
  0.8811089308218943  0.3504947536807818  0.9050357185803148
  0.8329421327047942  0.3566905768939170  0.0170704520371909
  0.8994854217720595  0.7903653420315301  0.7769190710463026
  0.8556813164779582  0.8344749807941091  0.6575850298752058
  0.9273750429491602  0.7457420578311937  0.1256893264945352
  0.8854382736274669  0.7898840432526785  0.9815867431170886
  0.3130411567993128  0.8924533701459215  0.7377704670800027
  0.3080082132080144  0.8530770303892757  0.6096205711035779
  0.3373834896628395  0.9126414895680637  0.0815742779508183
  0.3280029877855283  0.8750326715461948  0.9380281625463505
  0.9857456047863875  0.5679517723976463  0.4367000561337802
  0.9816464731288903  0.5268576734989320  0.3130904932310546
  0.7966444595321492  0.3223949921114049  0.7459593477766954
  0.8435250682331721  0.3172933574002135  0.6330985028172846
  0.7367256397627342  0.3604695937053125  0.0632794286140673
  0.7893170230853094  0.3451880303555181  0.9413841478777580
  0.4545613067703885  0.9825657584586099  0.4223620346641628
  0.5019521002795370  0.9760852898941629  0.3064531172185999
  0.6397568031372991  0.4681485282123229  0.6256737800537125
  0.7784566286717809  0.2236632837206167  0.0203201054704184
  0.1422799314768243  0.1720280156074097  0.5133549947594716
  0.7040761487642535  0.1333143487567229  0.5095932891265061
  0.0264874124867951  0.4832270484801168  0.8547940018242847
  0.1768781964736718  0.6896966711888465  0.5308228699970732
  0.4990753778553215  0.0161199634682913  0.8551875034208500
  0.1936003485436779  0.1719903390107049  0.8115781999843765
  0.6180142920565858  0.1940509515801987  0.8424533669328794
  0.1911809907240090  0.6112003977308216  0.8566429279951907
  0.8185662656887379  0.8317472796594433  0.2047438372123571
  0.3460242577317916  0.8078012920440217  0.1534402654582649
  0.8293392528492959  0.3717526438408888  0.1686626571483696
  0.8662591835664346  0.8353254389792413  0.5030898549551572
  0.2980580020587892  0.8657709673556199  0.4558144233825987
  0.9691171767974203  0.5390183163416088  0.1600325532704398
  0.8484016314868708  0.3006188279074682  0.4831382527467250
  0.5030801249764482  0.9645698331347121  0.1517945682844032
  0.7026749161071979  0.3481866957460068  0.4679726778660381
  0.2812539751291102  0.0234434883988222  0.8010362648815305
  0.6945688299107408  0.2897237082105051  0.0307611440484356
  0.9607038155889168  0.6894842547538442  0.5094391126274347
  0.3537439121384512  0.9517580003817995  0.4575328646037127
  0.3524962590590486  0.0214392863283245  0.1371225761103729
  0.7117372107398200  0.9763776906894714  0.2112204365386219
  0.3438426600665464  0.6649864386313591  0.7434789379067533
  0.7468480287452629  0.2426403256602622  0.7754049493106469
  0.9819109066710138  0.3158074641765318  0.1881458356434783
  0.3103104158299280  0.7080965389979402  0.1845523483808131
  0.9770225206753016  0.3882899916939870  0.8586518695160955
  0.6509017392027736  0.9655734104570157  0.8742505118773627
  0.0316536432495920  0.6232157995118892  0.1620542584005777
  0.6407979605865923  0.0370964596897495  0.5425246162741747
  0.0312645383209669  0.6944277636801767  0.8246412224119237
  0.3028192651808844  0.6258514184332357  0.5728488701111119
  0.0507783513934028  0.3208297535831789  0.5265903203557248
  0.6898173531090488  0.4605040602965457  0.2687014585816131
  0.6176613949177713  0.4188565811703568  0.8485138727300126
 
  0.00000000E+00  0.00000000E+00  0.00000000E+00
  0.00000000E+00  0.00000000E+00  0.00000000E+00
  0.00000000E+00  0.00000000E+00  0.00000000E+00
  0.00000000E+00  0.00000000E+00  0.00000000E+00
  0.00000000E+00  0.00000000E+00  0.00000000E+00
  0.00000000E+00  0.00000000E+00  0.00000000E+00
  0.00000000E+00  0.00000000E+00  0.00000000E+00
  0.00000000E+00  0.00000000E+00  0.00000000E+00
  0.00000000E+00  0.00000000E+00  0.00000000E+00
  0.00000000E+00  0.00000000E+00  0.00000000E+00
  0.00000000E+00  0.00000000E+00  0.00000000E+00
  0.00000000E+00  0.00000000E+00  0.00000000E+00
  0.00000000E+00  0.00000000E+00  0.00000000E+00
  0.00000000E+00  0.00000000E+00  0.00000000E+00
  0.00000000E+00  0.00000000E+00  0.00000000E+00
  0.00000000E+00  0.00000000E+00  0.00000000E+00
  0.00000000E+00  0.00000000E+00  0.00000000E+00
  0.00000000E+00  0.00000000E+00  0.00000000E+00
  0.00000000E+00  0.00000000E+00  0.00000000E+00
  0.00000000E+00  0.00000000E+00  0.00000000E+00
  0.00000000E+00  0.00000000E+00  0.00000000E+00
  0.00000000E+00  0.00000000E+00  0.00000000E+00
  0.00000000E+00  0.00000000E+00  0.00000000E+00
  0.00000000E+00  0.00000000E+00  0.00000000E+00
  0.00000000E+00  0.00000000E+00  0.00000000E+00
  0.00000000E+00  0.00000000E+00  0.00000000E+00
  0.00000000E+00  0.00000000E+00  0.00000000E+00
  0.00000000E+00  0.00000000E+00  0.00000000E+00
  0.00000000E+00  0.00000000E+00  0.00000000E+00
  0.00000000E+00  0.00000000E+00  0.00000000E+00
  0.00000000E+00  0.00000000E+00  0.00000000E+00
  0.00000000E+00  0.00000000E+00  0.00000000E+00
  0.00000000E+00  0.00000000E+00  0.00000000E+00
  0.00000000E+00  0.00000000E+00  0.00000000E+00
  0.00000000E+00  0.00000000E+00  0.00000000E+00
  0.00000000E+00  0.00000000E+00  0.00000000E+00
  0.00000000E+00  0.00000000E+00  0.00000000E+00
  0.00000000E+00  0.00000000E+00  0.00000000E+00
  0.00000000E+00  0.00000000E+00  0.00000000E+00
  0.00000000E+00  0.00000000E+00  0.00000000E+00
  0.00000000E+00  0.00000000E+00  0.00000000E+00
  0.00000000E+00  0.00000000E+00  0.00000000E+00
  0.00000000E+00  0.00000000E+00  0.00000000E+00
  0.00000000E+00  0.00000000E+00  0.00000000E+00
  0.00000000E+00  0.00000000E+00  0.00000000E+00
  0.00000000E+00  0.00000000E+00  0.00000000E+00
  0.00000000E+00  0.00000000E+00  0.00000000E+00
  0.00000000E+00  0.00000000E+00  0.00000000E+00
  0.00000000E+00  0.00000000E+00  0.00000000E+00
  0.00000000E+00  0.00000000E+00  0.00000000E+00
  0.00000000E+00  0.00000000E+00  0.00000000E+00
  0.00000000E+00  0.00000000E+00  0.00000000E+00
  0.00000000E+00  0.00000000E+00  0.00000000E+00
  0.00000000E+00  0.00000000E+00  0.00000000E+00
  0.00000000E+00  0.00000000E+00  0.00000000E+00
  0.00000000E+00  0.00000000E+00  0.00000000E+00
  0.00000000E+00  0.00000000E+00  0.00000000E+00
  0.00000000E+00  0.00000000E+00  0.00000000E+00
  0.00000000E+00  0.00000000E+00  0.00000000E+00
  0.00000000E+00  0.00000000E+00  0.00000000E+00
  0.00000000E+00  0.00000000E+00  0.00000000E+00
  0.00000000E+00  0.00000000E+00  0.00000000E+00
  0.00000000E+00  0.00000000E+00  0.00000000E+00
  0.00000000E+00  0.00000000E+00  0.00000000E+00
  0.00000000E+00  0.00000000E+00  0.00000000E+00
  0.00000000E+00  0.00000000E+00  0.00000000E+00
  0.00000000E+00  0.00000000E+00  0.00000000E+00
  0.00000000E+00  0.00000000E+00  0.00000000E+00
  0.00000000E+00  0.00000000E+00  0.00000000E+00
  0.00000000E+00  0.00000000E+00  0.00000000E+00
  0.00000000E+00  0.00000000E+00  0.00000000E+00
  0.00000000E+00  0.00000000E+00  0.00000000E+00
  0.00000000E+00  0.00000000E+00  0.00000000E+00
  0.00000000E+00  0.00000000E+00  0.00000000E+00
  0.00000000E+00  0.00000000E+00  0.00000000E+00
  0.00000000E+00  0.00000000E+00  0.00000000E+00
  0.00000000E+00  0.00000000E+00  0.00000000E+00
  0.00000000E+00  0.00000000E+00  0.00000000E+00
  0.00000000E+00  0.00000000E+00  0.00000000E+00
  0.00000000E+00  0.00000000E+00  0.00000000E+00
  0.00000000E+00  0.00000000E+00  0.00000000E+00
  0.00000000E+00  0.00000000E+00  0.00000000E+00
  0.00000000E+00  0.00000000E+00  0.00000000E+00
  0.00000000E+00  0.00000000E+00  0.00000000E+00
  0.00000000E+00  0.00000000E+00  0.00000000E+00
  0.00000000E+00  0.00000000E+00  0.00000000E+00
  0.00000000E+00  0.00000000E+00  0.00000000E+00
  0.00000000E+00  0.00000000E+00  0.00000000E+00
  0.00000000E+00  0.00000000E+00  0.00000000E+00
  0.00000000E+00  0.00000000E+00  0.00000000E+00
  0.00000000E+00  0.00000000E+00  0.00000000E+00
  0.00000000E+00  0.00000000E+00  0.00000000E+00
  0.00000000E+00  0.00000000E+00  0.00000000E+00
  0.00000000E+00  0.00000000E+00  0.00000000E+00
  0.00000000E+00  0.00000000E+00  0.00000000E+00
  0.00000000E+00  0.00000000E+00  0.00000000E+00
  0.00000000E+00  0.00000000E+00  0.00000000E+00
  0.00000000E+00  0.00000000E+00  0.00000000E+00
  0.00000000E+00  0.00000000E+00  0.00000000E+00
  0.00000000E+00  0.00000000E+00  0.00000000E+00
  0.00000000E+00  0.00000000E+00  0.00000000E+00
  0.00000000E+00  0.00000000E+00  0.00000000E+00
  0.00000000E+00  0.00000000E+00  0.00000000E+00
  0.00000000E+00  0.00000000E+00  0.00000000E+00
  0.00000000E+00  0.00000000E+00  0.00000000E+00
  0.00000000E+00  0.00000000E+00  0.00000000E+00
  0.00000000E+00  0.00000000E+00  0.00000000E+00
  0.00000000E+00  0.00000000E+00  0.00000000E+00
  0.00000000E+00  0.00000000E+00  0.00000000E+00
  0.00000000E+00  0.00000000E+00  0.00000000E+00
  0.00000000E+00  0.00000000E+00  0.00000000E+00
  0.00000000E+00  0.00000000E+00  0.00000000E+00
  0.00000000E+00  0.00000000E+00  0.00000000E+00
  0.00000000E+00  0.00000000E+00  0.00000000E+00
  0.00000000E+00  0.00000000E+00  0.00000000E+00
  0.00000000E+00  0.00000000E+00  0.00000000E+00
  0.00000000E+00  0.00000000E+00  0.00000000E+00
  0.00000000E+00  0.00000000E+00  0.00000000E+00
  0.00000000E+00  0.00000000E+00  0.00000000E+00
  0.00000000E+00  0.00000000E+00  0.00000000E+00
  0.00000000E+00  0.00000000E+00  0.00000000E+00
  0.00000000E+00  0.00000000E+00  0.00000000E+00
  0.00000000E+00  0.00000000E+00  0.00000000E+00
  0.00000000E+00  0.00000000E+00  0.00000000E+00
  0.00000000E+00  0.00000000E+00  0.00000000E+00
  0.00000000E+00  0.00000000E+00  0.00000000E+00
  0.00000000E+00  0.00000000E+00  0.00000000E+00
  0.00000000E+00  0.00000000E+00  0.00000000E+00
  0.00000000E+00  0.00000000E+00  0.00000000E+00
  0.00000000E+00  0.00000000E+00  0.00000000E+00
  0.00000000E+00  0.00000000E+00  0.00000000E+00
  0.00000000E+00  0.00000000E+00  0.00000000E+00
  0.00000000E+00  0.00000000E+00  0.00000000E+00
  0.00000000E+00  0.00000000E+00  0.00000000E+00
  0.00000000E+00  0.00000000E+00  0.00000000E+00
  0.00000000E+00  0.00000000E+00  0.00000000E+00
  0.00000000E+00  0.00000000E+00  0.00000000E+00
  0.00000000E+00  0.00000000E+00  0.00000000E+00
  0.00000000E+00  0.00000000E+00  0.00000000E+00
  0.00000000E+00  0.00000000E+00  0.00000000E+00
  0.00000000E+00  0.00000000E+00  0.00000000E+00
  0.00000000E+00  0.00000000E+00  0.00000000E+00
  0.00000000E+00  0.00000000E+00  0.00000000E+00
  0.00000000E+00  0.00000000E+00  0.00000000E+00
  0.00000000E+00  0.00000000E+00  0.00000000E+00
  0.00000000E+00  0.00000000E+00  0.00000000E+00
  0.00000000E+00  0.00000000E+00  0.00000000E+00
  0.00000000E+00  0.00000000E+00  0.00000000E+00
  0.00000000E+00  0.00000000E+00  0.00000000E+00
  0.00000000E+00  0.00000000E+00  0.00000000E+00
  0.00000000E+00  0.00000000E+00  0.00000000E+00
  0.00000000E+00  0.00000000E+00  0.00000000E+00
  0.00000000E+00  0.00000000E+00  0.00000000E+00
  0.00000000E+00  0.00000000E+00  0.00000000E+00
