 154 154   0   0
  0.2585871E+02  0.2598693E-08  0.2598599E-08  0.6809832E-09  0.5000000E-15
  1.000000000000000E-004
  CAR 
 Co–organic framework                  
      6.34213293    -26.43893946  301     -1.15804410      1.00000000
    -26.439  0.0000E+00  0.0000E+00  0.0000E+00  0.0000E+00
    -26.330  0.0000E+00  0.0000E+00  0.0000E+00  0.0000E+00
    -26.220  0.0000E+00  0.0000E+00  0.0000E+00  0.0000E+00
    -26.111  0.0000E+00  0.0000E+00  0.0000E+00  0.0000E+00
    -26.002  0.0000E+00  0.0000E+00  0.0000E+00  0.0000E+00
    -25.893  0.0000E+00  0.0000E+00  0.0000E+00  0.0000E+00
    -25.783  0.0000E+00  0.0000E+00  0.0000E+00  0.0000E+00
    -25.674  0.0000E+00  0.0000E+00  0.0000E+00  0.0000E+00
    -25.565  0.0000E+00  0.0000E+00  0.0000E+00  0.0000E+00
    -25.456  0.0000E+00  0.0000E+00  0.0000E+00  0.0000E+00
    -25.346  0.0000E+00  0.0000E+00  0.0000E+00  0.0000E+00
    -25.237  0.0000E+00  0.1524E-17  0.0000E+00  0.1665E-18
    -25.128  0.1056E-09  0.1945E-08  0.1154E-10  0.2125E-09
    -25.018  0.5742E-04  0.2252E-03  0.6274E-05  0.2461E-04
    -24.909  0.7241E-02  0.8447E-02  0.7974E-03  0.9477E-03
    -24.800  0.1156E-01  0.9268E-02  0.2060E-02  0.1960E-02
    -24.691  0.9431E-02  0.7229E-02  0.3091E-02  0.2750E-02
    -24.581  0.1970E-01  0.1087E-01  0.5243E-02  0.3938E-02
    -24.472  0.3830E-01  0.3173E-01  0.9428E-02  0.7406E-02
    -24.363  0.3666E-01  0.4523E-01  0.1343E-01  0.1235E-01
    -24.254  0.3022E-01  0.2872E-01  0.1674E-01  0.1549E-01
    -24.144  0.2408E-02  0.1379E-01  0.1700E-01  0.1699E-01
    -24.035  0.1506E-05  0.6877E-04  0.1700E-01  0.1700E-01
    -23.926  0.2681E-02  0.1731E-03  0.1729E-01  0.1702E-01
    -23.816  0.6420E-02  0.7557E-02  0.1799E-01  0.1784E-01
    -23.707  0.4984E-04  0.1421E-02  0.1800E-01  0.1800E-01
    -23.598  0.7928E-10  0.1854E-06  0.1800E-01  0.1800E-01
    -23.489  0.5080E-18  0.2855E-14  0.1800E-01  0.1800E-01
    -23.379  0.6186E-09  0.1117E-12  0.1800E-01  0.1800E-01
    -23.270  0.1342E-03  0.1535E-05  0.1801E-01  0.1800E-01
    -23.161  0.9604E-02  0.2837E-02  0.1906E-01  0.1831E-01
    -23.052  0.8505E-02  0.8653E-02  0.1999E-01  0.1926E-01
    -22.942  0.6613E-02  0.1456E-01  0.2072E-01  0.2085E-01
    -22.833  0.1165E-01  0.1752E-02  0.2199E-01  0.2104E-01
    -22.724  0.1709E-01  0.1360E-01  0.2386E-01  0.2252E-01
    -22.614  0.5216E-01  0.3460E-01  0.2956E-01  0.2631E-01
    -22.505  0.3915E-01  0.3103E-01  0.3383E-01  0.2970E-01
    -22.396  0.1738E-01  0.2819E-01  0.3573E-01  0.3278E-01
    -22.287  0.1539E-01  0.3644E-01  0.3742E-01  0.3676E-01
    -22.177  0.1238E-01  0.7296E-02  0.3877E-01  0.3756E-01
    -22.068  0.4259E-01  0.2991E-01  0.4342E-01  0.4082E-01
    -21.959  0.5076E-01  0.3703E-01  0.4897E-01  0.4487E-01
    -21.850  0.9419E-02  0.4108E-01  0.5000E-01  0.4936E-01
    -21.740  0.1103E-04  0.5872E-02  0.5000E-01  0.5000E-01
    -21.631  0.2795E-11  0.4182E-05  0.5000E-01  0.5000E-01
    -21.522  0.0000E+00  0.6523E-12  0.5000E-01  0.5000E-01
    -21.413  0.2540E-17  0.0000E+00  0.5000E-01  0.5000E-01
    -21.303  0.2440E-08  0.3296E-10  0.5000E-01  0.5000E-01
    -21.194  0.2491E-03  0.3216E-04  0.5003E-01  0.5000E-01
    -21.085  0.7790E-02  0.5950E-02  0.5088E-01  0.5065E-01
    -20.975  0.1112E-02  0.3168E-02  0.5100E-01  0.5100E-01
    -20.866  0.1915E-05  0.2245E-05  0.5100E-01  0.5100E-01
    -20.757  0.2982E-02  0.2193E-06  0.5133E-01  0.5100E-01
    -20.648  0.6130E-02  0.1508E-02  0.5200E-01  0.5116E-01
    -20.538  0.3796E-04  0.7486E-02  0.5200E-01  0.5198E-01
    -20.429  0.4584E-10  0.1572E-03  0.5200E-01  0.5200E-01
    -20.320  0.0000E+00  0.8810E-09  0.5200E-01  0.5200E-01
    -20.211  0.0000E+00  0.0000E+00  0.5200E-01  0.5200E-01
    -20.101  0.0000E+00  0.0000E+00  0.5200E-01  0.5200E-01
    -19.992  0.0000E+00  0.0000E+00  0.5200E-01  0.5200E-01
    -19.883  0.0000E+00  0.0000E+00  0.5200E-01  0.5200E-01
    -19.773  0.0000E+00  0.0000E+00  0.5200E-01  0.5200E-01
    -19.664  0.0000E+00  0.0000E+00  0.5200E-01  0.5200E-01
    -19.555  0.0000E+00  0.0000E+00  0.5200E-01  0.5200E-01
    -19.446  0.0000E+00  0.0000E+00  0.5200E-01  0.5200E-01
    -19.336  0.0000E+00  0.0000E+00  0.5200E-01  0.5200E-01
    -19.227  0.0000E+00  0.0000E+00  0.5200E-01  0.5200E-01
    -19.118  0.0000E+00  0.0000E+00  0.5200E-01  0.5200E-01
    -19.009  0.0000E+00  0.0000E+00  0.5200E-01  0.5200E-01
    -18.899  0.0000E+00  0.0000E+00  0.5200E-01  0.5200E-01
    -18.790  0.3724E-09  0.4331E-10  0.5200E-01  0.5200E-01
    -18.681  0.1132E-03  0.3985E-04  0.5201E-01  0.5200E-01
    -18.571  0.1193E-01  0.9725E-02  0.5332E-01  0.5307E-01
    -18.462  0.1449E-01  0.1615E-01  0.5490E-01  0.5483E-01
    -18.353  0.1797E-02  0.2078E-02  0.5510E-01  0.5506E-01
    -18.244  0.2567E-01  0.1636E-01  0.5790E-01  0.5685E-01
    -18.134  0.1587E-01  0.1957E-01  0.5964E-01  0.5899E-01
    -18.025  0.3336E-02  0.8932E-02  0.6000E-01  0.5996E-01
    -17.916  0.2651E-05  0.3548E-03  0.6000E-01  0.6000E-01
    -17.807  0.2974E-12  0.5484E-08  0.6000E-01  0.6000E-01
    -17.697  0.0000E+00  0.8128E-17  0.6000E-01  0.6000E-01
    -17.588  0.0000E+00  0.0000E+00  0.6000E-01  0.6000E-01
    -17.479  0.0000E+00  0.0000E+00  0.6000E-01  0.6000E-01
    -17.370  0.0000E+00  0.0000E+00  0.6000E-01  0.6000E-01
    -17.260  0.0000E+00  0.0000E+00  0.6000E-01  0.6000E-01
    -17.151  0.0000E+00  0.0000E+00  0.6000E-01  0.6000E-01
    -17.042  0.1016E-17  0.0000E+00  0.6000E-01  0.6000E-01
    -16.932  0.1188E-08  0.5758E-10  0.6000E-01  0.6000E-01
    -16.823  0.1952E-03  0.5680E-04  0.6002E-01  0.6001E-01
    -16.714  0.1312E-01  0.1184E-01  0.6145E-01  0.6130E-01
    -16.605  0.1336E-01  0.1471E-01  0.6291E-01  0.6291E-01
    -16.495  0.2647E-02  0.1721E-02  0.6320E-01  0.6310E-01
    -16.386  0.2718E-01  0.2195E-01  0.6617E-01  0.6549E-01
    -16.277  0.1651E-01  0.2117E-01  0.6798E-01  0.6781E-01
    -16.168  0.1974E-03  0.1765E-02  0.6800E-01  0.6800E-01
    -16.058  0.8340E-09  0.1311E-06  0.6800E-01  0.6800E-01
    -15.949  0.0000E+00  0.1314E-14  0.6800E-01  0.6800E-01
    -15.840  0.0000E+00  0.0000E+00  0.6800E-01  0.6800E-01
    -15.730  0.0000E+00  0.0000E+00  0.6800E-01  0.6800E-01
    -15.621  0.2184E-16  0.5080E-18  0.6800E-01  0.6800E-01
    -15.512  0.1023E-07  0.1177E-08  0.6800E-01  0.6800E-01
    -15.403  0.5755E-03  0.2044E-03  0.6806E-01  0.6802E-01
    -15.293  0.1585E-01  0.1345E-01  0.6979E-01  0.6949E-01
    -15.184  0.1046E-01  0.1215E-01  0.7094E-01  0.7082E-01
    -15.075  0.4705E-02  0.3537E-02  0.7145E-01  0.7121E-01
    -14.966  0.2457E-01  0.1556E-01  0.7414E-01  0.7291E-01
    -14.856  0.1059E-01  0.1837E-01  0.7529E-01  0.7491E-01
    -14.747  0.6423E-02  0.6619E-02  0.7599E-01  0.7564E-01
    -14.638  0.4950E-04  0.3317E-02  0.7600E-01  0.7600E-01
    -14.528  0.7820E-10  0.2645E-05  0.7600E-01  0.7600E-01
    -14.419  0.2806E-10  0.4741E-12  0.7600E-01  0.7600E-01
    -14.310  0.3085E-04  0.2622E-05  0.7600E-01  0.7600E-01
    -14.201  0.8546E-02  0.5373E-02  0.7694E-01  0.7659E-01
    -14.091  0.1530E-01  0.1776E-01  0.7861E-01  0.7853E-01
    -13.982  0.3974E-02  0.4397E-02  0.7904E-01  0.7901E-01
    -13.873  0.1926E-01  0.9793E-02  0.8115E-01  0.8008E-01
    -13.764  0.2546E-01  0.3090E-01  0.8393E-01  0.8345E-01
    -13.654  0.6382E-03  0.4988E-02  0.8400E-01  0.8400E-01
    -13.545  0.1623E-07  0.3669E-05  0.8400E-01  0.8400E-01
    -13.436  0.4979E-16  0.5200E-12  0.8400E-01  0.8400E-01
    -13.327  0.0000E+00  0.0000E+00  0.8400E-01  0.8400E-01
    -13.217  0.0000E+00  0.0000E+00  0.8400E-01  0.8400E-01
    -13.108  0.0000E+00  0.0000E+00  0.8400E-01  0.8400E-01
    -12.999  0.0000E+00  0.0000E+00  0.8400E-01  0.8400E-01
    -12.889  0.0000E+00  0.0000E+00  0.8400E-01  0.8400E-01
    -12.780  0.0000E+00  0.0000E+00  0.8400E-01  0.8400E-01
    -12.671  0.1071E-13  0.2489E-15  0.8400E-01  0.8400E-01
    -12.562  0.4619E-06  0.5271E-07  0.8400E-01  0.8400E-01
    -12.452  0.2853E-02  0.1319E-02  0.8431E-01  0.8414E-01
    -12.343  0.1920E-01  0.1899E-01  0.8641E-01  0.8622E-01
    -12.234  0.1014E-01  0.9039E-02  0.8752E-01  0.8721E-01
    -12.125  0.2419E-01  0.1962E-01  0.9016E-01  0.8935E-01
    -12.015  0.2854E-01  0.2531E-01  0.9328E-01  0.9212E-01
    -11.906  0.2728E-01  0.2530E-01  0.9626E-01  0.9488E-01
    -11.797  0.1694E-01  0.2198E-01  0.9811E-01  0.9728E-01
    -11.687  0.1476E-01  0.1385E-01  0.9972E-01  0.9880E-01
    -11.578  0.9412E-02  0.1450E-01  0.1008E+00  0.1004E+00
    -11.469  0.5353E-02  0.5813E-02  0.1013E+00  0.1010E+00
    -11.360  0.1088E-01  0.7939E-02  0.1025E+00  0.1019E+00
    -11.250  0.1774E-01  0.1292E-01  0.1045E+00  0.1033E+00
    -11.141  0.7604E-02  0.1517E-01  0.1053E+00  0.1050E+00
    -11.032  0.1145E-01  0.8377E-02  0.1065E+00  0.1059E+00
    -10.923  0.1403E-01  0.1094E-01  0.1081E+00  0.1071E+00
    -10.813  0.1011E-01  0.1683E-01  0.1092E+00  0.1089E+00
    -10.704  0.7713E-02  0.6528E-02  0.1100E+00  0.1096E+00
    -10.595  0.1274E-01  0.9712E-02  0.1114E+00  0.1107E+00
    -10.485  0.1593E-01  0.1436E-01  0.1132E+00  0.1122E+00
    -10.376  0.2327E-01  0.1624E-01  0.1157E+00  0.1140E+00
    -10.267  0.2336E-01  0.2304E-01  0.1183E+00  0.1165E+00
    -10.158  0.3203E-01  0.2551E-01  0.1218E+00  0.1193E+00
    -10.048  0.2412E-01  0.3074E-01  0.1244E+00  0.1227E+00
     -9.939  0.2221E-01  0.2309E-01  0.1268E+00  0.1252E+00
     -9.830  0.2265E-01  0.2283E-01  0.1293E+00  0.1277E+00
     -9.721  0.1260E-01  0.2059E-01  0.1307E+00  0.1300E+00
     -9.611  0.2885E-01  0.2283E-01  0.1338E+00  0.1324E+00
     -9.502  0.2658E-01  0.2695E-01  0.1367E+00  0.1354E+00
     -9.393  0.2906E-01  0.2352E-01  0.1399E+00  0.1380E+00
     -9.284  0.3038E-01  0.2683E-01  0.1432E+00  0.1409E+00
     -9.174  0.2880E-01  0.3471E-01  0.1464E+00  0.1447E+00
     -9.065  0.3354E-01  0.2941E-01  0.1500E+00  0.1479E+00
     -8.956  0.3121E-01  0.3148E-01  0.1534E+00  0.1513E+00
     -8.846  0.3210E-01  0.3220E-01  0.1570E+00  0.1549E+00
     -8.737  0.3253E-01  0.2306E-01  0.1605E+00  0.1574E+00
     -8.628  0.2660E-01  0.4044E-01  0.1634E+00  0.1618E+00
     -8.519  0.2048E-01  0.2893E-01  0.1656E+00  0.1650E+00
     -8.409  0.2929E-01  0.2178E-01  0.1688E+00  0.1673E+00
     -8.300  0.2756E-01  0.2871E-01  0.1719E+00  0.1705E+00
     -8.191  0.2425E-01  0.2342E-01  0.1745E+00  0.1730E+00
     -8.082  0.2745E-01  0.2521E-01  0.1775E+00  0.1758E+00
     -7.972  0.9200E-02  0.2119E-01  0.1785E+00  0.1781E+00
     -7.863  0.2635E-01  0.1785E-01  0.1814E+00  0.1801E+00
     -7.754  0.5282E-01  0.3308E-01  0.1872E+00  0.1837E+00
     -7.644  0.2502E-01  0.4311E-01  0.1899E+00  0.1884E+00
     -7.535  0.2697E-01  0.3063E-01  0.1928E+00  0.1917E+00
     -7.426  0.3748E-01  0.2653E-01  0.1969E+00  0.1946E+00
     -7.317  0.6908E-01  0.5018E-01  0.2045E+00  0.2001E+00
     -7.207  0.3397E-01  0.4760E-01  0.2082E+00  0.2053E+00
     -7.098  0.1873E-01  0.2526E-01  0.2103E+00  0.2081E+00
     -6.989  0.1306E-01  0.1309E-01  0.2117E+00  0.2095E+00
     -6.880  0.7534E-02  0.1043E-01  0.2125E+00  0.2106E+00
     -6.770  0.2131E-01  0.2373E-01  0.2148E+00  0.2132E+00
     -6.661  0.1224E-01  0.1513E-01  0.2162E+00  0.2149E+00
     -6.552  0.3186E-01  0.2120E-01  0.2196E+00  0.2172E+00
     -6.442  0.2179E-01  0.2055E-01  0.2220E+00  0.2195E+00
     -6.333  0.1936E-01  0.1827E-01  0.2241E+00  0.2214E+00
     -6.224  0.2114E-01  0.1404E-01  0.2265E+00  0.2230E+00
     -6.115  0.2501E-01  0.5265E-02  0.2292E+00  0.2236E+00
     -6.005  0.3303E-01  0.3067E-01  0.2328E+00  0.2269E+00
     -5.896  0.2246E-01  0.4184E-01  0.2353E+00  0.2315E+00
     -5.787  0.3511E-01  0.1553E-01  0.2391E+00  0.2332E+00
     -5.678  0.2779E-01  0.3391E-01  0.2421E+00  0.2369E+00
     -5.568  0.3663E-01  0.3889E-01  0.2461E+00  0.2411E+00
     -5.459  0.4652E-01  0.3301E-01  0.2512E+00  0.2447E+00
     -5.350  0.4842E-01  0.3247E-01  0.2565E+00  0.2483E+00
     -5.241  0.2878E-01  0.3107E-01  0.2596E+00  0.2517E+00
     -5.131  0.2370E-01  0.4148E-01  0.2622E+00  0.2562E+00
     -5.022  0.3235E-01  0.2449E-01  0.2658E+00  0.2589E+00
     -4.913  0.4538E-01  0.1889E-01  0.2707E+00  0.2610E+00
     -4.803  0.4352E-01  0.4755E-01  0.2755E+00  0.2662E+00
     -4.694  0.4838E-01  0.4130E-01  0.2808E+00  0.2707E+00
     -4.585  0.4807E-01  0.4146E-01  0.2860E+00  0.2752E+00
     -4.476  0.3357E-01  0.4026E-01  0.2897E+00  0.2796E+00
     -4.366  0.1193E-01  0.3989E-01  0.2910E+00  0.2840E+00
     -4.257  0.3888E-02  0.3448E-01  0.2914E+00  0.2877E+00
     -4.148  0.2033E-01  0.2517E-01  0.2936E+00  0.2905E+00
     -4.039  0.3654E-01  0.2612E-01  0.2976E+00  0.2933E+00
     -3.929  0.4748E-01  0.1812E-01  0.3028E+00  0.2953E+00
     -3.820  0.4630E-01  0.4375E-01  0.3079E+00  0.3001E+00
     -3.711  0.4468E-01  0.3331E-01  0.3128E+00  0.3037E+00
     -3.601  0.3787E-01  0.4073E-01  0.3169E+00  0.3082E+00
     -3.492  0.2271E-01  0.1648E-01  0.3194E+00  0.3100E+00
     -3.383  0.2149E-01  0.6524E-02  0.3217E+00  0.3107E+00
     -3.274  0.4878E-01  0.1607E-01  0.3271E+00  0.3124E+00
     -3.164  0.7428E-01  0.3329E-01  0.3352E+00  0.3161E+00
     -3.055  0.6620E-01  0.2255E-01  0.3424E+00  0.3185E+00
     -2.946  0.3658E-01  0.2735E-01  0.3464E+00  0.3215E+00
     -2.837  0.5104E-01  0.2309E-01  0.3520E+00  0.3241E+00
     -2.727  0.3014E-01  0.2030E-01  0.3553E+00  0.3263E+00
     -2.618  0.1874E-01  0.3107E-01  0.3573E+00  0.3297E+00
     -2.509  0.2175E-01  0.3860E-01  0.3597E+00  0.3339E+00
     -2.399  0.2917E-01  0.1660E-01  0.3629E+00  0.3357E+00
     -2.290  0.3355E-01  0.1083E-01  0.3666E+00  0.3369E+00
     -2.181  0.2982E-01  0.1232E-01  0.3698E+00  0.3382E+00
     -2.072  0.2898E-01  0.1019E-01  0.3730E+00  0.3393E+00
     -1.962  0.2715E-01  0.2014E-01  0.3759E+00  0.3415E+00
     -1.853  0.1471E-01  0.3485E-01  0.3776E+00  0.3454E+00
     -1.744  0.1995E-01  0.4408E-01  0.3797E+00  0.3502E+00
     -1.635  0.2712E-01  0.4110E-01  0.3827E+00  0.3547E+00
     -1.525  0.2871E-01  0.5186E-01  0.3858E+00  0.3603E+00
     -1.416  0.1201E-01  0.4578E-01  0.3872E+00  0.3653E+00
     -1.307  0.7701E-02  0.1455E-01  0.3880E+00  0.3669E+00
     -1.198  0.3611E-02  0.8039E-03  0.3884E+00  0.3670E+00
     -1.088  0.1395E-01  0.1636E-01  0.3899E+00  0.3688E+00
     -0.979  0.9983E-02  0.3271E-01  0.3910E+00  0.3724E+00
     -0.870  0.7347E-02  0.2422E-01  0.3918E+00  0.3750E+00
     -0.760  0.1591E-01  0.2377E-01  0.3935E+00  0.3776E+00
     -0.651  0.5595E-02  0.1751E-01  0.3942E+00  0.3795E+00
     -0.542  0.8161E-02  0.1625E-01  0.3950E+00  0.3813E+00
     -0.433  0.1169E-01  0.2079E-01  0.3963E+00  0.3836E+00
     -0.323  0.1171E-01  0.2325E-01  0.3976E+00  0.3861E+00
     -0.214  0.6320E-02  0.2644E-01  0.3983E+00  0.3890E+00
     -0.105  0.2317E-01  0.3993E-01  0.4008E+00  0.3934E+00
      0.004  0.1015E-01  0.2161E-01  0.4019E+00  0.3957E+00
      0.114  0.1850E-01  0.1068E-01  0.4040E+00  0.3969E+00
      0.223  0.2745E-01  0.3192E-01  0.4070E+00  0.4004E+00
      0.332  0.2722E-01  0.4565E-01  0.4099E+00  0.4054E+00
      0.442  0.9448E-02  0.2794E-01  0.4110E+00  0.4084E+00
      0.551  0.3414E-03  0.2304E-01  0.4110E+00  0.4109E+00
      0.660  0.5081E-05  0.4963E-03  0.4110E+00  0.4110E+00
      0.769  0.3951E-02  0.5683E-08  0.4114E+00  0.4110E+00
      0.879  0.5180E-02  0.2716E-08  0.4120E+00  0.4110E+00
      0.988  0.1601E-04  0.2615E-03  0.4120E+00  0.4110E+00
      1.097  0.1896E-07  0.9491E-02  0.4120E+00  0.4121E+00
      1.206  0.6202E-03  0.8420E-02  0.4121E+00  0.4130E+00
      1.316  0.1687E-01  0.8595E-03  0.4139E+00  0.4131E+00
      1.425  0.9928E-02  0.8002E-02  0.4150E+00  0.4140E+00
      1.534  0.1654E-02  0.3340E-02  0.4152E+00  0.4143E+00
      1.644  0.1213E-01  0.1663E-01  0.4165E+00  0.4161E+00
      1.753  0.2090E-01  0.1668E-01  0.4188E+00  0.4180E+00
      1.862  0.2931E-01  0.2281E-01  0.4220E+00  0.4205E+00
      1.971  0.3143E-01  0.3576E-01  0.4254E+00  0.4244E+00
      2.081  0.4697E-01  0.3312E-01  0.4306E+00  0.4280E+00
      2.190  0.2105E-01  0.2733E-01  0.4329E+00  0.4310E+00
      2.299  0.1695E-01  0.2171E-01  0.4347E+00  0.4333E+00
      2.408  0.1174E-01  0.1793E-01  0.4360E+00  0.4353E+00
      2.518  0.8696E-02  0.1071E-01  0.4369E+00  0.4365E+00
      2.627  0.3447E-02  0.8981E-02  0.4373E+00  0.4374E+00
      2.736  0.1627E-01  0.1266E-01  0.4391E+00  0.4388E+00
      2.845  0.1780E-01  0.9233E-02  0.4410E+00  0.4398E+00
      2.955  0.2397E-01  0.2078E-01  0.4437E+00  0.4421E+00
      3.064  0.1404E-01  0.1874E-01  0.4452E+00  0.4442E+00
      3.173  0.1723E-01  0.1005E-01  0.4471E+00  0.4453E+00
      3.283  0.1445E-01  0.2163E-01  0.4487E+00  0.4476E+00
      3.392  0.1139E-01  0.9560E-02  0.4499E+00  0.4487E+00
      3.501  0.1761E-01  0.2198E-01  0.4518E+00  0.4511E+00
      3.610  0.2518E-01  0.2363E-01  0.4546E+00  0.4536E+00
      3.720  0.2698E-01  0.2105E-01  0.4575E+00  0.4559E+00
      3.829  0.3073E-01  0.2984E-01  0.4609E+00  0.4592E+00
      3.938  0.2256E-01  0.2677E-01  0.4633E+00  0.4621E+00
      4.047  0.1630E-01  0.1647E-01  0.4651E+00  0.4639E+00
      4.157  0.3088E-01  0.1679E-01  0.4685E+00  0.4658E+00
      4.266  0.2180E-01  0.2766E-01  0.4709E+00  0.4688E+00
      4.375  0.2346E-01  0.2488E-01  0.4734E+00  0.4715E+00
      4.485  0.3076E-01  0.3338E-01  0.4768E+00  0.4752E+00
      4.594  0.3647E-01  0.3236E-01  0.4808E+00  0.4787E+00
      4.703  0.2433E-01  0.3485E-01  0.4835E+00  0.4825E+00
      4.812  0.2097E-01  0.1833E-01  0.4857E+00  0.4845E+00
      4.922  0.2350E-02  0.1346E-01  0.4860E+00  0.4860E+00
      5.031  0.4272E-06  0.2498E-03  0.4860E+00  0.4860E+00
      5.140  0.1143E-13  0.1964E-08  0.4860E+00  0.4860E+00
      5.249  0.0000E+00  0.2032E-17  0.4860E+00  0.4860E+00
      5.359  0.0000E+00  0.0000E+00  0.4860E+00  0.4860E+00
      5.468  0.0000E+00  0.0000E+00  0.4860E+00  0.4860E+00
      5.577  0.0000E+00  0.0000E+00  0.4860E+00  0.4860E+00
      5.687  0.0000E+00  0.0000E+00  0.4860E+00  0.4860E+00
      5.796  0.0000E+00  0.0000E+00  0.4860E+00  0.4860E+00
      5.905  0.0000E+00  0.0000E+00  0.4860E+00  0.4860E+00
      6.014  0.0000E+00  0.0000E+00  0.4860E+00  0.4860E+00
      6.124  0.0000E+00  0.0000E+00  0.4860E+00  0.4860E+00
      6.233  0.0000E+00  0.0000E+00  0.4860E+00  0.4860E+00
      6.342  0.0000E+00  0.0000E+00  0.4860E+00  0.4860E+00
