O  C  H  Co Li
 1.0000000000000000
    25.9869300199999991    0.0014776500000000   -0.0002841700000000
    12.9947443200000006   22.5035161499999994   -0.0005769100000000
    -0.0000740900000000   -0.0001328100000000    6.8098320599999997
 O   C   H   Co  Li 
  52  66  16  18   2
Direct
  0.0611562025926930  0.2504574509874762  0.3204553348588607
  0.0331625541636276  0.2918061499453683  0.9279275344064467
  0.1094047866693616  0.2599002841695805  0.7202936767678801
  0.6960866127197154  0.0531304327780622  0.3396969979288136
  0.6838937620597704  0.0240344055768805  0.9430460525457461
  0.6334599188571121  0.1007780392903128  0.7413892600393378
  0.0357736881046797  0.3912631285150380  0.6606641582830680
  0.2569321398260307  0.6844391689770174  0.3525257444915064
  0.3117234026470100  0.6497343407939297  0.9954709496418335
  0.2831671263209581  0.5977745724737160  0.8048173209884261
  0.5831880808292783  0.0212181602038867  0.6644604013865837
  0.3063537008888606  0.0451754827361186  0.3949655688503204
  0.2303226083825681  0.0802012104892946  0.6043902947959497
  0.2790879313741046  0.0875142740673931  0.0029473154674944
  0.6869317773152686  0.2874602509348731  0.3441145064951289
  0.7122568127050520  0.2191323797762219  0.5856893729410012
 -0.0152640328773701  0.6398413915430182  0.7526826761018390
  0.0308819907844851  0.5627853722890412  0.9557073125360670
  0.6223121996867437  0.2749929808030936  0.0331515030370590
  0.0469491101237591  0.6501665654184074  0.4213521355413396
  0.0785058363308265  0.6950219275677246  0.6289052944904939
  0.3778933951663687  0.9814295257782856  0.7266678547892392
  0.4106551442165300  0.0244791328608686  0.9367723248611881
  0.0903615847862412  0.6343513539184550  0.0297100083567521
  0.6983815513134971  0.9510897280449913  0.6088721445005616
  0.7745185040839150  0.9215327985885503  0.4026236649821273
  0.7263890942314666  0.9096712051010547  1.0019592956921588
  0.3502851510839369  0.7051394952467405  0.5215436743522064
  0.2886783120494395  0.7864647935985879  0.3566024107394400
  0.0223447926818417  0.3642022330099327  0.2626750749509686
  0.9746033539133575  0.4414852359113061  0.0616906483937743
  0.3383961627706192  0.7342668790622188 -0.0549753485804874
  0.9605007481555893  0.3537403462063988  0.5954878841474216
  0.9302277230818196  0.3080646970377315  0.3868620260677681
  0.6248576282260943  0.0093981886660942  0.2759548234116348
  0.5946009513515208  0.9645444343468552  0.0637822422186018
  0.9180337252044182  0.3659495126120774  0.9893577919060431
  0.9474929836958426  0.7534574375411600  0.6912129426971647
  0.9754627429270337  0.7120462002836181  0.0860719040242455
  0.8987057649201599  0.7432551386493528  0.2907360235814369
  0.2986219189537573  0.9500524199568302  0.6614670616673153
  0.3145247053435762  0.9732629611140107  0.0590705919208088
  0.3587530635745053  0.8952928068734383  0.2589475985179057
  0.9711004325038549  0.6127692951056996  0.3555399370478505
  0.7627473027105736  0.3018491708687788  0.6591602338375860
  0.6914857033627128  0.3581691638446107 -0.0081033369814397
  0.7357429604541785  0.3806557713635726  0.2341966382482871
  0.4203187301362166  0.9677970264500841  0.3350018721626060
  0.6487556138113100  0.4253801601227013  0.5819476924289799
  0.6564065775289639  0.4804495231987713  0.8226080904075683
  0.6835156154919214  0.4886829158106069  0.5115911255536405
  0.7980775129071012  0.1782088927575482  0.1622487944612009
  0.1130143110996410  0.2122218458870179  0.2345155905663167
  0.1552992473274284  0.1674504423549229  0.3558196175888416
  0.0890323159352109  0.2573300257046212  0.8876994736660292
  0.1285507616566121  0.2136241845354002  0.0335070054136776
  0.6809856659471271  0.1051341106281946  0.2529186619068426
  0.6885388815889033  0.1458716934867081  0.3669697657778469
  0.6574608255448815  0.0805305021274485  0.9081277268311347
  0.6576553249548569  0.1216436574988135  0.0571252696214139
  0.0200921134638490  0.4439404668441738  0.5768971055942588
  0.0216174862404770  0.4863738084357762  0.7006653412495606
  0.2168623244273045  0.6708619173695709  0.2723248912158979
  0.1671943791951882  0.6820056966256561  0.3835208362569009
  0.2760036659645016  0.6284330257182945  0.9619497066811827
  0.2256413052439347  0.6427938092523877  0.0860773159729768
  0.5451323754183864  0.0078143690533275  0.5763164240129548
  0.5000953503802299  0.0100417193926192  0.6953231560386927
  0.2508976052985754  0.0812297538359882  0.4357443993828420
  0.2117765074921732  0.1249728481220969  0.2896172340778085
  0.2272965765524324  0.1261885166285563  0.0885342486346602
  0.1850923282103915  0.1711992927251648  0.9673743199449394
  0.6908086624624042  0.2384946116152691  0.4171426419914390
  0.6721154412812095  0.2029445680614721  0.2992625302394353
  0.0075880146823228  0.5835785489096554  0.7888787108216253
  0.0047859241314671  0.5440024884629417  0.6392778445918892
  0.6425730150113310  0.2216590552794043  0.1118159561355291
  0.6356802584220572  0.1802158013895636  0.9975460598753751
  0.0809676575074433  0.6720205316570622  0.4610358052745524
  0.1251241605752268  0.6669918124233033  0.3172947070975566
  0.4131016464878572  0.0015605969515896  0.7690589827941191
  0.4574963254229070 -0.0032660106634259  0.6254698391434015
  0.1303749532726992  0.6442646851339752  0.1212954080404592
  0.1812541634746916  0.6315258394634392  1.0133099332470430
  0.7544670369177262  0.9182488409971208  0.5699635512895072
  0.7947035840385885  0.8754304755977157  0.7171486042286284
  0.7790233462326648  0.8730719338921714  0.9174016184983306
  0.8219748456909055  0.8292134449169092  0.0399095371562865
  0.3177442705832376  0.7634023401121830  0.5132509662715080
  0.3180335436340133  0.8017991682900525  0.6716099960198434
  0.9986702303637619  0.4205834921383458  0.2276418156709986
  1.0015429347915632  0.4601634410295190  0.3771691817446398
  0.3328429401985564  0.7849947229860829  0.8723936549072727
  0.3390823041506995  0.8237878252984202  0.0006176310945810
  0.9273087805512393  0.3310935136071561  0.5550358571893289
  0.8843144228826834  0.3335524550595004  0.6993764478445132
  0.5910062916491787  0.9876879525898594  0.2317221656886297
  0.5466700776182987  0.9916647692148377  0.3744144791448011
  0.8801058009487875  0.3527105518483150  0.8994082252391875
  0.8322411534441545  0.3585607351047178  0.0119350445912792
  0.8949895446597912  0.7906579029684370  0.7755894403965456
  0.8520894678407780  0.8347344250398957  0.6532502871866905
  0.9192620015221971  0.7457837613368371  0.1236636243305442
  0.8793760945054478  0.7885205717421054  0.9760665461593265
  0.3102309841799873  0.8982291735964816  0.7429146156587484
  0.3057979279038165  0.8585205227442110  0.6143481766648610
  0.3349298128219958  0.9172714531417258  0.0935908268944522
  0.3279934142298478  0.8801222433719184  0.9425822401606445
  0.9864512964241395  0.5601430013308508  0.4393760338207903
  0.9846654227657604  0.5178075247799349  0.3158393316767140
  0.7972292164377186  0.3213934908439032  0.7440250853360092
  0.8441795123485186  0.3162895003378304  0.6316666751813684
  0.7375324615154080  0.3606800629798871  0.0570271599278833
  0.7888876905189749  0.3458794872612016  0.9378138764590971
  0.4588338576191406  0.9806978864734058  0.4234264072964284
  0.5041046450161846  0.9782472893015092  0.3045095891274950
  0.6643732611277724  0.4672640797929490  0.6396497610143964
  0.7784339789499192  0.2051725891215396  1.0147420464891335
  0.1425568287578513  0.1660295792524096  0.5073859705658899
  0.7088428386613892  0.1307669672045560  0.5113622448157296
  0.0370166313402224  0.4727759234576749  0.8508125445425484
  0.1598494095653896  0.7042496103523150  0.5255911446581990
  0.4983640193719568  0.0237501199805649  0.8476615731539157
  0.1978125083450246  0.1726877391324490  0.8158199274370448
  0.6144445062979924  0.1951294393735623  0.8542776155630223
  0.1861637721784566  0.6113651306603067  0.8689968802469173
  0.8090008606296684  0.8271932100289301  0.1906877358940033
  0.3525099872790871  0.8094282384077800  0.1513224090449626
  0.8288828778505040  0.3750213858285118  0.1614681625257100
  0.8649934312114168  0.8368547897235559  0.5024058450401995
  0.2928570389878216  0.8729494984215180  0.4631368505613987
  0.9691399026823555  0.5314099208067310  0.1657981665083642
  0.8501252745954999  0.2973352003951317  0.4844226506363768
  0.5059119332554074  0.9645583329220384  0.1521096434689523
  0.7040675343970115  0.3516487664863305  0.4580117861109321
  0.2850499596573500  0.0238789887550367  0.8112605292384857
  0.6895670983123715  0.2845597339366070  0.0432271437237299
  0.9543668373142755  0.6888565178340095  0.5014596755646276
  0.3590405464325119  0.9521679448040750  0.4697089992545129
  0.3551397865349253  0.0261904722821487  0.1451351206823414
  0.7161545230787232  0.9750956975313664  0.1949795535999592
  0.3352552989152962  0.6746915475154666  0.7569495843813057
  0.7586917600066940  0.2355024639142922  0.7774144285340963
  0.9845132761922173  0.3089056401280219  0.1777763912176403
  0.3048515938326354  0.7156488720424850  0.1887917205903480
  0.9779960438594332  0.3841803672915292  0.8506381192679827
  0.6492271189849940  0.9661665632972599  0.8569662543291046
  0.0290901760161649  0.6189551768853231  0.1675142919732091
  0.6395042651387133  0.0433341056622492  0.5282599040187580
  0.0238101654689804  0.6935370248123607  0.8370198556070811
  0.2799996666491693  0.6378766899255783  0.5782017105581275
  0.0533329060097543  0.3152790871893927  0.5129139636962005
  0.6985163283328636  0.4656188539029625  0.2562380818973303
  0.6320679950104857  0.4236563141658147  0.8515821201473148
