O  C  H  Co Li                          
   1.00000000000000     
    25.9161698650829315   -0.2810369935102006    0.1703375965226952
    12.7125401578642450   22.0504884410826421    0.2002400630933916
     0.0455241765692287    0.0349534761140938    6.8237627569025623
   O    C    H    Co   Li
    60    75    18    18     3
Direct
  0.0618349161673967  0.2535162115352915  0.3270133928883677
  0.0369328750946792  0.3031080404746648  0.9731753359812102
  0.1026758555682373  0.2631827765636556  0.7281375369524243
  0.3996492279625657  0.5784367324395053  0.6467860605135655
  0.6934014917165864  0.0599904898968932  0.2940839768440581
  0.6861119292713105  0.0277974112076015  0.9201872973517126
  0.6540193261620842  0.0984096022377194  0.6908277898326163
  0.0178937106192659  0.3969240754661849  0.6593313146627655
  0.2626132595801083  0.6833736035331237  0.3104356191183994
  0.3085942165268487  0.6597988478457211  0.9515873074051806
  0.2653361064339159  0.6363406574243617  0.7142958494883439
  0.5877597400512837  0.0264563221316780  0.6363369490625522
  0.3009633088770401  0.0376062055164084  0.3658710337890317
  0.2337775091423483  0.0772113054149631  0.6053260297753725
  0.6452696597927144  0.4165607842372486  0.7996248469606138
  0.5728354700989026  0.4082017301118311  0.9535805483266682
  0.2762391347395055  0.0846053236417729  0.0053880048970652
  0.5706778106040588  0.3276294147668901  0.3106093520200285
  0.6244775146718692  0.2706633220029327  0.5621551786975729
 -0.0008928028541000  0.6392850030773541  0.7003858344963728
  0.0273037448562206  0.5694100428203855  0.9361514612153676
  0.6355066680632315  0.2835971640611068  0.9683059240068189
  0.0393427758563713  0.6709783202779439  0.3639932977748441
  0.0800143090352639  0.6994005999218633  0.5954366649557277
  0.3710162010082623  0.0028803570946081  0.6958464163424640
  0.4115068088718051  0.0307438307260149  0.9296193252489745
  0.0838516300951161  0.6501868381935034  0.0009303962383637
  0.6976731689318901  0.9587583000171900  0.5895271910170810
  0.7691258692660489  0.9325379993625830  0.3669250287014916
  0.3784698519857664  0.6212555289100395  0.2815941238487032
  0.4481490876157818  0.5829346137158905  0.0511600328468699
  0.7265969684646609  0.9196230003641662  0.9769123670159410
  0.3473073270239965  0.6943470279248657  0.6146552405475951
  0.3172197256694828  0.7647453928522020  0.3810347158346815
  0.9957159617507025  0.3727512327175452  0.3047547912070968
  0.9653157745065727  0.4423034356693125  0.0665190857901894
  0.3673381897724598  0.7185730632144456  0.9775597270507301
  0.9668441060352171  0.3311371607455323  0.6446038170231269
  0.9281569372731452  0.3003318650202081  0.4122849362393452
  0.6296322269359937  0.0117416449364912  0.2571550325314539
  0.5931944363041608  0.9749136786334758  0.0397260030117449
  0.9212533977868131  0.3501822452265081  0.0064013569331283
  0.9449946853346095  0.7565583649230279  0.6629316808794179
  0.9694287087449859  0.7111383495914894  0.0302013496125333
  0.9005276643395951  0.7506888319916006  0.2629678122136359
  0.6210292288228062  0.4061994659118269  0.3810665663693185
  0.3150178651681328  0.9419621589586362  0.6728056742042635
  0.3346066720048269  0.9664531492489515  0.0345446626127810
  0.3657802749753545  0.8959621611531556  0.2682641956236528
  0.9790574487914401  0.6144600224420457  0.3387397990391937
  0.7601331040668134  0.2909739674606560  0.6980344084247653
  0.7096148687841579  0.3129678698211709  0.0680687595669885
  0.7612611791112327  0.3228962607261325  0.3088645335031959
  0.4164531970311752  0.9810205595457444  0.3343355138980181
  0.7240389454961235  0.4263711934272099  0.5446900786330051
  0.6492960144827238  0.5226562555748466  0.5299903336760026
  0.7037599288966350  0.4771771866683573  0.2558412663854654
  0.7207553720890898  0.2314184398613675  0.4589025211901899
  0.8467267622211072  0.1542786103500760  0.5001942246968372
  0.8080046565593207  0.0953894418783739  0.6341626826905131
  0.1136691817234127  0.2139420481532998  0.2441136949778244
  0.1558189869656341  0.1684347979854053  0.3629065287534649
  0.0871638139164869  0.2628800073807784  0.9055943005635825
  0.1279020503958819  0.2151418617104874  0.0417325743883780
  0.4524114525332238  0.5386496431495268  0.5711376809881130
  0.4938741857942548  0.4972179558880865  0.7024461472490590
  0.6745844319422561  0.1148201323122713  0.2095365403445509
  0.6531586316551865  0.1661450473085925  0.3257895751321304
  0.6721036681555150  0.0819446000267043  0.8643448321189182
  0.6727709113966319  0.1247514707360646  0.0024442295679674
  0.0071951696487692  0.4496510273457192  0.5772848149835349
  0.0118733375420233  0.4915343938419532  0.6952345253481345
  0.2199348153529355  0.6751430424905011  0.2306932049433205
  0.1733663123211961  0.6811513563398854  0.3510751698718046
  0.2665568840659899  0.6516620508098154  0.8894951796055484
  0.2190053122162211  0.6607246414968214  0.0296179683820837
  0.5475126845296096  0.0144310810679896  0.5572428484181171
  0.5025353665009382  0.0174408628119253  0.6800715032668282
  0.2500979272741519  0.0776208090895032  0.4292645399857287
  0.2103736041607740  0.1246526593786022  0.2901220557287055
  0.5925282404992960  0.4237564206489848  0.8063386012795634
  0.5509990545942667  0.4563130209781684  0.6450320429673254
  0.2248287426419780  0.1252723619295962  0.0873444691041242
  0.1825719059893106  0.1712510265212710  0.9687484614434290
  0.6081608676736656  0.2759623543998255  0.3694975032321735
  0.6347128691802880  0.2234656547259332  0.2447104385716507
  0.0103115984581636  0.5868201025806197  0.7617846546465237
  0.0025770082442547  0.5470381821983819  0.6233225524883125
  0.6434908278997170  0.2309161841960435  0.0406887080971501
  0.6613907991131184  0.1803920492494585  0.9243186184407119
  0.0800529204898427  0.6818636351982568  0.4221731996546126
  0.1273079047745140  0.6731372655314699  0.2816269215346519
  0.4114483316866197  0.0139771511115932  0.7554559109893439
  0.4580401095607345  0.0066843159544314  0.6134623693689836
  0.1264226612320626  0.6586034855904871  0.0804453913941546
  0.1729092262716923  0.6528474454123824  0.9599937608654525
  0.7522037891071124  0.9270304300687219  0.5385708664345716
  0.7938728334367073  0.8838406912389392  0.6860355665627048
  0.4308954223479065  0.5821177735411588  0.2255879684948906
  0.4698988207067375  0.5369088438293104  0.3712469429977605
  0.7790762870930084  0.8831661771746627  0.8905232571106215
  0.8224758820861268  0.8395199222046269  0.0116777240740296
  0.3340812433170834  0.7476492495634378  0.5555666874716035
  0.3391147456089064  0.7883307951425002  0.6973446059492625
  0.9837759439858883  0.4251446962489366  0.2405130267203750
  0.9917325338935914  0.4653639563039905  0.3757619787305169
  0.3548973662697158  0.7721488387131655  0.8980122328407165
  0.3570573362455155  0.8147665856809019  0.0197021117222452
  0.9286068987168061  0.3168763217551413  0.5871457007891223
  0.8841913032330432  0.3193047991257061  0.7307036428883494
  0.5925135803798572  0.9946358263315591  0.2108705588130357
  0.5475313568933631  0.9991999593095362  0.3562273442486829
  0.8836111816684610  0.3340906682102335  0.9327788159995992
  0.8420134758329093  0.3299655857442643  0.0552502521291342
  0.8929936784996658  0.7969846952189222  0.7422069537838405
  0.8502107664576894  0.8414045263072423  0.6200691079034333
  0.9176139845486646  0.7508952152878134  0.0878524729807394
  0.8781428876792025  0.7967820637869741  0.9445102089967714
  0.5675767039235534  0.4512951406114835  0.4442756970503967
  0.5267189622194766  0.4927971276509751  0.3123152383262604
  0.3278562222303910  0.8882625367000615  0.7521424018215984
  0.3259209676913590  0.8455755698105075  0.6303621673395361
  0.3485764996289002  0.9129466805396512  0.0939397045168152
  0.3437556228000638  0.8720464369746316  0.9526731756252523
  0.9878354643512401  0.5625457640647200  0.4213611517603425
  0.9824567198366776  0.5209031231285668  0.3036615674445887
  0.7990362295887508  0.3039306571747094  0.7850861393958988
  0.8430300061269616  0.3039926500241825  0.6647522623952969
  0.7545382715461749  0.3171567274555762  0.1249256582665843
  0.7987088076767241  0.3164596140399976  0.9864632260571111
  0.4578550182384536  0.9915028207190957  0.4126119684179709
  0.5032434597122853  0.9877770989499802  0.2903543519101854
  0.6891533350805994  0.4796188542231782  0.4355771334782080
  0.8265362003580029  0.1251526498644867  0.5670363148452559
  0.6844415881946218  0.2579539744526119  0.5927478938609184
  0.1453769842279152  0.1670599190481716  0.5176163486512046
  0.4814324319541118  0.4995704693622033  0.8564432460456280
  0.6492575778244895  0.1614447509114315  0.4834797942919253
  0.0234865025102875  0.4800330515763434  0.8490014570100743
  0.1733523475720790  0.6923085664771659  0.5046953542917908
  0.5022912265945162  0.0291390527998359  0.8332115179471326
  0.1929991495181612  0.1725272818292981  0.8139465461725339
  0.6637114991896308  0.1847540999722269  0.7660767381193830
  0.1730148481018641  0.6417125222743896  0.8062796416895408
  0.8112840855142364  0.8389217208215513  0.1658657714398419
  0.3692648593514143  0.8026846267345427  0.1727150042986275
  0.8474643302395579  0.3336029417102355  0.2124320121053254
  0.8611390043482303  0.8416909796977927  0.4652723952795269
  0.5390953995589803  0.4917411218110057  0.1587901890534164
  0.3140126503241695  0.8575407205017042  0.4771136575359097
  0.9709089501248803  0.5324915711053699  0.1499353442373015
  0.8448109789345996  0.2928564460755118  0.5101655618979776
  0.5033000945418143  0.9762541414442272  0.1370899550140464
  0.3225990828725810  0.6361595902042265  0.5140409675182774
  0.0455220254687104  0.3151150806147291  0.5259025429086048
  0.6452545631034615  0.0456245812803383  0.5019885578937405
  0.0237536519210301  0.6980787205402950  0.7959700812856201
  0.3556925600770182  0.0274906206620200  0.1314991531118644
  0.2916696963487053  0.0222707401320293  0.8045848134537026
  0.6201708149348268  0.3553992958606587  0.1659318565026250
  0.6952178658587292  0.2878748985819044  0.8160111134674132
  0.0263019414878098  0.6281810070838506  0.1327509315429571
  0.6486330631775955  0.9757392343845769  0.8391334969410853
  0.9818744174665421  0.3064195590051569  0.2088700351255610
  0.3890002848165144  0.6386952921966309  0.8493137757815044
  0.7170577231654454  0.9856626861097187  0.1526396306930008
  0.9727997002724567  0.3832137505597276  0.8675615986240053
  0.3209509127323507  0.7042101764936723  0.1825121778842264
  0.6906363251404363  0.3680242022608835  0.5494933630511954
  0.9578601966576632  0.6948539840076825  0.4650923877026525
  0.3609820842302035  0.9565635093656748  0.4668705740233274
  0.7678320364809410  0.4009247195607499  0.3082298159843765
  0.6711003395709694  0.4760036771634765  0.7644871407308832
  0.7843833883733674  0.2463846560920286  0.4507534360854981
 
  0.00000000E+00  0.00000000E+00  0.00000000E+00
  0.00000000E+00  0.00000000E+00  0.00000000E+00
  0.00000000E+00  0.00000000E+00  0.00000000E+00
  0.00000000E+00  0.00000000E+00  0.00000000E+00
  0.00000000E+00  0.00000000E+00  0.00000000E+00
  0.00000000E+00  0.00000000E+00  0.00000000E+00
  0.00000000E+00  0.00000000E+00  0.00000000E+00
  0.00000000E+00  0.00000000E+00  0.00000000E+00
  0.00000000E+00  0.00000000E+00  0.00000000E+00
  0.00000000E+00  0.00000000E+00  0.00000000E+00
  0.00000000E+00  0.00000000E+00  0.00000000E+00
  0.00000000E+00  0.00000000E+00  0.00000000E+00
  0.00000000E+00  0.00000000E+00  0.00000000E+00
  0.00000000E+00  0.00000000E+00  0.00000000E+00
  0.00000000E+00  0.00000000E+00  0.00000000E+00
  0.00000000E+00  0.00000000E+00  0.00000000E+00
  0.00000000E+00  0.00000000E+00  0.00000000E+00
  0.00000000E+00  0.00000000E+00  0.00000000E+00
  0.00000000E+00  0.00000000E+00  0.00000000E+00
  0.00000000E+00  0.00000000E+00  0.00000000E+00
  0.00000000E+00  0.00000000E+00  0.00000000E+00
  0.00000000E+00  0.00000000E+00  0.00000000E+00
  0.00000000E+00  0.00000000E+00  0.00000000E+00
  0.00000000E+00  0.00000000E+00  0.00000000E+00
  0.00000000E+00  0.00000000E+00  0.00000000E+00
  0.00000000E+00  0.00000000E+00  0.00000000E+00
  0.00000000E+00  0.00000000E+00  0.00000000E+00
  0.00000000E+00  0.00000000E+00  0.00000000E+00
  0.00000000E+00  0.00000000E+00  0.00000000E+00
  0.00000000E+00  0.00000000E+00  0.00000000E+00
  0.00000000E+00  0.00000000E+00  0.00000000E+00
  0.00000000E+00  0.00000000E+00  0.00000000E+00
  0.00000000E+00  0.00000000E+00  0.00000000E+00
  0.00000000E+00  0.00000000E+00  0.00000000E+00
  0.00000000E+00  0.00000000E+00  0.00000000E+00
  0.00000000E+00  0.00000000E+00  0.00000000E+00
  0.00000000E+00  0.00000000E+00  0.00000000E+00
  0.00000000E+00  0.00000000E+00  0.00000000E+00
  0.00000000E+00  0.00000000E+00  0.00000000E+00
  0.00000000E+00  0.00000000E+00  0.00000000E+00
  0.00000000E+00  0.00000000E+00  0.00000000E+00
  0.00000000E+00  0.00000000E+00  0.00000000E+00
  0.00000000E+00  0.00000000E+00  0.00000000E+00
  0.00000000E+00  0.00000000E+00  0.00000000E+00
  0.00000000E+00  0.00000000E+00  0.00000000E+00
  0.00000000E+00  0.00000000E+00  0.00000000E+00
  0.00000000E+00  0.00000000E+00  0.00000000E+00
  0.00000000E+00  0.00000000E+00  0.00000000E+00
  0.00000000E+00  0.00000000E+00  0.00000000E+00
  0.00000000E+00  0.00000000E+00  0.00000000E+00
  0.00000000E+00  0.00000000E+00  0.00000000E+00
  0.00000000E+00  0.00000000E+00  0.00000000E+00
  0.00000000E+00  0.00000000E+00  0.00000000E+00
  0.00000000E+00  0.00000000E+00  0.00000000E+00
  0.00000000E+00  0.00000000E+00  0.00000000E+00
  0.00000000E+00  0.00000000E+00  0.00000000E+00
  0.00000000E+00  0.00000000E+00  0.00000000E+00
  0.00000000E+00  0.00000000E+00  0.00000000E+00
  0.00000000E+00  0.00000000E+00  0.00000000E+00
  0.00000000E+00  0.00000000E+00  0.00000000E+00
  0.00000000E+00  0.00000000E+00  0.00000000E+00
  0.00000000E+00  0.00000000E+00  0.00000000E+00
  0.00000000E+00  0.00000000E+00  0.00000000E+00
  0.00000000E+00  0.00000000E+00  0.00000000E+00
  0.00000000E+00  0.00000000E+00  0.00000000E+00
  0.00000000E+00  0.00000000E+00  0.00000000E+00
  0.00000000E+00  0.00000000E+00  0.00000000E+00
  0.00000000E+00  0.00000000E+00  0.00000000E+00
  0.00000000E+00  0.00000000E+00  0.00000000E+00
  0.00000000E+00  0.00000000E+00  0.00000000E+00
  0.00000000E+00  0.00000000E+00  0.00000000E+00
  0.00000000E+00  0.00000000E+00  0.00000000E+00
  0.00000000E+00  0.00000000E+00  0.00000000E+00
  0.00000000E+00  0.00000000E+00  0.00000000E+00
  0.00000000E+00  0.00000000E+00  0.00000000E+00
  0.00000000E+00  0.00000000E+00  0.00000000E+00
  0.00000000E+00  0.00000000E+00  0.00000000E+00
  0.00000000E+00  0.00000000E+00  0.00000000E+00
  0.00000000E+00  0.00000000E+00  0.00000000E+00
  0.00000000E+00  0.00000000E+00  0.00000000E+00
  0.00000000E+00  0.00000000E+00  0.00000000E+00
  0.00000000E+00  0.00000000E+00  0.00000000E+00
  0.00000000E+00  0.00000000E+00  0.00000000E+00
  0.00000000E+00  0.00000000E+00  0.00000000E+00
  0.00000000E+00  0.00000000E+00  0.00000000E+00
  0.00000000E+00  0.00000000E+00  0.00000000E+00
  0.00000000E+00  0.00000000E+00  0.00000000E+00
  0.00000000E+00  0.00000000E+00  0.00000000E+00
  0.00000000E+00  0.00000000E+00  0.00000000E+00
  0.00000000E+00  0.00000000E+00  0.00000000E+00
  0.00000000E+00  0.00000000E+00  0.00000000E+00
  0.00000000E+00  0.00000000E+00  0.00000000E+00
  0.00000000E+00  0.00000000E+00  0.00000000E+00
  0.00000000E+00  0.00000000E+00  0.00000000E+00
  0.00000000E+00  0.00000000E+00  0.00000000E+00
  0.00000000E+00  0.00000000E+00  0.00000000E+00
  0.00000000E+00  0.00000000E+00  0.00000000E+00
  0.00000000E+00  0.00000000E+00  0.00000000E+00
  0.00000000E+00  0.00000000E+00  0.00000000E+00
  0.00000000E+00  0.00000000E+00  0.00000000E+00
  0.00000000E+00  0.00000000E+00  0.00000000E+00
  0.00000000E+00  0.00000000E+00  0.00000000E+00
  0.00000000E+00  0.00000000E+00  0.00000000E+00
  0.00000000E+00  0.00000000E+00  0.00000000E+00
  0.00000000E+00  0.00000000E+00  0.00000000E+00
  0.00000000E+00  0.00000000E+00  0.00000000E+00
  0.00000000E+00  0.00000000E+00  0.00000000E+00
  0.00000000E+00  0.00000000E+00  0.00000000E+00
  0.00000000E+00  0.00000000E+00  0.00000000E+00
  0.00000000E+00  0.00000000E+00  0.00000000E+00
  0.00000000E+00  0.00000000E+00  0.00000000E+00
  0.00000000E+00  0.00000000E+00  0.00000000E+00
  0.00000000E+00  0.00000000E+00  0.00000000E+00
  0.00000000E+00  0.00000000E+00  0.00000000E+00
  0.00000000E+00  0.00000000E+00  0.00000000E+00
  0.00000000E+00  0.00000000E+00  0.00000000E+00
  0.00000000E+00  0.00000000E+00  0.00000000E+00
  0.00000000E+00  0.00000000E+00  0.00000000E+00
  0.00000000E+00  0.00000000E+00  0.00000000E+00
  0.00000000E+00  0.00000000E+00  0.00000000E+00
  0.00000000E+00  0.00000000E+00  0.00000000E+00
  0.00000000E+00  0.00000000E+00  0.00000000E+00
  0.00000000E+00  0.00000000E+00  0.00000000E+00
  0.00000000E+00  0.00000000E+00  0.00000000E+00
  0.00000000E+00  0.00000000E+00  0.00000000E+00
  0.00000000E+00  0.00000000E+00  0.00000000E+00
  0.00000000E+00  0.00000000E+00  0.00000000E+00
  0.00000000E+00  0.00000000E+00  0.00000000E+00
  0.00000000E+00  0.00000000E+00  0.00000000E+00
  0.00000000E+00  0.00000000E+00  0.00000000E+00
  0.00000000E+00  0.00000000E+00  0.00000000E+00
  0.00000000E+00  0.00000000E+00  0.00000000E+00
  0.00000000E+00  0.00000000E+00  0.00000000E+00
  0.00000000E+00  0.00000000E+00  0.00000000E+00
  0.00000000E+00  0.00000000E+00  0.00000000E+00
  0.00000000E+00  0.00000000E+00  0.00000000E+00
  0.00000000E+00  0.00000000E+00  0.00000000E+00
  0.00000000E+00  0.00000000E+00  0.00000000E+00
  0.00000000E+00  0.00000000E+00  0.00000000E+00
  0.00000000E+00  0.00000000E+00  0.00000000E+00
  0.00000000E+00  0.00000000E+00  0.00000000E+00
  0.00000000E+00  0.00000000E+00  0.00000000E+00
  0.00000000E+00  0.00000000E+00  0.00000000E+00
  0.00000000E+00  0.00000000E+00  0.00000000E+00
  0.00000000E+00  0.00000000E+00  0.00000000E+00
  0.00000000E+00  0.00000000E+00  0.00000000E+00
  0.00000000E+00  0.00000000E+00  0.00000000E+00
  0.00000000E+00  0.00000000E+00  0.00000000E+00
  0.00000000E+00  0.00000000E+00  0.00000000E+00
  0.00000000E+00  0.00000000E+00  0.00000000E+00
  0.00000000E+00  0.00000000E+00  0.00000000E+00
  0.00000000E+00  0.00000000E+00  0.00000000E+00
  0.00000000E+00  0.00000000E+00  0.00000000E+00
  0.00000000E+00  0.00000000E+00  0.00000000E+00
  0.00000000E+00  0.00000000E+00  0.00000000E+00
  0.00000000E+00  0.00000000E+00  0.00000000E+00
  0.00000000E+00  0.00000000E+00  0.00000000E+00
  0.00000000E+00  0.00000000E+00  0.00000000E+00
  0.00000000E+00  0.00000000E+00  0.00000000E+00
  0.00000000E+00  0.00000000E+00  0.00000000E+00
  0.00000000E+00  0.00000000E+00  0.00000000E+00
  0.00000000E+00  0.00000000E+00  0.00000000E+00
  0.00000000E+00  0.00000000E+00  0.00000000E+00
  0.00000000E+00  0.00000000E+00  0.00000000E+00
  0.00000000E+00  0.00000000E+00  0.00000000E+00
  0.00000000E+00  0.00000000E+00  0.00000000E+00
  0.00000000E+00  0.00000000E+00  0.00000000E+00
  0.00000000E+00  0.00000000E+00  0.00000000E+00
  0.00000000E+00  0.00000000E+00  0.00000000E+00
  0.00000000E+00  0.00000000E+00  0.00000000E+00
  0.00000000E+00  0.00000000E+00  0.00000000E+00
  0.00000000E+00  0.00000000E+00  0.00000000E+00
  0.00000000E+00  0.00000000E+00  0.00000000E+00
  0.00000000E+00  0.00000000E+00  0.00000000E+00
