O  C  H  Co Li                          
   1.00000000000000     
    25.9140521502021421   -0.2871211230436168    0.1701333891599712
    12.7059251859649507   22.0118308789054637    0.1970994189118811
     0.0454355590488143    0.0339423568280849    6.8256439527867787
   O    C    H    Co   Li
    60    75    18    18     3
Direct
  0.0633004724240963  0.2549629652358148  0.3288758982580416
  0.0383354166801674  0.3043845528433888  0.9752362393021583
  0.1040666713444737  0.2644563099063326  0.7302343373233449
  0.3998440904923214  0.5758625874982822  0.6475827515266155
  0.6945339370514565  0.0586029149167611  0.2905645525165724
  0.6865491753575266  0.0268175952935214  0.9151047774625082
  0.6562793628924680  0.0973747529922312  0.6859774209646221
  0.0180380460473565  0.3986990438434463  0.6613555436230618
  0.2628259484874717  0.6820720487454218  0.3122584277433939
  0.3083746782024238  0.6588041731553312  0.9519922713539510
  0.2650536288330840  0.6349538523124721  0.7161049960537789
  0.5849365721080212  0.0302029502686434  0.6330654833641062
  0.3006087220503560  0.0360293094654129  0.3655323692239947
  0.2339042983537661  0.0765394381993172  0.6059122528727751
  0.6463622108775250  0.4159123816341849  0.7986190901700101
  0.5743435296289772  0.4070230089212170  0.9535804970909061
  0.2761997023396610  0.0833866553865609  0.0056783696270399
  0.5726371657090991  0.3261855845054313  0.3085509087728286
  0.6268823445618632  0.2693697934407380  0.5596953371135166
 -0.0042075222175592  0.6428263037256774  0.7044069812411237
  0.0246108011699577  0.5725438188035586  0.9389390982730513
  0.6377569202415573  0.2824303197205708  0.9660101187805122
  0.0379289881742225  0.6728223098492707  0.3672205318476893
  0.0788097022714539  0.7013489121224349  0.5975435661675693
  0.3710984477418725  0.0013953130273152  0.6965724856369625
  0.4106667889400893  0.0307002777716209  0.9292241830875038
  0.0820998886493775  0.6522212358842885  0.0027196718470675
  0.6938740147558279  0.9578662411008900  0.5838442320446307
  0.7661716278750320  0.9318790868377255  0.3648609081232116
  0.3782225882261170  0.6185440288735446  0.2814575640205018
  0.4481334853151972  0.5806145926920506  0.0517429132400443
  0.7228486592345703  0.9193633920791626  0.9749350686105233
  0.3486252081945466  0.6918288417253936  0.6144844525835380
  0.3182197010266385  0.7625574628828218  0.3817752097246870
  0.9963757323188620  0.3740777512954594  0.3068511819802999
  0.9652731036966605  0.4437554348684609  0.0686646779633936
  0.3681775910017692  0.7163357812006519  0.9783974694166304
  0.9683141517150836  0.3315184293318863  0.6463226584928703
  0.9297819131006124  0.3006995630697505  0.4131660351157679
  0.6264327385557563  0.0157307041630530  0.2512963959827185
  0.5899561988367718  0.9782775502978394  0.0363500054769002
  0.9225705949670792  0.3503948408761582  0.0073782346567772
  0.9433015195689669  0.7597112148150351  0.6644183556904106
  0.9683304546226761  0.7151410526577960  0.0343398621633081
  0.8984468017801719  0.7530793173459407  0.2641424951528571
  0.6222330948169960  0.4052911657462279  0.3809248754608369
  0.3152185136837453  0.9402741934294848  0.6734183667788289
  0.3347049195000267  0.9649592586169891  0.0348764479165951
  0.3662637867501507  0.8943576797640597  0.2686444597793766
  0.9766982096494179  0.6174509992605549  0.3410235159229352
  0.7621173298871278  0.2904471045084732  0.6971527568291691
  0.7114773579356538  0.3122098186402446  0.0668465941032391
  0.7629303799405441  0.3222102182313571  0.3082393464709713
  0.4161228117473790  0.9802758743381907  0.3344315149079835
  0.7252479336663692  0.4258777741350939  0.5448443533710273
  0.6504649173267029  0.5223208543209904  0.5298792190359749
  0.7052099817158632  0.4767466301960631  0.2560547739804693
  0.7230646034995216  0.2307100580681959  0.4567300986502502
  0.8481858753732150  0.1524878744397893  0.5016607067470196
  0.8073217167789253  0.0943530844627013  0.6258652284621563
  0.1148707535221337  0.2148536025947474  0.2457318287928044
  0.1566700893515639  0.1688667947328067  0.3642587160279534
  0.0885296501762668  0.2640200780216692  0.9075042599351082
  0.1290753935728603  0.2159174173132970  0.0433206851500545
  0.4527693627047102  0.5364032076665997  0.5717033129679443
  0.4946699636087910  0.4952560560263380  0.7027020441727102
  0.6763861744889474  0.1133385581664319  0.2057918820930915
  0.6555449383532372  0.1646248086489208  0.3225158590947354
  0.6735822630476314  0.0808473078549843  0.8600387638106380
  0.6745889043487706  0.1233597597443106 -0.0011012406466776
  0.0065455903600434  0.4517674548872438  0.5794119242699830
  0.0104146963990981  0.4941228121715680  0.6975172418324537
  0.2196500352822530  0.6746679949694157  0.2324480468929275
  0.1728338358126122  0.6813801475817345  0.3529088878950797
  0.2662044775894856  0.6507010904885905  0.8908370355467228
  0.2185006729356715  0.6603945839479227  0.0312735697006155
  0.5450165207946481  0.0175877521342574  0.5543125262440971
  0.5005202972757652  0.0197615723570207  0.6778635296441007
  0.2501443070056539  0.0767437008345496  0.4297025953545847
  0.2107993932227086  0.1243332520708223  0.2910156280800220
  0.5937664285004896  0.4227126586815543  0.8060142933073985
  0.5519976900810777  0.4548840444330048  0.6450308119399003
  0.2251936704842327  0.1247813963838217  0.0881166055784178
  0.1834003562088636  0.1713471862088238  0.9699566441980433
  0.6105723275076530  0.2745788777981473  0.3671020711066985
  0.6372689901751044  0.2220116740007156  0.2419607287897126
  0.0075439497546118  0.5900202825536517  0.7647061724858139
  0.0004139360530614  0.5499629523725615  0.6257453497453002
  0.6458566662764921  0.2295665779879161  0.0379095197920093
  0.6635988585319752  0.1790518860826710  0.9213787207828384
  0.0788217896392921  0.6835536759148321  0.4246366480744857
  0.1262350238561048  0.6742174765222716  0.2837787826899324
  0.4108062641710586  0.0137462207264854  0.7551606042571186
  0.4567629926299986  0.0076579034673729  0.6124008683654603
  0.1251251692962234  0.6598226485269860  0.0825256183862071
  0.1718848919713244  0.6533312806110381  0.9620044111397320
  0.7487868924640980  0.9265373009895391  0.5358005805629852
  0.7904920393563450  0.8841144546681617  0.6847809411877843
  0.4308591349286382  0.5796853160594805  0.2260561824204507
  0.4701395128228535  0.5347169639896746  0.3717220233602388
  0.7755816882020811  0.8833220381520294  0.8888795097298486
  0.8193821224913768  0.8403314735846336  0.0108353572769442
  0.3351940740147420  0.7453350233956211  0.5561461629871559
  0.3400848891478152  0.7861151415221946  0.6980392567844189
  0.9837873227444027  0.4267334886391861  0.2426306586851311
  0.9910385952826373  0.4674208345130554  0.3779474038304804
  0.3557707005603247  0.7699657662866672  0.8987467463696943
  0.3577683029426183  0.8127809031201056  0.0203235872558772
  0.9302030773351445  0.3171460387270411  0.5881725906107882
  0.8858447472974328  0.3193015446790055  0.7312955301492399
  0.5894891329500122  0.9981635072220896  0.2070667776388815
  0.5450491685508453  0.0021835494777584  0.3535389261579648
  0.8851711187634816  0.3340174623902672  0.9334662846831842
  0.8436799703447643  0.3295569958092580  0.0555474197020259
  0.8907177512215811  0.7991207164601931  0.7431525066343923
  0.8474087810893307  0.8426795840745033  0.6201548752903170
  0.9157372384500181  0.7537037009982637  0.0896566928033169
  0.8757016580114124  0.7986501778922825  0.9451036157822251
  0.5684878467181554  0.4499518512237520  0.4442740062379325
  0.5271864602763549  0.4910825509870049  0.3124945142978666
  0.3283820275762513  0.8864007047076210  0.7528115911006837
  0.3267257241599671  0.8434951987715590  0.6310712085733432
  0.3489406138685652  0.9113189784343249  0.0944275635071916
  0.3443141633617909  0.8701977770842899  0.9533254904984387
  0.9858006763538031  0.5653681903430046  0.4237064760420081
  0.9810767309268912  0.5232798221036111  0.3059424735135285
  0.8008970014735270  0.3035015243346421  0.7847274777326892
  0.8448098431847403  0.3038446309480250  0.6647720696037377
  0.7563185961106673  0.3164464681613338  0.1243027071042909
  0.8005250959652328  0.3158829059948926  0.9862240642105045
  0.4567308779781505  0.9921309513984552  0.4119178439746410
  0.5014678945142103  0.9895128850885254  0.2888561643748376
  0.6904188143351830  0.4792319452556466  0.4355215080894505
  0.8269158739079185  0.1237829675738766  0.5635489437505447
  0.6866895348656903  0.2570610889897425  0.5906721555460164
  0.1461928442586264  0.1676690988479637  0.5189798442493749
  0.4823974688764390  0.4974241286110789  0.8567349100944417
  0.6518331637788906  0.1598698824544273  0.4802146463687472
  0.0220152876141123  0.4827125065998253  0.8512774970428494
  0.1730858129082589  0.6923873791871475  0.5065772502002009
  0.5001962094228646  0.0316233885120855  0.8308566821092581
  0.1938973172976961  0.1725017920549827  0.8152273086049208
  0.6660447652399133  0.1834435114870991  0.7632853087215618
  0.1717372242987019  0.6422115343413718  0.8084203131797707
  0.8081776037067357  0.8394764302005256  0.1648527360657238
  0.3699171504958777  0.8007297863607590  0.1733461743049477
  0.8490886391536936  0.3331738509284730  0.2127231320135095
  0.8584826148518802  0.8431324960427640  0.4656783912261353
  0.5393680151355287  0.4901774668062641  0.1588653139546261
  0.3147983770687265  0.8554525626649218  0.4778465434030952
  0.9696110148891003  0.5347186280152550  0.1521269908921858
  0.8466840879419476  0.2928516121041984  0.5100000596659400
  0.5016858330077094  0.9777461519359811  0.1358263360178585
  0.3227701623036764  0.6341196356167458  0.5156392394238831
  0.0466732152556210  0.3165072523315187  0.5282043444981263
  0.6444816051751076  0.0461066148110269  0.4985382794425045
  0.0219335488681773  0.7008882081511101  0.7978497528762125
  0.3554974924753417  0.0263460917624199  0.1315146402301815
  0.2916379679524711  0.0208436530512522  0.8047706298883247
  0.6221103448604396  0.3542312864229158  0.1651504912137750
  0.6972715564492843  0.2870451763321483  0.8142772984728270
  0.0241514806192089  0.6311468183018835  0.1349469910012287
  0.6458005162048551  0.9774979650729499  0.8348692252219923
  0.9832241880827487  0.3073245147526841  0.2103783613383628
  0.3892289532382603  0.6364261401720631  0.8500397671236450
  0.7153354160102003  0.9850840439520553  0.1492691863128536
  0.9735345161991776  0.3842444547286130  0.8696947960593789
  0.3215524792567717  0.7022082377073963  0.1835304662810394
  0.6920736322584499  0.3673388208883662  0.5488087757400131
  0.9559658815752939  0.6977616089387452  0.4671823651173161
  0.3610441447827301  0.9551799524745891  0.4674582841395883
  0.7693158066113622  0.4004137843725102  0.3087968981506346
  0.6720608936864655  0.4755374493536431  0.7640623109405257
  0.7869240356279524  0.2454153318749388  0.4509013246616999
 
  0.00000000E+00  0.00000000E+00  0.00000000E+00
  0.00000000E+00  0.00000000E+00  0.00000000E+00
  0.00000000E+00  0.00000000E+00  0.00000000E+00
  0.00000000E+00  0.00000000E+00  0.00000000E+00
  0.00000000E+00  0.00000000E+00  0.00000000E+00
  0.00000000E+00  0.00000000E+00  0.00000000E+00
  0.00000000E+00  0.00000000E+00  0.00000000E+00
  0.00000000E+00  0.00000000E+00  0.00000000E+00
  0.00000000E+00  0.00000000E+00  0.00000000E+00
  0.00000000E+00  0.00000000E+00  0.00000000E+00
  0.00000000E+00  0.00000000E+00  0.00000000E+00
  0.00000000E+00  0.00000000E+00  0.00000000E+00
  0.00000000E+00  0.00000000E+00  0.00000000E+00
  0.00000000E+00  0.00000000E+00  0.00000000E+00
  0.00000000E+00  0.00000000E+00  0.00000000E+00
  0.00000000E+00  0.00000000E+00  0.00000000E+00
  0.00000000E+00  0.00000000E+00  0.00000000E+00
  0.00000000E+00  0.00000000E+00  0.00000000E+00
  0.00000000E+00  0.00000000E+00  0.00000000E+00
  0.00000000E+00  0.00000000E+00  0.00000000E+00
  0.00000000E+00  0.00000000E+00  0.00000000E+00
  0.00000000E+00  0.00000000E+00  0.00000000E+00
  0.00000000E+00  0.00000000E+00  0.00000000E+00
  0.00000000E+00  0.00000000E+00  0.00000000E+00
  0.00000000E+00  0.00000000E+00  0.00000000E+00
  0.00000000E+00  0.00000000E+00  0.00000000E+00
  0.00000000E+00  0.00000000E+00  0.00000000E+00
  0.00000000E+00  0.00000000E+00  0.00000000E+00
  0.00000000E+00  0.00000000E+00  0.00000000E+00
  0.00000000E+00  0.00000000E+00  0.00000000E+00
  0.00000000E+00  0.00000000E+00  0.00000000E+00
  0.00000000E+00  0.00000000E+00  0.00000000E+00
  0.00000000E+00  0.00000000E+00  0.00000000E+00
  0.00000000E+00  0.00000000E+00  0.00000000E+00
  0.00000000E+00  0.00000000E+00  0.00000000E+00
  0.00000000E+00  0.00000000E+00  0.00000000E+00
  0.00000000E+00  0.00000000E+00  0.00000000E+00
  0.00000000E+00  0.00000000E+00  0.00000000E+00
  0.00000000E+00  0.00000000E+00  0.00000000E+00
  0.00000000E+00  0.00000000E+00  0.00000000E+00
  0.00000000E+00  0.00000000E+00  0.00000000E+00
  0.00000000E+00  0.00000000E+00  0.00000000E+00
  0.00000000E+00  0.00000000E+00  0.00000000E+00
  0.00000000E+00  0.00000000E+00  0.00000000E+00
  0.00000000E+00  0.00000000E+00  0.00000000E+00
  0.00000000E+00  0.00000000E+00  0.00000000E+00
  0.00000000E+00  0.00000000E+00  0.00000000E+00
  0.00000000E+00  0.00000000E+00  0.00000000E+00
  0.00000000E+00  0.00000000E+00  0.00000000E+00
  0.00000000E+00  0.00000000E+00  0.00000000E+00
  0.00000000E+00  0.00000000E+00  0.00000000E+00
  0.00000000E+00  0.00000000E+00  0.00000000E+00
  0.00000000E+00  0.00000000E+00  0.00000000E+00
  0.00000000E+00  0.00000000E+00  0.00000000E+00
  0.00000000E+00  0.00000000E+00  0.00000000E+00
  0.00000000E+00  0.00000000E+00  0.00000000E+00
  0.00000000E+00  0.00000000E+00  0.00000000E+00
  0.00000000E+00  0.00000000E+00  0.00000000E+00
  0.00000000E+00  0.00000000E+00  0.00000000E+00
  0.00000000E+00  0.00000000E+00  0.00000000E+00
  0.00000000E+00  0.00000000E+00  0.00000000E+00
  0.00000000E+00  0.00000000E+00  0.00000000E+00
  0.00000000E+00  0.00000000E+00  0.00000000E+00
  0.00000000E+00  0.00000000E+00  0.00000000E+00
  0.00000000E+00  0.00000000E+00  0.00000000E+00
  0.00000000E+00  0.00000000E+00  0.00000000E+00
  0.00000000E+00  0.00000000E+00  0.00000000E+00
  0.00000000E+00  0.00000000E+00  0.00000000E+00
  0.00000000E+00  0.00000000E+00  0.00000000E+00
  0.00000000E+00  0.00000000E+00  0.00000000E+00
  0.00000000E+00  0.00000000E+00  0.00000000E+00
  0.00000000E+00  0.00000000E+00  0.00000000E+00
  0.00000000E+00  0.00000000E+00  0.00000000E+00
  0.00000000E+00  0.00000000E+00  0.00000000E+00
  0.00000000E+00  0.00000000E+00  0.00000000E+00
  0.00000000E+00  0.00000000E+00  0.00000000E+00
  0.00000000E+00  0.00000000E+00  0.00000000E+00
  0.00000000E+00  0.00000000E+00  0.00000000E+00
  0.00000000E+00  0.00000000E+00  0.00000000E+00
  0.00000000E+00  0.00000000E+00  0.00000000E+00
  0.00000000E+00  0.00000000E+00  0.00000000E+00
  0.00000000E+00  0.00000000E+00  0.00000000E+00
  0.00000000E+00  0.00000000E+00  0.00000000E+00
  0.00000000E+00  0.00000000E+00  0.00000000E+00
  0.00000000E+00  0.00000000E+00  0.00000000E+00
  0.00000000E+00  0.00000000E+00  0.00000000E+00
  0.00000000E+00  0.00000000E+00  0.00000000E+00
  0.00000000E+00  0.00000000E+00  0.00000000E+00
  0.00000000E+00  0.00000000E+00  0.00000000E+00
  0.00000000E+00  0.00000000E+00  0.00000000E+00
  0.00000000E+00  0.00000000E+00  0.00000000E+00
  0.00000000E+00  0.00000000E+00  0.00000000E+00
  0.00000000E+00  0.00000000E+00  0.00000000E+00
  0.00000000E+00  0.00000000E+00  0.00000000E+00
  0.00000000E+00  0.00000000E+00  0.00000000E+00
  0.00000000E+00  0.00000000E+00  0.00000000E+00
  0.00000000E+00  0.00000000E+00  0.00000000E+00
  0.00000000E+00  0.00000000E+00  0.00000000E+00
  0.00000000E+00  0.00000000E+00  0.00000000E+00
  0.00000000E+00  0.00000000E+00  0.00000000E+00
  0.00000000E+00  0.00000000E+00  0.00000000E+00
  0.00000000E+00  0.00000000E+00  0.00000000E+00
  0.00000000E+00  0.00000000E+00  0.00000000E+00
  0.00000000E+00  0.00000000E+00  0.00000000E+00
  0.00000000E+00  0.00000000E+00  0.00000000E+00
  0.00000000E+00  0.00000000E+00  0.00000000E+00
  0.00000000E+00  0.00000000E+00  0.00000000E+00
  0.00000000E+00  0.00000000E+00  0.00000000E+00
  0.00000000E+00  0.00000000E+00  0.00000000E+00
  0.00000000E+00  0.00000000E+00  0.00000000E+00
  0.00000000E+00  0.00000000E+00  0.00000000E+00
  0.00000000E+00  0.00000000E+00  0.00000000E+00
  0.00000000E+00  0.00000000E+00  0.00000000E+00
  0.00000000E+00  0.00000000E+00  0.00000000E+00
  0.00000000E+00  0.00000000E+00  0.00000000E+00
  0.00000000E+00  0.00000000E+00  0.00000000E+00
  0.00000000E+00  0.00000000E+00  0.00000000E+00
  0.00000000E+00  0.00000000E+00  0.00000000E+00
  0.00000000E+00  0.00000000E+00  0.00000000E+00
  0.00000000E+00  0.00000000E+00  0.00000000E+00
  0.00000000E+00  0.00000000E+00  0.00000000E+00
  0.00000000E+00  0.00000000E+00  0.00000000E+00
  0.00000000E+00  0.00000000E+00  0.00000000E+00
  0.00000000E+00  0.00000000E+00  0.00000000E+00
  0.00000000E+00  0.00000000E+00  0.00000000E+00
  0.00000000E+00  0.00000000E+00  0.00000000E+00
  0.00000000E+00  0.00000000E+00  0.00000000E+00
  0.00000000E+00  0.00000000E+00  0.00000000E+00
  0.00000000E+00  0.00000000E+00  0.00000000E+00
  0.00000000E+00  0.00000000E+00  0.00000000E+00
  0.00000000E+00  0.00000000E+00  0.00000000E+00
  0.00000000E+00  0.00000000E+00  0.00000000E+00
  0.00000000E+00  0.00000000E+00  0.00000000E+00
  0.00000000E+00  0.00000000E+00  0.00000000E+00
  0.00000000E+00  0.00000000E+00  0.00000000E+00
  0.00000000E+00  0.00000000E+00  0.00000000E+00
  0.00000000E+00  0.00000000E+00  0.00000000E+00
  0.00000000E+00  0.00000000E+00  0.00000000E+00
  0.00000000E+00  0.00000000E+00  0.00000000E+00
  0.00000000E+00  0.00000000E+00  0.00000000E+00
  0.00000000E+00  0.00000000E+00  0.00000000E+00
  0.00000000E+00  0.00000000E+00  0.00000000E+00
  0.00000000E+00  0.00000000E+00  0.00000000E+00
  0.00000000E+00  0.00000000E+00  0.00000000E+00
  0.00000000E+00  0.00000000E+00  0.00000000E+00
  0.00000000E+00  0.00000000E+00  0.00000000E+00
  0.00000000E+00  0.00000000E+00  0.00000000E+00
  0.00000000E+00  0.00000000E+00  0.00000000E+00
  0.00000000E+00  0.00000000E+00  0.00000000E+00
  0.00000000E+00  0.00000000E+00  0.00000000E+00
  0.00000000E+00  0.00000000E+00  0.00000000E+00
  0.00000000E+00  0.00000000E+00  0.00000000E+00
  0.00000000E+00  0.00000000E+00  0.00000000E+00
  0.00000000E+00  0.00000000E+00  0.00000000E+00
  0.00000000E+00  0.00000000E+00  0.00000000E+00
  0.00000000E+00  0.00000000E+00  0.00000000E+00
  0.00000000E+00  0.00000000E+00  0.00000000E+00
  0.00000000E+00  0.00000000E+00  0.00000000E+00
  0.00000000E+00  0.00000000E+00  0.00000000E+00
  0.00000000E+00  0.00000000E+00  0.00000000E+00
  0.00000000E+00  0.00000000E+00  0.00000000E+00
  0.00000000E+00  0.00000000E+00  0.00000000E+00
  0.00000000E+00  0.00000000E+00  0.00000000E+00
  0.00000000E+00  0.00000000E+00  0.00000000E+00
  0.00000000E+00  0.00000000E+00  0.00000000E+00
  0.00000000E+00  0.00000000E+00  0.00000000E+00
  0.00000000E+00  0.00000000E+00  0.00000000E+00
  0.00000000E+00  0.00000000E+00  0.00000000E+00
  0.00000000E+00  0.00000000E+00  0.00000000E+00
  0.00000000E+00  0.00000000E+00  0.00000000E+00
  0.00000000E+00  0.00000000E+00  0.00000000E+00
  0.00000000E+00  0.00000000E+00  0.00000000E+00
  0.00000000E+00  0.00000000E+00  0.00000000E+00
  0.00000000E+00  0.00000000E+00  0.00000000E+00
