O  C  H  Co Li                          
   1.00000000000000     
    25.8563516024014284   -0.2289984365547751    0.1690313505240776
    12.7289717639618978   22.1977644403067735    0.2186627303878139
     0.0452214509579581    0.0411055112083237    6.8222358334687065
   O    C    H    Co   Li
    60    75    18    18     3
Direct
  0.0616290372449208  0.2536473420742866  0.3278569703664534
  0.0367629657638202  0.3030384339934620  0.9737446208490860
  0.1026439894287210  0.2630836078775009  0.7288068247499268
  0.4003087326702453  0.5814689101724873  0.6447472040041253
  0.6899913757620081  0.0627326537769405  0.2963186253438942
  0.6830602522635415  0.0303588247834250  0.9272203045470717
  0.6490098063398722  0.1005685843347103  0.6962019522320629
  0.0185745325466093  0.3956792511051361  0.6608796874028732
  0.2629793550121918  0.6841687782349440  0.3101484510813963
  0.3098730187979184  0.6591031172003610  0.9541611086756471
  0.2662441336604293  0.6366562577350060  0.7150241808589153
  0.5904364239302857  0.0221865455989599  0.6385530057382892
  0.2997012838804486  0.0369356303347803  0.3631022146472896
  0.2331606069049027  0.0769816577216747  0.6047293147666983
  0.6445242805394475  0.4156937480783998  0.7973907479169716
  0.5711915460795985  0.4083173114629390  0.9499566112710244
  0.2754979001408949  0.0845038344415027  0.0047225830389699
  0.5680780882638733  0.3289960667316034  0.3082146121414778
  0.6219983852588211  0.2723864942919090  0.5607810964201149
  0.0038692999572528  0.6349442813960685  0.6984053704073279
  0.0297908650727213  0.5668219004947564  0.9388725330475881
  0.6339182755408623  0.2842347310348855  0.9675977122954116
  0.0392762083923862  0.6715656253742320  0.3623433665609751
  0.0811625868854880  0.6972981349001056  0.5979291816583359
  0.3697804299016371  0.0049612321080686  0.6923332951196791
  0.4111293494909178  0.0313939576252244  0.9274661057834099
  0.0848219962867164  0.6491231491678022  0.0034286015740076
  0.7023122239868362  0.9629832855151471  0.5995083775803300
  0.7722434992707864  0.9339100549577265  0.3685753076348547
  0.3801120083164937  0.6252757644388005  0.2839807118535730
  0.4482385265643950  0.5849802300250414  0.0486469500327645
  0.7297815838502640  0.9213104216738818  0.9785005952748536
  0.3443033264678677  0.6977726021275128  0.6171247739701616
  0.3165194476157719  0.7667325667336508  0.3796110833910171
  0.9957467596715013  0.3722752646815776  0.3055541615727718
  0.9661636483067403  0.4415287591779268  0.0675335267851383
  0.3663879191225901  0.7207851193512340  0.9759680820958200
  0.9665812491464987  0.3311303968705103  0.6449305553986983
  0.9273791041594551  0.3012761775218761  0.4114421773500537
  0.6345761354797806  0.0046180871325558  0.2670912152203280
  0.5955423045320798  0.9726715321253935  0.0418191947184771
  0.9204866417848561  0.3504508694128937  0.0058876934818511
  0.9451385935252690  0.7525257260969878  0.6632964434735579
  0.9687519389717801  0.7067684652614613  0.0269458397701589
  0.9008260210186767  0.7474967471674965  0.2626676779167142
  0.6198387115221796  0.4061861849905420  0.3773290459637461
  0.3150692310174862  0.9427804694356848  0.6725076672809460
  0.3356736010175352  0.9665199467669249  0.0322654926851118
  0.3661180476338278  0.8966558121117019  0.2674147557834387
  0.9819344519756195  0.6113088807580583  0.3413121649642683
  0.7592025708276294  0.2911027524305789  0.6960152269904624
  0.7086033781927887  0.3128533800063726  0.0660726227076889
  0.7599628925363556  0.3234253178072508  0.3066404749369595
  0.4157966969084695  0.9824291871293942  0.3321974905802216
  0.7235651575618072  0.4256305256921102  0.5439701367268447
  0.6488210136998435  0.5215057937128668  0.5305275097844300
  0.7031383314631977  0.4766543463648000  0.2556374376966745
  0.7184512566302772  0.2327434020452482  0.4556262062275803
  0.8459380703210875  0.1567998120739210  0.4923997755055154
  0.8097244179493184  0.0975427378641232  0.6394295689524083
  0.1133694189536592  0.2139853308130175  0.2447371116799397
  0.1554100777301292  0.1684037692628300  0.3633641595657828
  0.0870191977262497  0.2627782769937270  0.9062558110562320
  0.1275729680024670  0.2150783027560738  0.0422306398529484
  0.4526152651219137  0.5408186596051828  0.5686518768608002
  0.4933657395431097  0.4984925218860926  0.6994121246400082
  0.6710655806703805  0.1172816472505814  0.2113505457086987
  0.6491839434898208  0.1684216155401127  0.3268604587162013
  0.6683860265495839  0.0841335375981532  0.8686636818954105
  0.6696683971032582  0.1268803852946536  0.0043676781078203
  0.0086817048287185  0.4478749077424494  0.5788896324850507
  0.0141534936519521  0.4889896337178142  0.6972893110915769
  0.2206821198609917  0.6749700170060624  0.2313785907728110
  0.1742481164091694  0.6806471924120308  0.3523771171018173
  0.2676805868668427  0.6513241274718816  0.8906546310358552
  0.2201059248833655  0.6600225421243331  0.0309193071766446
  0.5494461058265160  0.0113025638823656  0.5589024046462552
  0.5037214316516583  0.0154826896068664  0.6805559382081814
  0.2492996349128425  0.0772520092609790  0.4283452544142828
  0.2097531414423097  0.1244864164739774  0.2899720609111475
  0.5913893616616476  0.4234982056097720  0.8032690906816512
  0.5501396000644293  0.4566373476674985  0.6415817157421376
  0.2241597416136609  0.1251097993702786  0.0870923473158909
  0.1820325135732350  0.1710707782139984  0.9686801901245042
  0.6053445281483497  0.2776358983220598  0.3681912719255261
  0.6316024531176091  0.2251726895861233  0.2445268741350425
  0.0137147672126050  0.5835076525071003  0.7633402788491271
  0.0055470893904108  0.5439969191799802  0.6256632974584287
  0.6411165220474646  0.2321969550739149  0.0406025034008447
  0.6587637779220501  0.1819196451460641  0.9248546993753354
  0.0807300190003230  0.6809801834322183  0.4234779341541872
  0.1282698919368819  0.6722592855246603  0.2834644347394186
  0.4109304542779579  0.0148292252528862  0.7533012533478872
  0.4582852912069350  0.0063876451801930  0.6122443752038618
  0.1275049164355841  0.6575593005645162  0.0826399079937341
  0.1741788197698306  0.6515771544569515  0.9620376363015946
  0.7557959684300011  0.9289874497164341  0.5419201522009947
  0.7966464856433795  0.8839528548389786  0.6871927042697621
  0.4315164425917311  0.5849025544308157  0.2243142123942284
  0.4701598461978480  0.5389822645441534  0.3688707497536555
  0.7816380584233468  0.8834283131892833  0.8917310226836832
  0.8238187298960302  0.8382626657638705  0.0120736550468515
  0.3324991019559780  0.7501595121402481  0.5552149879275557
  0.3379804021179117  0.7904799784756930  0.6964943387842376
  0.9845576562018878  0.4241945745263375  0.2415299925847643
  0.9932961608667100  0.4636447980014543  0.3771846898343627
  0.3539736293875139  0.7741590144165744  0.8969290928644025
  0.3566167012358724  0.8161907595701159  0.0189681163220758
  0.9280005057570399  0.3174389476216480  0.5865691933962432
  0.8833382879330897  0.3198524182722715  0.7295029287337275
  0.5955712564496120  0.9906778233373947  0.2148846044247419
  0.5493332106446323  0.9966676870662715  0.3575648946851280
  0.8827762429244753  0.3344455025339486  0.9316752488766347
  0.8410257105662848  0.3301927473730296  0.0535158291560083
  0.8936343385031209  0.7941111862597179  0.7420504685997856
  0.8519720041120248  0.8396254312977067  0.6201617968403416
  0.9176143492328451  0.7473908157214424  0.0870332075305682
  0.8787049843659066  0.7940679278335221  0.9444596057342661
  0.5667494412861337  0.4517575159305762  0.4408111995452779
  0.5264861179453462  0.4940251480658925  0.3091946407927267
  0.3276191810013045  0.8894175095499914  0.7516306097863754
  0.3251190610057715  0.8473401087012455  0.6296133538557593
  0.3490561732057211  0.9135224274629673  0.0928227760751125
  0.3437002246944778  0.8730828240523810  0.9520483170162467
  0.9906785844274325  0.5596120476772505  0.4238057437483675
  0.9847209273402824  0.5186875556732063  0.3056394015125483
  0.7981156113377487  0.3041616410683045  0.7829135836888428
  0.8421776704705521  0.3045040859157139  0.6630823650377453
  0.7534262376275848  0.3173826758561041  0.1227329794594635
  0.7977224730436002  0.3166766403819354  0.9843542001034057
  0.4579191999295917  0.9917808600094808  0.4109501048481052
  0.5039672815007444  0.9871385193904639  0.2895644809701224
  0.6886609005592793  0.4787902065697635  0.4354112564056803
  0.8270233717803959  0.1274157977731956  0.5659022891733814
  0.6825086938430420  0.2589543326034581  0.5906576848479428
  0.1450069442673859  0.1670874851757964  0.5182238473999531
  0.4807882304792708  0.5008514588469605  0.8533504145828832
  0.6443161144423939  0.1640112533612643  0.4845218284810994
  0.0256560730636172  0.4771643888093009  0.8510205662579139
  0.1742269798310373  0.6920658707740155  0.5057139293084451
  0.5036275701465939  0.0267612809094285  0.8340598261764033
  0.1923598987123089  0.1722468502869614  0.8138140122183084
  0.6610457289875289  0.1862081624911034  0.7664066816758686
  0.1745007544018979  0.6399104129909036  0.8088405581262775
  0.8122457571288513  0.8378795308855027  0.1660348550612440
  0.3689887827039812  0.8039419697788466  0.1718660262990402
  0.8464383556523274  0.3335608152353229  0.2109242648982330
  0.8628908231715195  0.8395557747559418  0.4652303000772581
  0.5390636764824351  0.4930054947918710  0.1557918551996073
  0.3130569781750652  0.8595361019968045  0.4764557887941493
  0.9731501826389874  0.5306196014540836  0.1520370290455143
  0.8440825529764372  0.2934285286124159  0.5084028333005522
  0.5037090288173142  0.9764134456258825  0.1355983666743010
  0.3228280967615568  0.6381771960001728  0.5135046058263726
  0.0455613835782983  0.3147537495325644  0.5263778960376839
  0.6450071817484240  0.0460286467542095  0.5045673476795913
  0.0247286029713957  0.6954154786916730  0.7973542297719319
  0.3552013914691368  0.0281030776600643  0.1298555584842014
  0.2912408145887584  0.0226479050246337  0.8041912859022221
  0.6184438606742606  0.3557780134121260  0.1633006360891234
  0.6940089535712768  0.2880250415204630  0.8142147122507422
  0.0278574077958731  0.6261243256980832  0.1346867440449972
  0.6507910956707604  0.9748386883294876  0.8432667057588706
  0.9814865933769671  0.3066332496766918  0.2085351925317699
  0.3889430360890838  0.6411129305909021  0.8479117730813084
  0.7181484680521838  0.9873116691430703  0.1557555624391590
  0.9727397760681794  0.3829145342664763  0.8686732301720114
  0.3206757926674732  0.7060629066568951  0.1814400969368995
  0.6895374968906858  0.3679838332823172  0.5465792862835654
  0.9590800329213820  0.6916425277101054  0.4654518228392758
  0.3606897956296994  0.9572691706414561  0.4653898252389668
  0.7672962273469524  0.4006406917713070  0.3069587779366216
  0.6707221277838247  0.4747469205846996  0.7643890633912584
  0.7823548906159324  0.2475430298599133  0.4469596526411027
 
  0.00000000E+00  0.00000000E+00  0.00000000E+00
  0.00000000E+00  0.00000000E+00  0.00000000E+00
  0.00000000E+00  0.00000000E+00  0.00000000E+00
  0.00000000E+00  0.00000000E+00  0.00000000E+00
  0.00000000E+00  0.00000000E+00  0.00000000E+00
  0.00000000E+00  0.00000000E+00  0.00000000E+00
  0.00000000E+00  0.00000000E+00  0.00000000E+00
  0.00000000E+00  0.00000000E+00  0.00000000E+00
  0.00000000E+00  0.00000000E+00  0.00000000E+00
  0.00000000E+00  0.00000000E+00  0.00000000E+00
  0.00000000E+00  0.00000000E+00  0.00000000E+00
  0.00000000E+00  0.00000000E+00  0.00000000E+00
  0.00000000E+00  0.00000000E+00  0.00000000E+00
  0.00000000E+00  0.00000000E+00  0.00000000E+00
  0.00000000E+00  0.00000000E+00  0.00000000E+00
  0.00000000E+00  0.00000000E+00  0.00000000E+00
  0.00000000E+00  0.00000000E+00  0.00000000E+00
  0.00000000E+00  0.00000000E+00  0.00000000E+00
  0.00000000E+00  0.00000000E+00  0.00000000E+00
  0.00000000E+00  0.00000000E+00  0.00000000E+00
  0.00000000E+00  0.00000000E+00  0.00000000E+00
  0.00000000E+00  0.00000000E+00  0.00000000E+00
  0.00000000E+00  0.00000000E+00  0.00000000E+00
  0.00000000E+00  0.00000000E+00  0.00000000E+00
  0.00000000E+00  0.00000000E+00  0.00000000E+00
  0.00000000E+00  0.00000000E+00  0.00000000E+00
  0.00000000E+00  0.00000000E+00  0.00000000E+00
  0.00000000E+00  0.00000000E+00  0.00000000E+00
  0.00000000E+00  0.00000000E+00  0.00000000E+00
  0.00000000E+00  0.00000000E+00  0.00000000E+00
  0.00000000E+00  0.00000000E+00  0.00000000E+00
  0.00000000E+00  0.00000000E+00  0.00000000E+00
  0.00000000E+00  0.00000000E+00  0.00000000E+00
  0.00000000E+00  0.00000000E+00  0.00000000E+00
  0.00000000E+00  0.00000000E+00  0.00000000E+00
  0.00000000E+00  0.00000000E+00  0.00000000E+00
  0.00000000E+00  0.00000000E+00  0.00000000E+00
  0.00000000E+00  0.00000000E+00  0.00000000E+00
  0.00000000E+00  0.00000000E+00  0.00000000E+00
  0.00000000E+00  0.00000000E+00  0.00000000E+00
  0.00000000E+00  0.00000000E+00  0.00000000E+00
  0.00000000E+00  0.00000000E+00  0.00000000E+00
  0.00000000E+00  0.00000000E+00  0.00000000E+00
  0.00000000E+00  0.00000000E+00  0.00000000E+00
  0.00000000E+00  0.00000000E+00  0.00000000E+00
  0.00000000E+00  0.00000000E+00  0.00000000E+00
  0.00000000E+00  0.00000000E+00  0.00000000E+00
  0.00000000E+00  0.00000000E+00  0.00000000E+00
  0.00000000E+00  0.00000000E+00  0.00000000E+00
  0.00000000E+00  0.00000000E+00  0.00000000E+00
  0.00000000E+00  0.00000000E+00  0.00000000E+00
  0.00000000E+00  0.00000000E+00  0.00000000E+00
  0.00000000E+00  0.00000000E+00  0.00000000E+00
  0.00000000E+00  0.00000000E+00  0.00000000E+00
  0.00000000E+00  0.00000000E+00  0.00000000E+00
  0.00000000E+00  0.00000000E+00  0.00000000E+00
  0.00000000E+00  0.00000000E+00  0.00000000E+00
  0.00000000E+00  0.00000000E+00  0.00000000E+00
  0.00000000E+00  0.00000000E+00  0.00000000E+00
  0.00000000E+00  0.00000000E+00  0.00000000E+00
  0.00000000E+00  0.00000000E+00  0.00000000E+00
  0.00000000E+00  0.00000000E+00  0.00000000E+00
  0.00000000E+00  0.00000000E+00  0.00000000E+00
  0.00000000E+00  0.00000000E+00  0.00000000E+00
  0.00000000E+00  0.00000000E+00  0.00000000E+00
  0.00000000E+00  0.00000000E+00  0.00000000E+00
  0.00000000E+00  0.00000000E+00  0.00000000E+00
  0.00000000E+00  0.00000000E+00  0.00000000E+00
  0.00000000E+00  0.00000000E+00  0.00000000E+00
  0.00000000E+00  0.00000000E+00  0.00000000E+00
  0.00000000E+00  0.00000000E+00  0.00000000E+00
  0.00000000E+00  0.00000000E+00  0.00000000E+00
  0.00000000E+00  0.00000000E+00  0.00000000E+00
  0.00000000E+00  0.00000000E+00  0.00000000E+00
  0.00000000E+00  0.00000000E+00  0.00000000E+00
  0.00000000E+00  0.00000000E+00  0.00000000E+00
  0.00000000E+00  0.00000000E+00  0.00000000E+00
  0.00000000E+00  0.00000000E+00  0.00000000E+00
  0.00000000E+00  0.00000000E+00  0.00000000E+00
  0.00000000E+00  0.00000000E+00  0.00000000E+00
  0.00000000E+00  0.00000000E+00  0.00000000E+00
  0.00000000E+00  0.00000000E+00  0.00000000E+00
  0.00000000E+00  0.00000000E+00  0.00000000E+00
  0.00000000E+00  0.00000000E+00  0.00000000E+00
  0.00000000E+00  0.00000000E+00  0.00000000E+00
  0.00000000E+00  0.00000000E+00  0.00000000E+00
  0.00000000E+00  0.00000000E+00  0.00000000E+00
  0.00000000E+00  0.00000000E+00  0.00000000E+00
  0.00000000E+00  0.00000000E+00  0.00000000E+00
  0.00000000E+00  0.00000000E+00  0.00000000E+00
  0.00000000E+00  0.00000000E+00  0.00000000E+00
  0.00000000E+00  0.00000000E+00  0.00000000E+00
  0.00000000E+00  0.00000000E+00  0.00000000E+00
  0.00000000E+00  0.00000000E+00  0.00000000E+00
  0.00000000E+00  0.00000000E+00  0.00000000E+00
  0.00000000E+00  0.00000000E+00  0.00000000E+00
  0.00000000E+00  0.00000000E+00  0.00000000E+00
  0.00000000E+00  0.00000000E+00  0.00000000E+00
  0.00000000E+00  0.00000000E+00  0.00000000E+00
  0.00000000E+00  0.00000000E+00  0.00000000E+00
  0.00000000E+00  0.00000000E+00  0.00000000E+00
  0.00000000E+00  0.00000000E+00  0.00000000E+00
  0.00000000E+00  0.00000000E+00  0.00000000E+00
  0.00000000E+00  0.00000000E+00  0.00000000E+00
  0.00000000E+00  0.00000000E+00  0.00000000E+00
  0.00000000E+00  0.00000000E+00  0.00000000E+00
  0.00000000E+00  0.00000000E+00  0.00000000E+00
  0.00000000E+00  0.00000000E+00  0.00000000E+00
  0.00000000E+00  0.00000000E+00  0.00000000E+00
  0.00000000E+00  0.00000000E+00  0.00000000E+00
  0.00000000E+00  0.00000000E+00  0.00000000E+00
  0.00000000E+00  0.00000000E+00  0.00000000E+00
  0.00000000E+00  0.00000000E+00  0.00000000E+00
  0.00000000E+00  0.00000000E+00  0.00000000E+00
  0.00000000E+00  0.00000000E+00  0.00000000E+00
  0.00000000E+00  0.00000000E+00  0.00000000E+00
  0.00000000E+00  0.00000000E+00  0.00000000E+00
  0.00000000E+00  0.00000000E+00  0.00000000E+00
  0.00000000E+00  0.00000000E+00  0.00000000E+00
  0.00000000E+00  0.00000000E+00  0.00000000E+00
  0.00000000E+00  0.00000000E+00  0.00000000E+00
  0.00000000E+00  0.00000000E+00  0.00000000E+00
  0.00000000E+00  0.00000000E+00  0.00000000E+00
  0.00000000E+00  0.00000000E+00  0.00000000E+00
  0.00000000E+00  0.00000000E+00  0.00000000E+00
  0.00000000E+00  0.00000000E+00  0.00000000E+00
  0.00000000E+00  0.00000000E+00  0.00000000E+00
  0.00000000E+00  0.00000000E+00  0.00000000E+00
  0.00000000E+00  0.00000000E+00  0.00000000E+00
  0.00000000E+00  0.00000000E+00  0.00000000E+00
  0.00000000E+00  0.00000000E+00  0.00000000E+00
  0.00000000E+00  0.00000000E+00  0.00000000E+00
  0.00000000E+00  0.00000000E+00  0.00000000E+00
  0.00000000E+00  0.00000000E+00  0.00000000E+00
  0.00000000E+00  0.00000000E+00  0.00000000E+00
  0.00000000E+00  0.00000000E+00  0.00000000E+00
  0.00000000E+00  0.00000000E+00  0.00000000E+00
  0.00000000E+00  0.00000000E+00  0.00000000E+00
  0.00000000E+00  0.00000000E+00  0.00000000E+00
  0.00000000E+00  0.00000000E+00  0.00000000E+00
  0.00000000E+00  0.00000000E+00  0.00000000E+00
  0.00000000E+00  0.00000000E+00  0.00000000E+00
  0.00000000E+00  0.00000000E+00  0.00000000E+00
  0.00000000E+00  0.00000000E+00  0.00000000E+00
  0.00000000E+00  0.00000000E+00  0.00000000E+00
  0.00000000E+00  0.00000000E+00  0.00000000E+00
  0.00000000E+00  0.00000000E+00  0.00000000E+00
  0.00000000E+00  0.00000000E+00  0.00000000E+00
  0.00000000E+00  0.00000000E+00  0.00000000E+00
  0.00000000E+00  0.00000000E+00  0.00000000E+00
  0.00000000E+00  0.00000000E+00  0.00000000E+00
  0.00000000E+00  0.00000000E+00  0.00000000E+00
  0.00000000E+00  0.00000000E+00  0.00000000E+00
  0.00000000E+00  0.00000000E+00  0.00000000E+00
  0.00000000E+00  0.00000000E+00  0.00000000E+00
  0.00000000E+00  0.00000000E+00  0.00000000E+00
  0.00000000E+00  0.00000000E+00  0.00000000E+00
  0.00000000E+00  0.00000000E+00  0.00000000E+00
  0.00000000E+00  0.00000000E+00  0.00000000E+00
  0.00000000E+00  0.00000000E+00  0.00000000E+00
  0.00000000E+00  0.00000000E+00  0.00000000E+00
  0.00000000E+00  0.00000000E+00  0.00000000E+00
  0.00000000E+00  0.00000000E+00  0.00000000E+00
  0.00000000E+00  0.00000000E+00  0.00000000E+00
  0.00000000E+00  0.00000000E+00  0.00000000E+00
  0.00000000E+00  0.00000000E+00  0.00000000E+00
  0.00000000E+00  0.00000000E+00  0.00000000E+00
  0.00000000E+00  0.00000000E+00  0.00000000E+00
  0.00000000E+00  0.00000000E+00  0.00000000E+00
  0.00000000E+00  0.00000000E+00  0.00000000E+00
  0.00000000E+00  0.00000000E+00  0.00000000E+00
  0.00000000E+00  0.00000000E+00  0.00000000E+00
  0.00000000E+00  0.00000000E+00  0.00000000E+00
  0.00000000E+00  0.00000000E+00  0.00000000E+00
