O  C  H  Co Li                          
   1.00000000000000     
    25.9165674375579727   -0.2874306014234691    0.1691628522086988
    12.7068681791793523   22.0096177718796575    0.1964185386343149
     0.0451881935927363    0.0338793405069820    6.8248864800207576
   O    C    H    Co   Li
    60    75    18    18     3
Direct
  0.0631529811041440  0.2548052503589061  0.3286843220851827
  0.0381621749277985  0.3042410808874209  0.9750042286958662
  0.1038961960817481  0.2643539672904121  0.7299866566333452
  0.3997528980495607  0.5759758202545348  0.6475230553411877
  0.6945621968123512  0.0586050396022595  0.2906933117386500
  0.6866200267306225  0.0267901545007009  0.9151038711110802
  0.6562763948614344  0.0973848532142283  0.6860750168786028
  0.0179431384830295  0.3985930391703411  0.6612906114839164
  0.2627412696612544  0.6822662653660738  0.3121540180509500
  0.3082711144790184  0.6590654480772525  0.9517715460179481
  0.2650495614610700  0.6350477142408523  0.7160207628586867
  0.5851383849779940  0.0300436119779894  0.6332041217466188
  0.3007521305897275  0.0362735340382636  0.3657188170156553
  0.2340141615258389  0.0767089983780375  0.6059854909091025
  0.6462484252929038  0.4159540259431089  0.7985834696701254
  0.5742158411736672  0.4071279705480547  0.9535782402563555
  0.2762640250699248  0.0835797570938922  0.0056655560298152
  0.5725194371228592  0.3262493820438630  0.3086130217862995
  0.6267380191359929  0.2693551266684094  0.5597213095140370
 -0.0041514040894993  0.6426986049565466  0.7043740384778360
  0.0248078223196129  0.5723523137329385  0.9387418017212081
  0.6375835244003905  0.2824892517880325  0.9659004458077873
  0.0381141726448394  0.6725574335313536  0.3672791900965110
  0.0789089288725855  0.7012067520985761  0.5974836953779233
  0.3712700946707516  0.0013595947551172  0.6967916065439175
  0.4107940318826571  0.0307603581120828  0.9292599152457713
  0.0823237321070667  0.6519020167696693  0.0026922362805194
  0.6940918287382027  0.9577193687120399  0.5840580718813060
  0.7663342131212569  0.9318243212817728  0.3650044988876612
  0.3781103401116291  0.6186893578899733  0.2813005881716481
  0.4480467002591389  0.5807941123639513  0.0516846058959864
  0.7230744407191600  0.9192804996210528  0.9751034673185719
  0.3485649600432655  0.6919974940615962  0.6142724518200096
  0.3181276781628685  0.7627770391136510  0.3816888779469133
  0.9962799141256663  0.3739855957116733  0.3066890938525676
  0.9651982569725496  0.4436902390321432  0.0686066545316462
  0.3681192992753343  0.7164998611717851  0.9783316063429682
  0.9681954131037031  0.3314388358451354  0.6461874476860455
  0.9296599803350811  0.3006226404607221  0.4130955411501956
  0.6265893116885852  0.0155915106082094  0.2514448946215931
  0.5901537909851383  0.9781053211209642  0.0364373160444591
  0.9224279758442696  0.3503942500197510  0.0072235730755453
  0.9434996140521864  0.7595337267398435  0.6645415082214401
  0.9685465506118336  0.7149794385848962  0.0345062497551668
  0.8986512973764778  0.7529239248052729  0.2642027593553352
  0.6221063949508251  0.4053663110078815  0.3808183224407678
  0.3152549806275356  0.9404308985628455  0.6734151570654927
  0.3346791012891586  0.9651204031360544  0.0350740237090659
  0.3662996000264056  0.8944719071753490  0.2686690737771454
  0.9768288198805196  0.6172802772413694  0.3409173406079036
  0.7619662506614074  0.2904736546011035  0.6971320885088800
  0.7112907432713786  0.3123107779823431  0.0667818251490278
  0.7627738685472389  0.3222438657926937  0.3082399098985744
  0.4161987028542896  0.9803507620110425  0.3344302623102033
  0.7251588942882193  0.4259195752760866  0.5448875424865884
  0.6504258742780895  0.5224101532524599  0.5301399747396213
  0.7051158391610527  0.4768478836503438  0.2561756434503601
  0.7228934961820305  0.2307640069138243  0.4565214951015646
  0.8480207040143558  0.1524583322182546  0.5017354993270876
  0.8070770683280124  0.0944874498073909  0.6268850328770345
  0.1147738474335112  0.2147881998772201  0.2455764003368032
  0.1566403298342713  0.1688669227804623  0.3641502652108494
  0.0883752178092888  0.2639244379410685  0.9072810457623784
  0.1289729657009751  0.2158883284518129  0.0431690122696033
  0.4526689861014304  0.5365170763742074  0.5716547748713783
  0.4945683506136571  0.4953722617159013  0.7026591719156142
  0.6763529609688836  0.1133681041629818  0.2059185758475438
  0.6554352457036632  0.1646848430024941  0.3225747013678661
  0.6735994106674933  0.0808391140756183  0.8601180652086720
  0.6745621149649494  0.1233696265782045 -0.0010246197128745
  0.0065189982516220  0.4516487640338721  0.5794200410081617
  0.0104441197252037  0.4939905440576159  0.6974946718698987
  0.2196436545850791  0.6747311537335283  0.2323748114209065
  0.1728836119496674  0.6813242096093710  0.3529085104583779
  0.2661665869378684  0.6508435149964300  0.8907283132334408
  0.2185079316442348  0.6604499839113736  0.0311923639813619
  0.5452190064261481  0.0174347583851579  0.5544215235281552
  0.5007048998540500  0.0196569994983805  0.6779543707078620
  0.2502506661550261  0.0769101739039389  0.4297770846797798
  0.2108378968468972  0.1244281155282386  0.2909695924418603
  0.5936508417450200  0.4227912822437746  0.8059550666180727
  0.5518899249739000  0.4549799845408551  0.6449660715118263
  0.2252198039141527  0.1249032955415242  0.0880578288230394
  0.1833582101367020  0.1714133132595863  0.9698723366241632
  0.6104108816761558  0.2746146327189664  0.3670633698307070
  0.6371040531768840  0.2220735844487184  0.2419072423146583
  0.0076656803307437  0.5898653680737246  0.7645843373697768
  0.0005092727380424  0.5498071996023434  0.6256741339878799
  0.6457006605583926  0.2296279380823081  0.0378834400684032
  0.6635209423392316  0.1790762601738903  0.9213990738573405
  0.0789599760738085  0.6833571728323007  0.4246087904625075
  0.1263498985595665  0.6740570094560490  0.2837331793762394
  0.4109561185135874  0.0137522061975061  0.7552436012584265
  0.4569158643016710  0.0076220518262041  0.6124591020907874
  0.1252663609736162  0.6596407778596691  0.0824685165657664
  0.1719678165361986  0.6532769112058207  0.9618961813539308
  0.7490008142106482  0.9264466833195690  0.5359872507011111
  0.7907434094702865  0.8840346597326569  0.6850021960952102
  0.4307547893029596  0.5798385850313539  0.2259599854127837
  0.4700306959997497  0.5348474753000466  0.3716574805944760
  0.7758187243112298  0.8832329165978019  0.8891036129388994
  0.8196038556084999  0.8402070146260121  0.0110299702922895
  0.3351178118766143  0.7455242105481508  0.5560414048843546
  0.3400191873887640  0.7862904282073587  0.6979831176008098
  0.9837264341990363  0.4266387574891435  0.2425609014099064
  0.9910449515491323  0.4672886115184784  0.3779127225554252
  0.3557217275646093  0.7701324172658564  0.8986911510594087
  0.3577525487119494  0.8129320970732363  0.0202837233240696
  0.9300679165051798  0.3170904141077776  0.5881148010375429
  0.8856898264180831  0.3192973490366744  0.7311958984517632
  0.5896767362975545  0.9979951140160698  0.2071745293869136
  0.5452518394143062  0.0020069935853774  0.3536459965339823
  0.8850223983064904  0.3340332798537043  0.9334093560033120
  0.8435242997836205  0.3295909010351747  0.0555281988718553
  0.8909421790522769  0.7989879152572241  0.7432583471425309
  0.8476452554847969  0.8425810038975164  0.6202969930657835
  0.9159576124209525  0.7535434903264677  0.0897340715324986
  0.8759168697735837  0.7985180748886156  0.9452253666390855
  0.5683820639499220  0.4500437264358765  0.4441846767701982
  0.5270838866498653  0.4912071553002950  0.3124294391052478
  0.3283732609984653  0.8865654476442306  0.7527925210773985
  0.3266812843182866  0.8436713825965715  0.6310281047193060
  0.3489519289907324  0.9114559669191994  0.0944712933899626
  0.3443137859414970  0.8703501790451394  0.9533149102312827
  0.9859175375832999  0.5652023342465619  0.4236063484468011
  0.9811811593100340  0.5231116182493336  0.3058510783797838
  0.8007363321321865  0.3035446594202194  0.7847382778992157
  0.8446444705731085  0.3038609011946966  0.6647302628358533
  0.7561522637353744  0.3165095292069957  0.1242965135583334
  0.8003648218913890  0.3159365860660069  0.9862450674201184
  0.4568672164972034  0.9920987129658482  0.4119496907269163
  0.5016510339534999  0.9893849565260801  0.2889249437328158
  0.6903436586351823  0.4793116984184480  0.4356501009048826
  0.8267074258682343  0.1238135370880469  0.5641228227000874
  0.6865313430409538  0.2570932807629444  0.5905783070682434
  0.1461566814809466  0.1676534244618132  0.5188839295354062
  0.4822996666786373  0.4975462077781002  0.8567255516196451
  0.6517006956622843  0.1599655383125706  0.4803302184731197
  0.0220498123380148  0.4826029455735849  0.8513077011505070
  0.1731206783573678  0.6923141418082862  0.5066003922791309
  0.5003759325519159  0.0315245666335208  0.8309495536369034
  0.1938240649934717  0.1726180516459488  0.8151023940103809
  0.6660269117821938  0.1834460764599638  0.7632767591933178
  0.1718334738480403  0.6421864898676357  0.8082416568737960
  0.8084154140389770  0.8393271187470267  0.1650839887694016
  0.3699044412060552  0.8008782683517021  0.1733175903315735
  0.8489572269268815  0.3331950550602160  0.2127245718014160
  0.8587061459917833  0.8430050861006111  0.4657734375414768
  0.5392681468334388  0.4903271757190490  0.1587796006089099
  0.3147734848250920  0.8556288788466880  0.4777783426298864
  0.9697510342895399  0.5345326762916950  0.1519853770413603
  0.8464993869305691  0.2928344163213207  0.5099746208026578
  0.5018814939639793  0.9775945899026447  0.1359045629303775
  0.3226918064692136  0.6342803443197711  0.5154777434692670
  0.0465076626008125  0.3163925922103756  0.5279257027740769
  0.6446423125826135  0.0459831092067067  0.4987578535737244
  0.0221364207749146  0.7006646664568331  0.7979797425023655
  0.3555742022773127  0.0264700819584686  0.1314657072408945
  0.2917416179437368  0.0209952434271503  0.8048578934865519
  0.6219618954745985  0.3542908188342042  0.1650892793789445
  0.6970881595300348  0.2870979514920549  0.8142045753983765
  0.0243233346690624  0.6309020561514226  0.1349170181926529
  0.6459905447652422  0.9773295637956082  0.8349877741154820
  0.9830824920093113  0.3072474963882231  0.2102221237004289
  0.3891477252308894  0.6366013225079412  0.8498759630498561
  0.7154356805366903  0.9850665130390730  0.1493579785690322
  0.9734319141321793  0.3841650743446972  0.8695792289123633
  0.3214589158589789  0.7024313348275120  0.1834488649173198
  0.6919393606300619  0.3673863129355835  0.5487236852257895
  0.9561244530971955  0.6975989644724460  0.4671172018405687
  0.3611007377048004  0.9553116521853531  0.4674501931261341
  0.7692230140600517  0.4004857167091380  0.3088804513588307
  0.6720042141202942  0.4755373805794881  0.7642163848889458
  0.7867319846122851  0.2454464001236832  0.4509650885531660
 
  0.00000000E+00  0.00000000E+00  0.00000000E+00
  0.00000000E+00  0.00000000E+00  0.00000000E+00
  0.00000000E+00  0.00000000E+00  0.00000000E+00
  0.00000000E+00  0.00000000E+00  0.00000000E+00
  0.00000000E+00  0.00000000E+00  0.00000000E+00
  0.00000000E+00  0.00000000E+00  0.00000000E+00
  0.00000000E+00  0.00000000E+00  0.00000000E+00
  0.00000000E+00  0.00000000E+00  0.00000000E+00
  0.00000000E+00  0.00000000E+00  0.00000000E+00
  0.00000000E+00  0.00000000E+00  0.00000000E+00
  0.00000000E+00  0.00000000E+00  0.00000000E+00
  0.00000000E+00  0.00000000E+00  0.00000000E+00
  0.00000000E+00  0.00000000E+00  0.00000000E+00
  0.00000000E+00  0.00000000E+00  0.00000000E+00
  0.00000000E+00  0.00000000E+00  0.00000000E+00
  0.00000000E+00  0.00000000E+00  0.00000000E+00
  0.00000000E+00  0.00000000E+00  0.00000000E+00
  0.00000000E+00  0.00000000E+00  0.00000000E+00
  0.00000000E+00  0.00000000E+00  0.00000000E+00
  0.00000000E+00  0.00000000E+00  0.00000000E+00
  0.00000000E+00  0.00000000E+00  0.00000000E+00
  0.00000000E+00  0.00000000E+00  0.00000000E+00
  0.00000000E+00  0.00000000E+00  0.00000000E+00
  0.00000000E+00  0.00000000E+00  0.00000000E+00
  0.00000000E+00  0.00000000E+00  0.00000000E+00
  0.00000000E+00  0.00000000E+00  0.00000000E+00
  0.00000000E+00  0.00000000E+00  0.00000000E+00
  0.00000000E+00  0.00000000E+00  0.00000000E+00
  0.00000000E+00  0.00000000E+00  0.00000000E+00
  0.00000000E+00  0.00000000E+00  0.00000000E+00
  0.00000000E+00  0.00000000E+00  0.00000000E+00
  0.00000000E+00  0.00000000E+00  0.00000000E+00
  0.00000000E+00  0.00000000E+00  0.00000000E+00
  0.00000000E+00  0.00000000E+00  0.00000000E+00
  0.00000000E+00  0.00000000E+00  0.00000000E+00
  0.00000000E+00  0.00000000E+00  0.00000000E+00
  0.00000000E+00  0.00000000E+00  0.00000000E+00
  0.00000000E+00  0.00000000E+00  0.00000000E+00
  0.00000000E+00  0.00000000E+00  0.00000000E+00
  0.00000000E+00  0.00000000E+00  0.00000000E+00
  0.00000000E+00  0.00000000E+00  0.00000000E+00
  0.00000000E+00  0.00000000E+00  0.00000000E+00
  0.00000000E+00  0.00000000E+00  0.00000000E+00
  0.00000000E+00  0.00000000E+00  0.00000000E+00
  0.00000000E+00  0.00000000E+00  0.00000000E+00
  0.00000000E+00  0.00000000E+00  0.00000000E+00
  0.00000000E+00  0.00000000E+00  0.00000000E+00
  0.00000000E+00  0.00000000E+00  0.00000000E+00
  0.00000000E+00  0.00000000E+00  0.00000000E+00
  0.00000000E+00  0.00000000E+00  0.00000000E+00
  0.00000000E+00  0.00000000E+00  0.00000000E+00
  0.00000000E+00  0.00000000E+00  0.00000000E+00
  0.00000000E+00  0.00000000E+00  0.00000000E+00
  0.00000000E+00  0.00000000E+00  0.00000000E+00
  0.00000000E+00  0.00000000E+00  0.00000000E+00
  0.00000000E+00  0.00000000E+00  0.00000000E+00
  0.00000000E+00  0.00000000E+00  0.00000000E+00
  0.00000000E+00  0.00000000E+00  0.00000000E+00
  0.00000000E+00  0.00000000E+00  0.00000000E+00
  0.00000000E+00  0.00000000E+00  0.00000000E+00
  0.00000000E+00  0.00000000E+00  0.00000000E+00
  0.00000000E+00  0.00000000E+00  0.00000000E+00
  0.00000000E+00  0.00000000E+00  0.00000000E+00
  0.00000000E+00  0.00000000E+00  0.00000000E+00
  0.00000000E+00  0.00000000E+00  0.00000000E+00
  0.00000000E+00  0.00000000E+00  0.00000000E+00
  0.00000000E+00  0.00000000E+00  0.00000000E+00
  0.00000000E+00  0.00000000E+00  0.00000000E+00
  0.00000000E+00  0.00000000E+00  0.00000000E+00
  0.00000000E+00  0.00000000E+00  0.00000000E+00
  0.00000000E+00  0.00000000E+00  0.00000000E+00
  0.00000000E+00  0.00000000E+00  0.00000000E+00
  0.00000000E+00  0.00000000E+00  0.00000000E+00
  0.00000000E+00  0.00000000E+00  0.00000000E+00
  0.00000000E+00  0.00000000E+00  0.00000000E+00
  0.00000000E+00  0.00000000E+00  0.00000000E+00
  0.00000000E+00  0.00000000E+00  0.00000000E+00
  0.00000000E+00  0.00000000E+00  0.00000000E+00
  0.00000000E+00  0.00000000E+00  0.00000000E+00
  0.00000000E+00  0.00000000E+00  0.00000000E+00
  0.00000000E+00  0.00000000E+00  0.00000000E+00
  0.00000000E+00  0.00000000E+00  0.00000000E+00
  0.00000000E+00  0.00000000E+00  0.00000000E+00
  0.00000000E+00  0.00000000E+00  0.00000000E+00
  0.00000000E+00  0.00000000E+00  0.00000000E+00
  0.00000000E+00  0.00000000E+00  0.00000000E+00
  0.00000000E+00  0.00000000E+00  0.00000000E+00
  0.00000000E+00  0.00000000E+00  0.00000000E+00
  0.00000000E+00  0.00000000E+00  0.00000000E+00
  0.00000000E+00  0.00000000E+00  0.00000000E+00
  0.00000000E+00  0.00000000E+00  0.00000000E+00
  0.00000000E+00  0.00000000E+00  0.00000000E+00
  0.00000000E+00  0.00000000E+00  0.00000000E+00
  0.00000000E+00  0.00000000E+00  0.00000000E+00
  0.00000000E+00  0.00000000E+00  0.00000000E+00
  0.00000000E+00  0.00000000E+00  0.00000000E+00
  0.00000000E+00  0.00000000E+00  0.00000000E+00
  0.00000000E+00  0.00000000E+00  0.00000000E+00
  0.00000000E+00  0.00000000E+00  0.00000000E+00
  0.00000000E+00  0.00000000E+00  0.00000000E+00
  0.00000000E+00  0.00000000E+00  0.00000000E+00
  0.00000000E+00  0.00000000E+00  0.00000000E+00
  0.00000000E+00  0.00000000E+00  0.00000000E+00
  0.00000000E+00  0.00000000E+00  0.00000000E+00
  0.00000000E+00  0.00000000E+00  0.00000000E+00
  0.00000000E+00  0.00000000E+00  0.00000000E+00
  0.00000000E+00  0.00000000E+00  0.00000000E+00
  0.00000000E+00  0.00000000E+00  0.00000000E+00
  0.00000000E+00  0.00000000E+00  0.00000000E+00
  0.00000000E+00  0.00000000E+00  0.00000000E+00
  0.00000000E+00  0.00000000E+00  0.00000000E+00
  0.00000000E+00  0.00000000E+00  0.00000000E+00
  0.00000000E+00  0.00000000E+00  0.00000000E+00
  0.00000000E+00  0.00000000E+00  0.00000000E+00
  0.00000000E+00  0.00000000E+00  0.00000000E+00
  0.00000000E+00  0.00000000E+00  0.00000000E+00
  0.00000000E+00  0.00000000E+00  0.00000000E+00
  0.00000000E+00  0.00000000E+00  0.00000000E+00
  0.00000000E+00  0.00000000E+00  0.00000000E+00
  0.00000000E+00  0.00000000E+00  0.00000000E+00
  0.00000000E+00  0.00000000E+00  0.00000000E+00
  0.00000000E+00  0.00000000E+00  0.00000000E+00
  0.00000000E+00  0.00000000E+00  0.00000000E+00
  0.00000000E+00  0.00000000E+00  0.00000000E+00
  0.00000000E+00  0.00000000E+00  0.00000000E+00
  0.00000000E+00  0.00000000E+00  0.00000000E+00
  0.00000000E+00  0.00000000E+00  0.00000000E+00
  0.00000000E+00  0.00000000E+00  0.00000000E+00
  0.00000000E+00  0.00000000E+00  0.00000000E+00
  0.00000000E+00  0.00000000E+00  0.00000000E+00
  0.00000000E+00  0.00000000E+00  0.00000000E+00
  0.00000000E+00  0.00000000E+00  0.00000000E+00
  0.00000000E+00  0.00000000E+00  0.00000000E+00
  0.00000000E+00  0.00000000E+00  0.00000000E+00
  0.00000000E+00  0.00000000E+00  0.00000000E+00
  0.00000000E+00  0.00000000E+00  0.00000000E+00
  0.00000000E+00  0.00000000E+00  0.00000000E+00
  0.00000000E+00  0.00000000E+00  0.00000000E+00
  0.00000000E+00  0.00000000E+00  0.00000000E+00
  0.00000000E+00  0.00000000E+00  0.00000000E+00
  0.00000000E+00  0.00000000E+00  0.00000000E+00
  0.00000000E+00  0.00000000E+00  0.00000000E+00
  0.00000000E+00  0.00000000E+00  0.00000000E+00
  0.00000000E+00  0.00000000E+00  0.00000000E+00
  0.00000000E+00  0.00000000E+00  0.00000000E+00
  0.00000000E+00  0.00000000E+00  0.00000000E+00
  0.00000000E+00  0.00000000E+00  0.00000000E+00
  0.00000000E+00  0.00000000E+00  0.00000000E+00
  0.00000000E+00  0.00000000E+00  0.00000000E+00
  0.00000000E+00  0.00000000E+00  0.00000000E+00
  0.00000000E+00  0.00000000E+00  0.00000000E+00
  0.00000000E+00  0.00000000E+00  0.00000000E+00
  0.00000000E+00  0.00000000E+00  0.00000000E+00
  0.00000000E+00  0.00000000E+00  0.00000000E+00
  0.00000000E+00  0.00000000E+00  0.00000000E+00
  0.00000000E+00  0.00000000E+00  0.00000000E+00
  0.00000000E+00  0.00000000E+00  0.00000000E+00
  0.00000000E+00  0.00000000E+00  0.00000000E+00
  0.00000000E+00  0.00000000E+00  0.00000000E+00
  0.00000000E+00  0.00000000E+00  0.00000000E+00
  0.00000000E+00  0.00000000E+00  0.00000000E+00
  0.00000000E+00  0.00000000E+00  0.00000000E+00
  0.00000000E+00  0.00000000E+00  0.00000000E+00
  0.00000000E+00  0.00000000E+00  0.00000000E+00
  0.00000000E+00  0.00000000E+00  0.00000000E+00
  0.00000000E+00  0.00000000E+00  0.00000000E+00
  0.00000000E+00  0.00000000E+00  0.00000000E+00
  0.00000000E+00  0.00000000E+00  0.00000000E+00
  0.00000000E+00  0.00000000E+00  0.00000000E+00
  0.00000000E+00  0.00000000E+00  0.00000000E+00
  0.00000000E+00  0.00000000E+00  0.00000000E+00
  0.00000000E+00  0.00000000E+00  0.00000000E+00
  0.00000000E+00  0.00000000E+00  0.00000000E+00
  0.00000000E+00  0.00000000E+00  0.00000000E+00
