O  C  H  Co Li                          
   1.00000000000000     
    25.9143814773914869   -0.2871508489810622    0.1699944400743351
    12.7060587657934825   22.0115991462322178    0.1969500773889842
     0.0453992162352241    0.0339169436803680    6.8256444174707624
   O    C    H    Co   Li
    60    75    18    18     3
Direct
  0.0632811109133255  0.2549546448888042  0.3288678443689563
  0.0383198726454625  0.3043712570879396  0.9752172350556146
  0.1040508549284141  0.2644468976120198  0.7302130127470959
  0.3998344736921919  0.5758751425197796  0.6475769685349657
  0.6945366575278794  0.0585998620668881  0.2905746726810692
  0.6865549413322365  0.0268128017296495  0.9151220390197848
  0.6562810196549609  0.0973750949225344  0.6859715490341277
  0.0180285930605869  0.3986896910942570  0.6613582196506296
  0.2628174961563755  0.6820903576899584  0.3122538113081547
  0.3083632602276562  0.6588294631432116  0.9519683202372707
  0.2650538746506517  0.6349627090576845  0.7161044679188814
  0.5849518575666681  0.0301888805525726  0.6330728347915435
  0.3006177062810796  0.0360568273422031  0.3655504336053940
  0.2339150746325860  0.0765560039391959  0.6059135472288506
  0.6463495187423797  0.4159156186288495  0.7986200911661165
  0.5743319584880670  0.4070305465999490  0.9535825948528014
  0.2762079483692945  0.0834013267616564  0.0056819778581261
  0.5726265221494097  0.3261922610583042  0.3085476987236890
  0.6268745301288786  0.2693646226053499  0.5597105915302157
 -0.0042022716943065  0.6428132538922329  0.7044187208295760
  0.0246267911713356  0.5725275090929173  0.9389091884146665
  0.6377372995884515  0.2824316482851254  0.9660170849522514
  0.0379470581645261  0.6727979069649161  0.3672283992054591
  0.0788170968424397  0.7013361717866160  0.5975280424601116
  0.3711153933731091  0.0013931547941450  0.6965787353628478
  0.4106803709546796  0.0307067446406115  0.9292295935639286
  0.0821217742467887  0.6521913223508302  0.0027167858456035
  0.6938932443549526  0.9578503387463242  0.5838548176592215
  0.7661848912972590  0.9318739783216387  0.3648777980014623
  0.3782151622627676  0.6185557039807258  0.2814344723449287
  0.4481234376378220  0.5806311185664682  0.0517453858028765
  0.7228741923165453  0.9193533346244744  0.9749439648742996
  0.3486197169751081  0.6918451903739383  0.6144604146977698
  0.3182112984646918  0.7625745400455589  0.3817734941752133
  0.9963676813021302  0.3740730250859864  0.3068455480580524
  0.9652653314026710  0.4437505912591399  0.0686593964670928
  0.3681722552575485  0.7163510685352211  0.9783852947987082
  0.9683040742368680  0.3315111679719387  0.6463183335042573
  0.9297712168025632  0.3006907553505717  0.4131476993080446
  0.6264460779098933  0.0157182753885990  0.2513052611824220
  0.5899716564028293  0.9782640445909184  0.0363561323868043
  0.9225529220186954  0.3503951010002826  0.0073599573788728
  0.9433181140145604  0.7597003732174838  0.6644338492188088
  0.9683450433119178  0.7151283632531185  0.0343706737842647
  0.8984697489519702  0.7530611772801440  0.2641415004109069
  0.6222263080340141  0.4052939710040697  0.3809135339141636
  0.3152226574520642  0.9402885650396077  0.6734163506495311
  0.3347039535678039  0.9649703335557392  0.0348907045394942
  0.3662670556076016  0.8943671529214865  0.2686477598401752
  0.9767084789966436  0.6174373640706812  0.3410125772177177
  0.7621041121680927  0.2904503545885544  0.6971573478805740
  0.7114613517798005  0.3122196076871577  0.0668566139999155
  0.7629131808291157  0.3222130996634497  0.3082318761567610
  0.4161326260520442  0.9802803645145880  0.3344339317322591
  0.7252415401297491  0.4258795775402661  0.5448397720434751
  0.6504624852409376  0.5223307035879264  0.5298987934923831
  0.7052030793925135  0.4767533865583048  0.2560748468924419
  0.7230463222199242  0.2307144638501177  0.4567133012140203
  0.8481722841707618  0.1524863000525103  0.5016640132713812
  0.8072989133290903  0.0943674299307850  0.6259544671485011
  0.1148623278402034  0.2148465447797065  0.2457124527442703
  0.1566677759327678  0.1688673412654265  0.3642547107846007
  0.0885158450432098  0.2640130208984509  0.9074798700850144
  0.1290649168338347  0.2159177706213468  0.0432952550361240
  0.4527607075719884  0.5364129163502247  0.5717027385916933
  0.4946547845053950  0.4952699186818371  0.7026974212969032
  0.6763853894045139  0.1133355567174811  0.2058015967915586
  0.6555337288560154  0.1646344664892277  0.3225124148897983
  0.6735837201716280  0.0808461557145857  0.8600367103173595
  0.6745847566875874  0.1233668469315702 -0.0010914830701271
  0.0065427920974369  0.4517596378572461  0.5794182361254713
  0.0104184851607568  0.4941139323190536  0.6975180179452980
  0.2196500899079537  0.6746736866156683  0.2324367998214534
  0.1728377518787652  0.6813760777179958  0.3529185712661753
  0.2661997287154509  0.6507149657943612  0.8908281100448138
  0.2185021012058478  0.6603997605344518  0.0312695950930931
  0.5450359918236674  0.0175754283191388  0.5543148422495949
  0.5005360437843623  0.0197533816768623  0.6778747939385344
  0.2501562807511598  0.0767558288060482  0.4297223257392598
  0.2108063046470932  0.1243392374134947  0.2910132028525902
  0.5937606013999134  0.4227157137233911  0.8060086779231176
  0.5519870748235626  0.4548917235627570  0.6450309340393551
  0.2251973640614507  0.1247921095695905  0.0881054450086132
  0.1833982179025328  0.1713528192638163  0.9699490392708796
  0.6105537336524609  0.2745868357406167  0.3670985236474704
  0.6372542424420815  0.2220186813112573  0.2419420728081135
  0.0075532668704224  0.5900074905098066  0.7646976532045905
  0.0004222020388170  0.5499514392664115  0.6257491280531678
  0.6458456796803661  0.2295690498539730  0.0378818175253246
  0.6635937242085129  0.1790582146296310  0.9213663793873048
  0.0788343002687144  0.6835362315878468  0.4246368369115729
  0.1262427776985365  0.6742018862167485  0.2837695427415776
  0.4108189297865758  0.0137470928533837  0.7551781812630575
  0.4567753902471625  0.0076548853988668  0.6124054247254868
  0.1251372403806851  0.6598046913659966  0.0825243257280791
  0.1718942908378558  0.6533263788794532  0.9620000863353438
  0.7488045824199026  0.9265304935342347  0.5358086677175924
  0.7905149707803921  0.8841064917414490  0.6847823100942888
  0.4308498765159057  0.5796980468194518  0.2260445075848215
  0.4701283527158593  0.5347299607893417  0.3717150806574550
  0.7756006304038973  0.8833135072118496  0.8889229043149761
  0.8194026194139697  0.8403210003025110  0.0108577710007394
  0.3351867835809298  0.7453551371757197  0.5561332272726885
  0.3400791472104644  0.7861298742966171  0.6980370396197646
  0.9837826531874811  0.4267206984359848  0.2426190509540208
  0.9910391523855445  0.4674060904575726  0.3779368972727866
  0.3557665559044443  0.7699800203956706  0.8987371577534483
  0.3577662492566628  0.8127935931030065  0.0203189368001456
  0.9301912215905455  0.3171404092626591  0.5881637628468618
  0.8858333272762906  0.3192986537141290  0.7312693022402795
  0.5895058767801772  0.9981513386736631  0.2070750555881442
  0.5450698754617970  0.0021687446850429  0.3535423675635592
  0.8851624911343097  0.3340208489498268  0.9334770951360974
  0.8436607694465714  0.3295585682651517  0.0555413889257951
  0.8907393261283335  0.7991072470796499  0.7431667375477100
  0.8474317872250016  0.8426702643265040  0.6201657198756811
  0.9157591350058548  0.7536888189567640  0.0896665222021262
  0.8757212890431152  0.7986381049306139  0.9451134727658566
  0.5684751407270558  0.4499631037176849  0.4442662989390651
  0.5271734483198077  0.4910967173628600  0.3124771809943486
  0.3283830909729781  0.8864164467743507  0.7528113165925004
  0.3267222001998393  0.8435106823003550  0.6310636897705143
  0.3489419280915575  0.9113316836297743  0.0944332697678230
  0.3443153261313150  0.8702107089670565  0.9533284386458105
  0.9858093865501674  0.5653542178424275  0.4237024803556230
  0.9810843252515596  0.5232623847326898  0.3059304060240826
  0.8008813213183841  0.3035068130245294  0.7847367999194392
  0.8447922960390898  0.3038445776841157  0.6647692792089510
  0.7563066167845408  0.3164516694401200  0.1243051635282873
  0.8005125846220822  0.3158875519561712  0.9862178776568733
  0.4567406124724439  0.9921287434202661  0.4119213832104953
  0.5014871355943951  0.9895012686359620  0.2888621744988452
  0.6904102992433675  0.4792393002480035  0.4355353431823717
  0.8268927205576806  0.1237821820868653  0.5636097733909078
  0.6866732262724986  0.2570661249552088  0.5906768909801758
  0.1461887431022622  0.1676682284018519  0.5189836218320377
  0.4823912078135271  0.4974352457493207  0.8567299753715854
  0.6518248031561548  0.1598758184175360  0.4802305040807506
  0.0220194566738022  0.4827029570037484  0.8512855198994096
  0.1730877783145289  0.6923814480765493  0.5065809861224565
  0.5002138603319266  0.0316144705315144  0.8308758071588604
  0.1938931360886433  0.1725123459996954  0.8152150844448950
  0.6660448302677286  0.1834406775203097  0.7633019475771462
  0.1717463061849697  0.6422103119615454  0.8084070892560005
  0.8081980610763044  0.8394626712947449  0.1648652886730211
  0.3699168108017569  0.8007408621430102  0.1733488295059767
  0.8490772656297368  0.3331749014978900  0.2127235450029043
  0.8585004364235685  0.8431215731500565  0.4656963473944701
  0.5393597600004105  0.4901895091127036  0.1588630154763339
  0.3147948688417286  0.8554700554472656  0.4778347117370975
  0.9696240756843926  0.5347024515191077  0.1521039217227159
  0.8466668821396650  0.2928510582603709  0.5099935043495830
  0.5017034407357686  0.9777315899428102  0.1358295734542455
  0.3227644869924803  0.6341331412062982  0.5156260787177683
  0.0466621714074365  0.3164963999546521  0.5281742853466707
  0.6444974294213928  0.0460941579140832  0.4985522198670625
  0.0219522983096840  0.7008690416207505  0.7978519238479226
  0.3555007296676945  0.0263598983821679  0.1315121371751861
  0.2916473844846901  0.0208588339211244  0.8047758563260760
  0.6220968468713480  0.3542365924755860  0.1651473407795659
  0.6972576447778611  0.2870457963633796  0.8142542526824662
  0.0241671536384032  0.6311253971397888  0.1349457596574181
  0.6458179352840544  0.9774841935044025  0.8348823069737372
  0.9832137935570522  0.3073134721240261  0.2103603502132045
  0.3892238381849950  0.6364379896587976  0.8500264345189340
  0.7153470239437825  0.9850781607250243  0.1492733136329239
  0.9735221456139841  0.3842414358859788  0.8696886743997343
  0.3215441730023968  0.7022256426922086  0.1835259611685587
  0.6920594579436086  0.3673446575812758  0.5487929625874787
  0.9559767177860123  0.6977499159787648  0.4671899677345875
  0.3610491338065929  0.9551921999638283  0.4674565027188369
  0.7693064141876684  0.4004226422727239  0.3088028505306505
  0.6720552369652165  0.4755382418578085  0.7640757963020381
  0.7869089645220224  0.2454163108601266  0.4509042551566084
 
  0.00000000E+00  0.00000000E+00  0.00000000E+00
  0.00000000E+00  0.00000000E+00  0.00000000E+00
  0.00000000E+00  0.00000000E+00  0.00000000E+00
  0.00000000E+00  0.00000000E+00  0.00000000E+00
  0.00000000E+00  0.00000000E+00  0.00000000E+00
  0.00000000E+00  0.00000000E+00  0.00000000E+00
  0.00000000E+00  0.00000000E+00  0.00000000E+00
  0.00000000E+00  0.00000000E+00  0.00000000E+00
  0.00000000E+00  0.00000000E+00  0.00000000E+00
  0.00000000E+00  0.00000000E+00  0.00000000E+00
  0.00000000E+00  0.00000000E+00  0.00000000E+00
  0.00000000E+00  0.00000000E+00  0.00000000E+00
  0.00000000E+00  0.00000000E+00  0.00000000E+00
  0.00000000E+00  0.00000000E+00  0.00000000E+00
  0.00000000E+00  0.00000000E+00  0.00000000E+00
  0.00000000E+00  0.00000000E+00  0.00000000E+00
  0.00000000E+00  0.00000000E+00  0.00000000E+00
  0.00000000E+00  0.00000000E+00  0.00000000E+00
  0.00000000E+00  0.00000000E+00  0.00000000E+00
  0.00000000E+00  0.00000000E+00  0.00000000E+00
  0.00000000E+00  0.00000000E+00  0.00000000E+00
  0.00000000E+00  0.00000000E+00  0.00000000E+00
  0.00000000E+00  0.00000000E+00  0.00000000E+00
  0.00000000E+00  0.00000000E+00  0.00000000E+00
  0.00000000E+00  0.00000000E+00  0.00000000E+00
  0.00000000E+00  0.00000000E+00  0.00000000E+00
  0.00000000E+00  0.00000000E+00  0.00000000E+00
  0.00000000E+00  0.00000000E+00  0.00000000E+00
  0.00000000E+00  0.00000000E+00  0.00000000E+00
  0.00000000E+00  0.00000000E+00  0.00000000E+00
  0.00000000E+00  0.00000000E+00  0.00000000E+00
  0.00000000E+00  0.00000000E+00  0.00000000E+00
  0.00000000E+00  0.00000000E+00  0.00000000E+00
  0.00000000E+00  0.00000000E+00  0.00000000E+00
  0.00000000E+00  0.00000000E+00  0.00000000E+00
  0.00000000E+00  0.00000000E+00  0.00000000E+00
  0.00000000E+00  0.00000000E+00  0.00000000E+00
  0.00000000E+00  0.00000000E+00  0.00000000E+00
  0.00000000E+00  0.00000000E+00  0.00000000E+00
  0.00000000E+00  0.00000000E+00  0.00000000E+00
  0.00000000E+00  0.00000000E+00  0.00000000E+00
  0.00000000E+00  0.00000000E+00  0.00000000E+00
  0.00000000E+00  0.00000000E+00  0.00000000E+00
  0.00000000E+00  0.00000000E+00  0.00000000E+00
  0.00000000E+00  0.00000000E+00  0.00000000E+00
  0.00000000E+00  0.00000000E+00  0.00000000E+00
  0.00000000E+00  0.00000000E+00  0.00000000E+00
  0.00000000E+00  0.00000000E+00  0.00000000E+00
  0.00000000E+00  0.00000000E+00  0.00000000E+00
  0.00000000E+00  0.00000000E+00  0.00000000E+00
  0.00000000E+00  0.00000000E+00  0.00000000E+00
  0.00000000E+00  0.00000000E+00  0.00000000E+00
  0.00000000E+00  0.00000000E+00  0.00000000E+00
  0.00000000E+00  0.00000000E+00  0.00000000E+00
  0.00000000E+00  0.00000000E+00  0.00000000E+00
  0.00000000E+00  0.00000000E+00  0.00000000E+00
  0.00000000E+00  0.00000000E+00  0.00000000E+00
  0.00000000E+00  0.00000000E+00  0.00000000E+00
  0.00000000E+00  0.00000000E+00  0.00000000E+00
  0.00000000E+00  0.00000000E+00  0.00000000E+00
  0.00000000E+00  0.00000000E+00  0.00000000E+00
  0.00000000E+00  0.00000000E+00  0.00000000E+00
  0.00000000E+00  0.00000000E+00  0.00000000E+00
  0.00000000E+00  0.00000000E+00  0.00000000E+00
  0.00000000E+00  0.00000000E+00  0.00000000E+00
  0.00000000E+00  0.00000000E+00  0.00000000E+00
  0.00000000E+00  0.00000000E+00  0.00000000E+00
  0.00000000E+00  0.00000000E+00  0.00000000E+00
  0.00000000E+00  0.00000000E+00  0.00000000E+00
  0.00000000E+00  0.00000000E+00  0.00000000E+00
  0.00000000E+00  0.00000000E+00  0.00000000E+00
  0.00000000E+00  0.00000000E+00  0.00000000E+00
  0.00000000E+00  0.00000000E+00  0.00000000E+00
  0.00000000E+00  0.00000000E+00  0.00000000E+00
  0.00000000E+00  0.00000000E+00  0.00000000E+00
  0.00000000E+00  0.00000000E+00  0.00000000E+00
  0.00000000E+00  0.00000000E+00  0.00000000E+00
  0.00000000E+00  0.00000000E+00  0.00000000E+00
  0.00000000E+00  0.00000000E+00  0.00000000E+00
  0.00000000E+00  0.00000000E+00  0.00000000E+00
  0.00000000E+00  0.00000000E+00  0.00000000E+00
  0.00000000E+00  0.00000000E+00  0.00000000E+00
  0.00000000E+00  0.00000000E+00  0.00000000E+00
  0.00000000E+00  0.00000000E+00  0.00000000E+00
  0.00000000E+00  0.00000000E+00  0.00000000E+00
  0.00000000E+00  0.00000000E+00  0.00000000E+00
  0.00000000E+00  0.00000000E+00  0.00000000E+00
  0.00000000E+00  0.00000000E+00  0.00000000E+00
  0.00000000E+00  0.00000000E+00  0.00000000E+00
  0.00000000E+00  0.00000000E+00  0.00000000E+00
  0.00000000E+00  0.00000000E+00  0.00000000E+00
  0.00000000E+00  0.00000000E+00  0.00000000E+00
  0.00000000E+00  0.00000000E+00  0.00000000E+00
  0.00000000E+00  0.00000000E+00  0.00000000E+00
  0.00000000E+00  0.00000000E+00  0.00000000E+00
  0.00000000E+00  0.00000000E+00  0.00000000E+00
  0.00000000E+00  0.00000000E+00  0.00000000E+00
  0.00000000E+00  0.00000000E+00  0.00000000E+00
  0.00000000E+00  0.00000000E+00  0.00000000E+00
  0.00000000E+00  0.00000000E+00  0.00000000E+00
  0.00000000E+00  0.00000000E+00  0.00000000E+00
  0.00000000E+00  0.00000000E+00  0.00000000E+00
  0.00000000E+00  0.00000000E+00  0.00000000E+00
  0.00000000E+00  0.00000000E+00  0.00000000E+00
  0.00000000E+00  0.00000000E+00  0.00000000E+00
  0.00000000E+00  0.00000000E+00  0.00000000E+00
  0.00000000E+00  0.00000000E+00  0.00000000E+00
  0.00000000E+00  0.00000000E+00  0.00000000E+00
  0.00000000E+00  0.00000000E+00  0.00000000E+00
  0.00000000E+00  0.00000000E+00  0.00000000E+00
  0.00000000E+00  0.00000000E+00  0.00000000E+00
  0.00000000E+00  0.00000000E+00  0.00000000E+00
  0.00000000E+00  0.00000000E+00  0.00000000E+00
  0.00000000E+00  0.00000000E+00  0.00000000E+00
  0.00000000E+00  0.00000000E+00  0.00000000E+00
  0.00000000E+00  0.00000000E+00  0.00000000E+00
  0.00000000E+00  0.00000000E+00  0.00000000E+00
  0.00000000E+00  0.00000000E+00  0.00000000E+00
  0.00000000E+00  0.00000000E+00  0.00000000E+00
  0.00000000E+00  0.00000000E+00  0.00000000E+00
  0.00000000E+00  0.00000000E+00  0.00000000E+00
  0.00000000E+00  0.00000000E+00  0.00000000E+00
  0.00000000E+00  0.00000000E+00  0.00000000E+00
  0.00000000E+00  0.00000000E+00  0.00000000E+00
  0.00000000E+00  0.00000000E+00  0.00000000E+00
  0.00000000E+00  0.00000000E+00  0.00000000E+00
  0.00000000E+00  0.00000000E+00  0.00000000E+00
  0.00000000E+00  0.00000000E+00  0.00000000E+00
  0.00000000E+00  0.00000000E+00  0.00000000E+00
  0.00000000E+00  0.00000000E+00  0.00000000E+00
  0.00000000E+00  0.00000000E+00  0.00000000E+00
  0.00000000E+00  0.00000000E+00  0.00000000E+00
  0.00000000E+00  0.00000000E+00  0.00000000E+00
  0.00000000E+00  0.00000000E+00  0.00000000E+00
  0.00000000E+00  0.00000000E+00  0.00000000E+00
  0.00000000E+00  0.00000000E+00  0.00000000E+00
  0.00000000E+00  0.00000000E+00  0.00000000E+00
  0.00000000E+00  0.00000000E+00  0.00000000E+00
  0.00000000E+00  0.00000000E+00  0.00000000E+00
  0.00000000E+00  0.00000000E+00  0.00000000E+00
  0.00000000E+00  0.00000000E+00  0.00000000E+00
  0.00000000E+00  0.00000000E+00  0.00000000E+00
  0.00000000E+00  0.00000000E+00  0.00000000E+00
  0.00000000E+00  0.00000000E+00  0.00000000E+00
  0.00000000E+00  0.00000000E+00  0.00000000E+00
  0.00000000E+00  0.00000000E+00  0.00000000E+00
  0.00000000E+00  0.00000000E+00  0.00000000E+00
  0.00000000E+00  0.00000000E+00  0.00000000E+00
  0.00000000E+00  0.00000000E+00  0.00000000E+00
  0.00000000E+00  0.00000000E+00  0.00000000E+00
  0.00000000E+00  0.00000000E+00  0.00000000E+00
  0.00000000E+00  0.00000000E+00  0.00000000E+00
  0.00000000E+00  0.00000000E+00  0.00000000E+00
  0.00000000E+00  0.00000000E+00  0.00000000E+00
  0.00000000E+00  0.00000000E+00  0.00000000E+00
  0.00000000E+00  0.00000000E+00  0.00000000E+00
  0.00000000E+00  0.00000000E+00  0.00000000E+00
  0.00000000E+00  0.00000000E+00  0.00000000E+00
  0.00000000E+00  0.00000000E+00  0.00000000E+00
  0.00000000E+00  0.00000000E+00  0.00000000E+00
  0.00000000E+00  0.00000000E+00  0.00000000E+00
  0.00000000E+00  0.00000000E+00  0.00000000E+00
  0.00000000E+00  0.00000000E+00  0.00000000E+00
  0.00000000E+00  0.00000000E+00  0.00000000E+00
  0.00000000E+00  0.00000000E+00  0.00000000E+00
  0.00000000E+00  0.00000000E+00  0.00000000E+00
  0.00000000E+00  0.00000000E+00  0.00000000E+00
  0.00000000E+00  0.00000000E+00  0.00000000E+00
  0.00000000E+00  0.00000000E+00  0.00000000E+00
  0.00000000E+00  0.00000000E+00  0.00000000E+00
  0.00000000E+00  0.00000000E+00  0.00000000E+00
  0.00000000E+00  0.00000000E+00  0.00000000E+00
  0.00000000E+00  0.00000000E+00  0.00000000E+00
  0.00000000E+00  0.00000000E+00  0.00000000E+00
