O  C  H  Co Li                          
   1.00000000000000     
    25.7881476632993198   -0.1981264425596983    0.1449605357057151
    12.7230128557331810   22.2840697515439068    0.1516863651907970
     0.0384079562107625    0.0242284774429608    6.8545527631664713
   O    C    H    Co   Li
    60    75    18    18     3
Direct
  0.0619273424732555  0.2545005007105993  0.3277083428533071
  0.0373487475776327  0.3033876269885936  0.9754107979068425
  0.1028277107234051  0.2626596950226165  0.7306079497127155
  0.4001192706672025  0.5826329146947646  0.6421554237201300
  0.6858845607736721  0.0669594811138967  0.2914369047270676
  0.6798049319628111  0.0331137906774260  0.9300024068687088
  0.6486549171019478  0.1011546424714792  0.6926720185140338
  0.0185279109338076  0.3963691190899258  0.6622293087010365
  0.2636050070340887  0.6839442395651805  0.3103682694699955
  0.3101745821849926  0.6600594358877887  0.9561907336755964
  0.2670842411282705  0.6355592011525840  0.7197713751190626
  0.5919430031326919  0.0210005629711734  0.6359496912878658
  0.2991879234204605  0.0364375027382474  0.3615139190633652
  0.2329511475474053  0.0771615189514550  0.6029089644910164
  0.6439704143617259  0.4145787600319825  0.7939980692970540
  0.5694366440798833  0.4089552014429645  0.9440964878641708
  0.2751164409184760  0.0835581980749236  0.0047672850759408
  0.5670651256431063  0.3316622527187417  0.3063464691513966
  0.6208532056842949  0.2748360770907679  0.5562013463215302
  0.0068733147033075  0.6340170982798580  0.6954006156582933
  0.0300230125839436  0.5671253591761032  0.9369739483274528
  0.6328461421239898  0.2856263701886896  0.9637186814463270
  0.0387429754329289  0.6718679510753843  0.3606671140580502
  0.0803097561723413  0.6986874122997386  0.5951048194270792
  0.3699439611846252  0.0042464341279504  0.6926122828676903
  0.4112379896750872  0.0307959941149918  0.9274223871631627
  0.0859415020500946  0.6469287745613047  0.0053164186632766
  0.7060857181109123  0.9628750283517385  0.6040267987620301
  0.7765339103779115  0.9285139825393961  0.3755766596023603
  0.3804935805520890  0.6280115220818830  0.2876784596708271
  0.4477019467338376  0.5858181400268303  0.0494600845830515
  0.7309250723366231  0.9200434735079029  0.9724112762084030
  0.3421588100962891  0.6981800317781679  0.6211672692648498
  0.3150704621056415  0.7666870845784205  0.3841477616700461
  0.9965623945348442  0.3722662013048700  0.3079240105446955
  0.9673364850842304  0.4408287629729526  0.0705783650410436
  0.3676669471430355  0.7205040209653509  0.9756390099809422
  0.9669600770843624  0.3313875689748424  0.6461389070571002
  0.9271543585420809  0.3023753940704149  0.4122907066232104
  0.6367330514758365 -0.0000161023179967  0.2728546794434840
  0.5941846033368519  0.9748582104202959  0.0392608715129754
  0.9210177154312504  0.3503439230192771  0.0060164742052503
  0.9475961471072430  0.7502186221179920  0.6687670290968375
  0.9701777914334067  0.7046189819655951  0.0281436542008744
  0.9015749798541596  0.7455051983806213  0.2627061161685356
  0.6194351637606345  0.4069174460506935  0.3738020656372343
  0.3153016263220480  0.9417713039560456  0.6719784688143096
  0.3353857853565087  0.9663201158276757  0.0303000230964910
  0.3646453320793026  0.8974943900908312  0.2659279014266672
  0.9817399480319144  0.6110827750762742  0.3434347661227947
  0.7591290648094614  0.2913997913620104  0.6948881317999023
  0.7083235943045889  0.3132564193932748  0.0639941552608655
  0.7602295427918239  0.3230448223213275  0.3044709504828674
  0.4149787963730103  0.9828526328458415  0.3337018355521452
  0.7234397936986757  0.4251046270651180  0.5444435025314691
  0.6482418598415696  0.5205280737956007  0.5339142362180846
  0.7028052275743110  0.4764516012133427  0.2593536858436643
  0.7182318164115429  0.2328358785690230  0.4558994433856930
  0.8459160052201773  0.1571251497035263  0.4896652173990612
  0.8103207320802864  0.0982141813929577  0.6404097561518933
  0.1134768791424427  0.2143833062725051  0.2445006311996108
  0.1553408756245791  0.1687905629827513  0.3623204433936902
  0.0873065510685434  0.2627313201718299  0.9074157185729695
  0.1276426874962683  0.2150261851982332  0.0427122560225861
  0.4524041658448621  0.5418744212671445  0.5658939258322396
  0.4928513191136984  0.4993740834044400  0.6953638193308886
  0.6673212773170641  0.1207764271921770  0.2083319530612318
  0.6460906779128133  0.1719498522517871  0.3228584394014826
  0.6662083864803257  0.0855368387852293  0.8663897441324331
  0.6666533335766850  0.1293565409997024  0.0014463420397329
  0.0089208879648303  0.4482494636335524  0.5803978385772671
  0.0142375480530418  0.4895949071497458  0.6977462470563315
  0.2210417511381771  0.6748498430775953  0.2327589955721096
  0.1744149483629609  0.6804907843772006  0.3528590895415292
  0.2682200369007561  0.6514582361686396  0.8941450299988971
  0.2204277419236598  0.6600670120458839  0.0327383265208630
  0.5496837815201229  0.0116125717490189  0.5573257939426328
  0.5037922951313164  0.0161485766272311  0.6791642545741287
  0.2489603070275571  0.0771366479096486  0.4270049924216520
  0.2095183135844793  0.1243685868438175  0.2892926101192105
  0.5902896938520883  0.4234743895480308  0.7985774220403790
  0.5494742040303063  0.4570391503094933  0.6373810044990665
  0.2239082155272567  0.1245578058238284  0.0871238570066218
  0.1819666140921190  0.1705268107804894  0.9695324428049242
  0.6042664730795634  0.2803098499209639  0.3645837746540202
  0.6297415356266221  0.2280222880415013  0.2406709536866830
  0.0146172547979907  0.5837887724376793  0.7613706204642041
  0.0057331525824807  0.5442952302391505  0.6258964109275578
  0.6394344053037901  0.2341502501701568  0.0374393119163135
  0.6566612746088091  0.1837362558070462  0.9224594245802632
  0.0802503752462856  0.6811982225976018  0.4218199455753150
  0.1284014770346594  0.6719192213395189  0.2840192864565061
  0.4109927468634156  0.0145870913127258  0.7533480975173227
  0.4580095167854903  0.0070202637517663  0.6122266376907702
  0.1280348748994959  0.6567139884300670  0.0840256159029038
  0.1745029499087380  0.6513828796824688  0.9639546171510852
  0.7591152806733638  0.9258747992446499  0.5479417314366101
  0.7987440823170914  0.8802330380614584  0.6905980635492562
  0.4309705669511112  0.5866135202663656  0.2254522543127487
  0.4697843287100995  0.5400041050285697  0.3669356087815480
  0.7828609318134722  0.8802474188181360  0.8919361559179962
  0.8245401158537302  0.8355851062504753  0.0139200606161901
  0.3316959543305645  0.7496553492953025  0.5587389440880226
  0.3382689331584508  0.7898416095161855  0.6972686396118332
  0.9855079208899620  0.4238793180734878  0.2440330095530721
  0.9940326045169114  0.4634510283910802  0.3793125543837568
  0.3543269527415135  0.7738727432681181  0.8970214565402301
  0.3562899048524134  0.8164539229922495  0.0181495999665298
  0.9280980871430550  0.3179609997819006  0.5873862438369578
  0.8835868444137774  0.3200795226984590  0.7299321018423722
  0.5952607707106441  0.9901246870683759  0.2140168924323307
  0.5486532842541717  0.9974129842509080  0.3565976634806449
  0.8831747398681712  0.3344564297064039  0.9316023020297065
  0.8413750778273000  0.3301368433133499  0.0526535215258252
  0.8955447526249254  0.7912640769008995  0.7462033173907843
  0.8542689801291530  0.8362900691968742  0.6242122018770093
  0.9189185312493823  0.7451141136513023  0.0879674660687144
  0.8797858149461770  0.7914924047499157  0.9470236445946137
  0.5662488198926503  0.4522703490966679  0.4375481802601669
  0.5259914053071851  0.4946504388487303  0.3070593991741563
  0.3278481518264841  0.8887595676525821  0.7510125327968861
  0.3257200368236594  0.8462779517649837  0.6300506169829366
  0.3482290979856800  0.9138615044562626  0.0915368963898818
  0.3433289155097057  0.8730364128260499  0.9511950669181307
  0.9910232515654858  0.5593711888228164  0.4250996387174766
  0.9855297346112734  0.5181636306794533  0.3074402785273666
  0.7981168179924265  0.3044051304569139  0.7825217261585198
  0.8422387406291277  0.3048253045015238  0.6634218544347924
  0.7534758063025777  0.3173714549060510  0.1210668115501173
  0.7978408643329418  0.3167312405135387  0.9834032566703312
  0.4571034108753524  0.9925959720586164  0.4117909975899333
  0.5028216687043284  0.9882894701790439  0.2898100826180164
  0.6882976796785444  0.4782362462351055  0.4380898507845375
  0.8273120891290546  0.1279495575469587  0.5649653963667473
  0.6818157757691333  0.2599626693471712  0.5885072551820478
  0.1448579090717064  0.1678780009909354  0.5164654059832139
  0.4801129995213465  0.5017820401465188  0.8483980800901549
  0.6413822445974318  0.1677953120306876  0.4798108886683861
  0.0257484866114979  0.4782771150660444  0.8508276836553772
  0.1741890555845856  0.6919830580945877  0.5056267163403186
  0.5041945871299850  0.0270958442181996  0.8321331203927061
  0.1924162086478792  0.1713669311782888  0.8153102603453343
  0.6598881982834576  0.1874408545740476  0.7650186344174112
  0.1748340289255312  0.6397898636589326  0.8112356187472529
  0.8127998363525514  0.8354508044002587  0.1671186412703243
  0.3683882832799434  0.8047517784519110  0.1706663344589801
  0.8468155491916950  0.3336659852373594  0.2092495172902223
  0.8659080958093145  0.8365192692869217  0.4708824307580940
  0.5386363235636153  0.4933588930258918  0.1543912352544353
  0.3138632106486662  0.8579992817633150  0.4774354201665593
  0.9741442657640079  0.5295256883820657  0.1542960490343273
  0.8440871857077570  0.2938860486852736  0.5092636655409021
  0.5023817042382211  0.9774116219604831  0.1367821252780829
  0.3208417457825288  0.6376679755589845  0.5156153736813125
  0.0461125856300215  0.3149620481168816  0.5286512817898151
  0.6474091045222815  0.0442622006196226  0.5006785463855652
  0.0282514046855500  0.6948503400014585  0.8012332210177487
  0.3551733961282746  0.0276145582343786  0.1294001015653633
  0.2907903430629972  0.0222607249204502  0.8021372023905043
  0.6174785891852337  0.3573659405521271  0.1575032160600703
  0.6934269020468961  0.2888580873147771  0.8119466835894555
  0.0285915480445433  0.6231029270234804  0.1378133456005625
  0.6522416115831186  0.9757128439215502  0.8420646675155138
  0.9815704738041829  0.3074753492708647  0.2100345289977258
  0.3908152249743502  0.6397798770188285  0.8468361821380108
  0.7170505012136583  0.9826041935014167  0.1727207372465000
  0.9734878781529486  0.3827803306964547  0.8705353610686225
  0.3200743869087674  0.7096134236969975  0.1810898338396548
  0.6893469414759660  0.3676691221013864  0.5434347828691868
  0.9575332888181739  0.6924987095250040  0.4658178024689958
  0.3601339914125760  0.9572397647415385  0.4656903919509871
  0.7671749213192618  0.4005428179045862  0.3081714073158121
  0.6705821438870664  0.4733137969734680  0.7644238107017114
  0.7823602592829675  0.2478130403176280  0.4463920820876304
 
  0.00000000E+00  0.00000000E+00  0.00000000E+00
  0.00000000E+00  0.00000000E+00  0.00000000E+00
  0.00000000E+00  0.00000000E+00  0.00000000E+00
  0.00000000E+00  0.00000000E+00  0.00000000E+00
  0.00000000E+00  0.00000000E+00  0.00000000E+00
  0.00000000E+00  0.00000000E+00  0.00000000E+00
  0.00000000E+00  0.00000000E+00  0.00000000E+00
  0.00000000E+00  0.00000000E+00  0.00000000E+00
  0.00000000E+00  0.00000000E+00  0.00000000E+00
  0.00000000E+00  0.00000000E+00  0.00000000E+00
  0.00000000E+00  0.00000000E+00  0.00000000E+00
  0.00000000E+00  0.00000000E+00  0.00000000E+00
  0.00000000E+00  0.00000000E+00  0.00000000E+00
  0.00000000E+00  0.00000000E+00  0.00000000E+00
  0.00000000E+00  0.00000000E+00  0.00000000E+00
  0.00000000E+00  0.00000000E+00  0.00000000E+00
  0.00000000E+00  0.00000000E+00  0.00000000E+00
  0.00000000E+00  0.00000000E+00  0.00000000E+00
  0.00000000E+00  0.00000000E+00  0.00000000E+00
  0.00000000E+00  0.00000000E+00  0.00000000E+00
  0.00000000E+00  0.00000000E+00  0.00000000E+00
  0.00000000E+00  0.00000000E+00  0.00000000E+00
  0.00000000E+00  0.00000000E+00  0.00000000E+00
  0.00000000E+00  0.00000000E+00  0.00000000E+00
  0.00000000E+00  0.00000000E+00  0.00000000E+00
  0.00000000E+00  0.00000000E+00  0.00000000E+00
  0.00000000E+00  0.00000000E+00  0.00000000E+00
  0.00000000E+00  0.00000000E+00  0.00000000E+00
  0.00000000E+00  0.00000000E+00  0.00000000E+00
  0.00000000E+00  0.00000000E+00  0.00000000E+00
  0.00000000E+00  0.00000000E+00  0.00000000E+00
  0.00000000E+00  0.00000000E+00  0.00000000E+00
  0.00000000E+00  0.00000000E+00  0.00000000E+00
  0.00000000E+00  0.00000000E+00  0.00000000E+00
  0.00000000E+00  0.00000000E+00  0.00000000E+00
  0.00000000E+00  0.00000000E+00  0.00000000E+00
  0.00000000E+00  0.00000000E+00  0.00000000E+00
  0.00000000E+00  0.00000000E+00  0.00000000E+00
  0.00000000E+00  0.00000000E+00  0.00000000E+00
  0.00000000E+00  0.00000000E+00  0.00000000E+00
  0.00000000E+00  0.00000000E+00  0.00000000E+00
  0.00000000E+00  0.00000000E+00  0.00000000E+00
  0.00000000E+00  0.00000000E+00  0.00000000E+00
  0.00000000E+00  0.00000000E+00  0.00000000E+00
  0.00000000E+00  0.00000000E+00  0.00000000E+00
  0.00000000E+00  0.00000000E+00  0.00000000E+00
  0.00000000E+00  0.00000000E+00  0.00000000E+00
  0.00000000E+00  0.00000000E+00  0.00000000E+00
  0.00000000E+00  0.00000000E+00  0.00000000E+00
  0.00000000E+00  0.00000000E+00  0.00000000E+00
  0.00000000E+00  0.00000000E+00  0.00000000E+00
  0.00000000E+00  0.00000000E+00  0.00000000E+00
  0.00000000E+00  0.00000000E+00  0.00000000E+00
  0.00000000E+00  0.00000000E+00  0.00000000E+00
  0.00000000E+00  0.00000000E+00  0.00000000E+00
  0.00000000E+00  0.00000000E+00  0.00000000E+00
  0.00000000E+00  0.00000000E+00  0.00000000E+00
  0.00000000E+00  0.00000000E+00  0.00000000E+00
  0.00000000E+00  0.00000000E+00  0.00000000E+00
  0.00000000E+00  0.00000000E+00  0.00000000E+00
  0.00000000E+00  0.00000000E+00  0.00000000E+00
  0.00000000E+00  0.00000000E+00  0.00000000E+00
  0.00000000E+00  0.00000000E+00  0.00000000E+00
  0.00000000E+00  0.00000000E+00  0.00000000E+00
  0.00000000E+00  0.00000000E+00  0.00000000E+00
  0.00000000E+00  0.00000000E+00  0.00000000E+00
  0.00000000E+00  0.00000000E+00  0.00000000E+00
  0.00000000E+00  0.00000000E+00  0.00000000E+00
  0.00000000E+00  0.00000000E+00  0.00000000E+00
  0.00000000E+00  0.00000000E+00  0.00000000E+00
  0.00000000E+00  0.00000000E+00  0.00000000E+00
  0.00000000E+00  0.00000000E+00  0.00000000E+00
  0.00000000E+00  0.00000000E+00  0.00000000E+00
  0.00000000E+00  0.00000000E+00  0.00000000E+00
  0.00000000E+00  0.00000000E+00  0.00000000E+00
  0.00000000E+00  0.00000000E+00  0.00000000E+00
  0.00000000E+00  0.00000000E+00  0.00000000E+00
  0.00000000E+00  0.00000000E+00  0.00000000E+00
  0.00000000E+00  0.00000000E+00  0.00000000E+00
  0.00000000E+00  0.00000000E+00  0.00000000E+00
  0.00000000E+00  0.00000000E+00  0.00000000E+00
  0.00000000E+00  0.00000000E+00  0.00000000E+00
  0.00000000E+00  0.00000000E+00  0.00000000E+00
  0.00000000E+00  0.00000000E+00  0.00000000E+00
  0.00000000E+00  0.00000000E+00  0.00000000E+00
  0.00000000E+00  0.00000000E+00  0.00000000E+00
  0.00000000E+00  0.00000000E+00  0.00000000E+00
  0.00000000E+00  0.00000000E+00  0.00000000E+00
  0.00000000E+00  0.00000000E+00  0.00000000E+00
  0.00000000E+00  0.00000000E+00  0.00000000E+00
  0.00000000E+00  0.00000000E+00  0.00000000E+00
  0.00000000E+00  0.00000000E+00  0.00000000E+00
  0.00000000E+00  0.00000000E+00  0.00000000E+00
  0.00000000E+00  0.00000000E+00  0.00000000E+00
  0.00000000E+00  0.00000000E+00  0.00000000E+00
  0.00000000E+00  0.00000000E+00  0.00000000E+00
  0.00000000E+00  0.00000000E+00  0.00000000E+00
  0.00000000E+00  0.00000000E+00  0.00000000E+00
  0.00000000E+00  0.00000000E+00  0.00000000E+00
  0.00000000E+00  0.00000000E+00  0.00000000E+00
  0.00000000E+00  0.00000000E+00  0.00000000E+00
  0.00000000E+00  0.00000000E+00  0.00000000E+00
  0.00000000E+00  0.00000000E+00  0.00000000E+00
  0.00000000E+00  0.00000000E+00  0.00000000E+00
  0.00000000E+00  0.00000000E+00  0.00000000E+00
  0.00000000E+00  0.00000000E+00  0.00000000E+00
  0.00000000E+00  0.00000000E+00  0.00000000E+00
  0.00000000E+00  0.00000000E+00  0.00000000E+00
  0.00000000E+00  0.00000000E+00  0.00000000E+00
  0.00000000E+00  0.00000000E+00  0.00000000E+00
  0.00000000E+00  0.00000000E+00  0.00000000E+00
  0.00000000E+00  0.00000000E+00  0.00000000E+00
  0.00000000E+00  0.00000000E+00  0.00000000E+00
  0.00000000E+00  0.00000000E+00  0.00000000E+00
  0.00000000E+00  0.00000000E+00  0.00000000E+00
  0.00000000E+00  0.00000000E+00  0.00000000E+00
  0.00000000E+00  0.00000000E+00  0.00000000E+00
  0.00000000E+00  0.00000000E+00  0.00000000E+00
  0.00000000E+00  0.00000000E+00  0.00000000E+00
  0.00000000E+00  0.00000000E+00  0.00000000E+00
  0.00000000E+00  0.00000000E+00  0.00000000E+00
  0.00000000E+00  0.00000000E+00  0.00000000E+00
  0.00000000E+00  0.00000000E+00  0.00000000E+00
  0.00000000E+00  0.00000000E+00  0.00000000E+00
  0.00000000E+00  0.00000000E+00  0.00000000E+00
  0.00000000E+00  0.00000000E+00  0.00000000E+00
  0.00000000E+00  0.00000000E+00  0.00000000E+00
  0.00000000E+00  0.00000000E+00  0.00000000E+00
  0.00000000E+00  0.00000000E+00  0.00000000E+00
  0.00000000E+00  0.00000000E+00  0.00000000E+00
  0.00000000E+00  0.00000000E+00  0.00000000E+00
  0.00000000E+00  0.00000000E+00  0.00000000E+00
  0.00000000E+00  0.00000000E+00  0.00000000E+00
  0.00000000E+00  0.00000000E+00  0.00000000E+00
  0.00000000E+00  0.00000000E+00  0.00000000E+00
  0.00000000E+00  0.00000000E+00  0.00000000E+00
  0.00000000E+00  0.00000000E+00  0.00000000E+00
  0.00000000E+00  0.00000000E+00  0.00000000E+00
  0.00000000E+00  0.00000000E+00  0.00000000E+00
  0.00000000E+00  0.00000000E+00  0.00000000E+00
  0.00000000E+00  0.00000000E+00  0.00000000E+00
  0.00000000E+00  0.00000000E+00  0.00000000E+00
  0.00000000E+00  0.00000000E+00  0.00000000E+00
  0.00000000E+00  0.00000000E+00  0.00000000E+00
  0.00000000E+00  0.00000000E+00  0.00000000E+00
  0.00000000E+00  0.00000000E+00  0.00000000E+00
  0.00000000E+00  0.00000000E+00  0.00000000E+00
  0.00000000E+00  0.00000000E+00  0.00000000E+00
  0.00000000E+00  0.00000000E+00  0.00000000E+00
  0.00000000E+00  0.00000000E+00  0.00000000E+00
  0.00000000E+00  0.00000000E+00  0.00000000E+00
  0.00000000E+00  0.00000000E+00  0.00000000E+00
  0.00000000E+00  0.00000000E+00  0.00000000E+00
  0.00000000E+00  0.00000000E+00  0.00000000E+00
  0.00000000E+00  0.00000000E+00  0.00000000E+00
  0.00000000E+00  0.00000000E+00  0.00000000E+00
  0.00000000E+00  0.00000000E+00  0.00000000E+00
  0.00000000E+00  0.00000000E+00  0.00000000E+00
  0.00000000E+00  0.00000000E+00  0.00000000E+00
  0.00000000E+00  0.00000000E+00  0.00000000E+00
  0.00000000E+00  0.00000000E+00  0.00000000E+00
  0.00000000E+00  0.00000000E+00  0.00000000E+00
  0.00000000E+00  0.00000000E+00  0.00000000E+00
  0.00000000E+00  0.00000000E+00  0.00000000E+00
  0.00000000E+00  0.00000000E+00  0.00000000E+00
  0.00000000E+00  0.00000000E+00  0.00000000E+00
  0.00000000E+00  0.00000000E+00  0.00000000E+00
  0.00000000E+00  0.00000000E+00  0.00000000E+00
  0.00000000E+00  0.00000000E+00  0.00000000E+00
  0.00000000E+00  0.00000000E+00  0.00000000E+00
  0.00000000E+00  0.00000000E+00  0.00000000E+00
  0.00000000E+00  0.00000000E+00  0.00000000E+00
  0.00000000E+00  0.00000000E+00  0.00000000E+00
  0.00000000E+00  0.00000000E+00  0.00000000E+00
