O  C  H  Co Li                          
   1.00000000000000     
    25.8977710376380266   -0.2732064855554513    0.1700029238473522
    12.7104627806857007   22.0807837346349487    0.2063264748021895
     0.0454274911663474    0.0369252293107761    6.8250071862312716
   O    C    H    Co   Li
    60    75    18    18     3
Direct
  0.0616133815746241  0.2534694424597027  0.3267258053042900
  0.0366639273099001  0.3029417639213079  0.9728139291950736
  0.1024059656197614  0.2630769838544674  0.7279479121493736
  0.3997854497823717  0.5793574812136847  0.6465541613726334
  0.6928197688741099  0.0606293360246642  0.2951056674949353
  0.6854690749762842  0.0283709924951033  0.9224017538207635
  0.6531803666088541  0.0987737688859002  0.6922908113210701
  0.0178495943710215  0.3966014374287902  0.6590329372821485
  0.2626115157117536  0.6836178996678759  0.3101773096576159
  0.3087873564829066  0.6599000788864741  0.9519715570530025
  0.2656518224028709  0.6362925926972159  0.7144207932575576
  0.5885098900771570  0.0253596084645721  0.6373023067904617
  0.3006349121150582  0.0376002257293871  0.3650207625265278
  0.2335754040156018  0.0772252381481522  0.6047581077334588
  0.6450745253596709  0.4164886463174893  0.7997860666227324
  0.5723576609681688  0.4084156958069046  0.9532739364635204
  0.2760036134041275  0.0847442251513198  0.0051917763226544
  0.5701251554812095  0.3279773691633878  0.3116750880315239
  0.6239334693747837  0.2708098802267369  0.5627510719491887
  0.0001580202499011  0.6382065552326148  0.6986639218229059
  0.0282509716813584  0.5685536695823180  0.9349812632996475
  0.6347949820219225  0.2839490813781474  0.9686346958299547
  0.0392973617941696  0.6709975773276604  0.3623978338703124
  0.0800882042197367  0.6990819565721668  0.5946421468992900
  0.3705464726612918  0.0037274253259743  0.6945973097575296
  0.4115303693771487  0.0307393932199638  0.9292363407310742
  0.0841306168770252  0.6498010047038834  0.0004700683145560
  0.6987587726279002  0.9591700624082355  0.5916596321742921
  0.7700467334821411  0.9330561451774095  0.3682553672328530
  0.3787347942111421  0.6222280756469638  0.2822505827417864
  0.4481981153755094  0.5835576098183136  0.0510943246576220
  0.7277161294210718  0.9199526845741997  0.9780063742830535
  0.3465057532114241  0.6952327200732404  0.6152484808207349
  0.3167755168261601  0.7653702502991451  0.3808146111224280
  0.9956152265823843  0.3725138941906754  0.3044447001678928
  0.9655352349669306  0.4419468201190327  0.0661131482187082
  0.3672151705611726  0.7190962869436252  0.9771665682218631
  0.9665738756753965  0.3311100857100681  0.6442845043967715
  0.9278329456894020  0.3002785377129519  0.4122759757626945
  0.6305862623886660  0.0105512360603137  0.2593430396503448
  0.5941628590160462  0.9739345484230070  0.0409900029781783
  0.9209183557629061  0.3502418659055258  0.0060430607072458
  0.9453054432747233  0.7555464850820683  0.6625597196533792
  0.9693781798500378  0.7096264115501212  0.0282955597229998
  0.9010018510904291  0.7499239973693549  0.2625084892413283
  0.6206600521368758  0.4062868867764715  0.3808141955811507
  0.3149678585669230  0.9422572906852575  0.6726914499212790
  0.3347541517666412  0.9665809246703083  0.0339430215306012
  0.3658720472296174  0.8961840338485236  0.2678858538957919
  0.9796158961715669  0.6136770852040129  0.3380645725400205
  0.7596290065841012  0.2911137092950055  0.6983262331104935
  0.7091121092634325  0.3130984718601285  0.0684679381571510
  0.7608233563938336  0.3231232632476254  0.3089254419120174
  0.4164593799074927  0.9811181468738821  0.3341405869396271
  0.7238541015602540  0.4263984854641377  0.5444322300720841
  0.6489733991096007  0.5225484622364058  0.5295990807943086
  0.7033959409984897  0.4771158793328757  0.2553943581119609
  0.7203271369257190  0.2315099258201480  0.4598512359798947
  0.8464362300446715  0.1550659283001162  0.4985793303427037
  0.8083940494752222  0.0960156655673154  0.6360019924667158
  0.1134198961496547  0.2139030225303562  0.2437677391921189
  0.1555408178255614  0.1683708824520594  0.3624840617922497
  0.0869060144805957  0.2627814832401025  0.9053501076032301
  0.1276591148646283  0.2151429428650100  0.0414590742949396
  0.4524619203561903  0.5393444554887620  0.5710248644194168
  0.4937492038136451  0.4977804636412689  0.7023425460880355
  0.6738746151616355  0.1154133370075496  0.2103667726382534
  0.6523949211983557  0.1666722431393031  0.3265249300796073
  0.6713121889071237  0.0824424355750253  0.8659112686412184
  0.6719680321689095  0.1253340326037691  0.0033563527823812
  0.0074477933495764  0.4491650685713452  0.5767970438860094
  0.0124966908178801  0.4908296195130333  0.6944752634800619
  0.2199964924528519  0.6752311661954752  0.2303142734540976
  0.1734486084827153  0.6810730464931256  0.3506312526752284
  0.2667493188797571  0.6517311117245231  0.8895978704821268
  0.2191311606267749  0.6608002464659666  0.0293198756973075
  0.5481266986824044  0.0135478831595708  0.5579325323366482
  0.5029859417365110  0.0167822353986407  0.6804768666477209
  0.2498442892915951  0.0776185142592366  0.4286830137391974
  0.2100857990346664  0.1246513471214513  0.2896897585078001
  0.5922217810371456  0.4238456373372345  0.8062199607936548
  0.5507777084648251  0.4565448276275511  0.6448329220351192
  0.2245768821508479  0.1253437545420146  0.0870531302195523
  0.1823585127146814  0.1713268567249577  0.9685669596355577
  0.6075548171850160  0.2763056534143239  0.3702004559937538
  0.6339748674382564  0.2239033018547957  0.2452838334703056
  0.0112232032702666  0.5858946049744816  0.7606346692823913
  0.0032973856347826  0.5462332841577309  0.6224909713555313
  0.6427598404775777  0.2313421921054224  0.0411986350672670
  0.6606606186825861  0.1808711562237787  0.9250373640760843
  0.0800974826877751  0.6816896985384810  0.4212389392034090
  0.1274172834475475  0.6729920288303175  0.2810779233898331
  0.4113591464873388  0.0141818674486253  0.7549573997175261
  0.4582237259764044  0.0064674538146411  0.6134440628855887
  0.1266084454855660  0.6584156074998453  0.0799996668968041
  0.1731155911251270  0.6527707898363314  0.9596928516985997
  0.7532226619186690  0.9274020916712670  0.5399012118002550
  0.7948329360076597  0.8839016272828082  0.6868535543488642
  0.4310133374654316  0.5828528249033087  0.2256674547163951
  0.4699322647390790  0.5375208252597818  0.3711290509361147
  0.7800446096067385  0.8832077378654953  0.8914612835151517
  0.8233071915557466  0.8392461180888520  0.0122241356788139
  0.3335735830487245  0.7483466903438404  0.5555045189643826
  0.3388308933769297  0.7888834436624131  0.6970093233196062
  0.9838901194653301  0.4247942346938460  0.2401921020316311
  0.9919921127554058  0.4648620831842705  0.3753193580364672
  0.3547457938003358  0.7726386629506558  0.8975600818005666
  0.3569910221515410  0.8151329061365442  0.0193009839996696
  0.9282984879884701  0.3168285852679077  0.5870133656286143
  0.8838858070015937  0.3192794159452617  0.7306045824150152
  0.5933840273425660  0.9936079532813611  0.2122510653260758
  0.5481795972029611  0.9983486936761043  0.3570263906321975
  0.8832865171077147  0.3341185399170895  0.9326154642780891
  0.8416599012133450  0.3299902600087539  0.0552396333650037
  0.8934936951478327  0.7962822570450115  0.7420497049682623
  0.8509611556991724  0.8410965595390825  0.6203826264577237
  0.9179847059581109  0.7498907102821958  0.0871613197132402
  0.8787154259291318  0.7961187932195051  0.9444025686844676
  0.5673251349697060  0.4515246429668411  0.4441097530929676
  0.5266391185074069  0.4932047906405126  0.3121528144228093
  0.3277870288628970  0.8886067567783317  0.7519679042121465
  0.3256665952598936  0.8460618155179965  0.6301985102108856
  0.3486714673144815  0.9131519760281646  0.0935392501024566
  0.3437810371700982  0.8723336966914600  0.9524047614658027
  0.9884224270796022  0.5617929775859926  0.4206666185656459
  0.9829461199626955  0.5202525851512518  0.3030117285443096
  0.7986113979129983  0.3039992285170821  0.7853550808424875
  0.8426393043432271  0.3039902691682380  0.6649189062028474
  0.7540675686033501  0.3172981749946762  0.1251279795395822
  0.7983009823006005  0.3165135659903029  0.9865756501133476
  0.4580504115857781  0.9913065623464854  0.4126679206477579
  0.5037412490910750  0.9871598385031670  0.2908728185428853
  0.6888766796776045  0.4795570610317940  0.4350827462754631
  0.8265933543114582  0.1258687729177033  0.5671220638743578
  0.6839646541098084  0.2581082727228990  0.5935163592063369
  0.1450721336364371  0.1669308406885690  0.5171005981434492
  0.4812995284004634  0.5002425360920970  0.8563075820897798
  0.6485484611705468  0.1619954903017216  0.4843045469506796
  0.0243547400930753  0.4792315845938080  0.8480582626747855
  0.1734668203815981  0.6920895081841439  0.5043685066276588
  0.5027821090696847  0.0283508605573932  0.8336892642833615
  0.1928010903663761  0.1727319949282233  0.8138674090536705
  0.6631447911966036  0.1852170461041816  0.7668491000909754
  0.1733166242832295  0.6414942365570100  0.8060659074466637
  0.8122398288409044  0.8386127445096873  0.1665367906586749
  0.3691212054631208  0.8030110988110241  0.1723741268653871
  0.8471817265082757  0.3336295811254600  0.2123022712537749
  0.8618997242550173  0.8414411164311297  0.4656081360244527
  0.5391088387192254  0.4920948981201971  0.1586887973942676
  0.3135426518858335  0.8581705147403658  0.4771001328816041
  0.9715043839152658  0.5317877197130481  0.1491754074529457
  0.8443741808277130  0.2928620638351707  0.5103883750068602
  0.5039717264100720  0.9754665160598162  0.1377679175511805
  0.3225566207710882  0.6366506306442783  0.5137769825928331
  0.0453329795357240  0.3149400983801252  0.5256127461480944
  0.6453775608148760  0.0455507303416969  0.5032993373564878
  0.0241332947594715  0.6972777757849117  0.7953748325728360
  0.3556564263361099  0.0276048533332859  0.1312786493988304
  0.2914664749562934  0.0225079536006766  0.8045500484193977
  0.6195781911720805  0.3556497861875032  0.1660092167982144
  0.6946783390622105  0.2880578015382284  0.8165396635944753
  0.0268493698849662  0.6273168386800902  0.1321572973779452
  0.6494065645687447  0.9752519951790283  0.8403681058607870
  0.9815841403166823  0.3064161506222088  0.2086200334712286
  0.3890003062411819  0.6393571076768821  0.8492085359871668
  0.7174832359161771  0.9860777534722204  0.1540025949271556
  0.9726490402867147  0.3830481202007227  0.8672734418012880
  0.3208367537491311  0.7047443672101533  0.1822337416975394
  0.6902813096408053  0.3681585086323019  0.5493723157834537
  0.9581469203642959  0.6940580329955444  0.4645414625033268
  0.3608681182813815  0.9568227944789608  0.4665566630439046
  0.7675725922624849  0.4010073699635963  0.3078599576484571
  0.6709682918465982  0.4758677037244526  0.7640402370641890
  0.7838207186337428  0.2468184662157813  0.4510239867900465
 
  0.00000000E+00  0.00000000E+00  0.00000000E+00
  0.00000000E+00  0.00000000E+00  0.00000000E+00
  0.00000000E+00  0.00000000E+00  0.00000000E+00
  0.00000000E+00  0.00000000E+00  0.00000000E+00
  0.00000000E+00  0.00000000E+00  0.00000000E+00
  0.00000000E+00  0.00000000E+00  0.00000000E+00
  0.00000000E+00  0.00000000E+00  0.00000000E+00
  0.00000000E+00  0.00000000E+00  0.00000000E+00
  0.00000000E+00  0.00000000E+00  0.00000000E+00
  0.00000000E+00  0.00000000E+00  0.00000000E+00
  0.00000000E+00  0.00000000E+00  0.00000000E+00
  0.00000000E+00  0.00000000E+00  0.00000000E+00
  0.00000000E+00  0.00000000E+00  0.00000000E+00
  0.00000000E+00  0.00000000E+00  0.00000000E+00
  0.00000000E+00  0.00000000E+00  0.00000000E+00
  0.00000000E+00  0.00000000E+00  0.00000000E+00
  0.00000000E+00  0.00000000E+00  0.00000000E+00
  0.00000000E+00  0.00000000E+00  0.00000000E+00
  0.00000000E+00  0.00000000E+00  0.00000000E+00
  0.00000000E+00  0.00000000E+00  0.00000000E+00
  0.00000000E+00  0.00000000E+00  0.00000000E+00
  0.00000000E+00  0.00000000E+00  0.00000000E+00
  0.00000000E+00  0.00000000E+00  0.00000000E+00
  0.00000000E+00  0.00000000E+00  0.00000000E+00
  0.00000000E+00  0.00000000E+00  0.00000000E+00
  0.00000000E+00  0.00000000E+00  0.00000000E+00
  0.00000000E+00  0.00000000E+00  0.00000000E+00
  0.00000000E+00  0.00000000E+00  0.00000000E+00
  0.00000000E+00  0.00000000E+00  0.00000000E+00
  0.00000000E+00  0.00000000E+00  0.00000000E+00
  0.00000000E+00  0.00000000E+00  0.00000000E+00
  0.00000000E+00  0.00000000E+00  0.00000000E+00
  0.00000000E+00  0.00000000E+00  0.00000000E+00
  0.00000000E+00  0.00000000E+00  0.00000000E+00
  0.00000000E+00  0.00000000E+00  0.00000000E+00
  0.00000000E+00  0.00000000E+00  0.00000000E+00
  0.00000000E+00  0.00000000E+00  0.00000000E+00
  0.00000000E+00  0.00000000E+00  0.00000000E+00
  0.00000000E+00  0.00000000E+00  0.00000000E+00
  0.00000000E+00  0.00000000E+00  0.00000000E+00
  0.00000000E+00  0.00000000E+00  0.00000000E+00
  0.00000000E+00  0.00000000E+00  0.00000000E+00
  0.00000000E+00  0.00000000E+00  0.00000000E+00
  0.00000000E+00  0.00000000E+00  0.00000000E+00
  0.00000000E+00  0.00000000E+00  0.00000000E+00
  0.00000000E+00  0.00000000E+00  0.00000000E+00
  0.00000000E+00  0.00000000E+00  0.00000000E+00
  0.00000000E+00  0.00000000E+00  0.00000000E+00
  0.00000000E+00  0.00000000E+00  0.00000000E+00
  0.00000000E+00  0.00000000E+00  0.00000000E+00
  0.00000000E+00  0.00000000E+00  0.00000000E+00
  0.00000000E+00  0.00000000E+00  0.00000000E+00
  0.00000000E+00  0.00000000E+00  0.00000000E+00
  0.00000000E+00  0.00000000E+00  0.00000000E+00
  0.00000000E+00  0.00000000E+00  0.00000000E+00
  0.00000000E+00  0.00000000E+00  0.00000000E+00
  0.00000000E+00  0.00000000E+00  0.00000000E+00
  0.00000000E+00  0.00000000E+00  0.00000000E+00
  0.00000000E+00  0.00000000E+00  0.00000000E+00
  0.00000000E+00  0.00000000E+00  0.00000000E+00
  0.00000000E+00  0.00000000E+00  0.00000000E+00
  0.00000000E+00  0.00000000E+00  0.00000000E+00
  0.00000000E+00  0.00000000E+00  0.00000000E+00
  0.00000000E+00  0.00000000E+00  0.00000000E+00
  0.00000000E+00  0.00000000E+00  0.00000000E+00
  0.00000000E+00  0.00000000E+00  0.00000000E+00
  0.00000000E+00  0.00000000E+00  0.00000000E+00
  0.00000000E+00  0.00000000E+00  0.00000000E+00
  0.00000000E+00  0.00000000E+00  0.00000000E+00
  0.00000000E+00  0.00000000E+00  0.00000000E+00
  0.00000000E+00  0.00000000E+00  0.00000000E+00
  0.00000000E+00  0.00000000E+00  0.00000000E+00
  0.00000000E+00  0.00000000E+00  0.00000000E+00
  0.00000000E+00  0.00000000E+00  0.00000000E+00
  0.00000000E+00  0.00000000E+00  0.00000000E+00
  0.00000000E+00  0.00000000E+00  0.00000000E+00
  0.00000000E+00  0.00000000E+00  0.00000000E+00
  0.00000000E+00  0.00000000E+00  0.00000000E+00
  0.00000000E+00  0.00000000E+00  0.00000000E+00
  0.00000000E+00  0.00000000E+00  0.00000000E+00
  0.00000000E+00  0.00000000E+00  0.00000000E+00
  0.00000000E+00  0.00000000E+00  0.00000000E+00
  0.00000000E+00  0.00000000E+00  0.00000000E+00
  0.00000000E+00  0.00000000E+00  0.00000000E+00
  0.00000000E+00  0.00000000E+00  0.00000000E+00
  0.00000000E+00  0.00000000E+00  0.00000000E+00
  0.00000000E+00  0.00000000E+00  0.00000000E+00
  0.00000000E+00  0.00000000E+00  0.00000000E+00
  0.00000000E+00  0.00000000E+00  0.00000000E+00
  0.00000000E+00  0.00000000E+00  0.00000000E+00
  0.00000000E+00  0.00000000E+00  0.00000000E+00
  0.00000000E+00  0.00000000E+00  0.00000000E+00
  0.00000000E+00  0.00000000E+00  0.00000000E+00
  0.00000000E+00  0.00000000E+00  0.00000000E+00
  0.00000000E+00  0.00000000E+00  0.00000000E+00
  0.00000000E+00  0.00000000E+00  0.00000000E+00
  0.00000000E+00  0.00000000E+00  0.00000000E+00
  0.00000000E+00  0.00000000E+00  0.00000000E+00
  0.00000000E+00  0.00000000E+00  0.00000000E+00
  0.00000000E+00  0.00000000E+00  0.00000000E+00
  0.00000000E+00  0.00000000E+00  0.00000000E+00
  0.00000000E+00  0.00000000E+00  0.00000000E+00
  0.00000000E+00  0.00000000E+00  0.00000000E+00
  0.00000000E+00  0.00000000E+00  0.00000000E+00
  0.00000000E+00  0.00000000E+00  0.00000000E+00
  0.00000000E+00  0.00000000E+00  0.00000000E+00
  0.00000000E+00  0.00000000E+00  0.00000000E+00
  0.00000000E+00  0.00000000E+00  0.00000000E+00
  0.00000000E+00  0.00000000E+00  0.00000000E+00
  0.00000000E+00  0.00000000E+00  0.00000000E+00
  0.00000000E+00  0.00000000E+00  0.00000000E+00
  0.00000000E+00  0.00000000E+00  0.00000000E+00
  0.00000000E+00  0.00000000E+00  0.00000000E+00
  0.00000000E+00  0.00000000E+00  0.00000000E+00
  0.00000000E+00  0.00000000E+00  0.00000000E+00
  0.00000000E+00  0.00000000E+00  0.00000000E+00
  0.00000000E+00  0.00000000E+00  0.00000000E+00
  0.00000000E+00  0.00000000E+00  0.00000000E+00
  0.00000000E+00  0.00000000E+00  0.00000000E+00
  0.00000000E+00  0.00000000E+00  0.00000000E+00
  0.00000000E+00  0.00000000E+00  0.00000000E+00
  0.00000000E+00  0.00000000E+00  0.00000000E+00
  0.00000000E+00  0.00000000E+00  0.00000000E+00
  0.00000000E+00  0.00000000E+00  0.00000000E+00
  0.00000000E+00  0.00000000E+00  0.00000000E+00
  0.00000000E+00  0.00000000E+00  0.00000000E+00
  0.00000000E+00  0.00000000E+00  0.00000000E+00
  0.00000000E+00  0.00000000E+00  0.00000000E+00
  0.00000000E+00  0.00000000E+00  0.00000000E+00
  0.00000000E+00  0.00000000E+00  0.00000000E+00
  0.00000000E+00  0.00000000E+00  0.00000000E+00
  0.00000000E+00  0.00000000E+00  0.00000000E+00
  0.00000000E+00  0.00000000E+00  0.00000000E+00
  0.00000000E+00  0.00000000E+00  0.00000000E+00
  0.00000000E+00  0.00000000E+00  0.00000000E+00
  0.00000000E+00  0.00000000E+00  0.00000000E+00
  0.00000000E+00  0.00000000E+00  0.00000000E+00
  0.00000000E+00  0.00000000E+00  0.00000000E+00
  0.00000000E+00  0.00000000E+00  0.00000000E+00
  0.00000000E+00  0.00000000E+00  0.00000000E+00
  0.00000000E+00  0.00000000E+00  0.00000000E+00
  0.00000000E+00  0.00000000E+00  0.00000000E+00
  0.00000000E+00  0.00000000E+00  0.00000000E+00
  0.00000000E+00  0.00000000E+00  0.00000000E+00
  0.00000000E+00  0.00000000E+00  0.00000000E+00
  0.00000000E+00  0.00000000E+00  0.00000000E+00
  0.00000000E+00  0.00000000E+00  0.00000000E+00
  0.00000000E+00  0.00000000E+00  0.00000000E+00
  0.00000000E+00  0.00000000E+00  0.00000000E+00
  0.00000000E+00  0.00000000E+00  0.00000000E+00
  0.00000000E+00  0.00000000E+00  0.00000000E+00
  0.00000000E+00  0.00000000E+00  0.00000000E+00
  0.00000000E+00  0.00000000E+00  0.00000000E+00
  0.00000000E+00  0.00000000E+00  0.00000000E+00
  0.00000000E+00  0.00000000E+00  0.00000000E+00
  0.00000000E+00  0.00000000E+00  0.00000000E+00
  0.00000000E+00  0.00000000E+00  0.00000000E+00
  0.00000000E+00  0.00000000E+00  0.00000000E+00
  0.00000000E+00  0.00000000E+00  0.00000000E+00
  0.00000000E+00  0.00000000E+00  0.00000000E+00
  0.00000000E+00  0.00000000E+00  0.00000000E+00
  0.00000000E+00  0.00000000E+00  0.00000000E+00
  0.00000000E+00  0.00000000E+00  0.00000000E+00
  0.00000000E+00  0.00000000E+00  0.00000000E+00
  0.00000000E+00  0.00000000E+00  0.00000000E+00
  0.00000000E+00  0.00000000E+00  0.00000000E+00
  0.00000000E+00  0.00000000E+00  0.00000000E+00
  0.00000000E+00  0.00000000E+00  0.00000000E+00
  0.00000000E+00  0.00000000E+00  0.00000000E+00
  0.00000000E+00  0.00000000E+00  0.00000000E+00
  0.00000000E+00  0.00000000E+00  0.00000000E+00
  0.00000000E+00  0.00000000E+00  0.00000000E+00
  0.00000000E+00  0.00000000E+00  0.00000000E+00
  0.00000000E+00  0.00000000E+00  0.00000000E+00
