O  C  H  Co Li                          
   1.00000000000000     
    25.9869300222800774    0.0014776472087939   -0.0002841704448074
    12.9947443186480527   22.5035161465627063   -0.0005769115704474
    -0.0000740905812471   -0.0001328080293999    6.8098320633878924
   O    C    H    Co   Li
    60    75    18    18     3
Direct
  0.0596513749599666  0.2546919545783016  0.3244547750652665
  0.0343473782877919  0.3039277407797942  0.9712721510249491
  0.0999052082458002  0.2632884533959772  0.7263101071860986
  0.4038553258199830  0.5864639389738926  0.6498470159261135
  0.6847568958549294  0.0669341904223297  0.3013246920942375
  0.6827023293538679  0.0316003093964485  0.9357436041331831
  0.6509270803027493  0.0996183932038198  0.7003701069839686
  0.0159260439410898  0.3971750697521712  0.6591265414884374
  0.2629383983948004  0.6845038177409846  0.3171055845663163
  0.3096088259326168  0.6611796652454407  0.9615893716096728
  0.2685460151164348  0.6361962159715187  0.7196417235244705
  0.5916309257768134  0.0226096548685584  0.6423622074071478
  0.2979677771473299  0.0365700398473427  0.3543206688124386
  0.2321846365838906  0.0764437654171501  0.5980808315384805
  0.6479757099892423  0.3822497539878881  0.7544243599198834
  0.5686335487372173  0.4104783249576672  0.9423851627806795
  0.2735980330141699  0.0844715036518229 -0.0001536027224762
  0.5661772357182490  0.3310231231797726  0.3135248145186575
  0.6204574553681224  0.2751182384455085  0.5666647084607357
  0.0089905278136010  0.6302711420461511  0.6924463522146904
  0.0354710402265471  0.5626825746506885  0.9311413571848112
  0.6335210908019004  0.2827744382769052  0.9742803505615637
  0.0411940164339196  0.6688987498520044  0.3588596974398841
  0.0820142917099930  0.6952363387783197  0.5987415552324934
  0.3693525608084660  0.0090067991440216  0.6871109877705268
  0.4093684856293994  0.0357932280988789  0.9272399192069413
  0.0883469403796546  0.6455125158457292  0.0036232184142737
  0.7066925584916081  0.9614999827144627  0.6085113892362523
  0.7773441538451412  0.9277237186852814  0.3811777578412068
  0.3813184903484919  0.6307821990744090  0.2931906956447315
  0.4481754553830613  0.5904419500708933  0.0534134011605422
  0.7321342178313009  0.9184312013086022  0.9778179883659296
  0.3390536175676832  0.7030584480779805  0.6275978405042528
  0.3134530891594825  0.7691294448304908  0.3853545783570360
 -0.0071150129304145  0.3735634348079124  0.3037000697515769
  0.9641259724131790  0.4412695832018968  0.0650700456610379
  0.3622450233548149  0.7266915373380476  0.9833072557317538
  0.9622678576844736  0.3345585165286948  0.6398824108503858
  0.9266046142927865  0.3001082780513454  0.4088073172580198
  0.6371262597349177 -0.0001203158100926  0.2785589894469361
  0.5940992313194301  0.9765272500157363  0.0403799810214131
  0.9179315924047045  0.3524847834090351  0.0040814988540236
  0.9481629918772267  0.7470408013578063  0.6669800464650560
  0.9711868389961922  0.7002950716566626  0.0254408879046725
  0.9025659577505516  0.7397223143245779  0.2608134457953267
  0.6181219016440120  0.4074809214594076  0.3525551786321682
  0.3187688680343142  0.9418305998178781  0.6676020293108674
  0.3409297124955839  0.9660162490821750  0.0227253468836487
  0.3676729240561455  0.8996147796410057  0.2646400324835963
  0.9867393267561243  0.6063660125752210  0.3363096844121206
  0.7615082042799718  0.2861965658164152  0.6994544074745532
  0.7132832869710946  0.3062760394071427  0.0781688698900442
  0.7605231091224574  0.3271908953186748  0.3081262042020393
  0.4148436381096386  0.9867955454995418  0.3304280813719555
  0.7160333229994473  0.4315142239322510  0.5445360396419665
  0.6462084685032158  0.5281568256974083  0.5288423632592495
  0.6971628616926560  0.4792264272389878  0.2515604337592646
  0.7159300064397930  0.2348594148610528  0.4582672285938867
  0.8437755016051132  0.1569146269005508  0.4839098580980609
  0.8091519492576378  0.1031210335029860  0.6624177199110198
  0.1111965030967581  0.2144398341083324  0.2409287378883447
  0.1531555001600761  0.1683939381326514  0.3582077141951095
  0.0845567139990729  0.2633084080763967  0.9035962820366408
  0.1253229743016309  0.2155054541839394  0.0386933044464076
  0.4556282152578292  0.5450387286949960  0.5714694005118217
  0.4965589544755071  0.5006377530609820  0.6957608093396463
  0.6669746037462289  0.1201128670638927  0.2193123745959030
  0.6437267911773213  0.1717808846989326  0.3333308955290609
  0.6688947126753532  0.0838778826326468  0.8749314344911757
  0.6690830957999957  0.1274192135050658  0.0118747920259031
  0.0078513476363375  0.4478003184003064  0.5768620784203995
  0.0149333271702841  0.4880936526033979  0.6938735108878888
  0.2212106973159136  0.6747718620778504  0.2369731555787870
  0.1749734371974469  0.6799679479806969  0.3565542054053848
  0.2686088866007761  0.6517832402291224  0.8961884653238608
  0.2211748906593360  0.6596661840285598  0.0348816716206584
  0.5489757449776478  0.0144303036691502  0.5611982045663259
  0.5025089244191162  0.0204706305367573  0.6813779448150027
  0.2475967153342184  0.0768859020240901  0.4214870493023720
  0.2075089070278714  0.1242725374622251  0.2844239178185410
  0.5909943078502651  0.4133662536164682  0.7808189240686876
  0.5516825477464793  0.4556164806908941  0.6301257444508589
  0.2219878618694432  0.1251080372142255  0.0820262223410786
  0.1798966696517248  0.1713071819013400  0.9647761657952287
  0.6026397185557508  0.2798421854883065  0.3720411434848111
  0.6282123058657259  0.2269895456892969  0.2504438343930162
  0.0182125494024121  0.5797940585033334  0.7560953746967101
  0.0083426245011150  0.5411739513092030  0.6199310142310839
  0.6405476386400071  0.2317447477762830  0.0481377144506757
  0.6603375273220202  0.1808830240422818  0.9333394559803467
  0.0819621162963953  0.6787170328462898  0.4227321562972411
  0.1297714939884103  0.6707256625943085  0.2855730355985460
  0.4097631230550449  0.0195109345417164  0.7514159159723388
  0.4569316011776227  0.0117320910548023  0.6117317571885051
  0.1298620165141350  0.6555758208128482  0.0836625037286651
  0.1760242038294138  0.6504605693118040  0.9639896097910702
  0.7598331030216414  0.9245226402611058  0.5528712422406941
  0.7994430695083566  0.8781343757311556  0.6941573585379476
  0.4322858818264044  0.5902900171137180  0.2293232658952133
  0.4716383372747505  0.5435658266166596  0.3700903869218236
  0.7836717956412178  0.8779309025224977  0.8961973291551855
  0.8252714266083702  0.8320449644223222  0.0161317357258647
  0.3291024818404757  0.7536192411338593  0.5620007857454377
  0.3362685574732510  0.7935162715266242  0.7004072811315594
  0.9827802917579327  0.4242117041877009  0.2393518865599562
 -0.0069387929239321  0.4627815538286966  0.3740714415824782
  0.3516200043202690  0.7784184563576432  0.9022958939544288
  0.3558266261408184  0.8200238068251319  0.0214125561529275
  0.9261459128532608  0.3174639109901941  0.5840409480899826
  0.8829445480822937  0.3183409957483605  0.7282790680188618
  0.5952390081130868  0.9913771809534040  0.2172005443461749
  0.5482940438709212  0.9998019684229198  0.3588386357848046
  0.8813025756896670  0.3353386644546528  0.9296775565340536
  0.8398019329492886  0.3319044759398114  0.0516050751669857
  0.8959939880928888  0.7879224410408424  0.7458750311858093
  0.8546394358871304  0.8337427149755662  0.6255974281313716
  0.9197985340840784  0.7403374565099148  0.0861256828440948
  0.8802832437096596  0.7875744397702750  0.9472066673834995
  0.5667951079113011  0.4527440311071376  0.4278830795569468
  0.5264238438264269  0.4975504428777976  0.3034819890842639
  0.3297955812204703  0.8900032038098754  0.7482003210351332
  0.3257267978135624  0.8483194102598286  0.6290217728240310
  0.3517852659114736  0.9151422742913570  0.0883016442961149
  0.3451640927454993  0.8748822405437403  0.9499502984214788
  0.9939355517892883  0.5560264105151661  0.4172360493718735
  0.9866357439234913  0.5158295885855130  0.3000095231365394
  0.7995657757735981  0.3004316540549153  0.7838263911539809
  0.8436704592472762  0.3002829505065481  0.6641135954317201
  0.7553823107596556  0.3162306963530016  0.1244038472834136
  0.7981387588368253  0.3159215323313518  0.9846982122854582
  0.4565836952552880  0.9965704112088485  0.4099616868012311
  0.5025557212342326  0.9913051753013344  0.2892557390494185
  0.6834611241608645  0.4836195917262346  0.4324468872469669
  0.8257674232780449  0.1301902526000705  0.5730721997739905
  0.6802970056391848  0.2592723200938927  0.5959188329866041
  0.1426344997695208  0.1669419339584807  0.5124636062487117
  0.4849134491870822  0.5021102412809156  0.8502173275059077
  0.6369725233243012  0.1686046250415759  0.4900852430860150
  0.0265797252023868  0.4771741776362220  0.8480807545704125
  0.1745859921751765  0.6916294094047659  0.5106363064751250
  0.5025225947211769  0.0318695354444579  0.8354604459029833
  0.1904831335585627  0.1725943008488542  0.8104419953370640
  0.6662901110906212  0.1833646120776415  0.7757902523371683
  0.1765918102779397  0.6386639310737734  0.8099711458380231
  0.8137242341977696  0.8313888123361153  0.1696837987200356
  0.3678146875726688  0.8090803993794675  0.1753809244424592
  0.8444464236430407  0.3374371105565117  0.2088211867258804
  0.8660929794887225  0.8344912088932416  0.4719166235266153
  0.5378178175753590  0.4967073347684727  0.1491110339625174
  0.3137633174599945  0.8593436533525706  0.4750377225505306
  0.9754654762125984  0.5266850771151440  0.1454852946857519
  0.8471519222130299  0.2869644139314368  0.5103354289079368
  0.5024864727100129  0.9800234936665086  0.1350554621387018
  0.3240116019123534  0.6404166178595824  0.5198347162374630
  0.0424330924733639  0.3162237712493937  0.5250552008129784
  0.6478953799957681  0.0433847477769273  0.5095722685295688
  0.0290627559641685  0.6909660192466018  0.8007159618144434
  0.3541310602815489  0.0301875558770373  0.1264743932330077
  0.2924616027481296  0.0223335104807067  0.7968705970598723
  0.6146000590105446  0.3552504164256396  0.1521518073742094
  0.6955159428341758  0.2848759544314699  0.8266195604375297
  0.0329933491865056  0.6193226222933176  0.1302750788652461
  0.6533052615811087  0.9761569464175486  0.8474193549927928
  0.9793380925799974  0.3081602014473896  0.2067161356086031
  0.3873743773669381  0.6467973016073741  0.8556337966133342
  0.7173801614239730  0.9821008634871243  0.1796986828166834
  0.9705197142436328  0.3836408820607475  0.8648841014547027
  0.3186824744997760  0.7089807656978127  0.1873816445852247
  0.6915429457612721  0.3682942224969656  0.5051409241297601
  0.9598006435491111  0.6881325541569964  0.4644836865441338
  0.3617860391364465  0.9597900321942959  0.4628209382029671
  0.7629993447293438  0.4041727994498274  0.3085824201760238
  0.6709028451238038  0.4820959166577553  0.7607764573806561
  0.7804122193914944  0.2482750614551364  0.4442898298633997
 
  0.00000000E+00  0.00000000E+00  0.00000000E+00
  0.00000000E+00  0.00000000E+00  0.00000000E+00
  0.00000000E+00  0.00000000E+00  0.00000000E+00
  0.00000000E+00  0.00000000E+00  0.00000000E+00
  0.00000000E+00  0.00000000E+00  0.00000000E+00
  0.00000000E+00  0.00000000E+00  0.00000000E+00
  0.00000000E+00  0.00000000E+00  0.00000000E+00
  0.00000000E+00  0.00000000E+00  0.00000000E+00
  0.00000000E+00  0.00000000E+00  0.00000000E+00
  0.00000000E+00  0.00000000E+00  0.00000000E+00
  0.00000000E+00  0.00000000E+00  0.00000000E+00
  0.00000000E+00  0.00000000E+00  0.00000000E+00
  0.00000000E+00  0.00000000E+00  0.00000000E+00
  0.00000000E+00  0.00000000E+00  0.00000000E+00
  0.00000000E+00  0.00000000E+00  0.00000000E+00
  0.00000000E+00  0.00000000E+00  0.00000000E+00
  0.00000000E+00  0.00000000E+00  0.00000000E+00
  0.00000000E+00  0.00000000E+00  0.00000000E+00
  0.00000000E+00  0.00000000E+00  0.00000000E+00
  0.00000000E+00  0.00000000E+00  0.00000000E+00
  0.00000000E+00  0.00000000E+00  0.00000000E+00
  0.00000000E+00  0.00000000E+00  0.00000000E+00
  0.00000000E+00  0.00000000E+00  0.00000000E+00
  0.00000000E+00  0.00000000E+00  0.00000000E+00
  0.00000000E+00  0.00000000E+00  0.00000000E+00
  0.00000000E+00  0.00000000E+00  0.00000000E+00
  0.00000000E+00  0.00000000E+00  0.00000000E+00
  0.00000000E+00  0.00000000E+00  0.00000000E+00
  0.00000000E+00  0.00000000E+00  0.00000000E+00
  0.00000000E+00  0.00000000E+00  0.00000000E+00
  0.00000000E+00  0.00000000E+00  0.00000000E+00
  0.00000000E+00  0.00000000E+00  0.00000000E+00
  0.00000000E+00  0.00000000E+00  0.00000000E+00
  0.00000000E+00  0.00000000E+00  0.00000000E+00
  0.00000000E+00  0.00000000E+00  0.00000000E+00
  0.00000000E+00  0.00000000E+00  0.00000000E+00
  0.00000000E+00  0.00000000E+00  0.00000000E+00
  0.00000000E+00  0.00000000E+00  0.00000000E+00
  0.00000000E+00  0.00000000E+00  0.00000000E+00
  0.00000000E+00  0.00000000E+00  0.00000000E+00
  0.00000000E+00  0.00000000E+00  0.00000000E+00
  0.00000000E+00  0.00000000E+00  0.00000000E+00
  0.00000000E+00  0.00000000E+00  0.00000000E+00
  0.00000000E+00  0.00000000E+00  0.00000000E+00
  0.00000000E+00  0.00000000E+00  0.00000000E+00
  0.00000000E+00  0.00000000E+00  0.00000000E+00
  0.00000000E+00  0.00000000E+00  0.00000000E+00
  0.00000000E+00  0.00000000E+00  0.00000000E+00
  0.00000000E+00  0.00000000E+00  0.00000000E+00
  0.00000000E+00  0.00000000E+00  0.00000000E+00
  0.00000000E+00  0.00000000E+00  0.00000000E+00
  0.00000000E+00  0.00000000E+00  0.00000000E+00
  0.00000000E+00  0.00000000E+00  0.00000000E+00
  0.00000000E+00  0.00000000E+00  0.00000000E+00
  0.00000000E+00  0.00000000E+00  0.00000000E+00
  0.00000000E+00  0.00000000E+00  0.00000000E+00
  0.00000000E+00  0.00000000E+00  0.00000000E+00
  0.00000000E+00  0.00000000E+00  0.00000000E+00
  0.00000000E+00  0.00000000E+00  0.00000000E+00
  0.00000000E+00  0.00000000E+00  0.00000000E+00
  0.00000000E+00  0.00000000E+00  0.00000000E+00
  0.00000000E+00  0.00000000E+00  0.00000000E+00
  0.00000000E+00  0.00000000E+00  0.00000000E+00
  0.00000000E+00  0.00000000E+00  0.00000000E+00
  0.00000000E+00  0.00000000E+00  0.00000000E+00
  0.00000000E+00  0.00000000E+00  0.00000000E+00
  0.00000000E+00  0.00000000E+00  0.00000000E+00
  0.00000000E+00  0.00000000E+00  0.00000000E+00
  0.00000000E+00  0.00000000E+00  0.00000000E+00
  0.00000000E+00  0.00000000E+00  0.00000000E+00
  0.00000000E+00  0.00000000E+00  0.00000000E+00
  0.00000000E+00  0.00000000E+00  0.00000000E+00
  0.00000000E+00  0.00000000E+00  0.00000000E+00
  0.00000000E+00  0.00000000E+00  0.00000000E+00
  0.00000000E+00  0.00000000E+00  0.00000000E+00
  0.00000000E+00  0.00000000E+00  0.00000000E+00
  0.00000000E+00  0.00000000E+00  0.00000000E+00
  0.00000000E+00  0.00000000E+00  0.00000000E+00
  0.00000000E+00  0.00000000E+00  0.00000000E+00
  0.00000000E+00  0.00000000E+00  0.00000000E+00
  0.00000000E+00  0.00000000E+00  0.00000000E+00
  0.00000000E+00  0.00000000E+00  0.00000000E+00
  0.00000000E+00  0.00000000E+00  0.00000000E+00
  0.00000000E+00  0.00000000E+00  0.00000000E+00
  0.00000000E+00  0.00000000E+00  0.00000000E+00
  0.00000000E+00  0.00000000E+00  0.00000000E+00
  0.00000000E+00  0.00000000E+00  0.00000000E+00
  0.00000000E+00  0.00000000E+00  0.00000000E+00
  0.00000000E+00  0.00000000E+00  0.00000000E+00
  0.00000000E+00  0.00000000E+00  0.00000000E+00
  0.00000000E+00  0.00000000E+00  0.00000000E+00
  0.00000000E+00  0.00000000E+00  0.00000000E+00
  0.00000000E+00  0.00000000E+00  0.00000000E+00
  0.00000000E+00  0.00000000E+00  0.00000000E+00
  0.00000000E+00  0.00000000E+00  0.00000000E+00
  0.00000000E+00  0.00000000E+00  0.00000000E+00
  0.00000000E+00  0.00000000E+00  0.00000000E+00
  0.00000000E+00  0.00000000E+00  0.00000000E+00
  0.00000000E+00  0.00000000E+00  0.00000000E+00
  0.00000000E+00  0.00000000E+00  0.00000000E+00
  0.00000000E+00  0.00000000E+00  0.00000000E+00
  0.00000000E+00  0.00000000E+00  0.00000000E+00
  0.00000000E+00  0.00000000E+00  0.00000000E+00
  0.00000000E+00  0.00000000E+00  0.00000000E+00
  0.00000000E+00  0.00000000E+00  0.00000000E+00
  0.00000000E+00  0.00000000E+00  0.00000000E+00
  0.00000000E+00  0.00000000E+00  0.00000000E+00
  0.00000000E+00  0.00000000E+00  0.00000000E+00
  0.00000000E+00  0.00000000E+00  0.00000000E+00
  0.00000000E+00  0.00000000E+00  0.00000000E+00
  0.00000000E+00  0.00000000E+00  0.00000000E+00
  0.00000000E+00  0.00000000E+00  0.00000000E+00
  0.00000000E+00  0.00000000E+00  0.00000000E+00
  0.00000000E+00  0.00000000E+00  0.00000000E+00
  0.00000000E+00  0.00000000E+00  0.00000000E+00
  0.00000000E+00  0.00000000E+00  0.00000000E+00
  0.00000000E+00  0.00000000E+00  0.00000000E+00
  0.00000000E+00  0.00000000E+00  0.00000000E+00
  0.00000000E+00  0.00000000E+00  0.00000000E+00
  0.00000000E+00  0.00000000E+00  0.00000000E+00
  0.00000000E+00  0.00000000E+00  0.00000000E+00
  0.00000000E+00  0.00000000E+00  0.00000000E+00
  0.00000000E+00  0.00000000E+00  0.00000000E+00
  0.00000000E+00  0.00000000E+00  0.00000000E+00
  0.00000000E+00  0.00000000E+00  0.00000000E+00
  0.00000000E+00  0.00000000E+00  0.00000000E+00
  0.00000000E+00  0.00000000E+00  0.00000000E+00
  0.00000000E+00  0.00000000E+00  0.00000000E+00
  0.00000000E+00  0.00000000E+00  0.00000000E+00
  0.00000000E+00  0.00000000E+00  0.00000000E+00
  0.00000000E+00  0.00000000E+00  0.00000000E+00
  0.00000000E+00  0.00000000E+00  0.00000000E+00
  0.00000000E+00  0.00000000E+00  0.00000000E+00
  0.00000000E+00  0.00000000E+00  0.00000000E+00
  0.00000000E+00  0.00000000E+00  0.00000000E+00
  0.00000000E+00  0.00000000E+00  0.00000000E+00
  0.00000000E+00  0.00000000E+00  0.00000000E+00
  0.00000000E+00  0.00000000E+00  0.00000000E+00
  0.00000000E+00  0.00000000E+00  0.00000000E+00
  0.00000000E+00  0.00000000E+00  0.00000000E+00
  0.00000000E+00  0.00000000E+00  0.00000000E+00
  0.00000000E+00  0.00000000E+00  0.00000000E+00
  0.00000000E+00  0.00000000E+00  0.00000000E+00
  0.00000000E+00  0.00000000E+00  0.00000000E+00
  0.00000000E+00  0.00000000E+00  0.00000000E+00
  0.00000000E+00  0.00000000E+00  0.00000000E+00
  0.00000000E+00  0.00000000E+00  0.00000000E+00
  0.00000000E+00  0.00000000E+00  0.00000000E+00
  0.00000000E+00  0.00000000E+00  0.00000000E+00
  0.00000000E+00  0.00000000E+00  0.00000000E+00
  0.00000000E+00  0.00000000E+00  0.00000000E+00
  0.00000000E+00  0.00000000E+00  0.00000000E+00
  0.00000000E+00  0.00000000E+00  0.00000000E+00
  0.00000000E+00  0.00000000E+00  0.00000000E+00
  0.00000000E+00  0.00000000E+00  0.00000000E+00
  0.00000000E+00  0.00000000E+00  0.00000000E+00
  0.00000000E+00  0.00000000E+00  0.00000000E+00
  0.00000000E+00  0.00000000E+00  0.00000000E+00
  0.00000000E+00  0.00000000E+00  0.00000000E+00
  0.00000000E+00  0.00000000E+00  0.00000000E+00
  0.00000000E+00  0.00000000E+00  0.00000000E+00
  0.00000000E+00  0.00000000E+00  0.00000000E+00
  0.00000000E+00  0.00000000E+00  0.00000000E+00
  0.00000000E+00  0.00000000E+00  0.00000000E+00
  0.00000000E+00  0.00000000E+00  0.00000000E+00
  0.00000000E+00  0.00000000E+00  0.00000000E+00
  0.00000000E+00  0.00000000E+00  0.00000000E+00
  0.00000000E+00  0.00000000E+00  0.00000000E+00
  0.00000000E+00  0.00000000E+00  0.00000000E+00
  0.00000000E+00  0.00000000E+00  0.00000000E+00
  0.00000000E+00  0.00000000E+00  0.00000000E+00
  0.00000000E+00  0.00000000E+00  0.00000000E+00
  0.00000000E+00  0.00000000E+00  0.00000000E+00
  0.00000000E+00  0.00000000E+00  0.00000000E+00
