O  C  H  Co Li                          
   1.00000000000000     
    25.7881476632993198   -0.1981264425596983    0.1449605357057151
    12.7230128557331810   22.2840697515439068    0.1516863651907970
     0.0384079562107625    0.0242284774429608    6.8545527631664713
   O    C    H    Co   Li
    60    75    18    18     3
Direct
  0.0619261691075428  0.2545022971807253  0.3277017099872487
  0.0373483501580620  0.3033888680857279  0.9754047993756588
  0.1028279771644990  0.2626593679287219  0.7306030015483079
  0.4001203197729475  0.5826335881330835  0.6421553396116552
  0.6858854399315000  0.0669583878734207  0.2914374699803864
  0.6798050776094237  0.0331130329646932  0.9299990381118438
  0.6486547632128947  0.1011546818669909  0.6926726280176339
  0.0185287918730105  0.3963698373247678  0.6622256712523796
  0.2636043736869544  0.6839449375492019  0.3103673967172899
  0.3101754534542915  0.6600598638286554  0.9561905805240551
  0.2670840590093613  0.6355584994485003  0.7197712064277280
  0.5919444396198102  0.0210005028962276  0.6359506152905460
  0.2991872380657149  0.0364384218800690  0.3615174222827746
  0.2329508152506986  0.0771620750560693  0.6029047927988538
  0.6439704142719321  0.4145786129109192  0.7939993136658561
  0.5694361085764253  0.4089553478896488  0.9440975783136172
  0.2751156063609778  0.0835599278559258  0.0047661129301223
  0.5670641957146407  0.3316633571593555  0.3063439125197369
  0.6208520471046431  0.2748361488640851  0.5561970790347133
  0.0068736290700085  0.6340156267407105  0.6954004427100018
  0.0300235560727809  0.5671254516999384  0.9369806810475089
  0.6328463552596878  0.2856253530258684  0.9637177336949557
  0.0387431096911181  0.6718680360964154  0.3606660635137486
  0.0803084080289010  0.6986887672349723  0.5951085672980468
  0.3699464346185073  0.0042510076719281  0.6926228517638295
  0.4112388702303599  0.0307968411362136  0.9274285821831620
  0.0859403032163650  0.6469285676738319  0.0053124359011048
  0.7060882834422905  0.9628731491885039  0.6040247788579799
  0.7765337680013440  0.9285146474294785  0.3755780443735794
  0.3804949451635877  0.6280104635834746  0.2876775953397132
  0.4477018970074289  0.5858182813977431  0.0494555254780881
  0.7309257356806473  0.9200432462991719  0.9724164809261601
  0.3421591504070161  0.6981800255714775  0.6211673144944349
  0.3150696207106653  0.7666875070062845  0.3841448943780244
 -0.0034376899579701  0.3722674388930729  0.3079203924008715
  0.9673354818562968  0.4408295254451486  0.0705777505183364
  0.3676669404351101  0.7205031694945939  0.9756425392448669
  0.9669620840113904  0.3313875497584220  0.6461363577162604
  0.9271536716846279  0.3023746446980737  0.4122955856413472
  0.6367327967466786 -0.0000165413422478  0.2728535818993865
  0.5941859245621550  0.9748582935993478  0.0392638260893382
  0.9210212573985911  0.3503428255856947  0.0060177060594112
  0.9475967832360190  0.7502182856682332  0.6687702631875490
  0.9701774116797168  0.7046189821948367  0.0281436297360889
  0.9015753494623672  0.7455045378316670  0.2627096849338792
  0.6194353313522962  0.4069172642023735  0.3738008085766543
  0.3153032618544419  0.9417723768917799  0.6719856898419808
  0.3353851772394273  0.9663215177164424  0.0302986869254487
  0.3646456518572057  0.8974915858304542  0.2659118256102751
  0.9817396676563340  0.6110840314507020  0.3434330561815239
  0.7591294228037712  0.2913995542699840  0.6948889539798020
  0.7083233979201229  0.3132562534148553  0.0639947429505398
  0.7602296131486536  0.3230446142369731  0.3044701459668108
  0.4149847475867308  0.9828518893684794  0.3337161045701344
  0.7234399264868790  0.4251043509536587  0.5444433942181544
  0.6482413897606335  0.5205288342337351  0.5339148454910770
  0.7028052552134225  0.4764517681998009  0.2593531313023390
  0.7182321079609941  0.2328351422466325  0.4558962816201432
  0.8459163201557627  0.1571244236301932  0.4896649993202667
  0.8103206196217843  0.0982125099183731  0.6404124118766650
  0.1134785591997145  0.2143820917545631  0.2445020057051561
  0.1553415770692751  0.1687900567094552  0.3623211969815208
  0.0873059764120178  0.2627325112803536  0.9074130402335802
  0.1276436497087614  0.2150252878333804  0.0427123492864850
  0.4524056126476331  0.5418731650284092  0.5658933508701747
  0.4928505973994952  0.4993747105525648  0.6953633694052352
  0.6673206409892783  0.1207771899056162  0.2083333986168820
  0.6460909888851758  0.1719484431383823  0.3228591086046791
  0.6662090994039553  0.0855346871388236  0.8663893116992288
  0.6666536232540028  0.1293564213882903  0.0014489032362841
  0.0089205024400977  0.4482509034183875  0.5803938301738075
  0.0142379700048805  0.4895927152044748  0.6977449587675835
  0.2210409390332694  0.6748498193204255  0.2327585309808495
  0.1744154638331730  0.6804912950917005  0.3528581748457364
  0.2682198773157989  0.6514587161205002  0.8941450591092374
  0.2204278524941344  0.6600668045184059  0.0327419761715159
  0.5496837243329643  0.0116123940451231  0.5573285181406968
  0.5037935273300409  0.0161483338802826  0.6791639315627421
  0.2489600448269592  0.0771371444450519  0.4270066740594578
  0.2095182879159870  0.1243686441329829  0.2892922257902756
  0.5902894984503245  0.4234749322653128  0.7985738540617587
  0.5494747047952879  0.4570384878730870  0.6373798718344624
  0.2239088478349392  0.1245576079369510  0.0871245386538887
  0.1819664495017129  0.1705271019954478  0.9695325909364813
  0.6042679095468075  0.2803079712369446  0.3645882599069533
  0.6297411521465395  0.2280229795689260  0.2406697443196647
  0.0146163002079974  0.5837897981638036  0.7613640703947281
  0.0057329219220463  0.5442961070270179  0.6258942328582059
  0.6394337521249458  0.2341515971284815  0.0374412916883817
  0.6566616152880453  0.1837353467970771  0.9224581627523550
  0.0802510512522044  0.6811970945855428  0.4218144946468403
  0.1284009372888680  0.6719192961120916  0.2840186309969915
  0.4109892910164515  0.0145881004963141  0.7533501387541841
  0.4580095259943857  0.0070199553030028  0.6122258574701361
  0.1280357569164231  0.6567144139584251  0.0840274025049738
  0.1745025048221036  0.6513826323046651  0.9639560969924563
  0.7591131325893412  0.9258768041971799  0.5479479723904326
  0.7987435106148404  0.8802337222447967  0.6905993061795471
  0.4309701949631849  0.5866141987901511  0.2254529001681131
  0.4697843633584264  0.5400040427468737  0.3669372829336524
  0.7828602374746582  0.8802476155066389  0.8919364758726197
  0.8245388149880614  0.8355861295210462  0.0139178890038461
  0.3316969128653591  0.7496546366607808  0.5587431301608657
  0.3382691822714136  0.7898411325274549  0.6972716195195356
  0.9855093688565272  0.4238789286960832  0.2440412179439937
 -0.0059668229540924  0.4634502179049792  0.3793181285240682
  0.3543264706432897  0.7738749123446923  0.8970184113226465
  0.3562907223205841  0.8164523322609883  0.0181491970051401
  0.9280969016999956  0.3179609383465627  0.5873810626298078
  0.8835861718963453  0.3200798111308943  0.7299341628527625
  0.5952614943558698  0.9901242836875449  0.2140149201757995
  0.5486543909774867  0.9974127388633296  0.3565981789521330
  0.8831730420789771  0.3344560252549330  0.9315963792557986
  0.8413749636587673  0.3301364128155291  0.0526549603300908
  0.8955440800752068  0.7912646067832658  0.7462009228298412
  0.8542696593058483  0.8362894295842808  0.6242138254320453
  0.9189181711337510  0.7451145062774542  0.0879675299445603
  0.8797861243210682  0.7914921230592971  0.9470224044782083
  0.5662476943096100  0.4522713991365874  0.4375495009774212
  0.5259918487083967  0.4946501813408288  0.3070590208555591
  0.3278492860356616  0.8887561613648689  0.7510267847669831
  0.3257206394127496  0.8462787752079167  0.6300499254929659
  0.3482312269589649  0.9138577347275905  0.0915428507392672
  0.3433270443601780  0.8730377942078594  0.9511863757904944
  0.9910241934156552  0.5593695176383306  0.4251012112485779
  0.9855295173901730  0.5181648578234582  0.3074412630490787
  0.7981166900035374  0.3044050331865749  0.7825206325535876
  0.8422388256248413  0.3048251865438553  0.6634209774050803
  0.7534758373502829  0.3173713681669678  0.1210698820680670
  0.7978408997076588  0.3167313718774997  0.9834033617096066
  0.4571033932969286  0.9925967461335697  0.4117816552540080
  0.5028216984721074  0.9882899493737953  0.2898115132687170
  0.6882977945161250  0.4782360548156451  0.4380911926953063
  0.8273122174449328  0.1279499855274278  0.5649634380408490
  0.6818161557810187  0.2599624266914619  0.5885078698688716
  0.1448579664218051  0.1678779655846296  0.5164651774449011
  0.4801130213731437  0.5017820601766638  0.8483977496769770
  0.6413822182140246  0.1677952673599457  0.4798103800062402
  0.0257485227094797  0.4782771842405677  0.8508264888756573
  0.1741891289612554  0.6919829448504580  0.5056258508562106
  0.5041945418123024  0.0270962497162425  0.8321333348506131
  0.1924162409891068  0.1713668287322506  0.8153109777589842
  0.6598882178922382  0.1874407700422937  0.7650191423409416
  0.1748341248713352  0.6397898548262390  0.8112363956862021
  0.8127996086840015  0.8354507932004469  0.1671188352376820
  0.3683883999966138  0.8047518952581822  0.1706658744093504
  0.8468154443774932  0.3336661190495409  0.2092500867006015
  0.8659081653866623  0.8365193102979945  0.4708830192699134
  0.5386363173441491  0.4933589916652149  0.1543918325921119
  0.3138631468485842  0.8579992665703917  0.4774355142835191
  0.9741442688100294  0.5295257386162859  0.1542965488740284
  0.8440871716251730  0.2938860954856146  0.5092642324417195
  0.5023817929202968  0.9774114132019465  0.1367819179405489
  0.3208406039440249  0.6376677516759320  0.5156291760381565
  0.0461145152510053  0.3149590215953606  0.5286536457548515
  0.6474051141009123  0.0442660406196828  0.5006839807357480
  0.0282557400889357  0.6948501742204030  0.8012365716595932
  0.3551734165391361  0.0276121048361635  0.1294037486574175
  0.2907937784459823  0.0222573046454284  0.8021399275257666
  0.6174770667009928  0.3573669901136279  0.1575032193852026
  0.6934269135329227  0.2888572273616847  0.8119418275650362
  0.0285931298672628  0.6230984146430225  0.1378166822997353
  0.6522390482275701  0.9757097982602774  0.8420575488757857
  0.9815667475635425  0.3074793872189747  0.2100476099517538
  0.3908147367549095  0.6397798067534037  0.8468335285534114
  0.7170507454739232  0.9826028778769959  0.1727072557028293
  0.9734857331203551  0.3827832540241496  0.8705446003605610
  0.3200747057098081  0.7096152983018885  0.1810836987994871
  0.6893476069463895  0.3676689914785556  0.5434352359919155
  0.9575281282593943  0.6925024538253753  0.4658092403626511
  0.3601232282463409  0.9572426200159884  0.4656594321559893
  0.7671748537929194  0.4005429504726650  0.3081717825012287
  0.6705820379538194  0.4733139202168206  0.7644242830346683
  0.7823602505300655  0.2478131059977281  0.4463909438374535
 
  0.00000000E+00  0.00000000E+00  0.00000000E+00
  0.00000000E+00  0.00000000E+00  0.00000000E+00
  0.00000000E+00  0.00000000E+00  0.00000000E+00
  0.00000000E+00  0.00000000E+00  0.00000000E+00
  0.00000000E+00  0.00000000E+00  0.00000000E+00
  0.00000000E+00  0.00000000E+00  0.00000000E+00
  0.00000000E+00  0.00000000E+00  0.00000000E+00
  0.00000000E+00  0.00000000E+00  0.00000000E+00
  0.00000000E+00  0.00000000E+00  0.00000000E+00
  0.00000000E+00  0.00000000E+00  0.00000000E+00
  0.00000000E+00  0.00000000E+00  0.00000000E+00
  0.00000000E+00  0.00000000E+00  0.00000000E+00
  0.00000000E+00  0.00000000E+00  0.00000000E+00
  0.00000000E+00  0.00000000E+00  0.00000000E+00
  0.00000000E+00  0.00000000E+00  0.00000000E+00
  0.00000000E+00  0.00000000E+00  0.00000000E+00
  0.00000000E+00  0.00000000E+00  0.00000000E+00
  0.00000000E+00  0.00000000E+00  0.00000000E+00
  0.00000000E+00  0.00000000E+00  0.00000000E+00
  0.00000000E+00  0.00000000E+00  0.00000000E+00
  0.00000000E+00  0.00000000E+00  0.00000000E+00
  0.00000000E+00  0.00000000E+00  0.00000000E+00
  0.00000000E+00  0.00000000E+00  0.00000000E+00
  0.00000000E+00  0.00000000E+00  0.00000000E+00
  0.00000000E+00  0.00000000E+00  0.00000000E+00
  0.00000000E+00  0.00000000E+00  0.00000000E+00
  0.00000000E+00  0.00000000E+00  0.00000000E+00
  0.00000000E+00  0.00000000E+00  0.00000000E+00
  0.00000000E+00  0.00000000E+00  0.00000000E+00
  0.00000000E+00  0.00000000E+00  0.00000000E+00
  0.00000000E+00  0.00000000E+00  0.00000000E+00
  0.00000000E+00  0.00000000E+00  0.00000000E+00
  0.00000000E+00  0.00000000E+00  0.00000000E+00
  0.00000000E+00  0.00000000E+00  0.00000000E+00
  0.00000000E+00  0.00000000E+00  0.00000000E+00
  0.00000000E+00  0.00000000E+00  0.00000000E+00
  0.00000000E+00  0.00000000E+00  0.00000000E+00
  0.00000000E+00  0.00000000E+00  0.00000000E+00
  0.00000000E+00  0.00000000E+00  0.00000000E+00
  0.00000000E+00  0.00000000E+00  0.00000000E+00
  0.00000000E+00  0.00000000E+00  0.00000000E+00
  0.00000000E+00  0.00000000E+00  0.00000000E+00
  0.00000000E+00  0.00000000E+00  0.00000000E+00
  0.00000000E+00  0.00000000E+00  0.00000000E+00
  0.00000000E+00  0.00000000E+00  0.00000000E+00
  0.00000000E+00  0.00000000E+00  0.00000000E+00
  0.00000000E+00  0.00000000E+00  0.00000000E+00
  0.00000000E+00  0.00000000E+00  0.00000000E+00
  0.00000000E+00  0.00000000E+00  0.00000000E+00
  0.00000000E+00  0.00000000E+00  0.00000000E+00
  0.00000000E+00  0.00000000E+00  0.00000000E+00
  0.00000000E+00  0.00000000E+00  0.00000000E+00
  0.00000000E+00  0.00000000E+00  0.00000000E+00
  0.00000000E+00  0.00000000E+00  0.00000000E+00
  0.00000000E+00  0.00000000E+00  0.00000000E+00
  0.00000000E+00  0.00000000E+00  0.00000000E+00
  0.00000000E+00  0.00000000E+00  0.00000000E+00
  0.00000000E+00  0.00000000E+00  0.00000000E+00
  0.00000000E+00  0.00000000E+00  0.00000000E+00
  0.00000000E+00  0.00000000E+00  0.00000000E+00
  0.00000000E+00  0.00000000E+00  0.00000000E+00
  0.00000000E+00  0.00000000E+00  0.00000000E+00
  0.00000000E+00  0.00000000E+00  0.00000000E+00
  0.00000000E+00  0.00000000E+00  0.00000000E+00
  0.00000000E+00  0.00000000E+00  0.00000000E+00
  0.00000000E+00  0.00000000E+00  0.00000000E+00
  0.00000000E+00  0.00000000E+00  0.00000000E+00
  0.00000000E+00  0.00000000E+00  0.00000000E+00
  0.00000000E+00  0.00000000E+00  0.00000000E+00
  0.00000000E+00  0.00000000E+00  0.00000000E+00
  0.00000000E+00  0.00000000E+00  0.00000000E+00
  0.00000000E+00  0.00000000E+00  0.00000000E+00
  0.00000000E+00  0.00000000E+00  0.00000000E+00
  0.00000000E+00  0.00000000E+00  0.00000000E+00
  0.00000000E+00  0.00000000E+00  0.00000000E+00
  0.00000000E+00  0.00000000E+00  0.00000000E+00
  0.00000000E+00  0.00000000E+00  0.00000000E+00
  0.00000000E+00  0.00000000E+00  0.00000000E+00
  0.00000000E+00  0.00000000E+00  0.00000000E+00
  0.00000000E+00  0.00000000E+00  0.00000000E+00
  0.00000000E+00  0.00000000E+00  0.00000000E+00
  0.00000000E+00  0.00000000E+00  0.00000000E+00
  0.00000000E+00  0.00000000E+00  0.00000000E+00
  0.00000000E+00  0.00000000E+00  0.00000000E+00
  0.00000000E+00  0.00000000E+00  0.00000000E+00
  0.00000000E+00  0.00000000E+00  0.00000000E+00
  0.00000000E+00  0.00000000E+00  0.00000000E+00
  0.00000000E+00  0.00000000E+00  0.00000000E+00
  0.00000000E+00  0.00000000E+00  0.00000000E+00
  0.00000000E+00  0.00000000E+00  0.00000000E+00
  0.00000000E+00  0.00000000E+00  0.00000000E+00
  0.00000000E+00  0.00000000E+00  0.00000000E+00
  0.00000000E+00  0.00000000E+00  0.00000000E+00
  0.00000000E+00  0.00000000E+00  0.00000000E+00
  0.00000000E+00  0.00000000E+00  0.00000000E+00
  0.00000000E+00  0.00000000E+00  0.00000000E+00
  0.00000000E+00  0.00000000E+00  0.00000000E+00
  0.00000000E+00  0.00000000E+00  0.00000000E+00
  0.00000000E+00  0.00000000E+00  0.00000000E+00
  0.00000000E+00  0.00000000E+00  0.00000000E+00
  0.00000000E+00  0.00000000E+00  0.00000000E+00
  0.00000000E+00  0.00000000E+00  0.00000000E+00
  0.00000000E+00  0.00000000E+00  0.00000000E+00
  0.00000000E+00  0.00000000E+00  0.00000000E+00
  0.00000000E+00  0.00000000E+00  0.00000000E+00
  0.00000000E+00  0.00000000E+00  0.00000000E+00
  0.00000000E+00  0.00000000E+00  0.00000000E+00
  0.00000000E+00  0.00000000E+00  0.00000000E+00
  0.00000000E+00  0.00000000E+00  0.00000000E+00
  0.00000000E+00  0.00000000E+00  0.00000000E+00
  0.00000000E+00  0.00000000E+00  0.00000000E+00
  0.00000000E+00  0.00000000E+00  0.00000000E+00
  0.00000000E+00  0.00000000E+00  0.00000000E+00
  0.00000000E+00  0.00000000E+00  0.00000000E+00
  0.00000000E+00  0.00000000E+00  0.00000000E+00
  0.00000000E+00  0.00000000E+00  0.00000000E+00
  0.00000000E+00  0.00000000E+00  0.00000000E+00
  0.00000000E+00  0.00000000E+00  0.00000000E+00
  0.00000000E+00  0.00000000E+00  0.00000000E+00
  0.00000000E+00  0.00000000E+00  0.00000000E+00
  0.00000000E+00  0.00000000E+00  0.00000000E+00
  0.00000000E+00  0.00000000E+00  0.00000000E+00
  0.00000000E+00  0.00000000E+00  0.00000000E+00
  0.00000000E+00  0.00000000E+00  0.00000000E+00
  0.00000000E+00  0.00000000E+00  0.00000000E+00
  0.00000000E+00  0.00000000E+00  0.00000000E+00
  0.00000000E+00  0.00000000E+00  0.00000000E+00
  0.00000000E+00  0.00000000E+00  0.00000000E+00
  0.00000000E+00  0.00000000E+00  0.00000000E+00
  0.00000000E+00  0.00000000E+00  0.00000000E+00
  0.00000000E+00  0.00000000E+00  0.00000000E+00
  0.00000000E+00  0.00000000E+00  0.00000000E+00
  0.00000000E+00  0.00000000E+00  0.00000000E+00
  0.00000000E+00  0.00000000E+00  0.00000000E+00
  0.00000000E+00  0.00000000E+00  0.00000000E+00
  0.00000000E+00  0.00000000E+00  0.00000000E+00
  0.00000000E+00  0.00000000E+00  0.00000000E+00
  0.00000000E+00  0.00000000E+00  0.00000000E+00
  0.00000000E+00  0.00000000E+00  0.00000000E+00
  0.00000000E+00  0.00000000E+00  0.00000000E+00
  0.00000000E+00  0.00000000E+00  0.00000000E+00
  0.00000000E+00  0.00000000E+00  0.00000000E+00
  0.00000000E+00  0.00000000E+00  0.00000000E+00
  0.00000000E+00  0.00000000E+00  0.00000000E+00
  0.00000000E+00  0.00000000E+00  0.00000000E+00
  0.00000000E+00  0.00000000E+00  0.00000000E+00
  0.00000000E+00  0.00000000E+00  0.00000000E+00
  0.00000000E+00  0.00000000E+00  0.00000000E+00
  0.00000000E+00  0.00000000E+00  0.00000000E+00
  0.00000000E+00  0.00000000E+00  0.00000000E+00
  0.00000000E+00  0.00000000E+00  0.00000000E+00
  0.00000000E+00  0.00000000E+00  0.00000000E+00
  0.00000000E+00  0.00000000E+00  0.00000000E+00
  0.00000000E+00  0.00000000E+00  0.00000000E+00
  0.00000000E+00  0.00000000E+00  0.00000000E+00
  0.00000000E+00  0.00000000E+00  0.00000000E+00
  0.00000000E+00  0.00000000E+00  0.00000000E+00
  0.00000000E+00  0.00000000E+00  0.00000000E+00
  0.00000000E+00  0.00000000E+00  0.00000000E+00
  0.00000000E+00  0.00000000E+00  0.00000000E+00
  0.00000000E+00  0.00000000E+00  0.00000000E+00
  0.00000000E+00  0.00000000E+00  0.00000000E+00
  0.00000000E+00  0.00000000E+00  0.00000000E+00
  0.00000000E+00  0.00000000E+00  0.00000000E+00
  0.00000000E+00  0.00000000E+00  0.00000000E+00
  0.00000000E+00  0.00000000E+00  0.00000000E+00
  0.00000000E+00  0.00000000E+00  0.00000000E+00
  0.00000000E+00  0.00000000E+00  0.00000000E+00
  0.00000000E+00  0.00000000E+00  0.00000000E+00
  0.00000000E+00  0.00000000E+00  0.00000000E+00
  0.00000000E+00  0.00000000E+00  0.00000000E+00
  0.00000000E+00  0.00000000E+00  0.00000000E+00
  0.00000000E+00  0.00000000E+00  0.00000000E+00
  0.00000000E+00  0.00000000E+00  0.00000000E+00
