O  C  H  Co Li                          
   1.00000000000000     
    25.9869300222800774    0.0014776472087939   -0.0002841704448074
    12.9947443186480527   22.5035161465627063   -0.0005769115704474
    -0.0000740905812471   -0.0001328080293999    6.8098320633878924
   O    C    H    Co   Li
    60    75    18    18     3
Direct
  0.0609501774976898  0.2544548528854776  0.3244102487942571
  0.0358834234216769  0.3036026488551665  0.9714642113179923
  0.1017516487365516  0.2635096650817234  0.7270160429879028
  0.4015502888973254  0.5864302974981507  0.6481912240595289
  0.6850098799619506  0.0663419270608938  0.3005356556089439
  0.6818951366477909  0.0315056656456659  0.9356588167419191
  0.6493826268819493  0.0996126749683817  0.7000947437680636
  0.0162971857656097  0.3969471577174173  0.6593381919838629
  0.2612083544147029  0.6859277885057233  0.3145598367686633
  0.3072954284138278  0.6632517093779050  0.9569961791951377
  0.2666015156669650  0.6371656022929780  0.7170933054930649
  0.5931172474624584  0.0199250494785510  0.6418474033522266
  0.2998663291718437  0.0370261090701973  0.3585554223575792
  0.2334114632998512  0.0769416018726683  0.6001410783862303
  0.6456907553779322  0.3812460456328501  0.7484952478998820
  0.5670951989274612  0.4104007867990297  0.9408712939266552
  0.2753386932939981  0.0842370068660774  0.0019327552971120
  0.5675444210309525  0.3301146990643746  0.3168264685253312
  0.6220332453368067  0.2735268075531403  0.5681028561320639
  0.0074835119756521  0.6307558673857478  0.6959076091520123
  0.0341890229084046  0.5628297706915092  0.9334231391290538
  0.6345937613127527  0.2821707337724055  0.9753550240299156
  0.0415956261239209  0.6670384970019275  0.3617666405914785
  0.0823283052538984  0.6941442570416843  0.5995057978168228
  0.3713057312755241  0.0057922209412308  0.6908427338476915
  0.4117039800238186  0.0326755542534522  0.9290699317288452
  0.0884951617088317  0.6436295895511422  0.0047397695054269
  0.7077541377499879  0.9612149604115077  0.6084452273482872
  0.7783550855547716  0.9275353511295710  0.3808683308447093
  0.3788288080653401  0.6307782909159219  0.2894996900756180
  0.4463507688792980  0.5906366556610020  0.0516112917728096
  0.7333041794712618  0.9183881937877344  0.9777628144718820
  0.3392755706984018  0.7028158911122656  0.6232355939699259
  0.3122683532336524  0.7697335064417150  0.3834279040726696
 -0.0061785578086295  0.3732045167581695  0.3038245481204059
  0.9645688580365384  0.4410594565417854  0.0654892221600446
  0.3612706820029801  0.7266635999006729  0.9811000850308137
  0.9644869088829378  0.3324844771537817  0.6402842494038745
  0.9263720700634314  0.3014803300990849  0.4056907954298068
  0.6375266287913528 -0.0008201810517205  0.2767710344381372
  0.5963487922172435  0.9727666487817240  0.0410835821213366
  0.9190565111608454  0.3524979088438270  0.0020349545454073
  0.9493962206925300  0.7472423866475417  0.6686520888723668
  0.9718631746840943  0.7003052027000071  0.0281037216200502
  0.9031564198113847  0.7405415463568261  0.2628929340504533
  0.6164734020884655  0.4090517903404070  0.3493301933932510
  0.3179769596436619  0.9419907693971858  0.6685697132635040
  0.3391589784366696  0.9662181131705555  0.0265221176353013
  0.3670372880244388  0.8988959620012811  0.2654050092000845
  0.9848741493258439  0.6071918245025530  0.3387832702212469
  0.7606995558368366  0.2886678618198041  0.6978404361603037
  0.7124453089148968  0.3093558961055639  0.0761947761583356
  0.7587228876254997  0.3317975866024426  0.3055570387614335
  0.4164959228252355  0.9837331756300168  0.3318757330981056
  0.7138527636452037  0.4334383459124308  0.5620679767724531
  0.6433853037808382  0.5297820345130195  0.5409228933864744
  0.6977166819075686  0.4806014423443520  0.2690341453041553
  0.7169659868115186  0.2355990591257618  0.4573581910257420
  0.8451282330866663  0.1613129061168750  0.4662018130953118
  0.8133966800716065  0.1027287372024517  0.6299150896400322
  0.1127780722481944  0.2145003949424772  0.2415105213970437
  0.1548060563196221  0.1687264194596715  0.3594537323425893
  0.0862885738995749  0.2632821852678408  0.9040185243973198
  0.1270843607982687  0.2155699264625453  0.0394687972190284
  0.4532350639923652  0.5449413900254680  0.5694765931471656
  0.4941059287019161  0.5002246352955758  0.6931131901045822
  0.6672332875936808  0.1195222736019531  0.2183661224884675
  0.6447301861621627  0.1709586677354857  0.3332580359440116
  0.6678459403946247  0.0837494761190062  0.8741877679187867
  0.6685952057303451  0.1270983005870035  0.0107334010270547
  0.0074871697515611  0.4479278743536194  0.5777995838257999
  0.0140081509075457  0.4884139309823176  0.6954792375865533
  0.2198805248208675  0.6755413226595088  0.2347730246050037
  0.1741422079528122  0.6800287791400269  0.3552897759888148
  0.2667087728223183  0.6530286383216896  0.8932179115335150
  0.2198259035314619  0.6603054940957090  0.0329499322406553
  0.5508448219299296  0.0110743196338314  0.5613143126707697
  0.5047096304561316  0.0167456370257735  0.6822496868688865
  0.2492383765347046  0.0773137633035296  0.4240497768643195
  0.2093048406406192  0.1245657744147069  0.2863495078803017
  0.5888966391652224  0.4129980517732957  0.7776446411594611
  0.5494340056830526  0.4555470203707632  0.6275396929590851
  0.2238227774411098  0.1251577020016972  0.0839166451871698
  0.1817719782076584  0.1713368288961434  0.9662853917106385
  0.6040192647181888  0.2787944360769955  0.3736086734991456
  0.6293271486429194  0.2261825351138177  0.2509248808739684
  0.0167471923514775  0.5802289617660124  0.7587099450444317
  0.0068741224394989  0.5417684122239629  0.6221468722878565
  0.6411619848688268  0.2311697297870336  0.0482024777602536
  0.6599321275383492  0.1805945898941004  0.9326399805480486
  0.0821620602326027  0.6774090441685401  0.4238558509216837
  0.1294240877734795  0.6698892868490645  0.2855136429198388
  0.4119360932049261  0.0161542104452034  0.7535911030188148
  0.4590835966818264  0.0080051454771116  0.6132538798974994
  0.1295598400398572  0.6544842084375488  0.0839780666958306
  0.1751792645757675  0.6501411315102633  0.9632418794629399
  0.7609582098452641  0.9244411392510152  0.5528085897870750
  0.8007793120512715  0.8783065855079141  0.6946454288118957
  0.4300540130392947  0.5904459977300024  0.2271376867527838
  0.4692632174667439  0.5438014804512988  0.3682530999973175
  0.7849837041144717  0.8780778144751806  0.8965510594847964
  0.8265245045274189  0.8324956967763214  0.0172579464085669
  0.3284682424795272  0.7538160342882464  0.5594173914169864
  0.3354021014712930  0.7936440038979148  0.6987548459860643
  0.9830763115135204  0.4241128889187429  0.2398833654894487
 -0.0075083732542874  0.4630399838717337  0.3753170784000650
  0.3505907506772150  0.7784523367921040  0.9006338875108997
  0.3546000910461691  0.8199971735757153  0.0207150893945014
  0.9268633506963474  0.3176365961697847  0.5819908878026983
  0.8829691474790033  0.3196055263755442  0.7257557628454929
  0.5968065877518447  0.9886347452166799  0.2170435539021469
  0.5502413041957889  0.9962714268919304  0.3591338516182566
  0.8815357735346574  0.3365629533509848  0.9269656403384690
  0.8392482244851739  0.3345151339297561  0.0484096686242008
  0.8973484644273761  0.7882728836652965  0.7476198900791241
  0.8561140697419565  0.8340201107708647  0.6268013384357617
  0.9206814629922443  0.7407783801851072  0.0883335612860983
  0.8815745526019567  0.7880183371281156  0.9489071602591577
  0.5647340550980883  0.4534147095822089  0.4256374582371661
  0.5242018468169355  0.4981456728041042  0.3016761770108529
  0.3288307823945214  0.8901446883646892  0.7485092085626585
  0.3249275066606971  0.8485254657341849  0.6283459077990922
  0.3506216299160193  0.9149152958606050  0.0896830594023980
  0.3440089194277344  0.8749297996052465  0.9503221319353157
  0.9922608791130643  0.5567819370098215  0.4196278776156003
  0.9852135444884005  0.5165006479414613  0.3020180225491204
  0.7987576696613388  0.3029511055724434  0.7815883088013336
  0.8430884959457937  0.3022803160060511  0.6617580715335566
  0.7540678798375178  0.3201100572101394  0.1219538486618787
  0.7971774941446691  0.3190899775291597  0.9820781357290839
  0.4585950933568413  0.9929457242746939  0.4114409486791432
  0.5045989362572388  0.9874660120256656  0.2903414567981420
  0.6820807912610106  0.4852124879952343  0.4479560413973135
  0.8285548662422217  0.1322149600284400  0.5479711457944206
  0.6816411370197987  0.2587570215033175  0.5964851927852979
  0.1442232750904119  0.1675310975572230  0.5138112634028577
  0.4823351209267512  0.5011963237445337  0.8472005581291348
  0.6383553716893677  0.1675673343489079  0.4901759055055949
  0.0255941402339793  0.4774502311012785  0.8497735268322474
  0.1737895713816366  0.6917240505511497  0.5092999995969421
  0.5048347800887311  0.0281902410874014  0.8362468377691868
  0.1923635446546821  0.1725091499568899  0.8119196193322719
  0.6652137344403977  0.1833592069685088  0.7749181389849220
  0.1757172149790021  0.6382590252830751  0.8093131557176431
  0.8148288854565089  0.8319767714656072  0.1707457963033755
  0.3663366549243122  0.8088955718834068  0.1748211999838387
  0.8435287880364389  0.3408534302837395  0.2050493148896103
  0.8676921888225563  0.8346348329986600  0.4731491121966049
  0.5356114689748377  0.4975603103451158  0.1474060367704221
  0.3133602230850264  0.8595483021487507  0.4740967251583749
  0.9737932844700877  0.5274262369331862  0.1475953875693790
  0.8465705542767746  0.2887241617042462  0.5083467726816010
  0.5043897740797582  0.9761131691140865  0.1362561683172853
  0.3220350066698768  0.6412093477521899  0.5175425958662501
  0.0438459606896859  0.3157973496993982  0.5248261459938955
  0.6479250134792693  0.0427068369295053  0.5082890556500879
  0.0296011067913547  0.6901652736758690  0.8025231409980992
  0.3557242185739409  0.0285914626696758  0.1283160933544488
  0.2929643875121615  0.0222196487197284  0.7990719520841759
  0.6141984539162693  0.3553232677676221  0.1509745181658068
  0.6958070436681533  0.2854797709554865  0.8265842478861675
  0.0323064952179360  0.6188009973741867  0.1333663490774972
  0.6543529015537692  0.9745590128044623  0.8472287281908277
  0.9804579914066389  0.3079333634104243  0.2054597053150541
  0.3860528866108610  0.6468676160896225  0.8531442851261285
  0.7179020288779864  0.9818472011844158  0.1795414364820290
  0.9715416115933397  0.3830751791475668  0.8650571478088452
  0.3171337968135234  0.7098252250585302  0.1848733843710035
  0.6894693982609206  0.3708182648206600  0.5024272866976253
  0.9594975353132624  0.6884964179021912  0.4673314619323800
  0.3620761042862480  0.9585694928815452  0.4641186134078245
  0.7639094501732784  0.4061582758798108  0.3324724379467640
  0.6678007136755167  0.4851415029683807  0.7745465358146700
  0.7788854674794173  0.2525952550067559  0.4393842688145109
 
  0.00000000E+00  0.00000000E+00  0.00000000E+00
  0.00000000E+00  0.00000000E+00  0.00000000E+00
  0.00000000E+00  0.00000000E+00  0.00000000E+00
  0.00000000E+00  0.00000000E+00  0.00000000E+00
  0.00000000E+00  0.00000000E+00  0.00000000E+00
  0.00000000E+00  0.00000000E+00  0.00000000E+00
  0.00000000E+00  0.00000000E+00  0.00000000E+00
  0.00000000E+00  0.00000000E+00  0.00000000E+00
  0.00000000E+00  0.00000000E+00  0.00000000E+00
  0.00000000E+00  0.00000000E+00  0.00000000E+00
  0.00000000E+00  0.00000000E+00  0.00000000E+00
  0.00000000E+00  0.00000000E+00  0.00000000E+00
  0.00000000E+00  0.00000000E+00  0.00000000E+00
  0.00000000E+00  0.00000000E+00  0.00000000E+00
  0.00000000E+00  0.00000000E+00  0.00000000E+00
  0.00000000E+00  0.00000000E+00  0.00000000E+00
  0.00000000E+00  0.00000000E+00  0.00000000E+00
  0.00000000E+00  0.00000000E+00  0.00000000E+00
  0.00000000E+00  0.00000000E+00  0.00000000E+00
  0.00000000E+00  0.00000000E+00  0.00000000E+00
  0.00000000E+00  0.00000000E+00  0.00000000E+00
  0.00000000E+00  0.00000000E+00  0.00000000E+00
  0.00000000E+00  0.00000000E+00  0.00000000E+00
  0.00000000E+00  0.00000000E+00  0.00000000E+00
  0.00000000E+00  0.00000000E+00  0.00000000E+00
  0.00000000E+00  0.00000000E+00  0.00000000E+00
  0.00000000E+00  0.00000000E+00  0.00000000E+00
  0.00000000E+00  0.00000000E+00  0.00000000E+00
  0.00000000E+00  0.00000000E+00  0.00000000E+00
  0.00000000E+00  0.00000000E+00  0.00000000E+00
  0.00000000E+00  0.00000000E+00  0.00000000E+00
  0.00000000E+00  0.00000000E+00  0.00000000E+00
  0.00000000E+00  0.00000000E+00  0.00000000E+00
  0.00000000E+00  0.00000000E+00  0.00000000E+00
  0.00000000E+00  0.00000000E+00  0.00000000E+00
  0.00000000E+00  0.00000000E+00  0.00000000E+00
  0.00000000E+00  0.00000000E+00  0.00000000E+00
  0.00000000E+00  0.00000000E+00  0.00000000E+00
  0.00000000E+00  0.00000000E+00  0.00000000E+00
  0.00000000E+00  0.00000000E+00  0.00000000E+00
  0.00000000E+00  0.00000000E+00  0.00000000E+00
  0.00000000E+00  0.00000000E+00  0.00000000E+00
  0.00000000E+00  0.00000000E+00  0.00000000E+00
  0.00000000E+00  0.00000000E+00  0.00000000E+00
  0.00000000E+00  0.00000000E+00  0.00000000E+00
  0.00000000E+00  0.00000000E+00  0.00000000E+00
  0.00000000E+00  0.00000000E+00  0.00000000E+00
  0.00000000E+00  0.00000000E+00  0.00000000E+00
  0.00000000E+00  0.00000000E+00  0.00000000E+00
  0.00000000E+00  0.00000000E+00  0.00000000E+00
  0.00000000E+00  0.00000000E+00  0.00000000E+00
  0.00000000E+00  0.00000000E+00  0.00000000E+00
  0.00000000E+00  0.00000000E+00  0.00000000E+00
  0.00000000E+00  0.00000000E+00  0.00000000E+00
  0.00000000E+00  0.00000000E+00  0.00000000E+00
  0.00000000E+00  0.00000000E+00  0.00000000E+00
  0.00000000E+00  0.00000000E+00  0.00000000E+00
  0.00000000E+00  0.00000000E+00  0.00000000E+00
  0.00000000E+00  0.00000000E+00  0.00000000E+00
  0.00000000E+00  0.00000000E+00  0.00000000E+00
  0.00000000E+00  0.00000000E+00  0.00000000E+00
  0.00000000E+00  0.00000000E+00  0.00000000E+00
  0.00000000E+00  0.00000000E+00  0.00000000E+00
  0.00000000E+00  0.00000000E+00  0.00000000E+00
  0.00000000E+00  0.00000000E+00  0.00000000E+00
  0.00000000E+00  0.00000000E+00  0.00000000E+00
  0.00000000E+00  0.00000000E+00  0.00000000E+00
  0.00000000E+00  0.00000000E+00  0.00000000E+00
  0.00000000E+00  0.00000000E+00  0.00000000E+00
  0.00000000E+00  0.00000000E+00  0.00000000E+00
  0.00000000E+00  0.00000000E+00  0.00000000E+00
  0.00000000E+00  0.00000000E+00  0.00000000E+00
  0.00000000E+00  0.00000000E+00  0.00000000E+00
  0.00000000E+00  0.00000000E+00  0.00000000E+00
  0.00000000E+00  0.00000000E+00  0.00000000E+00
  0.00000000E+00  0.00000000E+00  0.00000000E+00
  0.00000000E+00  0.00000000E+00  0.00000000E+00
  0.00000000E+00  0.00000000E+00  0.00000000E+00
  0.00000000E+00  0.00000000E+00  0.00000000E+00
  0.00000000E+00  0.00000000E+00  0.00000000E+00
  0.00000000E+00  0.00000000E+00  0.00000000E+00
  0.00000000E+00  0.00000000E+00  0.00000000E+00
  0.00000000E+00  0.00000000E+00  0.00000000E+00
  0.00000000E+00  0.00000000E+00  0.00000000E+00
  0.00000000E+00  0.00000000E+00  0.00000000E+00
  0.00000000E+00  0.00000000E+00  0.00000000E+00
  0.00000000E+00  0.00000000E+00  0.00000000E+00
  0.00000000E+00  0.00000000E+00  0.00000000E+00
  0.00000000E+00  0.00000000E+00  0.00000000E+00
  0.00000000E+00  0.00000000E+00  0.00000000E+00
  0.00000000E+00  0.00000000E+00  0.00000000E+00
  0.00000000E+00  0.00000000E+00  0.00000000E+00
  0.00000000E+00  0.00000000E+00  0.00000000E+00
  0.00000000E+00  0.00000000E+00  0.00000000E+00
  0.00000000E+00  0.00000000E+00  0.00000000E+00
  0.00000000E+00  0.00000000E+00  0.00000000E+00
  0.00000000E+00  0.00000000E+00  0.00000000E+00
  0.00000000E+00  0.00000000E+00  0.00000000E+00
  0.00000000E+00  0.00000000E+00  0.00000000E+00
  0.00000000E+00  0.00000000E+00  0.00000000E+00
  0.00000000E+00  0.00000000E+00  0.00000000E+00
  0.00000000E+00  0.00000000E+00  0.00000000E+00
  0.00000000E+00  0.00000000E+00  0.00000000E+00
  0.00000000E+00  0.00000000E+00  0.00000000E+00
  0.00000000E+00  0.00000000E+00  0.00000000E+00
  0.00000000E+00  0.00000000E+00  0.00000000E+00
  0.00000000E+00  0.00000000E+00  0.00000000E+00
  0.00000000E+00  0.00000000E+00  0.00000000E+00
  0.00000000E+00  0.00000000E+00  0.00000000E+00
  0.00000000E+00  0.00000000E+00  0.00000000E+00
  0.00000000E+00  0.00000000E+00  0.00000000E+00
  0.00000000E+00  0.00000000E+00  0.00000000E+00
  0.00000000E+00  0.00000000E+00  0.00000000E+00
  0.00000000E+00  0.00000000E+00  0.00000000E+00
  0.00000000E+00  0.00000000E+00  0.00000000E+00
  0.00000000E+00  0.00000000E+00  0.00000000E+00
  0.00000000E+00  0.00000000E+00  0.00000000E+00
  0.00000000E+00  0.00000000E+00  0.00000000E+00
  0.00000000E+00  0.00000000E+00  0.00000000E+00
  0.00000000E+00  0.00000000E+00  0.00000000E+00
  0.00000000E+00  0.00000000E+00  0.00000000E+00
  0.00000000E+00  0.00000000E+00  0.00000000E+00
  0.00000000E+00  0.00000000E+00  0.00000000E+00
  0.00000000E+00  0.00000000E+00  0.00000000E+00
  0.00000000E+00  0.00000000E+00  0.00000000E+00
  0.00000000E+00  0.00000000E+00  0.00000000E+00
  0.00000000E+00  0.00000000E+00  0.00000000E+00
  0.00000000E+00  0.00000000E+00  0.00000000E+00
  0.00000000E+00  0.00000000E+00  0.00000000E+00
  0.00000000E+00  0.00000000E+00  0.00000000E+00
  0.00000000E+00  0.00000000E+00  0.00000000E+00
  0.00000000E+00  0.00000000E+00  0.00000000E+00
  0.00000000E+00  0.00000000E+00  0.00000000E+00
  0.00000000E+00  0.00000000E+00  0.00000000E+00
  0.00000000E+00  0.00000000E+00  0.00000000E+00
  0.00000000E+00  0.00000000E+00  0.00000000E+00
  0.00000000E+00  0.00000000E+00  0.00000000E+00
  0.00000000E+00  0.00000000E+00  0.00000000E+00
  0.00000000E+00  0.00000000E+00  0.00000000E+00
  0.00000000E+00  0.00000000E+00  0.00000000E+00
  0.00000000E+00  0.00000000E+00  0.00000000E+00
  0.00000000E+00  0.00000000E+00  0.00000000E+00
  0.00000000E+00  0.00000000E+00  0.00000000E+00
  0.00000000E+00  0.00000000E+00  0.00000000E+00
  0.00000000E+00  0.00000000E+00  0.00000000E+00
  0.00000000E+00  0.00000000E+00  0.00000000E+00
  0.00000000E+00  0.00000000E+00  0.00000000E+00
  0.00000000E+00  0.00000000E+00  0.00000000E+00
  0.00000000E+00  0.00000000E+00  0.00000000E+00
  0.00000000E+00  0.00000000E+00  0.00000000E+00
  0.00000000E+00  0.00000000E+00  0.00000000E+00
  0.00000000E+00  0.00000000E+00  0.00000000E+00
  0.00000000E+00  0.00000000E+00  0.00000000E+00
  0.00000000E+00  0.00000000E+00  0.00000000E+00
  0.00000000E+00  0.00000000E+00  0.00000000E+00
  0.00000000E+00  0.00000000E+00  0.00000000E+00
  0.00000000E+00  0.00000000E+00  0.00000000E+00
  0.00000000E+00  0.00000000E+00  0.00000000E+00
  0.00000000E+00  0.00000000E+00  0.00000000E+00
  0.00000000E+00  0.00000000E+00  0.00000000E+00
  0.00000000E+00  0.00000000E+00  0.00000000E+00
  0.00000000E+00  0.00000000E+00  0.00000000E+00
  0.00000000E+00  0.00000000E+00  0.00000000E+00
  0.00000000E+00  0.00000000E+00  0.00000000E+00
  0.00000000E+00  0.00000000E+00  0.00000000E+00
  0.00000000E+00  0.00000000E+00  0.00000000E+00
  0.00000000E+00  0.00000000E+00  0.00000000E+00
  0.00000000E+00  0.00000000E+00  0.00000000E+00
  0.00000000E+00  0.00000000E+00  0.00000000E+00
  0.00000000E+00  0.00000000E+00  0.00000000E+00
  0.00000000E+00  0.00000000E+00  0.00000000E+00
  0.00000000E+00  0.00000000E+00  0.00000000E+00
  0.00000000E+00  0.00000000E+00  0.00000000E+00
  0.00000000E+00  0.00000000E+00  0.00000000E+00
