O  C  H  Co                             
   1.00000000000000     
    25.9869300222800774    0.0014776472087939   -0.0002841704448074
    12.9947443186480527   22.5035161465627063   -0.0005769115704474
    -0.0000740905812471   -0.0001328080293999    6.8098320633878924
   O    C    H    Co
    54    72    18    18
Direct
  0.0614436133434781  0.2519481789313913  0.3223374665166916
  0.0379377429625579  0.2965871340501036  0.9603492078593855
  0.1062699680459498  0.2567795381196496  0.7250740881701015
  0.3935704221276804  0.5846237823135256  0.6549570733360252
  0.6892098522740496  0.0593122229756556  0.3226277337316441
  0.6678286963618153  0.0358734182902007  0.9611752003942516
  0.6395496790177615  0.1040358066055329  0.7253563476786163
  0.0243847335162144  0.3914979911009328  0.6554048752460231
  0.2540971316710823  0.6875118094621449  0.3219257410552671
  0.2985655071218569  0.6666148039621914  0.9592823785371298
  0.2588838549479441  0.6377954608412606  0.7245890684648817
  0.5871675428844954  0.0217104918170911  0.6556547028257428
  0.3000175077335861  0.0342470210379969  0.3762668029741006
  0.2317414498764007  0.0740951921521727  0.6117228278606224
  0.6336538536509725  0.3689847463202106  0.7095478886254296
  0.5652820281086987  0.4083300170992503  0.9449278379913130
  0.2764994430378986  0.0788957761640423  0.0144782155550248
  0.6688299494670087  0.2976511904363497  0.3757276341952432
  0.6969789428173028  0.2295182965043863  0.6116060161161587
  0.0000696613959069  0.6315131876795631  0.7101348434791485
  0.0291092601486786  0.5631009823579667  0.9453456805906495
  0.6475120081835923  0.2741824676128938  0.0142863097244353
  0.0367861207688667  0.6660548815576888  0.3766083551156413
  0.0765206976184734  0.6946915574697439  0.6117631579953933
  0.3712970805329844  0.9977246579090299  0.7098673256514575
  0.4107578649919252  0.0265979240347778  0.9452885656187856
  0.0813256426690523  0.6450615019370818  0.0145509692476644
  0.7031222997503880  0.9646175974468610  0.6275739763663192
  0.7713624014002328  0.9248669750758444  0.3919366455698239
  0.3696983345104972  0.6290757859686344  0.2922620438214472
  0.4382964401683543  0.5897804716689294  0.0576945435585732
  0.7267285615225748  0.9199571642317574  0.9891171324585576
  0.3360463154013664  0.7003579560654098  0.6258079712623308
  0.3071675738629701  0.7688828312076067  0.3911522532301343
  0.0035595015308658  0.3677198741603374  0.2933316406945928
  0.9745311837993593  0.4361444453254030  0.0581913801217711
  0.3567800293981046  0.7240451249348270  0.9884475034157338
  0.9667273986283412  0.3332803449119630  0.6268522916476551
  0.9269463649884697  0.3047357652678050  0.3915657442081948
  0.6318494709060436  0.0008071302159291  0.2940574313666089
  0.5925290305473784  0.9717907787727029  0.0585642629407462
  0.9221126750063374  0.3542918765582250  0.9888202442955565
  0.9420168589339286  0.7473414414454271  0.6812472118570789
  0.9655556793708162  0.7026399552671919  0.0431388679424077
  0.8972494696977246  0.7423782375325663  0.2785479962280832
  0.6098710758283425  0.4136242291767779  0.3477959126321280
  0.3137237857691261  0.9395046270237362  0.6810384280701710
  0.3348000314521347  0.9630622676565671  0.0429470520214954
  0.3635647800912175  0.8947070404891608  0.2782451175282520
  0.9792401826220304  0.6077295235189681  0.3481580914544971
  0.7495219695196537  0.3116062737557946  0.6809711839339312
  0.7047988600135032  0.3327904460336087  0.0425005719956804
  0.7444305049681377  0.3614081951977216  0.2781433212886476
  0.4159641530498909  0.9768344973415169  0.3480360995764192
  0.1131413687542568  0.2106056764109170  0.2426922073681242
  0.1542419158964285  0.1652373843436587  0.3642173665539095
  0.0894821516855515  0.2566357995584874  0.9000181523786163
  0.1287483479706823  0.2102393114659772  0.0411427565626139
  0.4455144943423765  0.5437280110706585  0.5754332007621260
  0.4870136585218644  0.4987021162043799  0.6970700315830837
  0.6788807703064719  0.1109873149848618  0.2428890798220821
  0.6832371012238346  0.1520512826104643  0.3642961931436101
  0.6564003903148722  0.0873216237294604  0.9004053244797345
  0.6636224083526497  0.1265740727331199  0.0413393849829963
  0.0133108488312810  0.4434553439519049  0.5759134540472063
  0.0168503718171460  0.4849404699856380  0.6975492905434593
  0.2128003178915332  0.6770962661138099  0.2423159216017098
  0.1675021354218851  0.6812672215683654  0.3639606925077661
  0.2587181009798752  0.6548228649061383  0.8994247501211184
  0.2124216903652591  0.6618517365959773  0.0407682083250649
  0.5463028655500103  0.0106187642471820  0.5761408303439666
  0.5012542023561896  0.0142012910159458  0.6977061422519637
  0.2484886602695297  0.0742127485922296  0.4367129306075903
  0.2091966474171432  0.1206025940344205  0.2956222895069751
  0.5819415504842480  0.4085639236947527  0.7698795801760957
  0.5422856942088611  0.4546345992026080  0.6286582912122775
  0.2247960119310046  0.1202376165178806  0.0940827712565978
  0.1837038400034963  0.1656044634606324  0.9725586605701992
  0.6802076701990827  0.2462145220619965  0.4364936418927488
  0.6730158527277950  0.2069519035356696  0.2955480662584929
  0.0121771062955275  0.5798033007042670  0.7703444305195916
  0.0056993142611877  0.5401908827362458  0.6291167887764781
  0.6577866508562394  0.2225240103228616  0.0939947215976312
  0.6533986903816917  0.1814764314965932  0.9726015903614356
  0.0766533058870732  0.6777851737028124  0.4367967176607608
  0.1229482632531701  0.6708141454483101  0.2955432041848217
  0.4109670199790280  0.0097091926241058  0.7702397733412915
  0.4571105375320394  0.0031445899829012  0.6291186330410301
  0.1225885416849863  0.6555502768467839  0.0940350729357441
  0.1678654610226895  0.6513984203938181  0.9723674170793692
  0.7546756843764222  0.9247362059469190  0.5670138010235912
  0.7940811715247711  0.8784165808103180  0.7080701884972037
  0.4214992343196680  0.5895340370977391  0.2325593066700689
  0.4610865047611925  0.5434973838860314  0.3739412312983613
  0.7785044080708848  0.8787332006172089  0.9095880336453415
  0.8196830222956581  0.8334416139478651  0.0311203118549369
  0.3241508645011528  0.7520434884329854  0.5660255912852463
  0.3310125798191036  0.7914014746112128  0.7073812352033634
  0.9914710308918696  0.4194278937088710  0.2331792427513555
  0.9979670089195349  0.4590237080575902  0.3744253702559284
  0.3462574080639735  0.7758048474879082  0.9089171422733900
  0.3503072229304352  0.8170107066404503  0.0305361327400477
  0.9268252792656099  0.3216148751814249  0.5665657497186778
  0.8805053302799976  0.3285896661876608  0.7076887776864462
  0.5922534359265001  0.9887299560340796  0.2335877246118972
  0.5461092995900252  0.9952578363999292  0.3746570445043671
  0.8808431129550706  0.3438264380774083  0.9092382494972528
  0.8355317136241600  0.3479699690577316  0.0307531352058392
  0.8902768362955980  0.7885898844381671  0.7609499731189224
  0.8490954864719947  0.8339031179821105  0.6394523858548966
  0.9140088776784503  0.7425452499285989  0.1035776260894787
  0.8746882913660931  0.7889128264410292  0.9624979908529517
  0.5578650483688687  0.4544412549878259  0.4272115518274238
  0.5163590115358224  0.4994246941259650  0.3055390328554101
  0.3243871156351074  0.8876943558572465  0.7606003430925662
  0.3203941324569868  0.8464702897692710  0.6389616450169926
  0.3466063471000872  0.9114575124911124  0.1032926273447023
  0.3396995012145996  0.8720739394801106  0.9621035930874167
  0.9903465736696400  0.5557599289804542  0.4276357114607877
  0.9868211420768523  0.5142715944753316  0.3059903827494130
  0.7907133508047871  0.3221862915694485  0.7606120296357960
  0.8359916420386674  0.3180962201156775  0.6390823027232355
  0.7446496888338560  0.3444780803195165  0.1031449411399165
  0.7910181593537846  0.3374766464999495  0.9621431686332929
  0.4568935099723548  0.9878205001605066  0.4276052929446208
  0.5019741909617828  0.9841883695063153  0.3060720687674841
  0.1427671344055277  0.1650788682284113  0.5181610993991631
  0.4756275329561080  0.4983566994978639  0.8509956211327964
  0.6948722815573704  0.1405894081747026  0.5182452858312656
  0.0285665142074013  0.4735534165434541  0.8514806095344475
  0.1673493005022801  0.6929131080882261  0.5178825392228129
  0.5009139277928828  0.0259120481875774  0.8516575453629204
  0.1951848251022198  0.1657649704811138  0.8186241295829482
  0.6417466232557556  0.1929514396155607  0.8186716387128640
  0.1680178732843148  0.6397486456907931  0.8184515308135473
  0.8082304922214760  0.8332386191163960  0.1850606021935610
  0.3619823990993807  0.8055429944985755  0.1844521192944834
  0.8353243097663854  0.3596337147572882  0.1846922070461076
  0.8605430919781860  0.8341055621986911  0.4855053918574348
  0.5277443511453377  0.4997542960160275  0.1516044332515807
  0.3087346451336791  0.8579308346876128  0.4850341796145359
  0.9751082709804415  0.5256560370904158  0.1520566956950146
  0.8361900198670140  0.3064509846289354  0.4851302849514842
  0.5023191530840196  0.9724703455142766  0.1521260245797724
  0.3145158606799706  0.6409982267385489  0.5251028371559242
  0.0473508277752471  0.3123597249529872  0.5255792928438023
  0.6431023087882435  0.0450031906161362  0.5259020844699860
  0.0210230600189302  0.6912015051289427  0.8111747022827912
  0.3555234236795202  0.0228325437384498  0.1447109913498401
  0.2907216299354317  0.0185545954433385  0.8110863011302926
  0.6244306088317068  0.3532181841283012  0.1443965852958994
  0.6935409368376281  0.2884957367183594  0.8108955737514103
  0.0252772507173731  0.6221155025950306  0.1448972028061368
  0.6476027295452893  0.9758295889170663  0.8589857064313100
  0.9824544873229765  0.3081382633047656  0.1922330701717553
  0.3794158633111692  0.6450879466493695  0.8582009276418275
  0.7122897110992554  0.9802733142992113  0.1925856337716413
  0.9782727969310886  0.3771592665510273  0.8586815298464493
  0.3104403611083140  0.7100429390886229  0.1917594248887057
  0.6890851398972616  0.3576999900708942  0.4777493757118351
  0.9562074534973767  0.6868878478849929  0.4780169462046527
  0.3598968312972138  0.9537510254066949  0.4778112605532522
 
  0.00000000E+00  0.00000000E+00  0.00000000E+00
  0.00000000E+00  0.00000000E+00  0.00000000E+00
  0.00000000E+00  0.00000000E+00  0.00000000E+00
  0.00000000E+00  0.00000000E+00  0.00000000E+00
  0.00000000E+00  0.00000000E+00  0.00000000E+00
  0.00000000E+00  0.00000000E+00  0.00000000E+00
  0.00000000E+00  0.00000000E+00  0.00000000E+00
  0.00000000E+00  0.00000000E+00  0.00000000E+00
  0.00000000E+00  0.00000000E+00  0.00000000E+00
  0.00000000E+00  0.00000000E+00  0.00000000E+00
  0.00000000E+00  0.00000000E+00  0.00000000E+00
  0.00000000E+00  0.00000000E+00  0.00000000E+00
  0.00000000E+00  0.00000000E+00  0.00000000E+00
  0.00000000E+00  0.00000000E+00  0.00000000E+00
  0.00000000E+00  0.00000000E+00  0.00000000E+00
  0.00000000E+00  0.00000000E+00  0.00000000E+00
  0.00000000E+00  0.00000000E+00  0.00000000E+00
  0.00000000E+00  0.00000000E+00  0.00000000E+00
  0.00000000E+00  0.00000000E+00  0.00000000E+00
  0.00000000E+00  0.00000000E+00  0.00000000E+00
  0.00000000E+00  0.00000000E+00  0.00000000E+00
  0.00000000E+00  0.00000000E+00  0.00000000E+00
  0.00000000E+00  0.00000000E+00  0.00000000E+00
  0.00000000E+00  0.00000000E+00  0.00000000E+00
  0.00000000E+00  0.00000000E+00  0.00000000E+00
  0.00000000E+00  0.00000000E+00  0.00000000E+00
  0.00000000E+00  0.00000000E+00  0.00000000E+00
  0.00000000E+00  0.00000000E+00  0.00000000E+00
  0.00000000E+00  0.00000000E+00  0.00000000E+00
  0.00000000E+00  0.00000000E+00  0.00000000E+00
  0.00000000E+00  0.00000000E+00  0.00000000E+00
  0.00000000E+00  0.00000000E+00  0.00000000E+00
  0.00000000E+00  0.00000000E+00  0.00000000E+00
  0.00000000E+00  0.00000000E+00  0.00000000E+00
  0.00000000E+00  0.00000000E+00  0.00000000E+00
  0.00000000E+00  0.00000000E+00  0.00000000E+00
  0.00000000E+00  0.00000000E+00  0.00000000E+00
  0.00000000E+00  0.00000000E+00  0.00000000E+00
  0.00000000E+00  0.00000000E+00  0.00000000E+00
  0.00000000E+00  0.00000000E+00  0.00000000E+00
  0.00000000E+00  0.00000000E+00  0.00000000E+00
  0.00000000E+00  0.00000000E+00  0.00000000E+00
  0.00000000E+00  0.00000000E+00  0.00000000E+00
  0.00000000E+00  0.00000000E+00  0.00000000E+00
  0.00000000E+00  0.00000000E+00  0.00000000E+00
  0.00000000E+00  0.00000000E+00  0.00000000E+00
  0.00000000E+00  0.00000000E+00  0.00000000E+00
  0.00000000E+00  0.00000000E+00  0.00000000E+00
  0.00000000E+00  0.00000000E+00  0.00000000E+00
  0.00000000E+00  0.00000000E+00  0.00000000E+00
  0.00000000E+00  0.00000000E+00  0.00000000E+00
  0.00000000E+00  0.00000000E+00  0.00000000E+00
  0.00000000E+00  0.00000000E+00  0.00000000E+00
  0.00000000E+00  0.00000000E+00  0.00000000E+00
  0.00000000E+00  0.00000000E+00  0.00000000E+00
  0.00000000E+00  0.00000000E+00  0.00000000E+00
  0.00000000E+00  0.00000000E+00  0.00000000E+00
  0.00000000E+00  0.00000000E+00  0.00000000E+00
  0.00000000E+00  0.00000000E+00  0.00000000E+00
  0.00000000E+00  0.00000000E+00  0.00000000E+00
  0.00000000E+00  0.00000000E+00  0.00000000E+00
  0.00000000E+00  0.00000000E+00  0.00000000E+00
  0.00000000E+00  0.00000000E+00  0.00000000E+00
  0.00000000E+00  0.00000000E+00  0.00000000E+00
  0.00000000E+00  0.00000000E+00  0.00000000E+00
  0.00000000E+00  0.00000000E+00  0.00000000E+00
  0.00000000E+00  0.00000000E+00  0.00000000E+00
  0.00000000E+00  0.00000000E+00  0.00000000E+00
  0.00000000E+00  0.00000000E+00  0.00000000E+00
  0.00000000E+00  0.00000000E+00  0.00000000E+00
  0.00000000E+00  0.00000000E+00  0.00000000E+00
  0.00000000E+00  0.00000000E+00  0.00000000E+00
  0.00000000E+00  0.00000000E+00  0.00000000E+00
  0.00000000E+00  0.00000000E+00  0.00000000E+00
  0.00000000E+00  0.00000000E+00  0.00000000E+00
  0.00000000E+00  0.00000000E+00  0.00000000E+00
  0.00000000E+00  0.00000000E+00  0.00000000E+00
  0.00000000E+00  0.00000000E+00  0.00000000E+00
  0.00000000E+00  0.00000000E+00  0.00000000E+00
  0.00000000E+00  0.00000000E+00  0.00000000E+00
  0.00000000E+00  0.00000000E+00  0.00000000E+00
  0.00000000E+00  0.00000000E+00  0.00000000E+00
  0.00000000E+00  0.00000000E+00  0.00000000E+00
  0.00000000E+00  0.00000000E+00  0.00000000E+00
  0.00000000E+00  0.00000000E+00  0.00000000E+00
  0.00000000E+00  0.00000000E+00  0.00000000E+00
  0.00000000E+00  0.00000000E+00  0.00000000E+00
  0.00000000E+00  0.00000000E+00  0.00000000E+00
  0.00000000E+00  0.00000000E+00  0.00000000E+00
  0.00000000E+00  0.00000000E+00  0.00000000E+00
  0.00000000E+00  0.00000000E+00  0.00000000E+00
  0.00000000E+00  0.00000000E+00  0.00000000E+00
  0.00000000E+00  0.00000000E+00  0.00000000E+00
  0.00000000E+00  0.00000000E+00  0.00000000E+00
  0.00000000E+00  0.00000000E+00  0.00000000E+00
  0.00000000E+00  0.00000000E+00  0.00000000E+00
  0.00000000E+00  0.00000000E+00  0.00000000E+00
  0.00000000E+00  0.00000000E+00  0.00000000E+00
  0.00000000E+00  0.00000000E+00  0.00000000E+00
  0.00000000E+00  0.00000000E+00  0.00000000E+00
  0.00000000E+00  0.00000000E+00  0.00000000E+00
  0.00000000E+00  0.00000000E+00  0.00000000E+00
  0.00000000E+00  0.00000000E+00  0.00000000E+00
  0.00000000E+00  0.00000000E+00  0.00000000E+00
  0.00000000E+00  0.00000000E+00  0.00000000E+00
  0.00000000E+00  0.00000000E+00  0.00000000E+00
  0.00000000E+00  0.00000000E+00  0.00000000E+00
  0.00000000E+00  0.00000000E+00  0.00000000E+00
  0.00000000E+00  0.00000000E+00  0.00000000E+00
  0.00000000E+00  0.00000000E+00  0.00000000E+00
  0.00000000E+00  0.00000000E+00  0.00000000E+00
  0.00000000E+00  0.00000000E+00  0.00000000E+00
  0.00000000E+00  0.00000000E+00  0.00000000E+00
  0.00000000E+00  0.00000000E+00  0.00000000E+00
  0.00000000E+00  0.00000000E+00  0.00000000E+00
  0.00000000E+00  0.00000000E+00  0.00000000E+00
  0.00000000E+00  0.00000000E+00  0.00000000E+00
  0.00000000E+00  0.00000000E+00  0.00000000E+00
  0.00000000E+00  0.00000000E+00  0.00000000E+00
  0.00000000E+00  0.00000000E+00  0.00000000E+00
  0.00000000E+00  0.00000000E+00  0.00000000E+00
  0.00000000E+00  0.00000000E+00  0.00000000E+00
  0.00000000E+00  0.00000000E+00  0.00000000E+00
  0.00000000E+00  0.00000000E+00  0.00000000E+00
  0.00000000E+00  0.00000000E+00  0.00000000E+00
  0.00000000E+00  0.00000000E+00  0.00000000E+00
  0.00000000E+00  0.00000000E+00  0.00000000E+00
  0.00000000E+00  0.00000000E+00  0.00000000E+00
  0.00000000E+00  0.00000000E+00  0.00000000E+00
  0.00000000E+00  0.00000000E+00  0.00000000E+00
  0.00000000E+00  0.00000000E+00  0.00000000E+00
  0.00000000E+00  0.00000000E+00  0.00000000E+00
  0.00000000E+00  0.00000000E+00  0.00000000E+00
  0.00000000E+00  0.00000000E+00  0.00000000E+00
  0.00000000E+00  0.00000000E+00  0.00000000E+00
  0.00000000E+00  0.00000000E+00  0.00000000E+00
  0.00000000E+00  0.00000000E+00  0.00000000E+00
  0.00000000E+00  0.00000000E+00  0.00000000E+00
  0.00000000E+00  0.00000000E+00  0.00000000E+00
  0.00000000E+00  0.00000000E+00  0.00000000E+00
  0.00000000E+00  0.00000000E+00  0.00000000E+00
  0.00000000E+00  0.00000000E+00  0.00000000E+00
  0.00000000E+00  0.00000000E+00  0.00000000E+00
  0.00000000E+00  0.00000000E+00  0.00000000E+00
  0.00000000E+00  0.00000000E+00  0.00000000E+00
  0.00000000E+00  0.00000000E+00  0.00000000E+00
  0.00000000E+00  0.00000000E+00  0.00000000E+00
  0.00000000E+00  0.00000000E+00  0.00000000E+00
  0.00000000E+00  0.00000000E+00  0.00000000E+00
  0.00000000E+00  0.00000000E+00  0.00000000E+00
  0.00000000E+00  0.00000000E+00  0.00000000E+00
  0.00000000E+00  0.00000000E+00  0.00000000E+00
  0.00000000E+00  0.00000000E+00  0.00000000E+00
  0.00000000E+00  0.00000000E+00  0.00000000E+00
  0.00000000E+00  0.00000000E+00  0.00000000E+00
  0.00000000E+00  0.00000000E+00  0.00000000E+00
  0.00000000E+00  0.00000000E+00  0.00000000E+00
  0.00000000E+00  0.00000000E+00  0.00000000E+00
  0.00000000E+00  0.00000000E+00  0.00000000E+00
  0.00000000E+00  0.00000000E+00  0.00000000E+00
  0.00000000E+00  0.00000000E+00  0.00000000E+00
  0.00000000E+00  0.00000000E+00  0.00000000E+00
