O  C  H  Co Li                          
   1.00000000000000     
    25.7396117715554027    1.7720315281978094   -0.2882625844502121
    14.3707700325862699   18.7191943614399996   -0.5356003762017869
    -0.0781567794330705   -0.1233004485564706    6.8153837948085823
   O    C    H    Co   Li
    54    67    16    18     4
Direct
  0.0341375608830977  0.2546346246855796  0.2910789745875332
  0.0068972032191601  0.3153843870110840  0.9382083824760649
  0.0871754972916848  0.2578016844952620  0.7029764196287557
  0.6229642302184885  0.1342068262253399  0.3562206779437257
  0.6049819022863625  0.0950623545706713  0.9973059639944538
  0.5486752468418139  0.1788555179740954  0.7593085249658521
  0.9727153901686117  0.4327373585422257  0.6375199877317629
  0.3570647480741348  0.5778376424335003  0.2836703834888941
  0.3740220699008892  0.5811300796758377  0.8874473810165945
  0.3514407919445074  0.5210939096619684  0.6987032810880338
  0.5696900671626478  0.0371131498902850  0.6625080191736804
  0.3321093528309917  0.9739319195112213  0.3397626101021228
  0.2528771817027243  0.0221759904083226  0.5743729447635888
  0.2969521376480136  0.0272121640397811  0.9847843996214845
  0.5766074744055641  0.4106356860189526  0.3134019178927363
  0.6138259732930295  0.3308480039776920  0.5448816158649185
  0.0233101612693152  0.6454503770471050  0.7346503772190277
  0.0414108675660114  0.5663063126736960  0.9484095010619582
  0.4610788378315485  0.4230457633390800  0.0755876057426990
  0.1037229727054284  0.6168640963765930  0.4013248610368426
  0.1504371699519690  0.6447226365222335  0.6153622995332287
  0.4124573630602714  0.9356685852022614  0.6774371021728954
  0.4352221713811331  0.9811328298148796  0.9250732353176930
  0.1499032720411823  0.5817577502489931  0.0129718935309107
  0.6891225438447445  0.0049848915468621  0.6467605749877013
  0.7601269504749119 -0.0049167495270633  0.4392339985554957
  0.7302258953019056  0.9570031771492886  0.0050274630517565
  0.4658518815813807  0.5436528911777357  0.5508454999238908
  0.4261482024754497  0.6299411931857377  0.3280626579605330
  0.9738824246639401  0.3994069152021261  0.2698813288976837
  0.9280782974897703  0.4896284342528838  0.0540991827814126
  0.4678680737293298  0.5869269692306213  0.9413894358938640
  0.9382242607992771  0.3460981664840483  0.6164910647354784
  0.8632648221131100  0.3902159221914612  0.3671375036621284
  0.6213718592422659  0.0187547149709485  0.3152605432966487
  0.6058326449554504  0.9683428485690211  0.0606253429177056
  0.8685935731283493  0.4098927919571004  0.9668315371508526
  0.9957051470450976  0.7683405130250213  0.6942042431908932
  0.0338796438945855  0.7114868793725393  0.0816526181834771
  0.9496449139800023  0.7718916120768844  0.3045046101353883
  0.3823464343402525  0.8493953568814469  0.6315563884732353
  0.3971537672577145  0.8825029370822139 -0.0048691183549216
  0.4434327759522754  0.7979649146690900  0.2284464316947788
  0.9982896100260761  0.6301734004701396  0.3527853692187042
  0.7074037095090427  0.3509184674538302  0.6488427341806416
  0.6279807462693944  0.4550743417299029  0.0124777867873416
  0.7104639956474643  0.3676546709136343  0.2194826013592046
  0.4629564219049919  0.9159590886813734  0.3207222733778613
  0.6015554536915461  0.5162614273038670  0.5522919098767987
  0.6315753337436519  0.5741400604108690  0.7140253643516411
  0.6784787273997698  0.5194871744597018  0.4125888387001771
  0.7295899869649887  0.1768243477254554  0.6328321585575449
  0.6562084993444213  0.2570394953304647  0.8793392760902872
  0.6845540710867198  0.1435623403828668  0.8202852004141786
  0.0972432421780458  0.2000220561927760  0.2102026467682474
  0.1491118071871401  0.1409501205416957  0.3297331947231589
  0.0679787676838436  0.2594653032614314  0.8745936689508474
  0.1154689939369294  0.1983043125316669  0.0118346808607558
  0.5840288988177795  0.2020228454100012  0.2718288854583588
  0.5819509634457699  0.2559708493116215  0.3737197096861865
  0.5681127074682348  0.1625896142179870  0.9360357086463759
  0.5513611497251104  0.2204228454010643  0.0851787788056769
  0.9764438501057220  0.4824691174705008  0.5698422306167643
 -0.0068185065240567  0.5160703663217379  0.6965535277086227
  0.3037915881077705  0.5828272433861920  0.2170825392066164
  0.2528505640481999  0.6017413610480976  0.3477305484021628
  0.3436758586900946  0.5540951278348664  0.8624557348603551
  0.2992180979477102  0.5659744006957627  0.0174157361433659
  0.5467408343157357  0.0054303389738362  0.5742815722661310
  0.5106614345798814  0.9939951200161743  0.6893113699529632
  0.2690565954197722  0.0234408639695557  0.4013864814078456
  0.2168009298489908  0.0822967676235045  0.2630946047292488
  0.2338420922526251  0.0809227509863269  0.0639751884313486
  0.1824621769156639  0.1390630957796894  0.9442889802388498
  0.5768695875129044  0.3613450928175039  0.3918832864995990
  0.5487240491402611  0.3277923915283623  0.3052622756918310
  0.0231177148905392  0.5926663789714712  0.7780669204500500
  0.0006296486668476  0.5657144447793738  0.6313261100085049
  0.5049740179941095  0.3489969242602887  0.1426249318525820
  0.5082921048431263  0.2961375696366242  0.0324819123451332
  0.1490338756058605  0.6223281645924418  0.4430652479736555
  0.2002545665723301  0.6014838046040396  0.2915055703025367
  0.4416506515401912  0.9599319269419281  0.7462544768664275
  0.4825261046710296  0.9641059028729017  0.6109385969351714
  0.1978662089881596  0.5819028416030044  0.0913180689362249
  0.2486072109618495  0.5636567689121557 -0.0386048843468451
  0.7503434068857328  0.9755166883116864  0.5975107727715282
  0.8073479643033744  0.9209196851983783  0.7304287868801125
  0.7937392910652368  0.9169698559410594  0.9288675056361659
  0.8500101978387022  0.8682045416832840  0.0504758632853583
  0.4431189790194348  0.6097247132662423  0.5040505556416378
  0.4368571872982092  0.6620120900923144  0.6507265796023949
  0.9537890352445246  0.4635443526554073  0.2214043215478059
  0.9655475396141813  0.5017737323480411  0.3675627339827383
  0.4496058856439198  0.6485389456879151  0.8554940279142389
  0.4458509337047853  0.7001022939066265 -0.0222147121749944
  0.8806733877760600  0.3710600474643633  0.5466644693313819
  0.8338226139472346  0.3760576332816633  0.6800095782492536
  0.5962058227646320  0.9904773797362086  0.2393646621695605
  0.5559594133400908  0.9836484125286591  0.3706353427924683
  0.8331545465528044  0.3916322152344490  0.8840091908409853
  0.7897477866145688  0.3913571905385143  0.0017158678572694
  0.9324413701037614  0.8179483285959966  0.7803167122833292
  0.8757612599162540  0.8729537338762401  0.6631985356797283
  0.9700147069345918  0.7654135455167119  0.1302915485293272
  0.9182856861627440  0.8187105330277643  0.9831703157743861
  0.4067624211043616  0.7843791670060597  0.7081918400021199
  0.4151563591656567  0.7299875316489056  0.5838124260545978
  0.4221091236704350  0.8179523611319985  0.0543023501576025
  0.4246892368035786  0.7673656846545160  0.9102844272733738
  0.9894043728840460  0.5853077070089495  0.4297130603335769
  0.9702243330242769  0.5535519150477332  0.3033900212806768
  0.7475720837555164  0.3642028234854447  0.7208732219628899
  0.7933334223585337  0.3605381269017559  0.6028444246775332
  0.6918166541155218  0.4010473959340233  0.0590678838209238
  0.7454955013093271  0.3822262461685179  0.9228847211525439
  0.4901784982510231  0.9435440008697855  0.4067957162570023
  0.5280590682585546  0.9531719047967226  0.2921389536912313
  0.6392578785090784  0.5381580795203679  0.5583817475464431
  0.6900292607983097  0.1913271149906537  0.7799715144990683
  0.4985827656657559  0.4310812238974337  0.9639999926938642
  0.1360406650939484  0.1420026976017934  0.4816345198400248
  0.6140635949408286  0.2375876168040860  0.5030053950814148
  0.0021821759677343  0.5016943111221360  0.8506564277649964
  0.2536507856112190  0.6172209937243813  0.4998933658096372
  0.5034600054611994  0.0101603357648637  0.8451003538450230
  0.1958630283682169  0.1382530137785732  0.7931907553366023
  0.4797070243990582  0.3128585297084476  0.8951801722420381
  0.2460050784914241  0.5507125109552107  0.8081796216970042
  0.8396850625789390  0.8668302361967214  0.2033870417458245
  0.4582438414261296  0.6876471615463580  0.1326576705583871
  0.7900590327674761  0.3979870896035628  0.1605891822495073
  0.8858307851510820  0.8757856031279472  0.5112139786737695
  0.4039727884126809  0.7420778230031321  0.4286984561997990
  0.9618075512867602  0.5673095582925666  0.1487482841300303
  0.7973824395583239  0.3447049333365944  0.4470766480573800
  0.5354938229155795  0.9367717622845432  0.1363836064785356
  0.4098803144787146  0.5153726997890781  0.5119888556520086
  0.0170925130281485  0.3293327664676054  0.4973609484852848
  0.5952801004902576  0.0932569985223922  0.5475799364300652
  0.0829124709558354  0.6704228158382087  0.8225334089669210
  0.3900882079334693  0.9652061664257658  0.1198614835759024
  0.3303450820485706  0.9521844616908997  0.7693894216505892
  0.5650237543143443  0.4343422287856637  0.0408633291272000
  0.5750155818725518  0.3611962661876296  0.8065097221474776
  0.0702837809673363  0.6040966082186359  0.1478462596285591
  0.6403216412171814 -0.0013274259130396  0.8654593883678232
  0.9442872148842254  0.3450399251642203  0.1667541806488916
  0.4783114426897460  0.5029589199645985  0.8093043100431341
  0.6820238724308002  0.0346861008468508  0.2106993793274541
  0.9330425485143237  0.4199000994265294  0.8510225836886527
  0.4072866975700385  0.5908433628705053  0.1197916841662122
  0.6450848385187476  0.4192194075895467  0.4428178459773520
  0.9970043210341414  0.7000988807617394  0.5092264068209718
  0.4198120092447984  0.8757325170012122  0.4361898541417699
  0.7625159430123306  0.4826164848260356  0.3502008748928285
  0.5914120625139128  0.5392800657689601  0.8409380546214833
  0.7229892131071197  0.1015195381851297  0.5510390720862681
  0.7096427101697138  0.2694596895686671  0.6619186439456372
 
  0.00000000E+00  0.00000000E+00  0.00000000E+00
  0.00000000E+00  0.00000000E+00  0.00000000E+00
  0.00000000E+00  0.00000000E+00  0.00000000E+00
  0.00000000E+00  0.00000000E+00  0.00000000E+00
  0.00000000E+00  0.00000000E+00  0.00000000E+00
  0.00000000E+00  0.00000000E+00  0.00000000E+00
  0.00000000E+00  0.00000000E+00  0.00000000E+00
  0.00000000E+00  0.00000000E+00  0.00000000E+00
  0.00000000E+00  0.00000000E+00  0.00000000E+00
  0.00000000E+00  0.00000000E+00  0.00000000E+00
  0.00000000E+00  0.00000000E+00  0.00000000E+00
  0.00000000E+00  0.00000000E+00  0.00000000E+00
  0.00000000E+00  0.00000000E+00  0.00000000E+00
  0.00000000E+00  0.00000000E+00  0.00000000E+00
  0.00000000E+00  0.00000000E+00  0.00000000E+00
  0.00000000E+00  0.00000000E+00  0.00000000E+00
  0.00000000E+00  0.00000000E+00  0.00000000E+00
  0.00000000E+00  0.00000000E+00  0.00000000E+00
  0.00000000E+00  0.00000000E+00  0.00000000E+00
  0.00000000E+00  0.00000000E+00  0.00000000E+00
  0.00000000E+00  0.00000000E+00  0.00000000E+00
  0.00000000E+00  0.00000000E+00  0.00000000E+00
  0.00000000E+00  0.00000000E+00  0.00000000E+00
  0.00000000E+00  0.00000000E+00  0.00000000E+00
  0.00000000E+00  0.00000000E+00  0.00000000E+00
  0.00000000E+00  0.00000000E+00  0.00000000E+00
  0.00000000E+00  0.00000000E+00  0.00000000E+00
  0.00000000E+00  0.00000000E+00  0.00000000E+00
  0.00000000E+00  0.00000000E+00  0.00000000E+00
  0.00000000E+00  0.00000000E+00  0.00000000E+00
  0.00000000E+00  0.00000000E+00  0.00000000E+00
  0.00000000E+00  0.00000000E+00  0.00000000E+00
  0.00000000E+00  0.00000000E+00  0.00000000E+00
  0.00000000E+00  0.00000000E+00  0.00000000E+00
  0.00000000E+00  0.00000000E+00  0.00000000E+00
  0.00000000E+00  0.00000000E+00  0.00000000E+00
  0.00000000E+00  0.00000000E+00  0.00000000E+00
  0.00000000E+00  0.00000000E+00  0.00000000E+00
  0.00000000E+00  0.00000000E+00  0.00000000E+00
  0.00000000E+00  0.00000000E+00  0.00000000E+00
  0.00000000E+00  0.00000000E+00  0.00000000E+00
  0.00000000E+00  0.00000000E+00  0.00000000E+00
  0.00000000E+00  0.00000000E+00  0.00000000E+00
  0.00000000E+00  0.00000000E+00  0.00000000E+00
  0.00000000E+00  0.00000000E+00  0.00000000E+00
  0.00000000E+00  0.00000000E+00  0.00000000E+00
  0.00000000E+00  0.00000000E+00  0.00000000E+00
  0.00000000E+00  0.00000000E+00  0.00000000E+00
  0.00000000E+00  0.00000000E+00  0.00000000E+00
  0.00000000E+00  0.00000000E+00  0.00000000E+00
  0.00000000E+00  0.00000000E+00  0.00000000E+00
  0.00000000E+00  0.00000000E+00  0.00000000E+00
  0.00000000E+00  0.00000000E+00  0.00000000E+00
  0.00000000E+00  0.00000000E+00  0.00000000E+00
  0.00000000E+00  0.00000000E+00  0.00000000E+00
  0.00000000E+00  0.00000000E+00  0.00000000E+00
  0.00000000E+00  0.00000000E+00  0.00000000E+00
  0.00000000E+00  0.00000000E+00  0.00000000E+00
  0.00000000E+00  0.00000000E+00  0.00000000E+00
  0.00000000E+00  0.00000000E+00  0.00000000E+00
  0.00000000E+00  0.00000000E+00  0.00000000E+00
  0.00000000E+00  0.00000000E+00  0.00000000E+00
  0.00000000E+00  0.00000000E+00  0.00000000E+00
  0.00000000E+00  0.00000000E+00  0.00000000E+00
  0.00000000E+00  0.00000000E+00  0.00000000E+00
  0.00000000E+00  0.00000000E+00  0.00000000E+00
  0.00000000E+00  0.00000000E+00  0.00000000E+00
  0.00000000E+00  0.00000000E+00  0.00000000E+00
  0.00000000E+00  0.00000000E+00  0.00000000E+00
  0.00000000E+00  0.00000000E+00  0.00000000E+00
  0.00000000E+00  0.00000000E+00  0.00000000E+00
  0.00000000E+00  0.00000000E+00  0.00000000E+00
  0.00000000E+00  0.00000000E+00  0.00000000E+00
  0.00000000E+00  0.00000000E+00  0.00000000E+00
  0.00000000E+00  0.00000000E+00  0.00000000E+00
  0.00000000E+00  0.00000000E+00  0.00000000E+00
  0.00000000E+00  0.00000000E+00  0.00000000E+00
  0.00000000E+00  0.00000000E+00  0.00000000E+00
  0.00000000E+00  0.00000000E+00  0.00000000E+00
  0.00000000E+00  0.00000000E+00  0.00000000E+00
  0.00000000E+00  0.00000000E+00  0.00000000E+00
  0.00000000E+00  0.00000000E+00  0.00000000E+00
  0.00000000E+00  0.00000000E+00  0.00000000E+00
  0.00000000E+00  0.00000000E+00  0.00000000E+00
  0.00000000E+00  0.00000000E+00  0.00000000E+00
  0.00000000E+00  0.00000000E+00  0.00000000E+00
  0.00000000E+00  0.00000000E+00  0.00000000E+00
  0.00000000E+00  0.00000000E+00  0.00000000E+00
  0.00000000E+00  0.00000000E+00  0.00000000E+00
  0.00000000E+00  0.00000000E+00  0.00000000E+00
  0.00000000E+00  0.00000000E+00  0.00000000E+00
  0.00000000E+00  0.00000000E+00  0.00000000E+00
  0.00000000E+00  0.00000000E+00  0.00000000E+00
  0.00000000E+00  0.00000000E+00  0.00000000E+00
  0.00000000E+00  0.00000000E+00  0.00000000E+00
  0.00000000E+00  0.00000000E+00  0.00000000E+00
  0.00000000E+00  0.00000000E+00  0.00000000E+00
  0.00000000E+00  0.00000000E+00  0.00000000E+00
  0.00000000E+00  0.00000000E+00  0.00000000E+00
  0.00000000E+00  0.00000000E+00  0.00000000E+00
  0.00000000E+00  0.00000000E+00  0.00000000E+00
  0.00000000E+00  0.00000000E+00  0.00000000E+00
  0.00000000E+00  0.00000000E+00  0.00000000E+00
  0.00000000E+00  0.00000000E+00  0.00000000E+00
  0.00000000E+00  0.00000000E+00  0.00000000E+00
  0.00000000E+00  0.00000000E+00  0.00000000E+00
  0.00000000E+00  0.00000000E+00  0.00000000E+00
  0.00000000E+00  0.00000000E+00  0.00000000E+00
  0.00000000E+00  0.00000000E+00  0.00000000E+00
  0.00000000E+00  0.00000000E+00  0.00000000E+00
  0.00000000E+00  0.00000000E+00  0.00000000E+00
  0.00000000E+00  0.00000000E+00  0.00000000E+00
  0.00000000E+00  0.00000000E+00  0.00000000E+00
  0.00000000E+00  0.00000000E+00  0.00000000E+00
  0.00000000E+00  0.00000000E+00  0.00000000E+00
  0.00000000E+00  0.00000000E+00  0.00000000E+00
  0.00000000E+00  0.00000000E+00  0.00000000E+00
  0.00000000E+00  0.00000000E+00  0.00000000E+00
  0.00000000E+00  0.00000000E+00  0.00000000E+00
  0.00000000E+00  0.00000000E+00  0.00000000E+00
  0.00000000E+00  0.00000000E+00  0.00000000E+00
  0.00000000E+00  0.00000000E+00  0.00000000E+00
  0.00000000E+00  0.00000000E+00  0.00000000E+00
  0.00000000E+00  0.00000000E+00  0.00000000E+00
  0.00000000E+00  0.00000000E+00  0.00000000E+00
  0.00000000E+00  0.00000000E+00  0.00000000E+00
  0.00000000E+00  0.00000000E+00  0.00000000E+00
  0.00000000E+00  0.00000000E+00  0.00000000E+00
  0.00000000E+00  0.00000000E+00  0.00000000E+00
  0.00000000E+00  0.00000000E+00  0.00000000E+00
  0.00000000E+00  0.00000000E+00  0.00000000E+00
  0.00000000E+00  0.00000000E+00  0.00000000E+00
  0.00000000E+00  0.00000000E+00  0.00000000E+00
  0.00000000E+00  0.00000000E+00  0.00000000E+00
  0.00000000E+00  0.00000000E+00  0.00000000E+00
  0.00000000E+00  0.00000000E+00  0.00000000E+00
  0.00000000E+00  0.00000000E+00  0.00000000E+00
  0.00000000E+00  0.00000000E+00  0.00000000E+00
  0.00000000E+00  0.00000000E+00  0.00000000E+00
  0.00000000E+00  0.00000000E+00  0.00000000E+00
  0.00000000E+00  0.00000000E+00  0.00000000E+00
  0.00000000E+00  0.00000000E+00  0.00000000E+00
  0.00000000E+00  0.00000000E+00  0.00000000E+00
  0.00000000E+00  0.00000000E+00  0.00000000E+00
  0.00000000E+00  0.00000000E+00  0.00000000E+00
  0.00000000E+00  0.00000000E+00  0.00000000E+00
  0.00000000E+00  0.00000000E+00  0.00000000E+00
  0.00000000E+00  0.00000000E+00  0.00000000E+00
  0.00000000E+00  0.00000000E+00  0.00000000E+00
  0.00000000E+00  0.00000000E+00  0.00000000E+00
  0.00000000E+00  0.00000000E+00  0.00000000E+00
  0.00000000E+00  0.00000000E+00  0.00000000E+00
  0.00000000E+00  0.00000000E+00  0.00000000E+00
  0.00000000E+00  0.00000000E+00  0.00000000E+00
  0.00000000E+00  0.00000000E+00  0.00000000E+00
  0.00000000E+00  0.00000000E+00  0.00000000E+00
  0.00000000E+00  0.00000000E+00  0.00000000E+00
  0.00000000E+00  0.00000000E+00  0.00000000E+00
  0.00000000E+00  0.00000000E+00  0.00000000E+00
