O  C  H  Co Li                          
   1.00000000000000     
    25.7518828453243671    1.7784226867049671   -0.2992645645718401
    14.3819311305786979   18.7247527769685611   -0.5521370527703118
    -0.0808878740291721   -0.1273899024301271    6.8125757673795686
   O    C    H    Co   Li
    54    67    16    18     4
Direct
  0.0342805127179209  0.2550486432161352  0.2913621873924708
  0.0070755639318335  0.3158097289375960  0.9389745945072117
  0.0870229753518008  0.2576996083174107  0.7025671952193335
  0.6216603054587992  0.1344251029511518  0.3579365828175022
  0.6050783979718276  0.0946640598091752  0.9982411915248167
  0.5471552206418547  0.1785585410499552  0.7613321198149062
  0.9733119362250593  0.4327222776770374  0.6386975138008518
  0.3581607629901066  0.5764060025742990  0.2818743968909700
  0.3732206056460924  0.5817716929093221  0.8850070976982179
  0.3519959177478743  0.5200084640368423  0.6981344684434697
  0.5696921653850995  0.0369053638716168  0.6628871437362430
  0.3320393369141902  0.9736543926458044  0.3383695764933481
  0.2531774267667160  0.0221446257948805  0.5742459567741214
  0.2970137991998452  0.0270722716979176  0.9840557155693790
  0.5758882322820533  0.4109676629519053  0.3141610898688709
  0.6143133515334265  0.3300472039192234  0.5433646807671294
  0.0240668501824707  0.6451967964441460  0.7347559705297121
  0.0423045869858541  0.5659388595325157  0.9479416824263049
  0.4616566773051344  0.4223478292753060  0.0731027121086396
  0.1040039687855630  0.6173821257353984  0.4012834424935812
  0.1508534783312394  0.6450862541595662  0.6156867860090445
  0.4123354847791297  0.9357577271011062  0.6758239845723445
  0.4350776060101343  0.9811234348659310  0.9243045585257521
  0.1498422399385662  0.5823044067622917  0.0131223616943628
  0.6891075612702382  0.0044420915014384  0.6471770849947964
  0.7596080186709619 -0.0039754814747332  0.4411067010614732
  0.7301943688693318  0.9570023533378798  0.0057561057801633
  0.4659023881129222  0.5434299078337760  0.5499325964500182
  0.4273338556300363  0.6286723169126192  0.3254651232470587
  0.9721154158981558  0.4008639827149514  0.2720312634103684
  0.9281571334405310  0.4901127224406874  0.0544324672981513
  0.4673950838831739  0.5873197305698870  0.9399787249070283
  0.9378754771989556  0.3469238173361372  0.6171084450076793
  0.8632989817010124  0.3899659109961039  0.3670855737030937
  0.6218885705056421  0.0178178582318672  0.3156527908091439
  0.6056947413519426  0.9681435779818482  0.0602853968695813
  0.8684029314749435  0.4101650643430673  0.9678656255515274
  0.9956839784635585  0.7685989516919409  0.6949141357525199
  0.0338030576285540  0.7119290376837663  0.0823397128163730
  0.9497215273304187  0.7720222878571397  0.3054904355965052
  0.3823344417585866  0.8493309997121558  0.6297169865749566
  0.3977314122197190  0.8821360831900447 -0.0070333621904361
  0.4423657084184579  0.7983001564329406  0.2274521414798666
  0.9988797535257558  0.6300291855573923  0.3530791550492680
  0.7073829542939741  0.3510486017729988  0.6489237340180279
  0.6275931816907411  0.4557000101785391  0.0129159038204044
  0.7101936681095091  0.3677883423177934  0.2187514265449783
  0.4630820892583311  0.9157043535433573  0.3196278771468998
  0.6018528616725197  0.5162335452366670  0.5519801998242551
  0.6316007360228603  0.5743062723478236  0.7142149583568048
  0.6785569229444705  0.5198315398075065  0.4125501983195823
  0.7310577332538011  0.1758732600331669  0.6401991429639067
  0.6561853933693879  0.2582638395101324  0.8817178293193501
  0.6815787995401444  0.1463808214787806  0.8204608468627030
  0.0973201728039782  0.2001050448896273  0.2102425280210912
  0.1491186001172326  0.1408568039208201  0.3294699969971102
  0.0679997516737332  0.2596055582524964  0.8746547240926923
  0.1155382631248628  0.1983651663847704  0.0117680818207766
  0.5831055741758482  0.2021139003595135  0.2735280094732677
  0.5813865876650419  0.2559628523910146  0.3745614535583569
  0.5671753183134466  0.1623918001537666  0.9376921555019777
  0.5504822182236860  0.2202770982848934  0.0867832142302381
  0.9771099506177279  0.4822820137571930  0.5707907403425309
 -0.0060157522062474  0.5158735172428365  0.6970715798022226
  0.3046966240456349  0.5817079587765942  0.2165372692739038
  0.2537614772228918  0.6009360470715148  0.3475925896404409
  0.3438831148625375  0.5535265142833767  0.8614191575130258
  0.2999538922624239  0.5647815965177921  0.0170038971322628
  0.5465163223565427  0.0055252735721348  0.5742563389631690
  0.5102568092471227  0.9943047776638317  0.6890359872077558
  0.2691219657517781  0.0233323687946415  0.4008715953396436
  0.2167977947716151  0.0821749662124917  0.2627684865021701
  0.2338953170337222  0.0807843126720334  0.0636108052117800
  0.1825155159215548  0.1390431318967055  0.9441145023358537
  0.5767601457178410  0.3610903118312805  0.3913400860662313
  0.5487089789007514  0.3274744718675686  0.3044819909441066
  0.0238627101252887  0.5924440884677159  0.7777891282489605
  0.0013030474217092  0.5655098488881419  0.6312966470624809
  0.5052363066675746  0.3485764588778056  0.1412245506962232
  0.5079871200572502  0.2957579431474052  0.0326584493721520
  0.1495093026029508  0.6224630788720055  0.4434528983085315
  0.2009852154630634  0.6009306102054569  0.2918179907053483
  0.4414448172894950  0.9600236357008780  0.7452779960317546
  0.4822389343595688  0.9643256306712980  0.6103120650016092
  0.1983920699008511  0.5813760376534274  0.0917800864910258
  0.2493139529705761  0.5625158689802989 -0.0384695599120173
  0.7501601923037062  0.9756936772800685  0.5984057647076431
  0.8072802646831765  0.9210556938176037  0.7311883902622871
  0.7936817461422141  0.9169212923365146  0.9295488169897993
  0.8499707132402864  0.8679648582463647  0.0509153701911436
  0.4434627685465196  0.6092262440682049  0.5022432375972926
  0.4366843956453810  0.6619651823533794  0.6485614581366878
  0.9533891963088029  0.4641774613886558  0.2222999998161721
  0.9659740092497421  0.5017199525754262  0.3684786981534912
  0.4491247565143926  0.6488165292135104  0.8536258528262840
  0.4452091387000287  0.7004453500495550 -0.0239851254893299
  0.8805626008401314  0.3712440406931602  0.5469618163950558
  0.8337310975714671  0.3762666483155848  0.6803995018860572
  0.5962842282055310  0.9900996094471439  0.2393276727926515
  0.5558422100967650  0.9836121941820939  0.3704986943981892
  0.8329814732243177  0.3919381199567369  0.8846777144513902
  0.7894073106551511  0.3919208479519609  0.0021608761624123
  0.9323882839963942  0.8180666091156413  0.7810468698373236
  0.8757013521995177  0.8730847624679159  0.6639123819031002
  0.9699573732414424  0.7656201030558742  0.1311047442927544
  0.9181982156195222  0.8187025359944975  0.9838193237372205
  0.4065593287103094  0.7843830938116304  0.7057088705243362
  0.4150903796537509  0.7298310709714618  0.5812069706967273
  0.4216032712809323  0.8180767371506411  0.0527841341750619
  0.4240365692531705  0.7676314352125571  0.9083946424587548
  0.9900672622062435  0.5851016846143169  0.4296225486483690
  0.9708271965547304  0.5532775176530607  0.3037191583793147
  0.7472366295535300  0.3647527582647306  0.7208915381144970
  0.7930968686376816  0.3609813573075989  0.6030279163116543
  0.6914236122214734  0.4016179865974615  0.0589622739157408
  0.7450499734022581  0.3829828612880293  0.9229924764740093
  0.4900969415754972  0.9435082992668492  0.4060571787039286
  0.5279383355949608  0.9531803766428478  0.2917693332915745
  0.6393719970951790  0.5383126241275047  0.5583804497113274
  0.6894478173953095  0.1924005295114389  0.7833451834648931
  0.4987753945805691  0.4310602605478379  0.9620464339140551
  0.1359523761692872  0.1419922052900672  0.4812799807797168
  0.6131521018668855  0.2378962250038816  0.5048482017029947
  0.0028496982832702  0.5020273552245971  0.8515278169380606
  0.2548018235455379  0.6162494485259907  0.4999513674374584
  0.5031269093743964  0.0104164121631160  0.8450495058655826
  0.1958990273583222  0.1383406614286886  0.7930330109451925
  0.4795147992740577  0.3121994628753447  0.8947886181464768
  0.2463103873901973  0.5499131601462744  0.8079702683631023
  0.8398119267991171  0.8661874651335129  0.2036659723242625
  0.4574779215791622  0.6880365841904019  0.1308982110666330
  0.7898794187002574  0.3985207137874281  0.1611696199286509
  0.8856296184903416  0.8758549243748291  0.5116398523767574
  0.4038919202699975  0.7416012018318928  0.4258593105760923
  0.9622862426535602  0.5668420353868818  0.1488342058859736
  0.7973681186424708  0.3450305429492823  0.4471379349494742
  0.5352535703514336  0.9370665272648250  0.1357741384641691
  0.4105563628310822  0.5143291086357451  0.5115749059344821
  0.0169471561838388  0.3297355428356832  0.4977754700889138
  0.5951420195790191  0.0929981575401844  0.5483143111659612
  0.0830953011281575  0.6709369388929798  0.8227319366539437
  0.3900784735292381  0.9651121966268776  0.1188152223018545
  0.3305985523893999  0.9519318817826409  0.7686232489514818
  0.5643799240574071  0.4352116968228572  0.0421519283112200
  0.5750820294266138  0.3621033990241943  0.8041957134243415
  0.0704318616381616  0.6043967387511229  0.1480047629504348
  0.6404505962268275 -0.0017531438563316  0.8662868196194776
  0.9442656520615724  0.3452972618813064  0.1666832775153024
  0.4781349367046649  0.5031722891891560  0.8079010441118830
  0.6815926127399498  0.0350271842694054  0.2112785213799556
  0.9328970491101976  0.4202175393100479  0.8516375938462646
  0.4073799347929755  0.5905836696763980  0.1174336394744558
  0.6450987733957119  0.4191701173377171  0.4429880355621934
  0.9973175803226076  0.7001486463884121  0.5101557961823161
  0.4198202300272945  0.8757045353920602  0.4347916394934879
  0.7627426799288574  0.4826586799679596  0.3519162864477635
  0.5914291863615552  0.5393403913610367  0.8408653664664374
  0.7240268263898145  0.1010636281510007  0.5569838770213263
  0.7106153225797497  0.2687609173825945  0.6638913119999034
 
  0.00000000E+00  0.00000000E+00  0.00000000E+00
  0.00000000E+00  0.00000000E+00  0.00000000E+00
  0.00000000E+00  0.00000000E+00  0.00000000E+00
  0.00000000E+00  0.00000000E+00  0.00000000E+00
  0.00000000E+00  0.00000000E+00  0.00000000E+00
  0.00000000E+00  0.00000000E+00  0.00000000E+00
  0.00000000E+00  0.00000000E+00  0.00000000E+00
  0.00000000E+00  0.00000000E+00  0.00000000E+00
  0.00000000E+00  0.00000000E+00  0.00000000E+00
  0.00000000E+00  0.00000000E+00  0.00000000E+00
  0.00000000E+00  0.00000000E+00  0.00000000E+00
  0.00000000E+00  0.00000000E+00  0.00000000E+00
  0.00000000E+00  0.00000000E+00  0.00000000E+00
  0.00000000E+00  0.00000000E+00  0.00000000E+00
  0.00000000E+00  0.00000000E+00  0.00000000E+00
  0.00000000E+00  0.00000000E+00  0.00000000E+00
  0.00000000E+00  0.00000000E+00  0.00000000E+00
  0.00000000E+00  0.00000000E+00  0.00000000E+00
  0.00000000E+00  0.00000000E+00  0.00000000E+00
  0.00000000E+00  0.00000000E+00  0.00000000E+00
  0.00000000E+00  0.00000000E+00  0.00000000E+00
  0.00000000E+00  0.00000000E+00  0.00000000E+00
  0.00000000E+00  0.00000000E+00  0.00000000E+00
  0.00000000E+00  0.00000000E+00  0.00000000E+00
  0.00000000E+00  0.00000000E+00  0.00000000E+00
  0.00000000E+00  0.00000000E+00  0.00000000E+00
  0.00000000E+00  0.00000000E+00  0.00000000E+00
  0.00000000E+00  0.00000000E+00  0.00000000E+00
  0.00000000E+00  0.00000000E+00  0.00000000E+00
  0.00000000E+00  0.00000000E+00  0.00000000E+00
  0.00000000E+00  0.00000000E+00  0.00000000E+00
  0.00000000E+00  0.00000000E+00  0.00000000E+00
  0.00000000E+00  0.00000000E+00  0.00000000E+00
  0.00000000E+00  0.00000000E+00  0.00000000E+00
  0.00000000E+00  0.00000000E+00  0.00000000E+00
  0.00000000E+00  0.00000000E+00  0.00000000E+00
  0.00000000E+00  0.00000000E+00  0.00000000E+00
  0.00000000E+00  0.00000000E+00  0.00000000E+00
  0.00000000E+00  0.00000000E+00  0.00000000E+00
  0.00000000E+00  0.00000000E+00  0.00000000E+00
  0.00000000E+00  0.00000000E+00  0.00000000E+00
  0.00000000E+00  0.00000000E+00  0.00000000E+00
  0.00000000E+00  0.00000000E+00  0.00000000E+00
  0.00000000E+00  0.00000000E+00  0.00000000E+00
  0.00000000E+00  0.00000000E+00  0.00000000E+00
  0.00000000E+00  0.00000000E+00  0.00000000E+00
  0.00000000E+00  0.00000000E+00  0.00000000E+00
  0.00000000E+00  0.00000000E+00  0.00000000E+00
  0.00000000E+00  0.00000000E+00  0.00000000E+00
  0.00000000E+00  0.00000000E+00  0.00000000E+00
  0.00000000E+00  0.00000000E+00  0.00000000E+00
  0.00000000E+00  0.00000000E+00  0.00000000E+00
  0.00000000E+00  0.00000000E+00  0.00000000E+00
  0.00000000E+00  0.00000000E+00  0.00000000E+00
  0.00000000E+00  0.00000000E+00  0.00000000E+00
  0.00000000E+00  0.00000000E+00  0.00000000E+00
  0.00000000E+00  0.00000000E+00  0.00000000E+00
  0.00000000E+00  0.00000000E+00  0.00000000E+00
  0.00000000E+00  0.00000000E+00  0.00000000E+00
  0.00000000E+00  0.00000000E+00  0.00000000E+00
  0.00000000E+00  0.00000000E+00  0.00000000E+00
  0.00000000E+00  0.00000000E+00  0.00000000E+00
  0.00000000E+00  0.00000000E+00  0.00000000E+00
  0.00000000E+00  0.00000000E+00  0.00000000E+00
  0.00000000E+00  0.00000000E+00  0.00000000E+00
  0.00000000E+00  0.00000000E+00  0.00000000E+00
  0.00000000E+00  0.00000000E+00  0.00000000E+00
  0.00000000E+00  0.00000000E+00  0.00000000E+00
  0.00000000E+00  0.00000000E+00  0.00000000E+00
  0.00000000E+00  0.00000000E+00  0.00000000E+00
  0.00000000E+00  0.00000000E+00  0.00000000E+00
  0.00000000E+00  0.00000000E+00  0.00000000E+00
  0.00000000E+00  0.00000000E+00  0.00000000E+00
  0.00000000E+00  0.00000000E+00  0.00000000E+00
  0.00000000E+00  0.00000000E+00  0.00000000E+00
  0.00000000E+00  0.00000000E+00  0.00000000E+00
  0.00000000E+00  0.00000000E+00  0.00000000E+00
  0.00000000E+00  0.00000000E+00  0.00000000E+00
  0.00000000E+00  0.00000000E+00  0.00000000E+00
  0.00000000E+00  0.00000000E+00  0.00000000E+00
  0.00000000E+00  0.00000000E+00  0.00000000E+00
  0.00000000E+00  0.00000000E+00  0.00000000E+00
  0.00000000E+00  0.00000000E+00  0.00000000E+00
  0.00000000E+00  0.00000000E+00  0.00000000E+00
  0.00000000E+00  0.00000000E+00  0.00000000E+00
  0.00000000E+00  0.00000000E+00  0.00000000E+00
  0.00000000E+00  0.00000000E+00  0.00000000E+00
  0.00000000E+00  0.00000000E+00  0.00000000E+00
  0.00000000E+00  0.00000000E+00  0.00000000E+00
  0.00000000E+00  0.00000000E+00  0.00000000E+00
  0.00000000E+00  0.00000000E+00  0.00000000E+00
  0.00000000E+00  0.00000000E+00  0.00000000E+00
  0.00000000E+00  0.00000000E+00  0.00000000E+00
  0.00000000E+00  0.00000000E+00  0.00000000E+00
  0.00000000E+00  0.00000000E+00  0.00000000E+00
  0.00000000E+00  0.00000000E+00  0.00000000E+00
  0.00000000E+00  0.00000000E+00  0.00000000E+00
  0.00000000E+00  0.00000000E+00  0.00000000E+00
  0.00000000E+00  0.00000000E+00  0.00000000E+00
  0.00000000E+00  0.00000000E+00  0.00000000E+00
  0.00000000E+00  0.00000000E+00  0.00000000E+00
  0.00000000E+00  0.00000000E+00  0.00000000E+00
  0.00000000E+00  0.00000000E+00  0.00000000E+00
  0.00000000E+00  0.00000000E+00  0.00000000E+00
  0.00000000E+00  0.00000000E+00  0.00000000E+00
  0.00000000E+00  0.00000000E+00  0.00000000E+00
  0.00000000E+00  0.00000000E+00  0.00000000E+00
  0.00000000E+00  0.00000000E+00  0.00000000E+00
  0.00000000E+00  0.00000000E+00  0.00000000E+00
  0.00000000E+00  0.00000000E+00  0.00000000E+00
  0.00000000E+00  0.00000000E+00  0.00000000E+00
  0.00000000E+00  0.00000000E+00  0.00000000E+00
  0.00000000E+00  0.00000000E+00  0.00000000E+00
  0.00000000E+00  0.00000000E+00  0.00000000E+00
  0.00000000E+00  0.00000000E+00  0.00000000E+00
  0.00000000E+00  0.00000000E+00  0.00000000E+00
  0.00000000E+00  0.00000000E+00  0.00000000E+00
  0.00000000E+00  0.00000000E+00  0.00000000E+00
  0.00000000E+00  0.00000000E+00  0.00000000E+00
  0.00000000E+00  0.00000000E+00  0.00000000E+00
  0.00000000E+00  0.00000000E+00  0.00000000E+00
  0.00000000E+00  0.00000000E+00  0.00000000E+00
  0.00000000E+00  0.00000000E+00  0.00000000E+00
  0.00000000E+00  0.00000000E+00  0.00000000E+00
  0.00000000E+00  0.00000000E+00  0.00000000E+00
  0.00000000E+00  0.00000000E+00  0.00000000E+00
  0.00000000E+00  0.00000000E+00  0.00000000E+00
  0.00000000E+00  0.00000000E+00  0.00000000E+00
  0.00000000E+00  0.00000000E+00  0.00000000E+00
  0.00000000E+00  0.00000000E+00  0.00000000E+00
  0.00000000E+00  0.00000000E+00  0.00000000E+00
  0.00000000E+00  0.00000000E+00  0.00000000E+00
  0.00000000E+00  0.00000000E+00  0.00000000E+00
  0.00000000E+00  0.00000000E+00  0.00000000E+00
  0.00000000E+00  0.00000000E+00  0.00000000E+00
  0.00000000E+00  0.00000000E+00  0.00000000E+00
  0.00000000E+00  0.00000000E+00  0.00000000E+00
  0.00000000E+00  0.00000000E+00  0.00000000E+00
  0.00000000E+00  0.00000000E+00  0.00000000E+00
  0.00000000E+00  0.00000000E+00  0.00000000E+00
  0.00000000E+00  0.00000000E+00  0.00000000E+00
  0.00000000E+00  0.00000000E+00  0.00000000E+00
  0.00000000E+00  0.00000000E+00  0.00000000E+00
  0.00000000E+00  0.00000000E+00  0.00000000E+00
  0.00000000E+00  0.00000000E+00  0.00000000E+00
  0.00000000E+00  0.00000000E+00  0.00000000E+00
  0.00000000E+00  0.00000000E+00  0.00000000E+00
  0.00000000E+00  0.00000000E+00  0.00000000E+00
  0.00000000E+00  0.00000000E+00  0.00000000E+00
  0.00000000E+00  0.00000000E+00  0.00000000E+00
  0.00000000E+00  0.00000000E+00  0.00000000E+00
  0.00000000E+00  0.00000000E+00  0.00000000E+00
  0.00000000E+00  0.00000000E+00  0.00000000E+00
  0.00000000E+00  0.00000000E+00  0.00000000E+00
  0.00000000E+00  0.00000000E+00  0.00000000E+00
  0.00000000E+00  0.00000000E+00  0.00000000E+00
  0.00000000E+00  0.00000000E+00  0.00000000E+00
  0.00000000E+00  0.00000000E+00  0.00000000E+00
  0.00000000E+00  0.00000000E+00  0.00000000E+00
