O  C  H  Co Li                          
   1.00000000000000     
    23.9261198104165054    1.4270226320989507   -0.1702423552515908
    13.3807977504398092   19.9075722412530887    0.0070620584243260
    -0.0366049182984033    0.0428470880645103    6.8013684059336974
   O    C    H    Co   Li
    54    67    16    18     4
Direct
  0.0459755547560167  0.2518160096144028  0.2856668539421284
  0.0172856622217841  0.3001549778857237  0.8941256541041435
  0.1029658734773414  0.2477953197461462  0.6791856557409490
  0.6628034401308676  0.1188653485489434  0.3202655666575878
  0.6441258177212311  0.0798014521211528 -0.0462101837753884
  0.5704122341599486  0.1630412306158232  0.7370579624055681
  0.0438622922333228  0.3845705987484975  0.6160496083414647
  0.3735811023376793  0.5462391342995115  0.3687416640425575
  0.4031172953988150  0.5395263653031854  0.9941433582219140
  0.3654023134129807  0.4932314560703734  0.7994675422076692
  0.5620740690894571  0.0416622936440978  0.6759870389310668
  0.3399522556189746 -0.0073882461887235  0.3869905132611252
  0.2531305635294544  0.0352028416113990  0.5947711873494799
  0.3075785253343004  0.0360630663396782 -0.0081954502095774
  0.5806094129602853  0.4004075954432280  0.2611376185589982
  0.6043146392148528  0.3423260033629487  0.5443998653970769
 -0.0016735032978914  0.6540602726704861  0.7516729325105963
  0.0378221442960516  0.5647087488608067  0.9538352703915923
  0.4718209028715419  0.3937341500051148  0.0537120278380074
  0.0820419065524289  0.6286982887026684  0.4280192405731269
  0.1375285663118915  0.6475960627885465  0.6502495380142198
  0.4241916224961809  0.9045489153731627  0.7183560138877293
  0.4482385250639635 -0.0449675416860791  0.9422678687358410
  0.1336554076086437  0.5960764377016431  0.0416449430322352
  0.6874974073262798  0.9954814921960650  0.6176138884109926
  0.7659359581470676  0.9803709635433929  0.4074950951681133
  0.7272894541750125  0.9562169631996750  0.0076335991035947
  0.4337980626982519  0.5990495605241797  0.5423541315335951
  0.3601123425308030  0.6886975872965162  0.3521212220564110
  0.0203753672701524  0.3672388609346040  0.2299026614548653
  0.9762040642358638  0.4556284449872590  0.0194200367768959
  0.4246568967632347  0.6279468150391644  0.9461264372889422
  0.9425572316423086  0.3803258369504470  0.5525937911962864
  0.9010392867035566  0.3457467882343662  0.3282294226788616
  0.6009779372215073  0.0503075254617800  0.2890533571837167
  0.5996137270724449 -0.0162242455588368  0.0624309173141260
  0.8937139100154715  0.3990133534685660  0.9402318409908271
  0.9908815184462552  0.7616976082199641  0.6971293794582382
  0.0208665261752994  0.7103659157402635  0.0882757787365705
  0.9374747981443273  0.7711101717980396  0.3080511008884101
  0.3275914691449235  0.8917604426450808  0.6609050599505873
  0.3454375429825939 -0.0830503094559750  0.0454723314297177
  0.3948860414964407  0.8300619201627120  0.2619118630550332
  0.9713172212922712  0.6408559515624891  0.3583092118969642
  0.7001409408361172  0.3682763088308535  0.6178040130778877
  0.6181729175218303  0.4595950021364853 -0.0560947942415551
  0.6922372233289673  0.4218912653015160  0.2033236266919938
  0.4696180873809188  0.9019306326793600  0.3257117588212609
  0.5785132089188041  0.5216112246661146  0.5363244854074540
  0.5685310431204048  0.6070278886464859  0.6964890482307891
  0.6510811444698349  0.5502275155872566  0.4615102311657084
  0.7514282367194040  0.1807813116395302  0.5803312321793599
  0.6894805909677290  0.2382746333886151  0.8475546282134715
  0.7195435278023983  0.1298958362824138  0.7783089160328159
  0.1086626083972644  0.2004931477658733  0.2044043017467368
  0.1584938488599612  0.1456784644149395  0.3306105423667777
  0.0817032590545202  0.2506203155367533  0.8513503237126702
  0.1282933127975465  0.1978901140187210  0.0044226003970079
  0.6182704015586399  0.1826811628494089  0.2368674883031624
  0.6071932828459976  0.2386340640479235  0.3468824475943184
  0.6002472848816235  0.1452834139413603  0.9067745259506620
  0.5861379845470689  0.1977633718749078  0.0474128184812040
  0.0282135472644006  0.4447551436936531  0.5413296727045608
  0.0331591276341253  0.4864335468729881  0.6724309486511180
  0.3145987706932077  0.5555386070949843  0.3003766130009174
  0.2558302769894044  0.5832779482844810  0.4164604165653013
  0.3633864461232553  0.5202228457118667  0.9621515670709421
  0.3111232312977137  0.5378052800703119  0.1050531628180824
  0.5459018664846530  0.0036436558057078  0.5818716731238003
  0.5158653330179415 -0.0194746506888133  0.6975947768780024
  0.2737874094042940  0.0373924870901586  0.4256856433152357
  0.2260537670979221  0.0900694080672600  0.2738381374520791
  0.2454080830384846  0.0876434247481746  0.0734345996428223
  0.1960998108078605  0.1425531076431782  0.9475067999061151
  0.5825446781127639  0.3534355528807410  0.3677258080091798
  0.5690282204796806  0.3069624697759522  0.2749963840348182
  0.0171341792996037  0.5915792670893103  0.7820828595675000
  0.0132179844420526  0.5525646725146957  0.6225826080070805
  0.5300025375508198  0.3228360105784605  0.0955614720366518
  0.5391147701940351  0.2690017840995652 -0.0176236518988060
  0.1348919733919850  0.6265474514870901  0.4802934125774199
  0.1937745105414425  0.5967077958568956  0.3419753125676440
  0.4532006499101446 -0.0668321860536555  0.7674830488966466
  0.4906844461901010 -0.0544031379644209  0.6229098994075541
  0.1903895260978340  0.5807137940103646  0.1398176726152953
  0.2516657292037143  0.5472531309124390  0.0316189709726832
  0.7517493462998744  0.9673189982834718  0.5745387258315824
  0.8070546443768521  0.9190543271074604  0.7213794120765475
  0.7913985715921249  0.9183543779538330  0.9242307937300903
  0.8465311125349751  0.8711708690342561  0.0502733606313584
  0.3882717065053345  0.6672746784663383  0.5212681418414072
  0.3774880527167636  0.7148311315190059  0.6788321997736914
 -0.0004806253048137  0.4301893809793134  0.1914583935083511
  0.0043320701586035  0.4704864225726779  0.3447276397934555
  0.4002320534951676  0.6928615440208774  0.8781559341885636
  0.3951073817917378  0.7411704751271585  0.0047509294297193
  0.9004727378448378  0.3666004263323455  0.5024049071765490
  0.8486481314556125  0.3767240816983758  0.6446470327450589
  0.5865042270075435  0.0085965831209187  0.2357883434708971
  0.5539040365722505 -0.0116680899083550  0.3754262878129925
  0.8481355497379884  0.3922691985384275  0.8485189555334279
  0.7942394925292643  0.4028404459692038  0.9621717124989343
  0.9294513064323321  0.8144599835775002  0.7810934403874127
  0.8761544457478619  0.8687926334254753  0.6583290975958845
  0.9594292518877949  0.7649038972080665  0.1339346751868895
  0.9135050576552253  0.8183943035775747  0.9847406013209649
  0.3475551193716065  0.8307933444928286  0.7428224918505341
  0.3495804596248972  0.7830079919587031  0.6183726121054187
  0.3706229515480398  0.8527277797198589  0.0891537179886743
  0.3700474807102822  0.8085981293950195  0.9420679282540249
  0.9888980751813603  0.5789442603074987  0.4263282840160029
  0.9843715669035931  0.5368744558796250  0.2937658614649577
  0.7438314025482726  0.3806786440851518  0.6893190967265003
  0.7984433567061808  0.3685857905832048  0.5747813494520442
  0.6799372797441995  0.4285117460924341  0.0173811514640442
  0.7399224154623288  0.4028280016622299  0.8871856046699383
  0.4961598009196955  0.9316619741816875  0.4165506703649227
  0.5297646908450274  0.9516658127968396  0.3011822960027277
  0.6010178397387291  0.5620282582073947  0.5628998653255678
  0.7212250151578585  0.1807987921502041  0.7384056674319667
  0.5110485772175624  0.3953716279274478 -0.0890324878526941
  0.1437026268364320  0.1480419247087476  0.4832727288702421
  0.6364800797153531  0.2255876674445917  0.4838558191660767
  0.0505414620172619  0.4673132399821611  0.8229787967971032
  0.2580129005419303  0.5955946880706767  0.5692159737753113
  0.5096439072039499 -0.0071576661200159  0.8537131765469731
  0.2110826013720096  0.1408774593616551  0.7955172286758894
  0.5022311734047512  0.2812468226382497  0.8626027065524854
  0.2507540021327507  0.5333971596012463  0.8795660146743637
  0.8349520422869633  0.8726417091601586  0.2053679429217505
  0.4107627934581226  0.7275861513662784  0.1587500170265951
  0.7981450981191850  0.4102742910539646  0.1183704876823503
  0.8883645470295358  0.8683587657998508  0.5041289324403436
  0.3324565072005399  0.7981945369850763  0.4651589241092632
  0.9663544413080721  0.5562938131035952  0.1436353968848960
  0.8032272437016956  0.3494423617257578  0.4252415643708561
  0.5340125896474268  0.9397242577819870  0.1447624534400716
  0.4189314026589475  0.4941409859839987  0.6010095754220348
  0.0500972644074567  0.3155294492347934  0.4632892966624186
  0.5938717726172369  0.0911024364592281  0.5470032166555607
  0.0684874557758540  0.6807947243165037  0.8521985202240490
  0.3890638463135310 -0.0321343103700883  0.1517309027237699
  0.3123994932849817 -0.0335564375653845  0.8087317640535118
  0.5612252737397648  0.4258093422660629 -0.0466831291012965
  0.5883866176707476  0.3112265001385108  0.8514555570668084
  0.0525609721571881  0.6104268845884919  0.1720233534414930
  0.6440505915967722 -0.0030652539274960  0.8513250572095744
  0.9668275291411174  0.3245332368330165  0.1253460526180698
  0.4335909276307338  0.5594677050448464  0.7740407060806912
  0.6959804287799208  0.0351705873160825  0.1842299113625712
  0.9663962472080156  0.4041006445224066  0.8077443697307608
  0.4056231829789427  0.5950442189798519  0.2157833144307333
  0.6293139450119605  0.4333723480900088  0.4196107639732478
  0.9781963914270242  0.7030686684306362  0.5176929499045960
  0.4018598803896494  0.8875207560540158  0.4521653333109581
  0.7209100118981341  0.4720414581105496  0.3500725523160610
  0.5457463839433757  0.5521880770433713  0.8090845591955552
  0.7406842081662812  0.1046887546561048  0.5054139985271894
  0.7087185051551153  0.2820597653575622  0.6346666631586442
 
  0.00000000E+00  0.00000000E+00  0.00000000E+00
  0.00000000E+00  0.00000000E+00  0.00000000E+00
  0.00000000E+00  0.00000000E+00  0.00000000E+00
  0.00000000E+00  0.00000000E+00  0.00000000E+00
  0.00000000E+00  0.00000000E+00  0.00000000E+00
  0.00000000E+00  0.00000000E+00  0.00000000E+00
  0.00000000E+00  0.00000000E+00  0.00000000E+00
  0.00000000E+00  0.00000000E+00  0.00000000E+00
  0.00000000E+00  0.00000000E+00  0.00000000E+00
  0.00000000E+00  0.00000000E+00  0.00000000E+00
  0.00000000E+00  0.00000000E+00  0.00000000E+00
  0.00000000E+00  0.00000000E+00  0.00000000E+00
  0.00000000E+00  0.00000000E+00  0.00000000E+00
  0.00000000E+00  0.00000000E+00  0.00000000E+00
  0.00000000E+00  0.00000000E+00  0.00000000E+00
  0.00000000E+00  0.00000000E+00  0.00000000E+00
  0.00000000E+00  0.00000000E+00  0.00000000E+00
  0.00000000E+00  0.00000000E+00  0.00000000E+00
  0.00000000E+00  0.00000000E+00  0.00000000E+00
  0.00000000E+00  0.00000000E+00  0.00000000E+00
  0.00000000E+00  0.00000000E+00  0.00000000E+00
  0.00000000E+00  0.00000000E+00  0.00000000E+00
  0.00000000E+00  0.00000000E+00  0.00000000E+00
  0.00000000E+00  0.00000000E+00  0.00000000E+00
  0.00000000E+00  0.00000000E+00  0.00000000E+00
  0.00000000E+00  0.00000000E+00  0.00000000E+00
  0.00000000E+00  0.00000000E+00  0.00000000E+00
  0.00000000E+00  0.00000000E+00  0.00000000E+00
  0.00000000E+00  0.00000000E+00  0.00000000E+00
  0.00000000E+00  0.00000000E+00  0.00000000E+00
  0.00000000E+00  0.00000000E+00  0.00000000E+00
  0.00000000E+00  0.00000000E+00  0.00000000E+00
  0.00000000E+00  0.00000000E+00  0.00000000E+00
  0.00000000E+00  0.00000000E+00  0.00000000E+00
  0.00000000E+00  0.00000000E+00  0.00000000E+00
  0.00000000E+00  0.00000000E+00  0.00000000E+00
  0.00000000E+00  0.00000000E+00  0.00000000E+00
  0.00000000E+00  0.00000000E+00  0.00000000E+00
  0.00000000E+00  0.00000000E+00  0.00000000E+00
  0.00000000E+00  0.00000000E+00  0.00000000E+00
  0.00000000E+00  0.00000000E+00  0.00000000E+00
  0.00000000E+00  0.00000000E+00  0.00000000E+00
  0.00000000E+00  0.00000000E+00  0.00000000E+00
  0.00000000E+00  0.00000000E+00  0.00000000E+00
  0.00000000E+00  0.00000000E+00  0.00000000E+00
  0.00000000E+00  0.00000000E+00  0.00000000E+00
  0.00000000E+00  0.00000000E+00  0.00000000E+00
  0.00000000E+00  0.00000000E+00  0.00000000E+00
  0.00000000E+00  0.00000000E+00  0.00000000E+00
  0.00000000E+00  0.00000000E+00  0.00000000E+00
  0.00000000E+00  0.00000000E+00  0.00000000E+00
  0.00000000E+00  0.00000000E+00  0.00000000E+00
  0.00000000E+00  0.00000000E+00  0.00000000E+00
  0.00000000E+00  0.00000000E+00  0.00000000E+00
  0.00000000E+00  0.00000000E+00  0.00000000E+00
  0.00000000E+00  0.00000000E+00  0.00000000E+00
  0.00000000E+00  0.00000000E+00  0.00000000E+00
  0.00000000E+00  0.00000000E+00  0.00000000E+00
  0.00000000E+00  0.00000000E+00  0.00000000E+00
  0.00000000E+00  0.00000000E+00  0.00000000E+00
  0.00000000E+00  0.00000000E+00  0.00000000E+00
  0.00000000E+00  0.00000000E+00  0.00000000E+00
  0.00000000E+00  0.00000000E+00  0.00000000E+00
  0.00000000E+00  0.00000000E+00  0.00000000E+00
  0.00000000E+00  0.00000000E+00  0.00000000E+00
  0.00000000E+00  0.00000000E+00  0.00000000E+00
  0.00000000E+00  0.00000000E+00  0.00000000E+00
  0.00000000E+00  0.00000000E+00  0.00000000E+00
  0.00000000E+00  0.00000000E+00  0.00000000E+00
  0.00000000E+00  0.00000000E+00  0.00000000E+00
  0.00000000E+00  0.00000000E+00  0.00000000E+00
  0.00000000E+00  0.00000000E+00  0.00000000E+00
  0.00000000E+00  0.00000000E+00  0.00000000E+00
  0.00000000E+00  0.00000000E+00  0.00000000E+00
  0.00000000E+00  0.00000000E+00  0.00000000E+00
  0.00000000E+00  0.00000000E+00  0.00000000E+00
  0.00000000E+00  0.00000000E+00  0.00000000E+00
  0.00000000E+00  0.00000000E+00  0.00000000E+00
  0.00000000E+00  0.00000000E+00  0.00000000E+00
  0.00000000E+00  0.00000000E+00  0.00000000E+00
  0.00000000E+00  0.00000000E+00  0.00000000E+00
  0.00000000E+00  0.00000000E+00  0.00000000E+00
  0.00000000E+00  0.00000000E+00  0.00000000E+00
  0.00000000E+00  0.00000000E+00  0.00000000E+00
  0.00000000E+00  0.00000000E+00  0.00000000E+00
  0.00000000E+00  0.00000000E+00  0.00000000E+00
  0.00000000E+00  0.00000000E+00  0.00000000E+00
  0.00000000E+00  0.00000000E+00  0.00000000E+00
  0.00000000E+00  0.00000000E+00  0.00000000E+00
  0.00000000E+00  0.00000000E+00  0.00000000E+00
  0.00000000E+00  0.00000000E+00  0.00000000E+00
  0.00000000E+00  0.00000000E+00  0.00000000E+00
  0.00000000E+00  0.00000000E+00  0.00000000E+00
  0.00000000E+00  0.00000000E+00  0.00000000E+00
  0.00000000E+00  0.00000000E+00  0.00000000E+00
  0.00000000E+00  0.00000000E+00  0.00000000E+00
  0.00000000E+00  0.00000000E+00  0.00000000E+00
  0.00000000E+00  0.00000000E+00  0.00000000E+00
  0.00000000E+00  0.00000000E+00  0.00000000E+00
  0.00000000E+00  0.00000000E+00  0.00000000E+00
  0.00000000E+00  0.00000000E+00  0.00000000E+00
  0.00000000E+00  0.00000000E+00  0.00000000E+00
  0.00000000E+00  0.00000000E+00  0.00000000E+00
  0.00000000E+00  0.00000000E+00  0.00000000E+00
  0.00000000E+00  0.00000000E+00  0.00000000E+00
  0.00000000E+00  0.00000000E+00  0.00000000E+00
  0.00000000E+00  0.00000000E+00  0.00000000E+00
  0.00000000E+00  0.00000000E+00  0.00000000E+00
  0.00000000E+00  0.00000000E+00  0.00000000E+00
  0.00000000E+00  0.00000000E+00  0.00000000E+00
  0.00000000E+00  0.00000000E+00  0.00000000E+00
  0.00000000E+00  0.00000000E+00  0.00000000E+00
  0.00000000E+00  0.00000000E+00  0.00000000E+00
  0.00000000E+00  0.00000000E+00  0.00000000E+00
  0.00000000E+00  0.00000000E+00  0.00000000E+00
  0.00000000E+00  0.00000000E+00  0.00000000E+00
  0.00000000E+00  0.00000000E+00  0.00000000E+00
  0.00000000E+00  0.00000000E+00  0.00000000E+00
  0.00000000E+00  0.00000000E+00  0.00000000E+00
  0.00000000E+00  0.00000000E+00  0.00000000E+00
  0.00000000E+00  0.00000000E+00  0.00000000E+00
  0.00000000E+00  0.00000000E+00  0.00000000E+00
  0.00000000E+00  0.00000000E+00  0.00000000E+00
  0.00000000E+00  0.00000000E+00  0.00000000E+00
  0.00000000E+00  0.00000000E+00  0.00000000E+00
  0.00000000E+00  0.00000000E+00  0.00000000E+00
  0.00000000E+00  0.00000000E+00  0.00000000E+00
  0.00000000E+00  0.00000000E+00  0.00000000E+00
  0.00000000E+00  0.00000000E+00  0.00000000E+00
  0.00000000E+00  0.00000000E+00  0.00000000E+00
  0.00000000E+00  0.00000000E+00  0.00000000E+00
  0.00000000E+00  0.00000000E+00  0.00000000E+00
  0.00000000E+00  0.00000000E+00  0.00000000E+00
  0.00000000E+00  0.00000000E+00  0.00000000E+00
  0.00000000E+00  0.00000000E+00  0.00000000E+00
  0.00000000E+00  0.00000000E+00  0.00000000E+00
  0.00000000E+00  0.00000000E+00  0.00000000E+00
  0.00000000E+00  0.00000000E+00  0.00000000E+00
  0.00000000E+00  0.00000000E+00  0.00000000E+00
  0.00000000E+00  0.00000000E+00  0.00000000E+00
  0.00000000E+00  0.00000000E+00  0.00000000E+00
  0.00000000E+00  0.00000000E+00  0.00000000E+00
  0.00000000E+00  0.00000000E+00  0.00000000E+00
  0.00000000E+00  0.00000000E+00  0.00000000E+00
  0.00000000E+00  0.00000000E+00  0.00000000E+00
  0.00000000E+00  0.00000000E+00  0.00000000E+00
  0.00000000E+00  0.00000000E+00  0.00000000E+00
  0.00000000E+00  0.00000000E+00  0.00000000E+00
  0.00000000E+00  0.00000000E+00  0.00000000E+00
  0.00000000E+00  0.00000000E+00  0.00000000E+00
  0.00000000E+00  0.00000000E+00  0.00000000E+00
  0.00000000E+00  0.00000000E+00  0.00000000E+00
  0.00000000E+00  0.00000000E+00  0.00000000E+00
  0.00000000E+00  0.00000000E+00  0.00000000E+00
  0.00000000E+00  0.00000000E+00  0.00000000E+00
  0.00000000E+00  0.00000000E+00  0.00000000E+00
  0.00000000E+00  0.00000000E+00  0.00000000E+00
  0.00000000E+00  0.00000000E+00  0.00000000E+00
  0.00000000E+00  0.00000000E+00  0.00000000E+00
