O  C  H  Co Li                          
   1.00000000000000     
    25.6409803902014772    1.7241583502761941   -0.3099548396094560
    14.2697712631906395   18.8937389951528409   -0.4687229892870874
    -0.0856990004578579   -0.0945341826777569    6.7885457744991360
   O    C    H    Co   Li
    54    67    16    18     4
Direct
  0.0357450210767756  0.2523673827599359  0.2893140823319374
  0.0091227668339984  0.3124183584843798  0.9338432411473766
  0.0888509308153776  0.2554920476968500  0.6990163693883118
  0.6284052715113803  0.1339284686591430  0.3532725344640030
  0.6073197603109011  0.0943315993326182  0.9955585491243223
  0.5518588141406097  0.1766434821286916  0.7534805242102951
  0.9751354299324377  0.4293021152502469  0.6318803902590543
  0.3532388049426941  0.5809215196174418  0.2893866200101331
  0.3694751510170257  0.5866863192371682  0.8921363890987121
  0.3466607155218370  0.5270199998516369  0.7022684649960020
  0.5705894620873454  0.0373023816108663  0.6628707863748953
  0.3317020070230571  0.9748806231405573  0.3458934815833915
  0.2525155750130879  0.0233715033243727  0.5799027804948701
  0.2973837407015299  0.0278116815302172  0.9884053469699612
  0.5757076487026498  0.4107407744655793  0.3071269838443364
  0.6036077369068191  0.3408205887086334  0.5584576329821713
  0.0181344759897097  0.6480603378371897  0.7398674257344874
  0.0389838377135573  0.5666951806342617  0.9505173642688679
  0.4615103408612587  0.4204706835895011  0.0638166958371261
  0.1007573937747892  0.6174075649355748  0.4070882616411030
  0.1473544425152949  0.6465823974390251  0.6185123934892074
  0.4128210437207592  0.9355220451989142  0.6843142709839212
  0.4369365329094476  0.9798784007361849  0.9316374877121300
  0.1463634008860466  0.5834623000596293  0.0163565174018923
  0.6896262679598191  0.0063880998646519  0.6468003913325681
  0.7610487323209897 -0.0049820442781653  0.4369378705395104
  0.7305555432846893  0.9575666091599432  0.0064225363257479
  0.4642843353802446  0.5474601125486546  0.5595051356062657
  0.4210548523869422  0.6346393707685606  0.3358506385295924
  0.9799190658170595  0.3950509055650848  0.2614790541289496
  0.9298002379306970  0.4864975834004096  0.0479338639083977
  0.4656218764634379  0.5903684756563651  0.9500168524710206
  0.9407455450069087  0.3422650114584586  0.6121153333206388
  0.8652308630708802  0.3894863340002068  0.3620299045625018
  0.6193922560702464  0.0222224563400702  0.3129083673287562
  0.6074172957680948  0.9674888047990159  0.0622957303886746
  0.8708186249696368  0.4069956844879419  0.9624585157987776
  0.9940167791386917  0.7682053527219755  0.6959126881732589
  0.0319667797816212  0.7121754938076355  0.0851520581103462
  0.9479885328535376  0.7719597497942410  0.3074010860738545
  0.3796690551420886  0.8517622187913332  0.6377322434401715
  0.3950796027184831  0.8841496463060892  0.0028037278486170
  0.4417152173257788  0.7999668687655017  0.2371318920697696
  0.9936440029318482  0.6331031869925622  0.3537362495188207
  0.7073060801249634  0.3501051716174928  0.6432329985508721
  0.6290073667389608  0.4540102064256673  0.0069400564670131
  0.7108811255089577  0.3655195833277705  0.2127961849890097
  0.4635783506912097  0.9152809455423042  0.3266166437259028
  0.6033158601652280  0.5138526532817200  0.5378104550545115
  0.6345551385074519  0.5701868327676644  0.7018927146720175
  0.6818681657841273  0.5157441235842944  0.4014163804863536
  0.7301038362330816  0.1763344038671919  0.6183322844694766
  0.6689517436888420  0.2489203686665712  0.8847627666791863
  0.6897193065474743  0.1401532920126436  0.8186168893761353
  0.0985128330619958  0.1985938504949613  0.2096031424861031
  0.1500710782244949  0.1403908181740880  0.3310889333557405
  0.0697472245562991  0.2570798328960562  0.8713580681920472
  0.1168219215068027  0.1967306425523644  0.0105657218867247
  0.5885792245360453  0.2007034474755116  0.2658478394867945
  0.5842506417313426  0.2559184164578886  0.3677238943514705
  0.5716918195547519  0.1606602122087908  0.9311068884214493
  0.5561442147404794  0.2179825607768896  0.0779601364305041
  0.9777368447582787  0.4800071204078221  0.5654648320515934
 -0.0069890718048369  0.5146199922136022  0.6942394219782825
  0.3001139051935182  0.5857120486530339  0.2223254980341156
  0.2496952512062449  0.6033409236526475  0.3529854282180255
  0.3391384922634842  0.5592409956321979  0.8666805138671563
  0.2951436652362848  0.5697573959234310  0.0215407396957708
  0.5475673060190865  0.0054126621003365  0.5762347406049081
  0.5116020467031872  0.9938501698893639  0.6929145279306110
  0.2689822082615106  0.0242983685464642  0.4062637128312185
  0.2173523137436944  0.0825252312068544  0.2658519048673018
  0.2345204229138635  0.0810042863798951  0.0660600313770796
  0.1834466059362579  0.1382889834546587  0.9444185221223138
  0.5734290741228585  0.3643550925108209  0.3931594345081387
  0.5493359393614833  0.3274149525624467  0.2984527232996334
  0.0197297223804152  0.5938689110124499  0.7802173227141470
 -0.0017569664201034  0.5662528687834423  0.6312583091119301
  0.5074574256454704  0.3468091972820180  0.1303526368862457
  0.5125439282910103  0.2927300554427710  0.0211676967447766
  0.1460196529817297  0.6234509050887572  0.4471701249940122
  0.1972168933677620  0.6027389908532245  0.2957814185521537
  0.4426664413424934  0.9593177669144997  0.7524483201630900
  0.4834564837436791  0.9636494537756626  0.6160293772651497
  0.1945497851635876  0.5836268299145898  0.0950276613983139
  0.2448099199638712  0.5665759410275953 -0.0351414534440889
  0.7509364846618701  0.9763367227371880  0.5971395203158701
  0.8073958367024399  0.9219317204721560  0.7312963654347087
  0.7937112159715067  0.9177658282016465  0.9302788199861569
  0.8494776374583924  0.8687671674803289  0.0529456275282746
  0.4399665600320405  0.6139726706845259  0.5117820113571891
  0.4349359510383136  0.6652297438298598  0.6576007838094368
  0.9566441056965747  0.4604836655532398  0.2152089656123666
  0.9663398203394963  0.4999687799635965  0.3627784493209165
  0.4488605011622929  0.6509578521727756  0.8630549522650252
  0.4460360436270122  0.7017522448595440 -0.0151162495488199
  0.8826526419097737  0.3687811971960865  0.5415308228346067
  0.8353970245527774  0.3738729137213448  0.6742473285004775
  0.5964201105736875  0.9910659854570217  0.2400051192463337
  0.5569310585656644  0.9832265101343292  0.3726416149249072
  0.8349749346359133  0.3891398841598318  0.8788203856484595
  0.7909556431190740  0.3895857282364337  0.9964968068805996
  0.9313026605903799  0.8182335948255389  0.7817290205989788
  0.8753756635533356  0.8735712333948339  0.6639057528213619
  0.9684632004061664  0.7656422272144154  0.1329306242480644
  0.9172059833232213  0.8189348777197418  0.9852091954590021
  0.4047272468002421  0.7867967893864285  0.7142976509334056
  0.4129422019999185  0.7329506953824243  0.5895426027114921
  0.4204649266974751  0.8197406205435518  0.0617814945333188
  0.4236384547569024  0.7692426065252055  0.9170489428716627
  0.9862576241998647  0.5867237287937789  0.4291335616519068
  0.9686512948483833  0.5537345377950068  0.3005295436013343
  0.7480056148647628  0.3631971535783631  0.7144981220941340
  0.7939738161471118  0.3594060347007787  0.5963045742399000
  0.6926173151850986  0.3995352712733983  0.0529285417234931
  0.7461367068842575  0.3810406099082059  0.9169081198052375
  0.4912192044438547  0.9426903347147880  0.4118911879252875
  0.5293377688375447  0.9520410852372316  0.2958738970976161
  0.6420865795341678  0.5346812339730618  0.5456127982228436
  0.6964585050070432  0.1865225631308683  0.7763011745250762
  0.4970574678463218  0.4311146799037902  0.9494242878962610
  0.1372042186817708  0.1413809109544194  0.4837300389598627
  0.6157882478830001  0.2394284167029404  0.4988500433749763
  0.0025781700762043  0.4998054651735170  0.8487682745634694
  0.2510614667667683  0.6174874715976233  0.5063939165065331
  0.5048140120890539  0.0101051063379926  0.8487221380711050
  0.1965031539868796  0.1376070712646163  0.7924979515082514
  0.4839073980786001  0.3079079958144622  0.8827575248975763
  0.2420113760506396  0.5540006027640374  0.8109771199590500
  0.8390689457608040  0.8675099327651417  0.2064594445590238
  0.4595785399484110  0.6888408065465745  0.1399990793594769
  0.7912414485495491  0.3965708453161010  0.1557900437620364
  0.8854273813294533  0.8762718303948284  0.5112607510005218
  0.4007126222014870  0.7453904170525982  0.4339913440526642
  0.9598077078925863  0.5682814948015869  0.1454356061398993
  0.7975502634579485  0.3443337170513905  0.4399106826539833
  0.5367722779531545  0.9354874767957647  0.1400446182387000
  0.4073266373701877  0.5211702923637106  0.5207632795076758
  0.0190580789695670  0.3270786311545761  0.4928559089147584
  0.5966981592251882  0.0928929672372396  0.5426821489448898
  0.0799129572506776  0.6715833926674918  0.8250603394526014
  0.3900758935192761  0.9653333939662746  0.1255379821119603
  0.3297118100114564  0.9531598429050029  0.7751454244638860
  0.5660148803248772  0.4338580415340221  0.0286872268995546
  0.5841064189877132  0.3489291466430073  0.8368796857452961
  0.0664042735256364  0.6063590682861714  0.1506307914302078
  0.6411595079265190 -0.0010210144575804  0.8666241495038428
  0.9471651753028587  0.3428312648693208  0.1641322299285919
  0.4750689352578903  0.5075475058360167  0.8206770029292820
  0.6831456051920046  0.0347640550076664  0.2110372548319686
  0.9356097590129410  0.4159928906785154  0.8457319594755419
  0.4025809691450284  0.5957239598520501  0.1260358622001239
  0.6455332706334617  0.4177226871843874  0.4346285124551814
  0.9937010479866972  0.7012227530950917  0.5124009030308504
  0.4187504134005373  0.8771983416931307  0.4436486987340685
  0.7655333256054238  0.4810597129059748  0.3419134778379478
  0.5925998368697665  0.5365598454188661  0.8271844653616306
  0.7177590796640965  0.1050897449642072  0.5363439858429454
  0.7119190315379395  0.2677967534557958  0.6668011025224178
 
  0.00000000E+00  0.00000000E+00  0.00000000E+00
  0.00000000E+00  0.00000000E+00  0.00000000E+00
  0.00000000E+00  0.00000000E+00  0.00000000E+00
  0.00000000E+00  0.00000000E+00  0.00000000E+00
  0.00000000E+00  0.00000000E+00  0.00000000E+00
  0.00000000E+00  0.00000000E+00  0.00000000E+00
  0.00000000E+00  0.00000000E+00  0.00000000E+00
  0.00000000E+00  0.00000000E+00  0.00000000E+00
  0.00000000E+00  0.00000000E+00  0.00000000E+00
  0.00000000E+00  0.00000000E+00  0.00000000E+00
  0.00000000E+00  0.00000000E+00  0.00000000E+00
  0.00000000E+00  0.00000000E+00  0.00000000E+00
  0.00000000E+00  0.00000000E+00  0.00000000E+00
  0.00000000E+00  0.00000000E+00  0.00000000E+00
  0.00000000E+00  0.00000000E+00  0.00000000E+00
  0.00000000E+00  0.00000000E+00  0.00000000E+00
  0.00000000E+00  0.00000000E+00  0.00000000E+00
  0.00000000E+00  0.00000000E+00  0.00000000E+00
  0.00000000E+00  0.00000000E+00  0.00000000E+00
  0.00000000E+00  0.00000000E+00  0.00000000E+00
  0.00000000E+00  0.00000000E+00  0.00000000E+00
  0.00000000E+00  0.00000000E+00  0.00000000E+00
  0.00000000E+00  0.00000000E+00  0.00000000E+00
  0.00000000E+00  0.00000000E+00  0.00000000E+00
  0.00000000E+00  0.00000000E+00  0.00000000E+00
  0.00000000E+00  0.00000000E+00  0.00000000E+00
  0.00000000E+00  0.00000000E+00  0.00000000E+00
  0.00000000E+00  0.00000000E+00  0.00000000E+00
  0.00000000E+00  0.00000000E+00  0.00000000E+00
  0.00000000E+00  0.00000000E+00  0.00000000E+00
  0.00000000E+00  0.00000000E+00  0.00000000E+00
  0.00000000E+00  0.00000000E+00  0.00000000E+00
  0.00000000E+00  0.00000000E+00  0.00000000E+00
  0.00000000E+00  0.00000000E+00  0.00000000E+00
  0.00000000E+00  0.00000000E+00  0.00000000E+00
  0.00000000E+00  0.00000000E+00  0.00000000E+00
  0.00000000E+00  0.00000000E+00  0.00000000E+00
  0.00000000E+00  0.00000000E+00  0.00000000E+00
  0.00000000E+00  0.00000000E+00  0.00000000E+00
  0.00000000E+00  0.00000000E+00  0.00000000E+00
  0.00000000E+00  0.00000000E+00  0.00000000E+00
  0.00000000E+00  0.00000000E+00  0.00000000E+00
  0.00000000E+00  0.00000000E+00  0.00000000E+00
  0.00000000E+00  0.00000000E+00  0.00000000E+00
  0.00000000E+00  0.00000000E+00  0.00000000E+00
  0.00000000E+00  0.00000000E+00  0.00000000E+00
  0.00000000E+00  0.00000000E+00  0.00000000E+00
  0.00000000E+00  0.00000000E+00  0.00000000E+00
  0.00000000E+00  0.00000000E+00  0.00000000E+00
  0.00000000E+00  0.00000000E+00  0.00000000E+00
  0.00000000E+00  0.00000000E+00  0.00000000E+00
  0.00000000E+00  0.00000000E+00  0.00000000E+00
  0.00000000E+00  0.00000000E+00  0.00000000E+00
  0.00000000E+00  0.00000000E+00  0.00000000E+00
  0.00000000E+00  0.00000000E+00  0.00000000E+00
  0.00000000E+00  0.00000000E+00  0.00000000E+00
  0.00000000E+00  0.00000000E+00  0.00000000E+00
  0.00000000E+00  0.00000000E+00  0.00000000E+00
  0.00000000E+00  0.00000000E+00  0.00000000E+00
  0.00000000E+00  0.00000000E+00  0.00000000E+00
  0.00000000E+00  0.00000000E+00  0.00000000E+00
  0.00000000E+00  0.00000000E+00  0.00000000E+00
  0.00000000E+00  0.00000000E+00  0.00000000E+00
  0.00000000E+00  0.00000000E+00  0.00000000E+00
  0.00000000E+00  0.00000000E+00  0.00000000E+00
  0.00000000E+00  0.00000000E+00  0.00000000E+00
  0.00000000E+00  0.00000000E+00  0.00000000E+00
  0.00000000E+00  0.00000000E+00  0.00000000E+00
  0.00000000E+00  0.00000000E+00  0.00000000E+00
  0.00000000E+00  0.00000000E+00  0.00000000E+00
  0.00000000E+00  0.00000000E+00  0.00000000E+00
  0.00000000E+00  0.00000000E+00  0.00000000E+00
  0.00000000E+00  0.00000000E+00  0.00000000E+00
  0.00000000E+00  0.00000000E+00  0.00000000E+00
  0.00000000E+00  0.00000000E+00  0.00000000E+00
  0.00000000E+00  0.00000000E+00  0.00000000E+00
  0.00000000E+00  0.00000000E+00  0.00000000E+00
  0.00000000E+00  0.00000000E+00  0.00000000E+00
  0.00000000E+00  0.00000000E+00  0.00000000E+00
  0.00000000E+00  0.00000000E+00  0.00000000E+00
  0.00000000E+00  0.00000000E+00  0.00000000E+00
  0.00000000E+00  0.00000000E+00  0.00000000E+00
  0.00000000E+00  0.00000000E+00  0.00000000E+00
  0.00000000E+00  0.00000000E+00  0.00000000E+00
  0.00000000E+00  0.00000000E+00  0.00000000E+00
  0.00000000E+00  0.00000000E+00  0.00000000E+00
  0.00000000E+00  0.00000000E+00  0.00000000E+00
  0.00000000E+00  0.00000000E+00  0.00000000E+00
  0.00000000E+00  0.00000000E+00  0.00000000E+00
  0.00000000E+00  0.00000000E+00  0.00000000E+00
  0.00000000E+00  0.00000000E+00  0.00000000E+00
  0.00000000E+00  0.00000000E+00  0.00000000E+00
  0.00000000E+00  0.00000000E+00  0.00000000E+00
  0.00000000E+00  0.00000000E+00  0.00000000E+00
  0.00000000E+00  0.00000000E+00  0.00000000E+00
  0.00000000E+00  0.00000000E+00  0.00000000E+00
  0.00000000E+00  0.00000000E+00  0.00000000E+00
  0.00000000E+00  0.00000000E+00  0.00000000E+00
  0.00000000E+00  0.00000000E+00  0.00000000E+00
  0.00000000E+00  0.00000000E+00  0.00000000E+00
  0.00000000E+00  0.00000000E+00  0.00000000E+00
  0.00000000E+00  0.00000000E+00  0.00000000E+00
  0.00000000E+00  0.00000000E+00  0.00000000E+00
  0.00000000E+00  0.00000000E+00  0.00000000E+00
  0.00000000E+00  0.00000000E+00  0.00000000E+00
  0.00000000E+00  0.00000000E+00  0.00000000E+00
  0.00000000E+00  0.00000000E+00  0.00000000E+00
  0.00000000E+00  0.00000000E+00  0.00000000E+00
  0.00000000E+00  0.00000000E+00  0.00000000E+00
  0.00000000E+00  0.00000000E+00  0.00000000E+00
  0.00000000E+00  0.00000000E+00  0.00000000E+00
  0.00000000E+00  0.00000000E+00  0.00000000E+00
  0.00000000E+00  0.00000000E+00  0.00000000E+00
  0.00000000E+00  0.00000000E+00  0.00000000E+00
  0.00000000E+00  0.00000000E+00  0.00000000E+00
  0.00000000E+00  0.00000000E+00  0.00000000E+00
  0.00000000E+00  0.00000000E+00  0.00000000E+00
  0.00000000E+00  0.00000000E+00  0.00000000E+00
  0.00000000E+00  0.00000000E+00  0.00000000E+00
  0.00000000E+00  0.00000000E+00  0.00000000E+00
  0.00000000E+00  0.00000000E+00  0.00000000E+00
  0.00000000E+00  0.00000000E+00  0.00000000E+00
  0.00000000E+00  0.00000000E+00  0.00000000E+00
  0.00000000E+00  0.00000000E+00  0.00000000E+00
  0.00000000E+00  0.00000000E+00  0.00000000E+00
  0.00000000E+00  0.00000000E+00  0.00000000E+00
  0.00000000E+00  0.00000000E+00  0.00000000E+00
  0.00000000E+00  0.00000000E+00  0.00000000E+00
  0.00000000E+00  0.00000000E+00  0.00000000E+00
  0.00000000E+00  0.00000000E+00  0.00000000E+00
  0.00000000E+00  0.00000000E+00  0.00000000E+00
  0.00000000E+00  0.00000000E+00  0.00000000E+00
  0.00000000E+00  0.00000000E+00  0.00000000E+00
  0.00000000E+00  0.00000000E+00  0.00000000E+00
  0.00000000E+00  0.00000000E+00  0.00000000E+00
  0.00000000E+00  0.00000000E+00  0.00000000E+00
  0.00000000E+00  0.00000000E+00  0.00000000E+00
  0.00000000E+00  0.00000000E+00  0.00000000E+00
  0.00000000E+00  0.00000000E+00  0.00000000E+00
  0.00000000E+00  0.00000000E+00  0.00000000E+00
  0.00000000E+00  0.00000000E+00  0.00000000E+00
  0.00000000E+00  0.00000000E+00  0.00000000E+00
  0.00000000E+00  0.00000000E+00  0.00000000E+00
  0.00000000E+00  0.00000000E+00  0.00000000E+00
  0.00000000E+00  0.00000000E+00  0.00000000E+00
  0.00000000E+00  0.00000000E+00  0.00000000E+00
  0.00000000E+00  0.00000000E+00  0.00000000E+00
  0.00000000E+00  0.00000000E+00  0.00000000E+00
  0.00000000E+00  0.00000000E+00  0.00000000E+00
  0.00000000E+00  0.00000000E+00  0.00000000E+00
  0.00000000E+00  0.00000000E+00  0.00000000E+00
  0.00000000E+00  0.00000000E+00  0.00000000E+00
  0.00000000E+00  0.00000000E+00  0.00000000E+00
  0.00000000E+00  0.00000000E+00  0.00000000E+00
  0.00000000E+00  0.00000000E+00  0.00000000E+00
  0.00000000E+00  0.00000000E+00  0.00000000E+00
  0.00000000E+00  0.00000000E+00  0.00000000E+00
  0.00000000E+00  0.00000000E+00  0.00000000E+00
  0.00000000E+00  0.00000000E+00  0.00000000E+00
