O  C  H  Co Li                          
   1.00000000000000     
    25.6206181725076156    1.6097892742951427   -0.3311369412373633
    14.1718780623211895   18.9385884397998474   -0.4401706447960022
    -0.0917902150430898   -0.0793710535100944    6.7922337307050462
   O    C    H    Co   Li
    54    67    16    18     4
Direct
  0.0384254213999509  0.2501443865563845  0.2862353451931982
  0.0124513073235525  0.3097674826897936  0.9314282365096379
  0.0915850034977444  0.2535132536988512  0.6971779935055299
  0.6308578046296227  0.1340410419056220  0.3515132644810575
  0.6083256927274561  0.0937250019042785  0.9951680250501366
  0.5547147347602067  0.1748934518420062  0.7502963683588559
  0.9803608682967085  0.4244408940516635  0.6311507907471534
  0.3506804212152868  0.5819632513833025  0.2973819487874119
  0.3680209293807449  0.5861009100941886  0.9009912257664197
  0.3434644206623353  0.5279036816246704  0.7109209122288068
  0.5718778078591285  0.0365967562021624  0.6643554690541204
  0.3319798525541117  0.9757682391350422  0.3494355414321126
  0.2530597255216557  0.0228495722476805  0.5810996107127488
  0.2982358609591835  0.0277042710247908  0.9905722982637091
  0.5765638534918545  0.4102606383915439  0.2967934682533245
  0.5921523254450196  0.3521063255339222  0.5640497992498047
  0.0161248880086956  0.6492804488424018  0.7438099594225105
  0.0372235917823951  0.5677290177464633  0.9540641316312013
  0.4626839754926401  0.4181004058225117  0.0524459566407721
  0.0976053033100013  0.6195017074319558  0.4123378800447707
  0.1449169908179803  0.6477874290940727  0.6253553014826500
  0.4135637094253760  0.9343478767416311  0.6885814335921309
  0.4366016746965535  0.9805385937668180  0.9333775936777644
  0.1428625045120386  0.5859793478235167  0.0228325003566562
  0.6899150780779265  0.0077665173085518  0.6515798950039852
  0.7614576359759996 -0.0042958933340214  0.4404406312846015
  0.7306643227660653  0.9576796973877021  0.0096242896958446
  0.4598244679872029  0.5511091691898047  0.5649209453260365
  0.4169671915012731  0.6381164135693864  0.3420589875892009
  0.9812964424543439  0.3930607603417940  0.2604385318698834
  0.9332620896241837  0.4835775190910401  0.0454573112627712
  0.4627664831433780  0.5927551057316897  0.9580061078499940
  0.9435169187726216  0.3391267441653859  0.6079840279545377
  0.8689773234685415  0.3850581567250790  0.3552627572785739
  0.6214443431005515  0.0202527140879568  0.3147776333137539
  0.6071881043140804  0.9673442908081386  0.0647314613518722
  0.8740970589253028  0.4036434845097963  0.9564767586317945
  0.9922231020793548  0.7694831138082558  0.6992174652035050
  0.0300390428804879  0.7137086439473118  0.0903731330077027
  0.9465076698278806  0.7731039589348431  0.3110236427139001
  0.3766612025359314  0.8537507417908587  0.6419970978823295
  0.3935711328813464  0.8853936685326839  0.0068188834463164
  0.4379261429818297  0.8021006516219841  0.2427895696388956
  0.9917046010650188  0.6342758512258029  0.3565996817598498
  0.7076818072762344  0.3502079059206236  0.6325809978913335
  0.6297343482480349  0.4537455470295818  0.9918167370579408
  0.7104580339494414  0.3667447474864237  0.2018815549945012
  0.4633752729265367  0.9151317968529898  0.3299541659012153
  0.6062701899604441  0.5130791419057068  0.5249313772014295
  0.6416528015427981  0.5660881553336857  0.6856897539694686
  0.6862052644551389  0.5120432001557569  0.3846429212006949
  0.7304200632086916  0.1778928804123510  0.6096538477853188
  0.6717129909569142  0.2491373240111042  0.8768899657899918
  0.6903537947000081  0.1416793691437737  0.8125908301530206
  0.1008036436671698  0.1967578101322406  0.2079013981076754
  0.1515521529555225  0.1386880484780170  0.3301090048398314
  0.0726476543459487  0.2551560415954038  0.8695199941112135
  0.1193570972186731  0.1952907971786744  0.0097009576215861
  0.5906063876514268  0.2004397692222804  0.2627293832801494
  0.5844800999497415  0.2568158481980370  0.3646102727861967
  0.5740157047107266  0.1592681190479620  0.9283793711469038
  0.5589677093672325  0.2164846270391338  0.0734853284303806
  0.9814447726965486  0.4763339733581522  0.5646496703586800
 -0.0037347636737761  0.5112912620662587  0.6939463421430399
  0.2973582740959598  0.5868834252231240  0.2296486175811887
  0.2469616284806747  0.6048184582880357  0.3602142875068424
  0.3367349370133274  0.5594768795368377  0.8750383060818880
  0.2924874194308899  0.5707365342028257  0.0290095360480628
  0.5481212123692939  0.0052374600147768  0.5786593070151673
  0.5113664338381225  0.9944789406710599  0.6949018998825136
  0.2695345274013928  0.0240684731545379  0.4079231930721616
  0.2184625970178869  0.0815144263515436  0.2663194207457419
  0.2358963572356034  0.0803771595108765  0.0674181363430341
  0.1855888156622705  0.1375088979187251  0.9449074145020440
  0.5695579579009791  0.3683294332315523  0.3898643638857426
  0.5494857931545639  0.3277760586475725  0.2919398708700860
  0.0188589832058286  0.5941366838537220  0.7829455148194395
 -0.0006087474024263  0.5647628326887830  0.6321870865037933
  0.5098408141415948  0.3450780958926233  0.1200052623048688
  0.5157757902694883  0.2902267770252409  0.0130196091071647
  0.1432132693545864  0.6250227199152784  0.4538994529587789
  0.1943714033043739  0.6042593849995047  0.3031541064292083
  0.4427092094887096  0.9592837812353856  0.7550143823587674
  0.4832949235817728  0.9638999878500947  0.6185344852074779
  0.1914005066040107  0.5855237020016772  0.1022476672422098
  0.2417443840638068  0.5680614830308356 -0.0273197313034915
  0.7509266173112435  0.9772957095401150  0.6007937823679367
  0.8069608567886336  0.9224694423119246  0.7347602137792952
  0.7933765103927143  0.9177990564661994  0.9333486615578160
  0.8489007529953788  0.8681817353927622  0.0552588266588098
  0.4356891004506872  0.6173838708434649  0.5180881368463981
  0.4309792528162097  0.6680111141972783  0.6647122719491878
  0.9590377929883117  0.4579498882657772  0.2139642393440788
  0.9685342946436768  0.4974625542864125  0.3628639415051805
  0.4455698634323034  0.6533525301335611  0.8701520250080413
  0.4421154157307249  0.7045264573510591 -0.0088465308005661
  0.8858091298193204  0.3654019776142226  0.5356388639915238
  0.8376161136996875  0.3719024388489266  0.6672894170039587
  0.5971978277706697  0.9901640079487095  0.2425192002453924
  0.5575232279884083  0.9827046989161726  0.3757481029675194
  0.8370391415347738  0.3873019869293651  0.8717513145434289
  0.7918892473091105  0.3891494052046300  0.9877842245490334
  0.9299948597033767  0.8191174041240801  0.7848410440801843
  0.8744088405059118  0.8744180873640904  0.6672577947122376
  0.9669500057281503  0.7666585642658991  0.1367404520644202
  0.9161826344173751  0.8192724275305748  0.9881381845980548
  0.4010485359422046  0.7893382824737496  0.7199304806881739
  0.4085806253743411  0.7358265638712120  0.5964154973335701
  0.4173339293205128  0.8218332534134941  0.0669976491313464
  0.4198651021701450  0.7718125334483822  0.9225230973292115
  0.9861952452413123  0.5861953450272070  0.4310392674434268
  0.9690489639046436  0.5527800528574169  0.3019743980372928
  0.7486026743588607  0.3631718040183691  0.7047881638869428
  0.7955668290608008  0.3581740084862307  0.5882483853463069
  0.6927466228379633  0.4001744433800403  0.0412064897916115
  0.7464614468210351  0.3815212884081475  0.9066787958915564
  0.4912306534487300  0.9425150308119843  0.4151315313968628
  0.5296084756229946  0.9516274967783551  0.2995001999331756
  0.6469715060827598  0.5316812303502446  0.5299887105623813
  0.6975502816775910  0.1874606995940775  0.7684867703199630
  0.4964377279780439  0.4307710366886416  0.9364036002639694
  0.1384228994351958  0.1392335230655446  0.4818149105001373
  0.6142343252251181  0.2420112142281235  0.4990057868591959
  0.0063370193882621  0.4958847287167589  0.8480485926214952
  0.2485438636801312  0.6194947958732547  0.5125474283201782
  0.5039773002274331  0.0111963563229467  0.8502028673574752
  0.1990454113659951  0.1370201582451420  0.7938248730156446
  0.4880237281009982  0.3042199841879570  0.8736663593151720
  0.2383292733751704  0.5559959515464481  0.8190812534240854
  0.8387644456973011  0.8657858522462044  0.2080310448052694
  0.4548348511329501  0.6922949978638058  0.1468062345291848
  0.7916023205863214  0.3962380562862939  0.1470452889667162
  0.8839603418984886  0.8779043723250864  0.5146147600044021
  0.3961438965756444  0.7483634676230012  0.4407257081612854
  0.9591714278047855  0.5679539615545772  0.1474367111127957
  0.7997584362909655  0.3421710642085425  0.4325638491192389
  0.5370211796350747  0.9349305127786010  0.1442288701082243
  0.4034672847795299  0.5237400948450904  0.5300807403236201
  0.0219249172129713  0.3241171494025414  0.4898821736715287
  0.5986623285693248  0.0918674678311484  0.5398588118390305
  0.0770936443978426  0.6737042309479647  0.8302777181772569
  0.3903368056101982  0.9655112974147551  0.1281404283060879
  0.3293987751285291  0.9536998675360165  0.7781924601226968
  0.5645665769870566  0.4366959849327455  0.0197559213929447
  0.5863385766823257  0.3473892231649323  0.8427900139432988
  0.0636985802199726  0.6080674417864301  0.1558764513063852
  0.6417876535332172 -0.0015161302689950  0.8701888711321148
  0.9501763773424495  0.3393181093098479  0.1588865640579254
  0.4704460454283194  0.5116832344001491  0.8264170195121666
  0.6837000894128589  0.0349177598440663  0.2130811938188001
  0.9394362171080332  0.4125934628725483  0.8430863577760358
  0.3999879588337284  0.5973578209743458  0.1336144301295756
  0.6459536332864293  0.4176372791190244  0.4230625567080456
  0.9916912910221886  0.7025664620946112  0.5160524593479310
  0.4171071831382835  0.8781563334057965  0.4477815833132546
  0.7705161942404188  0.4769338344576849  0.3334616262789910
  0.5974990149610266  0.5350219206591268  0.8113570748366676
  0.7176164413361715  0.1060649466359345  0.5307651487210767
  0.7160331429273167  0.2663790436005468  0.6661562877824266
 
  0.00000000E+00  0.00000000E+00  0.00000000E+00
  0.00000000E+00  0.00000000E+00  0.00000000E+00
  0.00000000E+00  0.00000000E+00  0.00000000E+00
  0.00000000E+00  0.00000000E+00  0.00000000E+00
  0.00000000E+00  0.00000000E+00  0.00000000E+00
  0.00000000E+00  0.00000000E+00  0.00000000E+00
  0.00000000E+00  0.00000000E+00  0.00000000E+00
  0.00000000E+00  0.00000000E+00  0.00000000E+00
  0.00000000E+00  0.00000000E+00  0.00000000E+00
  0.00000000E+00  0.00000000E+00  0.00000000E+00
  0.00000000E+00  0.00000000E+00  0.00000000E+00
  0.00000000E+00  0.00000000E+00  0.00000000E+00
  0.00000000E+00  0.00000000E+00  0.00000000E+00
  0.00000000E+00  0.00000000E+00  0.00000000E+00
  0.00000000E+00  0.00000000E+00  0.00000000E+00
  0.00000000E+00  0.00000000E+00  0.00000000E+00
  0.00000000E+00  0.00000000E+00  0.00000000E+00
  0.00000000E+00  0.00000000E+00  0.00000000E+00
  0.00000000E+00  0.00000000E+00  0.00000000E+00
  0.00000000E+00  0.00000000E+00  0.00000000E+00
  0.00000000E+00  0.00000000E+00  0.00000000E+00
  0.00000000E+00  0.00000000E+00  0.00000000E+00
  0.00000000E+00  0.00000000E+00  0.00000000E+00
  0.00000000E+00  0.00000000E+00  0.00000000E+00
  0.00000000E+00  0.00000000E+00  0.00000000E+00
  0.00000000E+00  0.00000000E+00  0.00000000E+00
  0.00000000E+00  0.00000000E+00  0.00000000E+00
  0.00000000E+00  0.00000000E+00  0.00000000E+00
  0.00000000E+00  0.00000000E+00  0.00000000E+00
  0.00000000E+00  0.00000000E+00  0.00000000E+00
  0.00000000E+00  0.00000000E+00  0.00000000E+00
  0.00000000E+00  0.00000000E+00  0.00000000E+00
  0.00000000E+00  0.00000000E+00  0.00000000E+00
  0.00000000E+00  0.00000000E+00  0.00000000E+00
  0.00000000E+00  0.00000000E+00  0.00000000E+00
  0.00000000E+00  0.00000000E+00  0.00000000E+00
  0.00000000E+00  0.00000000E+00  0.00000000E+00
  0.00000000E+00  0.00000000E+00  0.00000000E+00
  0.00000000E+00  0.00000000E+00  0.00000000E+00
  0.00000000E+00  0.00000000E+00  0.00000000E+00
  0.00000000E+00  0.00000000E+00  0.00000000E+00
  0.00000000E+00  0.00000000E+00  0.00000000E+00
  0.00000000E+00  0.00000000E+00  0.00000000E+00
  0.00000000E+00  0.00000000E+00  0.00000000E+00
  0.00000000E+00  0.00000000E+00  0.00000000E+00
  0.00000000E+00  0.00000000E+00  0.00000000E+00
  0.00000000E+00  0.00000000E+00  0.00000000E+00
  0.00000000E+00  0.00000000E+00  0.00000000E+00
  0.00000000E+00  0.00000000E+00  0.00000000E+00
  0.00000000E+00  0.00000000E+00  0.00000000E+00
  0.00000000E+00  0.00000000E+00  0.00000000E+00
  0.00000000E+00  0.00000000E+00  0.00000000E+00
  0.00000000E+00  0.00000000E+00  0.00000000E+00
  0.00000000E+00  0.00000000E+00  0.00000000E+00
  0.00000000E+00  0.00000000E+00  0.00000000E+00
  0.00000000E+00  0.00000000E+00  0.00000000E+00
  0.00000000E+00  0.00000000E+00  0.00000000E+00
  0.00000000E+00  0.00000000E+00  0.00000000E+00
  0.00000000E+00  0.00000000E+00  0.00000000E+00
  0.00000000E+00  0.00000000E+00  0.00000000E+00
  0.00000000E+00  0.00000000E+00  0.00000000E+00
  0.00000000E+00  0.00000000E+00  0.00000000E+00
  0.00000000E+00  0.00000000E+00  0.00000000E+00
  0.00000000E+00  0.00000000E+00  0.00000000E+00
  0.00000000E+00  0.00000000E+00  0.00000000E+00
  0.00000000E+00  0.00000000E+00  0.00000000E+00
  0.00000000E+00  0.00000000E+00  0.00000000E+00
  0.00000000E+00  0.00000000E+00  0.00000000E+00
  0.00000000E+00  0.00000000E+00  0.00000000E+00
  0.00000000E+00  0.00000000E+00  0.00000000E+00
  0.00000000E+00  0.00000000E+00  0.00000000E+00
  0.00000000E+00  0.00000000E+00  0.00000000E+00
  0.00000000E+00  0.00000000E+00  0.00000000E+00
  0.00000000E+00  0.00000000E+00  0.00000000E+00
  0.00000000E+00  0.00000000E+00  0.00000000E+00
  0.00000000E+00  0.00000000E+00  0.00000000E+00
  0.00000000E+00  0.00000000E+00  0.00000000E+00
  0.00000000E+00  0.00000000E+00  0.00000000E+00
  0.00000000E+00  0.00000000E+00  0.00000000E+00
  0.00000000E+00  0.00000000E+00  0.00000000E+00
  0.00000000E+00  0.00000000E+00  0.00000000E+00
  0.00000000E+00  0.00000000E+00  0.00000000E+00
  0.00000000E+00  0.00000000E+00  0.00000000E+00
  0.00000000E+00  0.00000000E+00  0.00000000E+00
  0.00000000E+00  0.00000000E+00  0.00000000E+00
  0.00000000E+00  0.00000000E+00  0.00000000E+00
  0.00000000E+00  0.00000000E+00  0.00000000E+00
  0.00000000E+00  0.00000000E+00  0.00000000E+00
  0.00000000E+00  0.00000000E+00  0.00000000E+00
  0.00000000E+00  0.00000000E+00  0.00000000E+00
  0.00000000E+00  0.00000000E+00  0.00000000E+00
  0.00000000E+00  0.00000000E+00  0.00000000E+00
  0.00000000E+00  0.00000000E+00  0.00000000E+00
  0.00000000E+00  0.00000000E+00  0.00000000E+00
  0.00000000E+00  0.00000000E+00  0.00000000E+00
  0.00000000E+00  0.00000000E+00  0.00000000E+00
  0.00000000E+00  0.00000000E+00  0.00000000E+00
  0.00000000E+00  0.00000000E+00  0.00000000E+00
  0.00000000E+00  0.00000000E+00  0.00000000E+00
  0.00000000E+00  0.00000000E+00  0.00000000E+00
  0.00000000E+00  0.00000000E+00  0.00000000E+00
  0.00000000E+00  0.00000000E+00  0.00000000E+00
  0.00000000E+00  0.00000000E+00  0.00000000E+00
  0.00000000E+00  0.00000000E+00  0.00000000E+00
  0.00000000E+00  0.00000000E+00  0.00000000E+00
  0.00000000E+00  0.00000000E+00  0.00000000E+00
  0.00000000E+00  0.00000000E+00  0.00000000E+00
  0.00000000E+00  0.00000000E+00  0.00000000E+00
  0.00000000E+00  0.00000000E+00  0.00000000E+00
  0.00000000E+00  0.00000000E+00  0.00000000E+00
  0.00000000E+00  0.00000000E+00  0.00000000E+00
  0.00000000E+00  0.00000000E+00  0.00000000E+00
  0.00000000E+00  0.00000000E+00  0.00000000E+00
  0.00000000E+00  0.00000000E+00  0.00000000E+00
  0.00000000E+00  0.00000000E+00  0.00000000E+00
  0.00000000E+00  0.00000000E+00  0.00000000E+00
  0.00000000E+00  0.00000000E+00  0.00000000E+00
  0.00000000E+00  0.00000000E+00  0.00000000E+00
  0.00000000E+00  0.00000000E+00  0.00000000E+00
  0.00000000E+00  0.00000000E+00  0.00000000E+00
  0.00000000E+00  0.00000000E+00  0.00000000E+00
  0.00000000E+00  0.00000000E+00  0.00000000E+00
  0.00000000E+00  0.00000000E+00  0.00000000E+00
  0.00000000E+00  0.00000000E+00  0.00000000E+00
  0.00000000E+00  0.00000000E+00  0.00000000E+00
  0.00000000E+00  0.00000000E+00  0.00000000E+00
  0.00000000E+00  0.00000000E+00  0.00000000E+00
  0.00000000E+00  0.00000000E+00  0.00000000E+00
  0.00000000E+00  0.00000000E+00  0.00000000E+00
  0.00000000E+00  0.00000000E+00  0.00000000E+00
  0.00000000E+00  0.00000000E+00  0.00000000E+00
  0.00000000E+00  0.00000000E+00  0.00000000E+00
  0.00000000E+00  0.00000000E+00  0.00000000E+00
  0.00000000E+00  0.00000000E+00  0.00000000E+00
  0.00000000E+00  0.00000000E+00  0.00000000E+00
  0.00000000E+00  0.00000000E+00  0.00000000E+00
  0.00000000E+00  0.00000000E+00  0.00000000E+00
  0.00000000E+00  0.00000000E+00  0.00000000E+00
  0.00000000E+00  0.00000000E+00  0.00000000E+00
  0.00000000E+00  0.00000000E+00  0.00000000E+00
  0.00000000E+00  0.00000000E+00  0.00000000E+00
  0.00000000E+00  0.00000000E+00  0.00000000E+00
  0.00000000E+00  0.00000000E+00  0.00000000E+00
  0.00000000E+00  0.00000000E+00  0.00000000E+00
  0.00000000E+00  0.00000000E+00  0.00000000E+00
  0.00000000E+00  0.00000000E+00  0.00000000E+00
  0.00000000E+00  0.00000000E+00  0.00000000E+00
  0.00000000E+00  0.00000000E+00  0.00000000E+00
  0.00000000E+00  0.00000000E+00  0.00000000E+00
  0.00000000E+00  0.00000000E+00  0.00000000E+00
  0.00000000E+00  0.00000000E+00  0.00000000E+00
  0.00000000E+00  0.00000000E+00  0.00000000E+00
  0.00000000E+00  0.00000000E+00  0.00000000E+00
  0.00000000E+00  0.00000000E+00  0.00000000E+00
  0.00000000E+00  0.00000000E+00  0.00000000E+00
  0.00000000E+00  0.00000000E+00  0.00000000E+00
  0.00000000E+00  0.00000000E+00  0.00000000E+00
  0.00000000E+00  0.00000000E+00  0.00000000E+00
  0.00000000E+00  0.00000000E+00  0.00000000E+00
