O  C  H  Co Li                          
   1.00000000000000     
    26.0303275286880229    0.5192163768452552   -0.3495270794095161
    13.4575719917414656   20.8599597696928996   -0.3968270795571878
    -0.0942381111797053   -0.0641802188324132    6.7755812869207688
   O    C    H    Co   Li
    54    67    16    18     4
Direct
  0.0568791969229006  0.2560773274200177  0.2889331956589751
  0.0344173307298045  0.3114628291752422  0.9486134053217027
  0.1018097478720870  0.2657173191365873  0.7007578492370528
  0.6633926449387328  0.0993331168053781  0.3411388232601009
  0.6359911302728481  0.0669532465497933  0.9834450015381629
  0.5955847113441222  0.1394270631661649  0.7404705361203049
 -0.0002745105051977  0.4080130059883245  0.6387588608631208
  0.3028707227125682  0.6384482597115548  0.3312589287071706
  0.3529530641245342  0.5978121289906698  0.9742038729137690
  0.3137760932255376  0.5573612081133873  0.7685594841684394
  0.5864373286221963  0.0249551870699741  0.6579002843433944
  0.3146536094497189  0.0209937924726024  0.3552134831412173
  0.2415949683574063  0.0654132394817402  0.5851607548155374
  0.2880795128230530  0.0708903659637772  0.9946649488178538
  0.6270381399214707  0.3473480636615243  0.3121877123754204
  0.6331807930426140  0.3028235824919683  0.5962568916567356
  0.0135262442808648  0.6396770364387632  0.7165236824292506
  0.0400921092549099  0.5638701536659595  0.9395490215929106
  0.5182193075582344  0.3546129929130464  0.0902910987718116
  0.0613859138305493  0.6616662141739231  0.3853767714955313
  0.1074150925003628  0.6851046434279694  0.6222239145445955
  0.3877720813472145  0.9768196836514996  0.6917397041614012
  0.4233217221328311  0.0118763017083552  0.9293603308692377
  0.1101104543427057  0.6272562664625991  0.0197496987234811
  0.7021754522196562  0.9887219312847511  0.6406047428746502
  0.7731375141071952  0.9746702738536740  0.4302768746994000
  0.7341252699017491  0.9435716051608048 -0.0010574845311137
  0.3925791185666440  0.6542224179864164  0.5158434809827109
  0.3308289396342866  0.7405572303979778  0.3360765291055342
  0.9703886422204326  0.3906036073042152  0.2910958457956920
  0.9524450660147770  0.4569422537404184  0.0431181472816086
  0.3676464767218282  0.6932095428819193  0.9235711956502113
  0.9746296282874362  0.3070208487150932  0.6194571472548236
  0.9147280166926964  0.3200175442992774  0.3524488841560878
  0.6342453616237588  0.0056221637647287  0.3079247298633278
  0.6061854550741002  0.9661791163606278  0.0572364232251427
  0.9048221346414761  0.3665740707796626  0.9474059363567625
  0.9663588817835497  0.7660183661047810  0.6900861614434770
  0.9920793301595772  0.7129872450074997  0.0540129152493550
  0.9184740071790791  0.7601852519794625  0.2807397026238367
  0.3292077654219693  0.9209774417787568  0.6498735254265831
  0.3502435637108414  0.9445345968893345  0.0180208427774364
  0.3857746362441857  0.8679730217631799  0.2451371181957937
  0.9909758478278894  0.6185201351523948  0.3450606725843895
  0.7532179318382006  0.2925983370957257  0.6255765177075454
  0.6743506315794084  0.3943069748234348  0.9762799293455002
  0.7483222698302888  0.3217084638525671  0.1853107005128799
  0.4361719252328115  0.9532043671583680  0.3274165175350952
  0.6624071080894048  0.4405450261590906  0.5287469248252636
  0.6951348201616562  0.4970053755039921  0.6789337134311224
  0.7425527915164012  0.4388687934473164  0.3992810060472868
  0.7581098996446811  0.1423877959209906  0.6043767227619778
  0.7051310707905699  0.1969386096384030  0.8770346330150705
  0.7283346142300112  0.0952068188034112  0.8063501220656696
  0.1132254146195756  0.2131158639861098  0.2136157820641455
  0.1574914582842569  0.1637383675865451  0.3364584872832000
  0.0871826646981320  0.2658642123651034  0.8772963922756503
  0.1301310613056877  0.2144113991659525  0.0160359908819420
  0.6292181730562338  0.1590344374597729  0.2623439828951151
  0.6245915031070188  0.2089245278434787  0.3808212605746664
  0.6117421673539540  0.1245690036718890  0.9197527602253652
  0.6018452988265811  0.1741086356871599  0.0690046292583359
 -0.0051528511444246  0.4604877490004833  0.5652724420634557
  0.0074296900180504  0.4976129306140262  0.6900979016704173
  0.2564229868150905  0.6331991875932919  0.2583363726026202
  0.2046685732283220  0.6535870466234883  0.3742193457883575
  0.3116695043329697  0.5847253186176514  0.9350793354608075
  0.2600865089113463  0.6061576645066468  0.0671685545512382
  0.5524337939421868  0.0052735041792673  0.5725827263823913
  0.5100960745344463  0.0039291730191284  0.6903593754501250
  0.2596957387146769  0.0648595596466633  0.4119657730211577
  0.2167040270219124  0.1158162784455065  0.2714405506410959
  0.2330586243335948  0.1162409842966813  0.0720983786424651
  0.1891709869654116  0.1664074823952920  0.9506468425305186
  0.6157341546331858  0.3116912759856455  0.4169610102378780
  0.5951235393296775  0.2726463232357155  0.3179185337837523
  0.0208075923064389  0.5863136441473209  0.7674727735281045
  0.0056316707601575  0.5512419438865911  0.6228502055214076
  0.5598446812439615  0.2881399814138543  0.1407836868116902
  0.5652696449599250  0.2397551780509057  0.0141379651578948
  0.1053979249191740  0.6669954940783169  0.4456605649497269
  0.1557540811179707  0.6493740007177792  0.3062512091465593
  0.4252016876561053 -0.0080439497967188  0.7528483166250550
  0.4707187091781085  0.9868793495763114  0.6150554017980544
  0.1569985321123342  0.6274530429648845  0.1066660009949270
  0.2099769214463663  0.6047876215610866  0.9948992394192274
  0.7588131284506567  0.9594272242872199  0.5896729249820557
  0.8057734085430160  0.9082921201462353  0.7221246142709091
  0.7904657082162790  0.9041981688949542  0.9202656647206812
  0.8365279968939795  0.8556247157826725  0.0387664521950685
  0.3580380227732621  0.7170790449284621  0.5003469496926390
  0.3531768555147073  0.7617789667351733  0.6572453111673539
  0.9662945629769075  0.4409150528853761  0.2217780588589556
  0.9794274108008845  0.4785848481011066  0.3633980906704714
  0.3625658416306527  0.7468732571356388  0.8612880024870802
  0.3652932234843630  0.7899977529027831  0.9917716295043166
  0.9269378405938744  0.3133271182956941  0.5390340539870035
  0.8802261534114558  0.3178750523336387  0.6701145633100313
  0.6010540628068995  0.9856941682147646  0.2351868215006119
  0.5564777383822183  0.9864804518761228  0.3689992453457916
  0.8707341766076310  0.3469133096946649  0.8618473237275465
  0.8200949719196482  0.3570439484867396  0.9646650609370786
  0.9111365994308124  0.8110118878966786  0.7695185914325474
  0.8655474770942144  0.8626249274785467  0.6528610341587627
  0.9376172602334183  0.7584016577282592  0.1081607608858323
  0.8954256420829946  0.8094006891231383  0.9687303576672083
  0.3410940167478796  0.8654250857376339  0.7247663849583900
  0.3403809378668677  0.8210406416146090  0.5951035452197470
  0.3643586229696179  0.8887575437961640  0.0725554446237393
  0.3558079977992095  0.8480729075137188  0.9282614301782817
  0.9913858709659145  0.5688524866088081  0.4198958571510514
  0.9779197104719796  0.5320053778069180  0.2958861777011875
  0.7914649674725063  0.3084718789129919  0.7016280540845254
  0.8415471589612802  0.2986734285654895  0.5953651162228387
  0.7315022645969649  0.3516097527518264  0.0247860777012616
  0.7819059168913981  0.3383049105553825  0.8909558254583120
  0.4737051175475759  0.9687804689910086  0.4111501839056174
  0.5175908908615908  0.9682443504868429  0.2939263692321563
  0.7020423865616755  0.4603223903786050  0.5341676563535882
  0.7308294400897141  0.1429761123418498  0.7646754189524823
  0.5600594954946483  0.3539643663063405  0.9730444550056662
  0.1448819410239941  0.1630355012423843  0.4880386302636914
  0.6509956875324804  0.1948311761338384  0.5179592157492732
  0.0190559075604578  0.4838580278359719  0.8442371132226978
  0.2021775149103970  0.6732533930536767  0.5230294754962077
  0.5074640264749704  0.0178618284920974  0.8457041313236732
  0.2016024857943496  0.1673597341537249  0.7991576836887323
  0.5369721776984903  0.2531343024984073  0.8800355989981985
  0.2114348610812486  0.5863987928751793  0.8457400502366976
  0.8251811501718074  0.8525508523467834  0.1897284462963035
  0.3748090338510776  0.7786621788356359  0.1478902369433585
  0.8066084978294941  0.3854745074959339  0.1012564716890745
  0.8768147626036844  0.8661305452317086  0.5017140222628558
  0.3317568975442322  0.8327299735226514  0.4389788152833549
  0.9667198522480246  0.5451942239423208  0.1412940047070507
  0.8504736986271516  0.2755643584834707  0.4488642522930289
  0.5205915113289815  0.9543961598907388  0.1382918215715158
  0.3317958406979726  0.5911389052474891  0.5630393461909586
  0.0334809417737416  0.3224741336913651  0.4957853641777300
  0.6248934363430013  0.0668968039439532  0.5320756494342042
  0.0492510533638575  0.6912679402542600  0.8225101928348352
  0.3721256822244595  0.0071981910925708  0.1277474063460201
  0.3015979506744306  0.0069630674934784  0.7894122649525819
  0.6158128011104992  0.3691018879535397  0.0272495101067674
  0.6239585351138393  0.2779707553815527  0.8632421375085118
  0.0452763436178167  0.6182127538775525  0.1468249445477388
  0.6506921609976799  0.9861061847517464  0.8620703083759721
  0.9747957829956563  0.3175589327998363  0.1499334708286537
  0.3817882675822632  0.6192775095801137  0.7462773948275246
  0.7007171873851763  0.0126943037666334  0.1999508078892106
  0.9609172432587439  0.3891958777636086  0.8398322767307687
  0.3459804287403885  0.6685530224215969  0.1652070039421975
  0.6973636800922672  0.3552570299432049  0.4253594803912735
  0.9728946607960099  0.7024034134781628  0.4893092717509595
  0.3798779612794763  0.9287037182633244  0.4537211887330929
  0.8247924639036710  0.3865312289363217  0.3903402732021877
  0.6518040740164600  0.4666532388769852  0.8050661065316193
  0.7493003628600273  0.0706719936989203  0.5214182921244306
  0.7410082360143362  0.2264035106717314  0.6727611697557645
 
  0.00000000E+00  0.00000000E+00  0.00000000E+00
  0.00000000E+00  0.00000000E+00  0.00000000E+00
  0.00000000E+00  0.00000000E+00  0.00000000E+00
  0.00000000E+00  0.00000000E+00  0.00000000E+00
  0.00000000E+00  0.00000000E+00  0.00000000E+00
  0.00000000E+00  0.00000000E+00  0.00000000E+00
  0.00000000E+00  0.00000000E+00  0.00000000E+00
  0.00000000E+00  0.00000000E+00  0.00000000E+00
  0.00000000E+00  0.00000000E+00  0.00000000E+00
  0.00000000E+00  0.00000000E+00  0.00000000E+00
  0.00000000E+00  0.00000000E+00  0.00000000E+00
  0.00000000E+00  0.00000000E+00  0.00000000E+00
  0.00000000E+00  0.00000000E+00  0.00000000E+00
  0.00000000E+00  0.00000000E+00  0.00000000E+00
  0.00000000E+00  0.00000000E+00  0.00000000E+00
  0.00000000E+00  0.00000000E+00  0.00000000E+00
  0.00000000E+00  0.00000000E+00  0.00000000E+00
  0.00000000E+00  0.00000000E+00  0.00000000E+00
  0.00000000E+00  0.00000000E+00  0.00000000E+00
  0.00000000E+00  0.00000000E+00  0.00000000E+00
  0.00000000E+00  0.00000000E+00  0.00000000E+00
  0.00000000E+00  0.00000000E+00  0.00000000E+00
  0.00000000E+00  0.00000000E+00  0.00000000E+00
  0.00000000E+00  0.00000000E+00  0.00000000E+00
  0.00000000E+00  0.00000000E+00  0.00000000E+00
  0.00000000E+00  0.00000000E+00  0.00000000E+00
  0.00000000E+00  0.00000000E+00  0.00000000E+00
  0.00000000E+00  0.00000000E+00  0.00000000E+00
  0.00000000E+00  0.00000000E+00  0.00000000E+00
  0.00000000E+00  0.00000000E+00  0.00000000E+00
  0.00000000E+00  0.00000000E+00  0.00000000E+00
  0.00000000E+00  0.00000000E+00  0.00000000E+00
  0.00000000E+00  0.00000000E+00  0.00000000E+00
  0.00000000E+00  0.00000000E+00  0.00000000E+00
  0.00000000E+00  0.00000000E+00  0.00000000E+00
  0.00000000E+00  0.00000000E+00  0.00000000E+00
  0.00000000E+00  0.00000000E+00  0.00000000E+00
  0.00000000E+00  0.00000000E+00  0.00000000E+00
  0.00000000E+00  0.00000000E+00  0.00000000E+00
  0.00000000E+00  0.00000000E+00  0.00000000E+00
  0.00000000E+00  0.00000000E+00  0.00000000E+00
  0.00000000E+00  0.00000000E+00  0.00000000E+00
  0.00000000E+00  0.00000000E+00  0.00000000E+00
  0.00000000E+00  0.00000000E+00  0.00000000E+00
  0.00000000E+00  0.00000000E+00  0.00000000E+00
  0.00000000E+00  0.00000000E+00  0.00000000E+00
  0.00000000E+00  0.00000000E+00  0.00000000E+00
  0.00000000E+00  0.00000000E+00  0.00000000E+00
  0.00000000E+00  0.00000000E+00  0.00000000E+00
  0.00000000E+00  0.00000000E+00  0.00000000E+00
  0.00000000E+00  0.00000000E+00  0.00000000E+00
  0.00000000E+00  0.00000000E+00  0.00000000E+00
  0.00000000E+00  0.00000000E+00  0.00000000E+00
  0.00000000E+00  0.00000000E+00  0.00000000E+00
  0.00000000E+00  0.00000000E+00  0.00000000E+00
  0.00000000E+00  0.00000000E+00  0.00000000E+00
  0.00000000E+00  0.00000000E+00  0.00000000E+00
  0.00000000E+00  0.00000000E+00  0.00000000E+00
  0.00000000E+00  0.00000000E+00  0.00000000E+00
  0.00000000E+00  0.00000000E+00  0.00000000E+00
  0.00000000E+00  0.00000000E+00  0.00000000E+00
  0.00000000E+00  0.00000000E+00  0.00000000E+00
  0.00000000E+00  0.00000000E+00  0.00000000E+00
  0.00000000E+00  0.00000000E+00  0.00000000E+00
  0.00000000E+00  0.00000000E+00  0.00000000E+00
  0.00000000E+00  0.00000000E+00  0.00000000E+00
  0.00000000E+00  0.00000000E+00  0.00000000E+00
  0.00000000E+00  0.00000000E+00  0.00000000E+00
  0.00000000E+00  0.00000000E+00  0.00000000E+00
  0.00000000E+00  0.00000000E+00  0.00000000E+00
  0.00000000E+00  0.00000000E+00  0.00000000E+00
  0.00000000E+00  0.00000000E+00  0.00000000E+00
  0.00000000E+00  0.00000000E+00  0.00000000E+00
  0.00000000E+00  0.00000000E+00  0.00000000E+00
  0.00000000E+00  0.00000000E+00  0.00000000E+00
  0.00000000E+00  0.00000000E+00  0.00000000E+00
  0.00000000E+00  0.00000000E+00  0.00000000E+00
  0.00000000E+00  0.00000000E+00  0.00000000E+00
  0.00000000E+00  0.00000000E+00  0.00000000E+00
  0.00000000E+00  0.00000000E+00  0.00000000E+00
  0.00000000E+00  0.00000000E+00  0.00000000E+00
  0.00000000E+00  0.00000000E+00  0.00000000E+00
  0.00000000E+00  0.00000000E+00  0.00000000E+00
  0.00000000E+00  0.00000000E+00  0.00000000E+00
  0.00000000E+00  0.00000000E+00  0.00000000E+00
  0.00000000E+00  0.00000000E+00  0.00000000E+00
  0.00000000E+00  0.00000000E+00  0.00000000E+00
  0.00000000E+00  0.00000000E+00  0.00000000E+00
  0.00000000E+00  0.00000000E+00  0.00000000E+00
  0.00000000E+00  0.00000000E+00  0.00000000E+00
  0.00000000E+00  0.00000000E+00  0.00000000E+00
  0.00000000E+00  0.00000000E+00  0.00000000E+00
  0.00000000E+00  0.00000000E+00  0.00000000E+00
  0.00000000E+00  0.00000000E+00  0.00000000E+00
  0.00000000E+00  0.00000000E+00  0.00000000E+00
  0.00000000E+00  0.00000000E+00  0.00000000E+00
  0.00000000E+00  0.00000000E+00  0.00000000E+00
  0.00000000E+00  0.00000000E+00  0.00000000E+00
  0.00000000E+00  0.00000000E+00  0.00000000E+00
  0.00000000E+00  0.00000000E+00  0.00000000E+00
  0.00000000E+00  0.00000000E+00  0.00000000E+00
  0.00000000E+00  0.00000000E+00  0.00000000E+00
  0.00000000E+00  0.00000000E+00  0.00000000E+00
  0.00000000E+00  0.00000000E+00  0.00000000E+00
  0.00000000E+00  0.00000000E+00  0.00000000E+00
  0.00000000E+00  0.00000000E+00  0.00000000E+00
  0.00000000E+00  0.00000000E+00  0.00000000E+00
  0.00000000E+00  0.00000000E+00  0.00000000E+00
  0.00000000E+00  0.00000000E+00  0.00000000E+00
  0.00000000E+00  0.00000000E+00  0.00000000E+00
  0.00000000E+00  0.00000000E+00  0.00000000E+00
  0.00000000E+00  0.00000000E+00  0.00000000E+00
  0.00000000E+00  0.00000000E+00  0.00000000E+00
  0.00000000E+00  0.00000000E+00  0.00000000E+00
  0.00000000E+00  0.00000000E+00  0.00000000E+00
  0.00000000E+00  0.00000000E+00  0.00000000E+00
  0.00000000E+00  0.00000000E+00  0.00000000E+00
  0.00000000E+00  0.00000000E+00  0.00000000E+00
  0.00000000E+00  0.00000000E+00  0.00000000E+00
  0.00000000E+00  0.00000000E+00  0.00000000E+00
  0.00000000E+00  0.00000000E+00  0.00000000E+00
  0.00000000E+00  0.00000000E+00  0.00000000E+00
  0.00000000E+00  0.00000000E+00  0.00000000E+00
  0.00000000E+00  0.00000000E+00  0.00000000E+00
  0.00000000E+00  0.00000000E+00  0.00000000E+00
  0.00000000E+00  0.00000000E+00  0.00000000E+00
  0.00000000E+00  0.00000000E+00  0.00000000E+00
  0.00000000E+00  0.00000000E+00  0.00000000E+00
  0.00000000E+00  0.00000000E+00  0.00000000E+00
  0.00000000E+00  0.00000000E+00  0.00000000E+00
  0.00000000E+00  0.00000000E+00  0.00000000E+00
  0.00000000E+00  0.00000000E+00  0.00000000E+00
  0.00000000E+00  0.00000000E+00  0.00000000E+00
  0.00000000E+00  0.00000000E+00  0.00000000E+00
  0.00000000E+00  0.00000000E+00  0.00000000E+00
  0.00000000E+00  0.00000000E+00  0.00000000E+00
  0.00000000E+00  0.00000000E+00  0.00000000E+00
  0.00000000E+00  0.00000000E+00  0.00000000E+00
  0.00000000E+00  0.00000000E+00  0.00000000E+00
  0.00000000E+00  0.00000000E+00  0.00000000E+00
  0.00000000E+00  0.00000000E+00  0.00000000E+00
  0.00000000E+00  0.00000000E+00  0.00000000E+00
  0.00000000E+00  0.00000000E+00  0.00000000E+00
  0.00000000E+00  0.00000000E+00  0.00000000E+00
  0.00000000E+00  0.00000000E+00  0.00000000E+00
  0.00000000E+00  0.00000000E+00  0.00000000E+00
  0.00000000E+00  0.00000000E+00  0.00000000E+00
  0.00000000E+00  0.00000000E+00  0.00000000E+00
  0.00000000E+00  0.00000000E+00  0.00000000E+00
  0.00000000E+00  0.00000000E+00  0.00000000E+00
  0.00000000E+00  0.00000000E+00  0.00000000E+00
  0.00000000E+00  0.00000000E+00  0.00000000E+00
  0.00000000E+00  0.00000000E+00  0.00000000E+00
  0.00000000E+00  0.00000000E+00  0.00000000E+00
  0.00000000E+00  0.00000000E+00  0.00000000E+00
  0.00000000E+00  0.00000000E+00  0.00000000E+00
  0.00000000E+00  0.00000000E+00  0.00000000E+00
  0.00000000E+00  0.00000000E+00  0.00000000E+00
  0.00000000E+00  0.00000000E+00  0.00000000E+00
