O  C  H  Co Li                          
   1.00000000000000     
    25.6122655043833021    1.3642714740831499   -0.3767405001869602
    13.9829425085154693   18.9887791917770024   -0.4293674683988116
    -0.1036077258230167   -0.0654267062937011    6.8101975225123210
   O    C    H    Co   Li
    54    67    16    18     4
Direct
  0.0420697098808940  0.2473206282518164  0.2866962297250230
  0.0154939529719183  0.3072799405113549  0.9339734848076200
  0.0932735873359756  0.2526359838951352  0.7006164766967922
  0.6285819365556899  0.1388238615910198  0.3473608539320367
  0.6057048106452894  0.0957315468107036  0.9952320334184038
  0.5551620345765641  0.1740289338445327  0.7450966269109062
  0.9840876834171809  0.4196421386409819  0.6377900548865046
  0.3592145145748815  0.5671723339147819  0.3199151683918509
  0.3693577433275542  0.5785337578102759  0.9238136451886803
  0.3499639791346364  0.5139189108839760  0.7410644698689287
  0.5754247379348368  0.0331172864346981  0.6632499295021655
  0.3309572394290183  0.9767798930233866  0.3488293539221675
  0.2536800293638822  0.0246530528273796  0.5819032313679450
  0.2974518450940242  0.0299956964444186  0.9906528941064515
  0.5758261173496994  0.4129663453116124  0.2723942265240977
  0.5845413503795600  0.3629247087300144  0.5485209056774341
  0.0186216676206874  0.6473456099551034  0.7478522008832068
  0.0424081507575021  0.5648857579799902  0.9608004462104268
  0.4638688536622753  0.4161714692671278  0.0276340819939046
  0.0919941356020878  0.6335209352785995  0.4211570522883977
  0.1455012484630340  0.6499087153030364  0.6475817904489551
  0.4109398736358195  0.9368544348662101  0.6888819295936601
  0.4367644360921873  0.9806636122981645  0.9332017195451872
  0.1377544300213525  0.5966329013855818  0.0440662908530434
  0.6890116845963850  0.0115616315368457  0.6547977427173010
  0.7596024000478683 -0.0000589659579554  0.4426953144169645
  0.7282905294000369  0.9649070556913459  0.0124275220032157
  0.4586951048545449  0.5519024655444527  0.5775526421381868
  0.4169545676975963  0.6367381054405395  0.3520186232292737
  0.9797176595515795  0.3908709631425541  0.2701266742013686
  0.9382458963926649  0.4781843512128268  0.0505898241324392
  0.4554927528058733  0.5984139582306761  0.9690793846584413
  0.9481966559949980  0.3301740154763831  0.6054757218250446
  0.8757369364930204  0.3747396652191390  0.3479615030739972
  0.6206112607352829  0.0216688937117424  0.3151540467242850
  0.6077738440552487  0.9672240269941056  0.0659792637027247
  0.8781645971820177  0.3959367901112433  0.9496980218636847
  0.9864202716615744  0.7730564863855494  0.7091595325679488
  0.0205852940552405  0.7173213281595944  0.0941005619210456
  0.9392531210887037  0.7753330304881639  0.3164605618837355
  0.3740282723740566  0.8558009387288310  0.6462721365152532
  0.3886141108650120  0.8889868721430516  0.0102316113563977
  0.4321517108207906  0.8065313838918849  0.2466810306222113
  0.9965602830384733  0.6298864877271404  0.3665981367858942
  0.7030883748989074  0.3564083585386966  0.6046643706299351
  0.6279831952357189  0.4575824970464476  0.9616697746718502
  0.7056753663409637  0.3719128815288458  0.1765808093085622
  0.4599904178454087  0.9179084874883210  0.3308822541007637
  0.6083721738141927  0.5179534990303696  0.4961265419876446
  0.6495411242952258  0.5644835643989129  0.6624476661659523
  0.6941341824640161  0.5088001058032797  0.3658777411592706
  0.7247377627233621  0.1840570222453056  0.5825351269888515
  0.6690820874473451  0.2519911982988286  0.8534851312699164
  0.6914626017746258  0.1423260972332408  0.7949984420964241
  0.1036239607664561  0.1956546211748905  0.2099580227609855
  0.1542113108109731  0.1389445284928958  0.3323567514456878
  0.0747881159727330  0.2538363943835886  0.8724575396008263
  0.1213404126476242  0.1946686420676733  0.0118492968190278
  0.5886958587541953  0.2038932155664027  0.2549170609265137
  0.5819220749837870  0.2612621507129421  0.3528893026789759
  0.5730016887771110  0.1598415310425860  0.9240016807380043
  0.5579582857610069  0.2175801314033836  0.0654074672574527
  0.9858277519563595  0.4713885472652145  0.5719735687432104
  0.0008394747703070  0.5065312522550303  0.7020296873428794
  0.3044731635719557  0.5739340711542558  0.2573993494253388
  0.2541489864444618  0.5936242412438060  0.3885957912505156
  0.3412195106220151  0.5476194343678868  0.9012756983047134
  0.2972396253333178  0.5599011087438084  0.0565344392505215
  0.5503625975758079  0.0027830956745978  0.5785666270005723
  0.5141026059863165  0.9914270754671367  0.6956322974709052
  0.2699898763439641  0.0254788654849599  0.4085350663564630
  0.2197367633095467  0.0828385153785693  0.2674314486332184
  0.2363386294871642  0.0817917015694714  0.0681198392490565
  0.1863367123066684  0.1382213159736586  0.9462400698958500
  0.5661909678696868  0.3738213644478976  0.3705862974087584
  0.5478727427649183  0.3308451721563132  0.2748742448312331
  0.0231929602672482  0.5911078918080721  0.7901598662660620
  0.0044353885894325  0.5600391750965127  0.6409068276370024
  0.5100760837945335  0.3451665082504251  0.1011415754001474
  0.5157664596496058  0.2897131544231268  0.9994761838522963
  0.1422109091440915  0.6300649149547209  0.4742857088107263
  0.1965766060364356  0.6022296795828821  0.3287653862164924
  0.4419441628125897  0.9599640488165480  0.7554281472381026
  0.4834486244768315  0.9633993489479021  0.6193963879312629
  0.1905395645240894  0.5872105478782618  0.1266473461871465
  0.2429129363661744  0.5635146536161185 -0.0011045956665488
  0.7492525248758904  0.9817529578278007  0.6036220132416760
  0.8043663303183952  0.9275020795070690  0.7388270570800595
  0.7903798777400018  0.9243863625364032  0.9379298525548680
  0.8445516927784140  0.8757229818919108  0.0619038610033806
  0.4341109723673686  0.6179618221526960  0.5294472532857767
  0.4281344007565489  0.6698691805084815  0.6735027930401880
  0.9622170858976694  0.4532423836711486  0.2206801248477617
  0.9738849476502548  0.4917293137216946  0.3696378028619178
  0.4400180433375066  0.6574636975972995  0.8799950631341145
  0.4362998591175117  0.7091135148563397  0.9993058681768020
  0.8915093990025647  0.3561669111529642  0.5294439975860772
  0.8415082484464531  0.3651303765467139  0.6566495784492434
  0.5971440516587465  0.9904107289767692  0.2425753266575094
  0.5576620811040172  0.9823472221337157  0.3751396234639301
  0.8398941883184311  0.3815842214721128  0.8607754412894217
  0.7919360368158034  0.3867173854822326  0.9705753832275775
  0.9250558717781925  0.8232345425844397  0.7920250738355032
  0.8709280848663049  0.8784061916493502  0.6730802163606198
  0.9594140780580703  0.7702843871778849  0.1433984196087204
  0.9106090747534046  0.8245974062470435  0.9950772614966464
  0.3976515451490524  0.7916739404767295  0.7236656306420062
  0.4063710214978596  0.7372294185107868  0.6018042429064543
  0.4120865320131945  0.8258773596834161  0.0708331144629104
  0.4150869159776316  0.7753965318340419  0.9277530467117849
  0.9919115084232266  0.5805861017939408  0.4388315960219599
  0.9758794723865573  0.5462196409315953  0.3090911985339244
  0.7466444386775707  0.3649825094984878  0.6822674268216881
  0.7971033149305020  0.3552000041021134  0.5726654904455462
  0.6896809183173150  0.4039898202122455  0.0145741596611357
  0.7445545471733549  0.3827766902387889  0.8839251131464717
  0.4894691494047261  0.9439020996842549  0.4152816045263137
  0.5277811003375454  0.9530855221928074  0.2990509568651460
  0.6532095302777947  0.5315176028818501  0.5067338833521502
  0.6955682344259926  0.1902927363751939  0.7453352590092017
  0.4972063222794074  0.4294725963122203  0.9107541970456406
  0.1416619414045783  0.1395650127827308  0.4844654490079822
  0.6105552863987125  0.2481705139537862  0.4884641362709445
  0.0104381073384243  0.4906767860542952  0.8557424901891498
  0.2595847726886308  0.6031154772226768  0.5425822600871736
  0.5089644499154753  0.0064392868808629  0.8513945601087629
  0.1987703029565786  0.1384076465579471  0.7947409377026424
  0.4885853251827433  0.3021945297440644  0.8598667377619060
  0.2376010817493135  0.5533316614358829  0.8457050732082202
  0.8341549009498027  0.8755026190141406  0.2154718051880918
  0.4489442510970294  0.6966405050154497  0.1546394931902851
  0.7898230450513872  0.3949103181304764  0.1292104072848226
  0.8806291759656544  0.8806703251206320  0.5203251527717528
  0.3952968050670068  0.7481126293027507  0.4457204414309575
  0.9670009007673324  0.5605066231879555  0.1544739178821618
  0.8018228121256394  0.3391962581231421  0.4172292709283474
  0.5335985312415945  0.9379355572200626  0.1434441957299407
  0.4076528460885755  0.5158951868054065  0.5597834755396136
  0.0246137590026691  0.3200797662568777  0.4929279806800541
  0.5993370710195588  0.0919356664903545  0.5374216521506947
  0.0730715092621309  0.6795364860790377  0.8425957167209821
  0.3886503006705069  0.9674156375891025  0.1274944004223836
  0.3272336142664336  0.9559925517693604  0.7798788008278619
  0.5653902389296079  0.4368987186651760  0.9947449758738046
  0.5856539931376806  0.3467782277266800  0.8238529397629272
  0.0616690964971839  0.6116651999471072  0.1685595133862587
  0.6418100589987364 -0.0000344614781642  0.8736002239081746
  0.9536358229031674  0.3335632179522489  0.1555192916667973
  0.4657341561495587  0.5173648355249350  0.8396228587579472
  0.6800225855033862  0.0404368698869925  0.2149765112585292
  0.9425227158078787  0.4081993975502680  0.8471327882492156
  0.4004702415535283  0.5934848118544266  0.1519971689704544
  0.6431247837766825  0.4244815414707830  0.3968079759517416
  0.9897581702426261  0.7041559637077209  0.5239074378229849
  0.4138961688324642  0.8804901609624375  0.4503140706815850
  0.7807240433932806  0.4670104516753786  0.3240669011791353
  0.6011381449745857  0.5375259305803427  0.7828986530961777
  0.7157168119925097  0.1088713488281136  0.5138572735883243
  0.7075877522357381  0.2744474618276746  0.6287345021684915
 
  0.00000000E+00  0.00000000E+00  0.00000000E+00
  0.00000000E+00  0.00000000E+00  0.00000000E+00
  0.00000000E+00  0.00000000E+00  0.00000000E+00
  0.00000000E+00  0.00000000E+00  0.00000000E+00
  0.00000000E+00  0.00000000E+00  0.00000000E+00
  0.00000000E+00  0.00000000E+00  0.00000000E+00
  0.00000000E+00  0.00000000E+00  0.00000000E+00
  0.00000000E+00  0.00000000E+00  0.00000000E+00
  0.00000000E+00  0.00000000E+00  0.00000000E+00
  0.00000000E+00  0.00000000E+00  0.00000000E+00
  0.00000000E+00  0.00000000E+00  0.00000000E+00
  0.00000000E+00  0.00000000E+00  0.00000000E+00
  0.00000000E+00  0.00000000E+00  0.00000000E+00
  0.00000000E+00  0.00000000E+00  0.00000000E+00
  0.00000000E+00  0.00000000E+00  0.00000000E+00
  0.00000000E+00  0.00000000E+00  0.00000000E+00
  0.00000000E+00  0.00000000E+00  0.00000000E+00
  0.00000000E+00  0.00000000E+00  0.00000000E+00
  0.00000000E+00  0.00000000E+00  0.00000000E+00
  0.00000000E+00  0.00000000E+00  0.00000000E+00
  0.00000000E+00  0.00000000E+00  0.00000000E+00
  0.00000000E+00  0.00000000E+00  0.00000000E+00
  0.00000000E+00  0.00000000E+00  0.00000000E+00
  0.00000000E+00  0.00000000E+00  0.00000000E+00
  0.00000000E+00  0.00000000E+00  0.00000000E+00
  0.00000000E+00  0.00000000E+00  0.00000000E+00
  0.00000000E+00  0.00000000E+00  0.00000000E+00
  0.00000000E+00  0.00000000E+00  0.00000000E+00
  0.00000000E+00  0.00000000E+00  0.00000000E+00
  0.00000000E+00  0.00000000E+00  0.00000000E+00
  0.00000000E+00  0.00000000E+00  0.00000000E+00
  0.00000000E+00  0.00000000E+00  0.00000000E+00
  0.00000000E+00  0.00000000E+00  0.00000000E+00
  0.00000000E+00  0.00000000E+00  0.00000000E+00
  0.00000000E+00  0.00000000E+00  0.00000000E+00
  0.00000000E+00  0.00000000E+00  0.00000000E+00
  0.00000000E+00  0.00000000E+00  0.00000000E+00
  0.00000000E+00  0.00000000E+00  0.00000000E+00
  0.00000000E+00  0.00000000E+00  0.00000000E+00
  0.00000000E+00  0.00000000E+00  0.00000000E+00
  0.00000000E+00  0.00000000E+00  0.00000000E+00
  0.00000000E+00  0.00000000E+00  0.00000000E+00
  0.00000000E+00  0.00000000E+00  0.00000000E+00
  0.00000000E+00  0.00000000E+00  0.00000000E+00
  0.00000000E+00  0.00000000E+00  0.00000000E+00
  0.00000000E+00  0.00000000E+00  0.00000000E+00
  0.00000000E+00  0.00000000E+00  0.00000000E+00
  0.00000000E+00  0.00000000E+00  0.00000000E+00
  0.00000000E+00  0.00000000E+00  0.00000000E+00
  0.00000000E+00  0.00000000E+00  0.00000000E+00
  0.00000000E+00  0.00000000E+00  0.00000000E+00
  0.00000000E+00  0.00000000E+00  0.00000000E+00
  0.00000000E+00  0.00000000E+00  0.00000000E+00
  0.00000000E+00  0.00000000E+00  0.00000000E+00
  0.00000000E+00  0.00000000E+00  0.00000000E+00
  0.00000000E+00  0.00000000E+00  0.00000000E+00
  0.00000000E+00  0.00000000E+00  0.00000000E+00
  0.00000000E+00  0.00000000E+00  0.00000000E+00
  0.00000000E+00  0.00000000E+00  0.00000000E+00
  0.00000000E+00  0.00000000E+00  0.00000000E+00
  0.00000000E+00  0.00000000E+00  0.00000000E+00
  0.00000000E+00  0.00000000E+00  0.00000000E+00
  0.00000000E+00  0.00000000E+00  0.00000000E+00
  0.00000000E+00  0.00000000E+00  0.00000000E+00
  0.00000000E+00  0.00000000E+00  0.00000000E+00
  0.00000000E+00  0.00000000E+00  0.00000000E+00
  0.00000000E+00  0.00000000E+00  0.00000000E+00
  0.00000000E+00  0.00000000E+00  0.00000000E+00
  0.00000000E+00  0.00000000E+00  0.00000000E+00
  0.00000000E+00  0.00000000E+00  0.00000000E+00
  0.00000000E+00  0.00000000E+00  0.00000000E+00
  0.00000000E+00  0.00000000E+00  0.00000000E+00
  0.00000000E+00  0.00000000E+00  0.00000000E+00
  0.00000000E+00  0.00000000E+00  0.00000000E+00
  0.00000000E+00  0.00000000E+00  0.00000000E+00
  0.00000000E+00  0.00000000E+00  0.00000000E+00
  0.00000000E+00  0.00000000E+00  0.00000000E+00
  0.00000000E+00  0.00000000E+00  0.00000000E+00
  0.00000000E+00  0.00000000E+00  0.00000000E+00
  0.00000000E+00  0.00000000E+00  0.00000000E+00
  0.00000000E+00  0.00000000E+00  0.00000000E+00
  0.00000000E+00  0.00000000E+00  0.00000000E+00
  0.00000000E+00  0.00000000E+00  0.00000000E+00
  0.00000000E+00  0.00000000E+00  0.00000000E+00
  0.00000000E+00  0.00000000E+00  0.00000000E+00
  0.00000000E+00  0.00000000E+00  0.00000000E+00
  0.00000000E+00  0.00000000E+00  0.00000000E+00
  0.00000000E+00  0.00000000E+00  0.00000000E+00
  0.00000000E+00  0.00000000E+00  0.00000000E+00
  0.00000000E+00  0.00000000E+00  0.00000000E+00
  0.00000000E+00  0.00000000E+00  0.00000000E+00
  0.00000000E+00  0.00000000E+00  0.00000000E+00
  0.00000000E+00  0.00000000E+00  0.00000000E+00
  0.00000000E+00  0.00000000E+00  0.00000000E+00
  0.00000000E+00  0.00000000E+00  0.00000000E+00
  0.00000000E+00  0.00000000E+00  0.00000000E+00
  0.00000000E+00  0.00000000E+00  0.00000000E+00
  0.00000000E+00  0.00000000E+00  0.00000000E+00
  0.00000000E+00  0.00000000E+00  0.00000000E+00
  0.00000000E+00  0.00000000E+00  0.00000000E+00
  0.00000000E+00  0.00000000E+00  0.00000000E+00
  0.00000000E+00  0.00000000E+00  0.00000000E+00
  0.00000000E+00  0.00000000E+00  0.00000000E+00
  0.00000000E+00  0.00000000E+00  0.00000000E+00
  0.00000000E+00  0.00000000E+00  0.00000000E+00
  0.00000000E+00  0.00000000E+00  0.00000000E+00
  0.00000000E+00  0.00000000E+00  0.00000000E+00
  0.00000000E+00  0.00000000E+00  0.00000000E+00
  0.00000000E+00  0.00000000E+00  0.00000000E+00
  0.00000000E+00  0.00000000E+00  0.00000000E+00
  0.00000000E+00  0.00000000E+00  0.00000000E+00
  0.00000000E+00  0.00000000E+00  0.00000000E+00
  0.00000000E+00  0.00000000E+00  0.00000000E+00
  0.00000000E+00  0.00000000E+00  0.00000000E+00
  0.00000000E+00  0.00000000E+00  0.00000000E+00
  0.00000000E+00  0.00000000E+00  0.00000000E+00
  0.00000000E+00  0.00000000E+00  0.00000000E+00
  0.00000000E+00  0.00000000E+00  0.00000000E+00
  0.00000000E+00  0.00000000E+00  0.00000000E+00
  0.00000000E+00  0.00000000E+00  0.00000000E+00
  0.00000000E+00  0.00000000E+00  0.00000000E+00
  0.00000000E+00  0.00000000E+00  0.00000000E+00
  0.00000000E+00  0.00000000E+00  0.00000000E+00
  0.00000000E+00  0.00000000E+00  0.00000000E+00
  0.00000000E+00  0.00000000E+00  0.00000000E+00
  0.00000000E+00  0.00000000E+00  0.00000000E+00
  0.00000000E+00  0.00000000E+00  0.00000000E+00
  0.00000000E+00  0.00000000E+00  0.00000000E+00
  0.00000000E+00  0.00000000E+00  0.00000000E+00
  0.00000000E+00  0.00000000E+00  0.00000000E+00
  0.00000000E+00  0.00000000E+00  0.00000000E+00
  0.00000000E+00  0.00000000E+00  0.00000000E+00
  0.00000000E+00  0.00000000E+00  0.00000000E+00
  0.00000000E+00  0.00000000E+00  0.00000000E+00
  0.00000000E+00  0.00000000E+00  0.00000000E+00
  0.00000000E+00  0.00000000E+00  0.00000000E+00
  0.00000000E+00  0.00000000E+00  0.00000000E+00
  0.00000000E+00  0.00000000E+00  0.00000000E+00
  0.00000000E+00  0.00000000E+00  0.00000000E+00
  0.00000000E+00  0.00000000E+00  0.00000000E+00
  0.00000000E+00  0.00000000E+00  0.00000000E+00
  0.00000000E+00  0.00000000E+00  0.00000000E+00
  0.00000000E+00  0.00000000E+00  0.00000000E+00
  0.00000000E+00  0.00000000E+00  0.00000000E+00
  0.00000000E+00  0.00000000E+00  0.00000000E+00
  0.00000000E+00  0.00000000E+00  0.00000000E+00
  0.00000000E+00  0.00000000E+00  0.00000000E+00
  0.00000000E+00  0.00000000E+00  0.00000000E+00
  0.00000000E+00  0.00000000E+00  0.00000000E+00
  0.00000000E+00  0.00000000E+00  0.00000000E+00
  0.00000000E+00  0.00000000E+00  0.00000000E+00
  0.00000000E+00  0.00000000E+00  0.00000000E+00
  0.00000000E+00  0.00000000E+00  0.00000000E+00
  0.00000000E+00  0.00000000E+00  0.00000000E+00
  0.00000000E+00  0.00000000E+00  0.00000000E+00
  0.00000000E+00  0.00000000E+00  0.00000000E+00
  0.00000000E+00  0.00000000E+00  0.00000000E+00
  0.00000000E+00  0.00000000E+00  0.00000000E+00
  0.00000000E+00  0.00000000E+00  0.00000000E+00
