O  C  H  Co Li                          
   1.00000000000000     
    25.7526984608618150    1.7788227677633577   -0.3000810605053197
    14.3826319237370690   18.7255879896290551   -0.5526056829433993
    -0.0811069227070240   -0.1273986050193064    6.8126525137676852
   O    C    H    Co   Li
    54    67    16    18     4
Direct
  0.0342998667062311  0.2550663076929175  0.2913347654306345
  0.0070983848372399  0.3158437313403716  0.9390315339014603
  0.0870396277616858  0.2576757889987025  0.7025243740881375
  0.6215584214875053  0.1344508736769933  0.3580381607376283
  0.6050756532759224  0.0946485387832110  0.9983313572588008
  0.5470483719504560  0.1785353787352734  0.7614740415179083
  0.9733644041713108  0.4326960787263971  0.6388320420004009
  0.3582235849233835  0.5763517434200622  0.2819345609302944
  0.3731867918322150  0.5817603786226687  0.8848846462685321
  0.3520351625294195  0.5199441701671875  0.6980341325869799
  0.5696972761273317  0.0368715104367481  0.6629155647727121
  0.3320391736225218  0.9736225123096345  0.3383108364782020
  0.2531622460505867  0.0221693136730513  0.5742259573266897
  0.2969904162291707  0.0270670591732500  0.9840619422704482
  0.5758827474220637  0.4109424749186049  0.3141411762105095
  0.6143541772954583  0.3299683467912501  0.5433080361343320
  0.0241027771825874  0.6451899859389588  0.7348054466823297
  0.0423627186115767  0.5659170342989031  0.9480139271219874
  0.4616790866416837  0.4222972896221110  0.0729211411096165
  0.1040131461554067  0.6174230223789745  0.4013530261269161
  0.1508881123116101  0.6451224752944229  0.6156995253337086
  0.4123218791323725  0.9357546959172556  0.6757350785597596
  0.4350624913431555  0.9811247853670506  0.9242800480330623
  0.1498472647038681  0.5823069349956469  0.0131380225869053
  0.6891178453777518  0.0044049644208186  0.6471775475600368
  0.7595851360432191 -0.0039241434925749  0.4412604735879632
  0.7301875960417206  0.9569919515069397  0.0058716038218914
  0.4659016762353751  0.5434270136367789  0.5498542597167844
  0.4273874291246526  0.6286367243478690  0.3252927897803517
  0.9720102723749403  0.4009448007678005  0.2722126598425780
  0.9281630815017307  0.4901248268908956  0.0544616727754320
  0.4673516613584804  0.5873471796712487  0.9397267799559161
  0.9378630613178833  0.3469817416466811  0.6172075178347873
  0.8632918333009266  0.3899511599221646  0.3671214376228037
  0.6219082116841592  0.0177707459476829  0.3157525551802107
  0.6056976821985112  0.9681231000047603  0.0602959620818420
  0.8683845195082045  0.4101934925568080  0.9678710768200556
  0.9956649639097437  0.7686231586360500  0.6949596184045697
  0.0338161003001367  0.7119406040905382  0.0823093699692790
  0.9497398467346588  0.7720106316414742  0.3055136090825525
  0.3823317574786768  0.8493221664054025  0.6295608916692313
  0.3977510319765511  0.8821331445137994 -0.0071223276946788
  0.4422958202516534  0.7983257624989410  0.2273592622670640
  0.9988997573281154  0.6300311072485100  0.3530757784041114
  0.7073610995408331  0.3510580342353147  0.6489465304848653
  0.6275624633279568  0.4557339245551866  0.0129654207203619
  0.7101621129801862  0.3678034725765789  0.2186853894768551
  0.4630963568418691  0.9156861754764711  0.3195709322908546
  0.6018596781579888  0.5162403397735920  0.5519105205862417
  0.6315974954663039  0.5743235263830425  0.7142492047018221
  0.6785450429307539  0.5198497389827611  0.4125837433295951
  0.7311733774017364  0.1758060100009520  0.6406250946506684
  0.6562121012805938  0.2583431637199124  0.8817538080019066
  0.6813943377242534  0.1465771889033342  0.8205742605783497
  0.0973278051587969  0.2001223570927136  0.2102452166377252
  0.1491227766000805  0.1408618438409937  0.3294332772934671
  0.0680002698851513  0.2596257187894414  0.8746690637621751
  0.1155411409658642  0.1983812478338882  0.0117765045829196
  0.5830594795845945  0.2021104096896534  0.2735895744706948
  0.5813687585447999  0.2559355593006246  0.3746026008896536
  0.5671206175536317  0.1623739019467650  0.9378167848587127
  0.5504270744905978  0.2202851015397634  0.0868322106980527
  0.9771546322960565  0.4822713269102457  0.5708298604193496
 -0.0059681227602777  0.5158777589881274  0.6971140349454907
  0.3047440455924651  0.5816455915579469  0.2164928157139365
  0.2538480963389636  0.6008393616161424  0.3476667588982487
  0.3439145653629205  0.5534832343973211  0.8612460458860733
  0.2999991697907796  0.5647186808761268  0.0169148474246275
  0.5465168982212195  0.0055054694014071  0.5742394707636681
  0.5102359019543901  0.9943185667060971  0.6889914531392910
  0.2691200317967895  0.0233209731696773  0.4008051890409135
  0.2168082432366816  0.0821590731615629  0.2626845700708057
  0.2338948709249397  0.0807768623158694  0.0635727070208990
  0.1825202307391265  0.1390441832681715  0.9440942832964273
  0.5767789270622287  0.3610479454821879  0.3913117055319679
  0.5487153977588828  0.3274264648379479  0.3044584367916577
  0.0239142843995920  0.5924289877916956  0.7778405627669698
  0.0013520273295317  0.5655067655724086  0.6313342164479085
  0.5052623257180346  0.3485310742137597  0.1410834007411798
  0.5079699020395206  0.2957412769514033  0.0326008767207774
  0.1495408108947074  0.6224841043216215  0.4434700558383724
  0.2010422827381553  0.6009024130925120  0.2918524043814070
  0.4414266001940804  0.9600293394387555  0.7452138657599899
  0.4822149128508707  0.9643333937302406  0.6102304091921855
  0.1984190005179078  0.5813626960133502  0.0917697866713586
  0.2493512638188242  0.5624529635260929 -0.0385478211798645
  0.7501320543332082  0.9757200416318192  0.5985134961320996
  0.8072630816426245  0.9210914961397785  0.7312779382772215
  0.7936728148618668  0.9169309837158147  0.9296535399482874
  0.8499511172870197  0.8679634565188947  0.0510101854368758
  0.4434828416599934  0.6092075334755745  0.5020814203745514
  0.4366845613094115  0.6619537042658142  0.6483935950803518
  0.9533749864235179  0.4641981270198072  0.2223499934049532
  0.9660153805847566  0.5017171880965974  0.3684376099557991
  0.4490881975806268  0.6488260454282300  0.8534464679426895
  0.4451503082331634  0.7004896262911644 -0.0241454860186287
  0.8805484952272349  0.3712729535872616  0.5470291288347383
  0.8337193791558902  0.3762841994046466  0.6804740914058938
  0.5963035085224322  0.9900701940718578  0.2393549938825903
  0.5558492117185558  0.9835991076781977  0.3704776846536170
  0.8329665437147301  0.3919634742189927  0.8846881566785192
  0.7893693513135199  0.3919768175841016  0.0021703824253160
  0.9323814770893724  0.8180786084747944  0.7811109736830627
  0.8756896748953181  0.8731122854581375  0.6639990981595226
  0.9699539765703605  0.7656274596116071  0.1311464898348627
  0.9182006630358563  0.8186971862037198  0.9838291466893817
  0.4065385532946238  0.7843906333699329  0.7055863382992043
  0.4150798034688309  0.7298305120721741  0.5810665543833968
  0.4215718105886537  0.8181123307891200  0.0526701842144166
  0.4240056766095581  0.7676655059662904  0.9082711446780860
  0.9901031594071229  0.5850850024256857  0.4296087606461044
  0.9708688197810253  0.5532577675514971  0.3037054161151764
  0.7472337221241591  0.3647843283062626  0.7209015452625515
  0.7930736689092990  0.3610011733131883  0.6030527481799413
  0.6913974839390978  0.4016452273783807  0.0590227881722637
  0.7450063851044954  0.3830343251955555  0.9230584977812819
  0.4900805738929604  0.9435095202518367  0.4060172740677748
  0.5279274395317595  0.9531886410696789  0.2916973891605135
  0.6393870841186575  0.5383124021888099  0.5582839651880136
  0.6894392075248306  0.1924657630849940  0.7835027394318480
  0.4988000097742110  0.4310174459380942  0.9621040688145310
  0.1359668995331274  0.1419803756447752  0.4812641404095900
  0.6130811942609324  0.2379028658900983  0.5049835482643141
  0.0029122884561748  0.5020142410132937  0.8515834703502358
  0.2548703132570421  0.6161747621628922  0.4999619284560975
  0.5031138048521848  0.0104298545482453  0.8449834530454601
  0.1958892439963814  0.1383465522155620  0.7929937601601558
  0.4794894351370461  0.3121765266727708  0.8947527387110571
  0.2463485240023188  0.5498439632103450  0.8080270657554584
  0.8397884458093106  0.8661747012046900  0.2036999625773534
  0.4574186126586533  0.6881033884524866  0.1308344972485395
  0.7898678789015368  0.3985565450841100  0.1611507399555374
  0.8856261646769426  0.8758584466717362  0.5116813137402055
  0.4038702637379302  0.7416080724031676  0.4256904243052628
  0.9623106626735524  0.5668340924731748  0.1488613649836860
  0.7973574022192685  0.3450528067680201  0.4471742215992653
  0.5352449281377106  0.9370678582483462  0.1356865682211867
  0.4106100762486214  0.5142549711880976  0.5115448598827729
  0.0169410536275536  0.3297556225380415  0.4977898331930814
  0.5951198599028651  0.0929692769199469  0.5484493400913926
  0.0831123420912350  0.6709800583967546  0.8227039902635258
  0.3900797482973037  0.9651060693691353  0.1188541465982452
  0.3305891800174381  0.9519302528271161  0.7685241484312909
  0.5643643281217561  0.4352418222398356  0.0421671860418531
  0.5750605401383824  0.3621613382581439  0.8042194142844546
  0.0704441267711602  0.6044218650275424  0.1480816929784307
  0.6404428576922186 -0.0017599234998676  0.8662801476385003
  0.9442618392777837  0.3453070012475241  0.1666357966201426
  0.4781250438163570  0.5031876258884457  0.8078563789798259
  0.6815671123797215  0.0350406933034911  0.2113509189425205
  0.9328871511070804  0.4202458200786278  0.8516200981857316
  0.4073715289633524  0.5905490759975556  0.1172774066194594
  0.6450967236570359  0.4191609155435675  0.4429271174016102
  0.9973543052422637  0.7001373782207369  0.5101107354688837
  0.4198223218973277  0.8757026240551267  0.4347190398778801
  0.7627691602872299  0.4826671230804636  0.3519927176870830
  0.5914250744524495  0.5393501982089343  0.8408434630876750
  0.7240715843262561  0.1010470629909443  0.5574498559408509
  0.7106956994478731  0.2687057355473764  0.6639098018624520
 
  0.00000000E+00  0.00000000E+00  0.00000000E+00
  0.00000000E+00  0.00000000E+00  0.00000000E+00
  0.00000000E+00  0.00000000E+00  0.00000000E+00
  0.00000000E+00  0.00000000E+00  0.00000000E+00
  0.00000000E+00  0.00000000E+00  0.00000000E+00
  0.00000000E+00  0.00000000E+00  0.00000000E+00
  0.00000000E+00  0.00000000E+00  0.00000000E+00
  0.00000000E+00  0.00000000E+00  0.00000000E+00
  0.00000000E+00  0.00000000E+00  0.00000000E+00
  0.00000000E+00  0.00000000E+00  0.00000000E+00
  0.00000000E+00  0.00000000E+00  0.00000000E+00
  0.00000000E+00  0.00000000E+00  0.00000000E+00
  0.00000000E+00  0.00000000E+00  0.00000000E+00
  0.00000000E+00  0.00000000E+00  0.00000000E+00
  0.00000000E+00  0.00000000E+00  0.00000000E+00
  0.00000000E+00  0.00000000E+00  0.00000000E+00
  0.00000000E+00  0.00000000E+00  0.00000000E+00
  0.00000000E+00  0.00000000E+00  0.00000000E+00
  0.00000000E+00  0.00000000E+00  0.00000000E+00
  0.00000000E+00  0.00000000E+00  0.00000000E+00
  0.00000000E+00  0.00000000E+00  0.00000000E+00
  0.00000000E+00  0.00000000E+00  0.00000000E+00
  0.00000000E+00  0.00000000E+00  0.00000000E+00
  0.00000000E+00  0.00000000E+00  0.00000000E+00
  0.00000000E+00  0.00000000E+00  0.00000000E+00
  0.00000000E+00  0.00000000E+00  0.00000000E+00
  0.00000000E+00  0.00000000E+00  0.00000000E+00
  0.00000000E+00  0.00000000E+00  0.00000000E+00
  0.00000000E+00  0.00000000E+00  0.00000000E+00
  0.00000000E+00  0.00000000E+00  0.00000000E+00
  0.00000000E+00  0.00000000E+00  0.00000000E+00
  0.00000000E+00  0.00000000E+00  0.00000000E+00
  0.00000000E+00  0.00000000E+00  0.00000000E+00
  0.00000000E+00  0.00000000E+00  0.00000000E+00
  0.00000000E+00  0.00000000E+00  0.00000000E+00
  0.00000000E+00  0.00000000E+00  0.00000000E+00
  0.00000000E+00  0.00000000E+00  0.00000000E+00
  0.00000000E+00  0.00000000E+00  0.00000000E+00
  0.00000000E+00  0.00000000E+00  0.00000000E+00
  0.00000000E+00  0.00000000E+00  0.00000000E+00
  0.00000000E+00  0.00000000E+00  0.00000000E+00
  0.00000000E+00  0.00000000E+00  0.00000000E+00
  0.00000000E+00  0.00000000E+00  0.00000000E+00
  0.00000000E+00  0.00000000E+00  0.00000000E+00
  0.00000000E+00  0.00000000E+00  0.00000000E+00
  0.00000000E+00  0.00000000E+00  0.00000000E+00
  0.00000000E+00  0.00000000E+00  0.00000000E+00
  0.00000000E+00  0.00000000E+00  0.00000000E+00
  0.00000000E+00  0.00000000E+00  0.00000000E+00
  0.00000000E+00  0.00000000E+00  0.00000000E+00
  0.00000000E+00  0.00000000E+00  0.00000000E+00
  0.00000000E+00  0.00000000E+00  0.00000000E+00
  0.00000000E+00  0.00000000E+00  0.00000000E+00
  0.00000000E+00  0.00000000E+00  0.00000000E+00
  0.00000000E+00  0.00000000E+00  0.00000000E+00
  0.00000000E+00  0.00000000E+00  0.00000000E+00
  0.00000000E+00  0.00000000E+00  0.00000000E+00
  0.00000000E+00  0.00000000E+00  0.00000000E+00
  0.00000000E+00  0.00000000E+00  0.00000000E+00
  0.00000000E+00  0.00000000E+00  0.00000000E+00
  0.00000000E+00  0.00000000E+00  0.00000000E+00
  0.00000000E+00  0.00000000E+00  0.00000000E+00
  0.00000000E+00  0.00000000E+00  0.00000000E+00
  0.00000000E+00  0.00000000E+00  0.00000000E+00
  0.00000000E+00  0.00000000E+00  0.00000000E+00
  0.00000000E+00  0.00000000E+00  0.00000000E+00
  0.00000000E+00  0.00000000E+00  0.00000000E+00
  0.00000000E+00  0.00000000E+00  0.00000000E+00
  0.00000000E+00  0.00000000E+00  0.00000000E+00
  0.00000000E+00  0.00000000E+00  0.00000000E+00
  0.00000000E+00  0.00000000E+00  0.00000000E+00
  0.00000000E+00  0.00000000E+00  0.00000000E+00
  0.00000000E+00  0.00000000E+00  0.00000000E+00
  0.00000000E+00  0.00000000E+00  0.00000000E+00
  0.00000000E+00  0.00000000E+00  0.00000000E+00
  0.00000000E+00  0.00000000E+00  0.00000000E+00
  0.00000000E+00  0.00000000E+00  0.00000000E+00
  0.00000000E+00  0.00000000E+00  0.00000000E+00
  0.00000000E+00  0.00000000E+00  0.00000000E+00
  0.00000000E+00  0.00000000E+00  0.00000000E+00
  0.00000000E+00  0.00000000E+00  0.00000000E+00
  0.00000000E+00  0.00000000E+00  0.00000000E+00
  0.00000000E+00  0.00000000E+00  0.00000000E+00
  0.00000000E+00  0.00000000E+00  0.00000000E+00
  0.00000000E+00  0.00000000E+00  0.00000000E+00
  0.00000000E+00  0.00000000E+00  0.00000000E+00
  0.00000000E+00  0.00000000E+00  0.00000000E+00
  0.00000000E+00  0.00000000E+00  0.00000000E+00
  0.00000000E+00  0.00000000E+00  0.00000000E+00
  0.00000000E+00  0.00000000E+00  0.00000000E+00
  0.00000000E+00  0.00000000E+00  0.00000000E+00
  0.00000000E+00  0.00000000E+00  0.00000000E+00
  0.00000000E+00  0.00000000E+00  0.00000000E+00
  0.00000000E+00  0.00000000E+00  0.00000000E+00
  0.00000000E+00  0.00000000E+00  0.00000000E+00
  0.00000000E+00  0.00000000E+00  0.00000000E+00
  0.00000000E+00  0.00000000E+00  0.00000000E+00
  0.00000000E+00  0.00000000E+00  0.00000000E+00
  0.00000000E+00  0.00000000E+00  0.00000000E+00
  0.00000000E+00  0.00000000E+00  0.00000000E+00
  0.00000000E+00  0.00000000E+00  0.00000000E+00
  0.00000000E+00  0.00000000E+00  0.00000000E+00
  0.00000000E+00  0.00000000E+00  0.00000000E+00
  0.00000000E+00  0.00000000E+00  0.00000000E+00
  0.00000000E+00  0.00000000E+00  0.00000000E+00
  0.00000000E+00  0.00000000E+00  0.00000000E+00
  0.00000000E+00  0.00000000E+00  0.00000000E+00
  0.00000000E+00  0.00000000E+00  0.00000000E+00
  0.00000000E+00  0.00000000E+00  0.00000000E+00
  0.00000000E+00  0.00000000E+00  0.00000000E+00
  0.00000000E+00  0.00000000E+00  0.00000000E+00
  0.00000000E+00  0.00000000E+00  0.00000000E+00
  0.00000000E+00  0.00000000E+00  0.00000000E+00
  0.00000000E+00  0.00000000E+00  0.00000000E+00
  0.00000000E+00  0.00000000E+00  0.00000000E+00
  0.00000000E+00  0.00000000E+00  0.00000000E+00
  0.00000000E+00  0.00000000E+00  0.00000000E+00
  0.00000000E+00  0.00000000E+00  0.00000000E+00
  0.00000000E+00  0.00000000E+00  0.00000000E+00
  0.00000000E+00  0.00000000E+00  0.00000000E+00
  0.00000000E+00  0.00000000E+00  0.00000000E+00
  0.00000000E+00  0.00000000E+00  0.00000000E+00
  0.00000000E+00  0.00000000E+00  0.00000000E+00
  0.00000000E+00  0.00000000E+00  0.00000000E+00
  0.00000000E+00  0.00000000E+00  0.00000000E+00
  0.00000000E+00  0.00000000E+00  0.00000000E+00
  0.00000000E+00  0.00000000E+00  0.00000000E+00
  0.00000000E+00  0.00000000E+00  0.00000000E+00
  0.00000000E+00  0.00000000E+00  0.00000000E+00
  0.00000000E+00  0.00000000E+00  0.00000000E+00
  0.00000000E+00  0.00000000E+00  0.00000000E+00
  0.00000000E+00  0.00000000E+00  0.00000000E+00
  0.00000000E+00  0.00000000E+00  0.00000000E+00
  0.00000000E+00  0.00000000E+00  0.00000000E+00
  0.00000000E+00  0.00000000E+00  0.00000000E+00
  0.00000000E+00  0.00000000E+00  0.00000000E+00
  0.00000000E+00  0.00000000E+00  0.00000000E+00
  0.00000000E+00  0.00000000E+00  0.00000000E+00
  0.00000000E+00  0.00000000E+00  0.00000000E+00
  0.00000000E+00  0.00000000E+00  0.00000000E+00
  0.00000000E+00  0.00000000E+00  0.00000000E+00
  0.00000000E+00  0.00000000E+00  0.00000000E+00
  0.00000000E+00  0.00000000E+00  0.00000000E+00
  0.00000000E+00  0.00000000E+00  0.00000000E+00
  0.00000000E+00  0.00000000E+00  0.00000000E+00
  0.00000000E+00  0.00000000E+00  0.00000000E+00
  0.00000000E+00  0.00000000E+00  0.00000000E+00
  0.00000000E+00  0.00000000E+00  0.00000000E+00
  0.00000000E+00  0.00000000E+00  0.00000000E+00
  0.00000000E+00  0.00000000E+00  0.00000000E+00
  0.00000000E+00  0.00000000E+00  0.00000000E+00
  0.00000000E+00  0.00000000E+00  0.00000000E+00
  0.00000000E+00  0.00000000E+00  0.00000000E+00
  0.00000000E+00  0.00000000E+00  0.00000000E+00
  0.00000000E+00  0.00000000E+00  0.00000000E+00
  0.00000000E+00  0.00000000E+00  0.00000000E+00
  0.00000000E+00  0.00000000E+00  0.00000000E+00
  0.00000000E+00  0.00000000E+00  0.00000000E+00
  0.00000000E+00  0.00000000E+00  0.00000000E+00
