O  C  H  Co Li                          
   1.00000000000000     
    26.0558646454060252    0.1843787620264545   -0.3140343781784491
    13.1864192761263812   21.8426606633313973   -0.3394518843135407
    -0.0845433267101872   -0.0546433466481773    6.7586210007157232
   O    C    H    Co   Li
    54    67    16    18     4
Direct
  0.0618734784276916  0.2575241389835537  0.2857051948613018
  0.0424399344778708  0.3107527102531015  0.9454256794646332
  0.1070306169437479  0.2667033633687086  0.6952437084189319
  0.6783767248126404  0.0820643615485258  0.3485781836894792
  0.6524200775919011  0.0517954766628451  0.9836905171923370
  0.6101906587638476  0.1238927013506238  0.7510010926091686
  0.0127264216266671  0.4025152489704587  0.6319536054111441
  0.2809007448279478  0.6657527849986328  0.3207220702827989
  0.3252490710774492  0.6360585114591645  0.9546493638181450
  0.2930224078604990  0.5864346992131730  0.7618110532194698
  0.5893935443550472  0.0208152691913496  0.6617293413398793
  0.3076111565712595  0.0338461514880192  0.3510987305446093
  0.2369450358112893  0.0771037106756234  0.5820308762925964
  0.2841912982790034  0.0819029010445179  0.9902191022659146
  0.6529713730553255  0.3178511485807925  0.3319546906284869
  0.6583132369930980  0.2732874928510324  0.6155458669428248
  0.0100251413749619  0.6372152662798206  0.7048396286818269
  0.0344588355896035  0.5675321000281325  0.9376065914011145
  0.5434460676317556  0.3253322421568083  0.1123396204647743
  0.0492413080236955  0.6700249011974706  0.3762412256512379
  0.0926440778124323  0.6953206227741698  0.6171595886844374
  0.3784549572760015 -0.0087221462347853  0.6871210213878757
  0.4176708355403105  0.0220858216114150  0.9261363956657453
  0.0958332089526341  0.6402632370329067  0.0138105438302667
  0.7046718523358315  0.9802098351594455  0.6436430376987032
  0.7761866428551966  0.9598016385707832  0.4271394970199578
  0.7338536354188530  0.9345704818404893  0.0021984488304311
  0.3599952847647879  0.6940748859520314  0.4929901584935675
  0.2960766265485604  0.7775133139543713  0.3293125066226134
 -0.0184645208668631  0.3845643798797176  0.2838459327586258
  0.9640973340672713  0.4480481257928615  0.0340476519408895
  0.3411207414996270  0.7253727777960943  0.9176649176056577
  0.9810947802959140  0.3092723339232154  0.6145694968905506
  0.9246844439157883  0.3117749008709872  0.3506693891233670
  0.6360416151556613  0.0033436247551881  0.3084849499430398
  0.6049202911824408  0.9654938135566306  0.0628569010152793
  0.9153445729547306  0.3620571088178540  0.9430528829191225
  0.9537166345366702  0.7604475463263424  0.6809988830552224
  0.9782921602003529  0.7107068976114934  0.0414228864125428
  0.9091897115472822  0.7539535835014036  0.2768829306797997
  0.3143977870995621  0.9415681023623861  0.6466982574235249
  0.3391909516489008  0.9613054442336596  0.0144866856638544
  0.3684329747597410  0.8892230854187729  0.2422673526001758
  0.9855150523805454  0.6162149619067515  0.3384420046820675
  0.7722076287332900  0.2739143366676835  0.6523708313278731
  0.6936434512532350  0.3723924218565307 -0.0021708350784832
  0.7680895050346597  0.3080627344091892  0.2064330150449838
  0.4261112609513748  0.9674472770087832  0.3240271417920478
  0.6826350904134358  0.4132798280304704  0.5476362543099123
  0.7076829515144331  0.4758112601005710  0.6935704533784578
  0.7593358170929084  0.4198404496805488  0.4231313898053436
  0.7748067561057801  0.1262298681690225  0.6164234645870912
  0.7257314295403590  0.1770654011059236  0.8913567339093010
  0.7410366962954665  0.0822472157017192  0.8143472141594875
  0.1159490170930385  0.2165982763042986  0.2095211486901125
  0.1577343961113042  0.1695706944644966  0.3322083248228438
  0.0925653945835827  0.2671150627306453  0.8725537806262544
  0.1329218127054863  0.2179157796941123  0.0111585241333091
  0.6476330440144767  0.1388869134689520  0.2714597284753807
  0.6450016687802765  0.1859254902816696  0.3933926559087302
  0.6290112808373562  0.1074142025992632  0.9279077062496159
  0.6221691287916919  0.1535167544842626  0.0777424447879907
  0.0043764829084943  0.4548674155080785  0.5573473115245164
  0.0132717198386438  0.4938268928361292  0.6827717283334632
  0.2357912997316053  0.6577475649458803  0.2484935002262113
  0.1862275205909000  0.6734775109049019  0.3659411502798047
  0.2889184086244942  0.6157880007014613  0.9238753702191198
  0.2396320838426653  0.6316721938739054  0.0576614794031000
  0.5517293687087997  0.0060584797428954  0.5747042387850684
  0.5072092671521543  0.0083460426140448  0.6907925693270062
  0.2549540105032432  0.0759604067502912  0.4076572686837418
  0.2145858959537119  0.1240966775687855  0.2665536796242115
  0.2310440194410930  0.1246622481115128  0.0671306711314850
  0.1895679129916194  0.1723120129956754  0.9449867897331694
  0.6413848636090917  0.2827083139463971  0.4361534991566984
  0.6193128336776106  0.2461423145522961  0.3324633921476692
  0.0179390322909820  0.5857334226536209  0.7616259799064330
  0.0068343336888662  0.5483201462699399  0.6165284701118865
  0.5853857395221712  0.2619710547513898  0.1520060234786010
  0.5887400553659354  0.2163621094434074  0.0220065689463057
  0.0913787749196622  0.6783770283912745  0.4393832568905652
  0.1395505677539195  0.6653702323144999  0.2986471087049590
  0.4180976154187930  0.0033213360644102  0.7494439016794698
  0.4648294559349364 -0.0043090050218831  0.6129662467357304
  0.1407553428750336  0.6438444732209424  0.0997511836822280
  0.1919381952055856  0.6258234064319744  0.9867780628381392
  0.7595447387373578  0.9481929311982666  0.5899721655714324
  0.8026653874732985  0.8982232314380773  0.7205457624451638
  0.7873501094809174  0.8948630705170235  0.9200056140231767
  0.8303038127200991  0.8470713297574562  0.0361246018454638
  0.3254460084600854  0.7539840796263437  0.4879479837415382
  0.3251398881899864  0.7937419451637200  0.6506663605723100
  0.9771479553502612  0.4334825137734365  0.2136798263734467
 -0.0119368666168354  0.4719197511523681  0.3555960574289936
  0.3375711036080389  0.7768667876511579  0.8537775139946223
  0.3446405725321215  0.8162488585361515  0.9842413468231218
  0.9362482702978566  0.3089168915951078  0.5376482740367700
  0.8927081626955561  0.3095819472668088  0.6750334092562876
  0.6008493149030634  0.9855998226222037  0.2396078679711572
  0.5543908592118230  0.9892203671450535  0.3708154438623988
  0.8824095204574661  0.3404638568258397  0.8616256027528038
  0.8325418276840980  0.3498714402856132  0.9664612593195818
  0.9015114775832620  0.8036537624527854  0.7628827207705275
  0.8590431785720637  0.8532076389872205  0.6475700055487414
  0.9263498453397545  0.7532422755953005  0.1021846496101727
  0.8862823931347695  0.8021208271866267  0.9634466341306406
  0.3220027035755812  0.8897190391748134  0.7216438745808547
  0.3154475086973387  0.8501212408726476  0.5916966510599955
  0.3490675267535647  0.9089789561926601  0.0683546370823655
  0.3377679593616729  0.8716281285186086  0.9229759852500189
  0.9913631771868326  0.5651234841804763  0.4140807007829139
  0.9818984171034004  0.5262589248087967  0.2889142798079768
  0.8083126100213758  0.2934761891096167  0.7216809548586981
  0.8568123174253511  0.2857886743262643  0.6116268557025577
  0.7497287169635694  0.3356403444982093  0.0434991611750226
  0.7973944649596355  0.3261065873427654  0.9044084864770950
  0.4665248588161214  0.9790520829535047  0.4085518401576332
  0.5123648094521308  0.9754812607980579  0.2932303815245327
  0.7186774398473914  0.4379630303953597  0.5529016593879540
  0.7474191595856783  0.1270373588981455  0.7769369608447476
  0.5842226942727543  0.3252753364705956 -0.0107413624664871
  0.1452439906436357  0.1688508185006335  0.4843412448966542
  0.6703240649106027  0.1724503250733303  0.5318516483517844
  0.0255598372543820  0.4810402217970040  0.8370101914336866
  0.1833376157978943  0.6926384147122396  0.5146412303636465
  0.5051554940817775  0.0214492919779871  0.8464400195175844
  0.2020329819595382  0.1734286803005936  0.7930457724209975
  0.5578748702287039  0.2295102128005870  0.8949074491279817
  0.1934096891260834  0.6084063198103478  0.8367426685925531
  0.8191602190985966  0.8441105414020004  0.1882349819227650
  0.3558345059280889  0.8036890344357052  0.1388314885170371
  0.8178959915524743  0.3821469107790909  0.0916750321068052
  0.8701796623882129  0.8557355507406059  0.4950446166492178
  0.3047639791897093  0.8630465490393711  0.4369952772875035
  0.9696520698370819  0.5388737878988009  0.1345131197158502
  0.8666091149528256  0.2603969469485232  0.4705493099604712
  0.5144871161825100  0.9625217076652955  0.1371851164344809
  0.3078303517077055  0.6193519880466575  0.5480532762601202
  0.0417378284838954  0.3216511261259885  0.4896498667577149
  0.6317715975853114  0.0594275232141572  0.5426717866830133
  0.0339662666881026  0.6956695229982921  0.8111772040102172
  0.3648416846082854  0.0199431928326433  0.1237851868329120
  0.2937364874657961  0.0218356236083152  0.7870258032751889
  0.6415914157442993  0.3388260751572650  0.0423136271223224
  0.6428131412013053  0.2507634149596583  0.8923687206197960
  0.0346260142769284  0.6258588896246056  0.1426525054153615
  0.6511845071339601  0.9789523929446565  0.8642145120327820
  0.9827882200847903  0.3150833551474045  0.1459067819242651
  0.3497146035253465  0.6584829160348082  0.7195827088670798
  0.7127622814537981  0.9980624060731839  0.2043969376278952
  0.9723922166173904  0.3830605121865256  0.8298138362348937
  0.3172719531092963  0.7030797727776316  0.1611648960389258
  0.7182663636507932  0.3319853970553041  0.4475297562105762
  0.9675593913152055  0.6959658952822646  0.4781055636223428
  0.3671245869005774  0.9462305917651940  0.4497249477943923
  0.8348568525017283  0.3607392237325718  0.3732241066062111
  0.6676543128296936  0.4417103061562632  0.8193701183999117
  0.7584457373622419  0.0599552246051595  0.5352015970798147
  0.7588912393106594  0.2081670784192407  0.6911125998603970
 
  0.00000000E+00  0.00000000E+00  0.00000000E+00
  0.00000000E+00  0.00000000E+00  0.00000000E+00
  0.00000000E+00  0.00000000E+00  0.00000000E+00
  0.00000000E+00  0.00000000E+00  0.00000000E+00
  0.00000000E+00  0.00000000E+00  0.00000000E+00
  0.00000000E+00  0.00000000E+00  0.00000000E+00
  0.00000000E+00  0.00000000E+00  0.00000000E+00
  0.00000000E+00  0.00000000E+00  0.00000000E+00
  0.00000000E+00  0.00000000E+00  0.00000000E+00
  0.00000000E+00  0.00000000E+00  0.00000000E+00
  0.00000000E+00  0.00000000E+00  0.00000000E+00
  0.00000000E+00  0.00000000E+00  0.00000000E+00
  0.00000000E+00  0.00000000E+00  0.00000000E+00
  0.00000000E+00  0.00000000E+00  0.00000000E+00
  0.00000000E+00  0.00000000E+00  0.00000000E+00
  0.00000000E+00  0.00000000E+00  0.00000000E+00
  0.00000000E+00  0.00000000E+00  0.00000000E+00
  0.00000000E+00  0.00000000E+00  0.00000000E+00
  0.00000000E+00  0.00000000E+00  0.00000000E+00
  0.00000000E+00  0.00000000E+00  0.00000000E+00
  0.00000000E+00  0.00000000E+00  0.00000000E+00
  0.00000000E+00  0.00000000E+00  0.00000000E+00
  0.00000000E+00  0.00000000E+00  0.00000000E+00
  0.00000000E+00  0.00000000E+00  0.00000000E+00
  0.00000000E+00  0.00000000E+00  0.00000000E+00
  0.00000000E+00  0.00000000E+00  0.00000000E+00
  0.00000000E+00  0.00000000E+00  0.00000000E+00
  0.00000000E+00  0.00000000E+00  0.00000000E+00
  0.00000000E+00  0.00000000E+00  0.00000000E+00
  0.00000000E+00  0.00000000E+00  0.00000000E+00
  0.00000000E+00  0.00000000E+00  0.00000000E+00
  0.00000000E+00  0.00000000E+00  0.00000000E+00
  0.00000000E+00  0.00000000E+00  0.00000000E+00
  0.00000000E+00  0.00000000E+00  0.00000000E+00
  0.00000000E+00  0.00000000E+00  0.00000000E+00
  0.00000000E+00  0.00000000E+00  0.00000000E+00
  0.00000000E+00  0.00000000E+00  0.00000000E+00
  0.00000000E+00  0.00000000E+00  0.00000000E+00
  0.00000000E+00  0.00000000E+00  0.00000000E+00
  0.00000000E+00  0.00000000E+00  0.00000000E+00
  0.00000000E+00  0.00000000E+00  0.00000000E+00
  0.00000000E+00  0.00000000E+00  0.00000000E+00
  0.00000000E+00  0.00000000E+00  0.00000000E+00
  0.00000000E+00  0.00000000E+00  0.00000000E+00
  0.00000000E+00  0.00000000E+00  0.00000000E+00
  0.00000000E+00  0.00000000E+00  0.00000000E+00
  0.00000000E+00  0.00000000E+00  0.00000000E+00
  0.00000000E+00  0.00000000E+00  0.00000000E+00
  0.00000000E+00  0.00000000E+00  0.00000000E+00
  0.00000000E+00  0.00000000E+00  0.00000000E+00
  0.00000000E+00  0.00000000E+00  0.00000000E+00
  0.00000000E+00  0.00000000E+00  0.00000000E+00
  0.00000000E+00  0.00000000E+00  0.00000000E+00
  0.00000000E+00  0.00000000E+00  0.00000000E+00
  0.00000000E+00  0.00000000E+00  0.00000000E+00
  0.00000000E+00  0.00000000E+00  0.00000000E+00
  0.00000000E+00  0.00000000E+00  0.00000000E+00
  0.00000000E+00  0.00000000E+00  0.00000000E+00
  0.00000000E+00  0.00000000E+00  0.00000000E+00
  0.00000000E+00  0.00000000E+00  0.00000000E+00
  0.00000000E+00  0.00000000E+00  0.00000000E+00
  0.00000000E+00  0.00000000E+00  0.00000000E+00
  0.00000000E+00  0.00000000E+00  0.00000000E+00
  0.00000000E+00  0.00000000E+00  0.00000000E+00
  0.00000000E+00  0.00000000E+00  0.00000000E+00
  0.00000000E+00  0.00000000E+00  0.00000000E+00
  0.00000000E+00  0.00000000E+00  0.00000000E+00
  0.00000000E+00  0.00000000E+00  0.00000000E+00
  0.00000000E+00  0.00000000E+00  0.00000000E+00
  0.00000000E+00  0.00000000E+00  0.00000000E+00
  0.00000000E+00  0.00000000E+00  0.00000000E+00
  0.00000000E+00  0.00000000E+00  0.00000000E+00
  0.00000000E+00  0.00000000E+00  0.00000000E+00
  0.00000000E+00  0.00000000E+00  0.00000000E+00
  0.00000000E+00  0.00000000E+00  0.00000000E+00
  0.00000000E+00  0.00000000E+00  0.00000000E+00
  0.00000000E+00  0.00000000E+00  0.00000000E+00
  0.00000000E+00  0.00000000E+00  0.00000000E+00
  0.00000000E+00  0.00000000E+00  0.00000000E+00
  0.00000000E+00  0.00000000E+00  0.00000000E+00
  0.00000000E+00  0.00000000E+00  0.00000000E+00
  0.00000000E+00  0.00000000E+00  0.00000000E+00
  0.00000000E+00  0.00000000E+00  0.00000000E+00
  0.00000000E+00  0.00000000E+00  0.00000000E+00
  0.00000000E+00  0.00000000E+00  0.00000000E+00
  0.00000000E+00  0.00000000E+00  0.00000000E+00
  0.00000000E+00  0.00000000E+00  0.00000000E+00
  0.00000000E+00  0.00000000E+00  0.00000000E+00
  0.00000000E+00  0.00000000E+00  0.00000000E+00
  0.00000000E+00  0.00000000E+00  0.00000000E+00
  0.00000000E+00  0.00000000E+00  0.00000000E+00
  0.00000000E+00  0.00000000E+00  0.00000000E+00
  0.00000000E+00  0.00000000E+00  0.00000000E+00
  0.00000000E+00  0.00000000E+00  0.00000000E+00
  0.00000000E+00  0.00000000E+00  0.00000000E+00
  0.00000000E+00  0.00000000E+00  0.00000000E+00
  0.00000000E+00  0.00000000E+00  0.00000000E+00
  0.00000000E+00  0.00000000E+00  0.00000000E+00
  0.00000000E+00  0.00000000E+00  0.00000000E+00
  0.00000000E+00  0.00000000E+00  0.00000000E+00
  0.00000000E+00  0.00000000E+00  0.00000000E+00
  0.00000000E+00  0.00000000E+00  0.00000000E+00
  0.00000000E+00  0.00000000E+00  0.00000000E+00
  0.00000000E+00  0.00000000E+00  0.00000000E+00
  0.00000000E+00  0.00000000E+00  0.00000000E+00
  0.00000000E+00  0.00000000E+00  0.00000000E+00
  0.00000000E+00  0.00000000E+00  0.00000000E+00
  0.00000000E+00  0.00000000E+00  0.00000000E+00
  0.00000000E+00  0.00000000E+00  0.00000000E+00
  0.00000000E+00  0.00000000E+00  0.00000000E+00
  0.00000000E+00  0.00000000E+00  0.00000000E+00
  0.00000000E+00  0.00000000E+00  0.00000000E+00
  0.00000000E+00  0.00000000E+00  0.00000000E+00
  0.00000000E+00  0.00000000E+00  0.00000000E+00
  0.00000000E+00  0.00000000E+00  0.00000000E+00
  0.00000000E+00  0.00000000E+00  0.00000000E+00
  0.00000000E+00  0.00000000E+00  0.00000000E+00
  0.00000000E+00  0.00000000E+00  0.00000000E+00
  0.00000000E+00  0.00000000E+00  0.00000000E+00
  0.00000000E+00  0.00000000E+00  0.00000000E+00
  0.00000000E+00  0.00000000E+00  0.00000000E+00
  0.00000000E+00  0.00000000E+00  0.00000000E+00
  0.00000000E+00  0.00000000E+00  0.00000000E+00
  0.00000000E+00  0.00000000E+00  0.00000000E+00
  0.00000000E+00  0.00000000E+00  0.00000000E+00
  0.00000000E+00  0.00000000E+00  0.00000000E+00
  0.00000000E+00  0.00000000E+00  0.00000000E+00
  0.00000000E+00  0.00000000E+00  0.00000000E+00
  0.00000000E+00  0.00000000E+00  0.00000000E+00
  0.00000000E+00  0.00000000E+00  0.00000000E+00
  0.00000000E+00  0.00000000E+00  0.00000000E+00
  0.00000000E+00  0.00000000E+00  0.00000000E+00
  0.00000000E+00  0.00000000E+00  0.00000000E+00
  0.00000000E+00  0.00000000E+00  0.00000000E+00
  0.00000000E+00  0.00000000E+00  0.00000000E+00
  0.00000000E+00  0.00000000E+00  0.00000000E+00
  0.00000000E+00  0.00000000E+00  0.00000000E+00
  0.00000000E+00  0.00000000E+00  0.00000000E+00
  0.00000000E+00  0.00000000E+00  0.00000000E+00
  0.00000000E+00  0.00000000E+00  0.00000000E+00
  0.00000000E+00  0.00000000E+00  0.00000000E+00
  0.00000000E+00  0.00000000E+00  0.00000000E+00
  0.00000000E+00  0.00000000E+00  0.00000000E+00
  0.00000000E+00  0.00000000E+00  0.00000000E+00
  0.00000000E+00  0.00000000E+00  0.00000000E+00
  0.00000000E+00  0.00000000E+00  0.00000000E+00
  0.00000000E+00  0.00000000E+00  0.00000000E+00
  0.00000000E+00  0.00000000E+00  0.00000000E+00
  0.00000000E+00  0.00000000E+00  0.00000000E+00
  0.00000000E+00  0.00000000E+00  0.00000000E+00
  0.00000000E+00  0.00000000E+00  0.00000000E+00
  0.00000000E+00  0.00000000E+00  0.00000000E+00
  0.00000000E+00  0.00000000E+00  0.00000000E+00
  0.00000000E+00  0.00000000E+00  0.00000000E+00
  0.00000000E+00  0.00000000E+00  0.00000000E+00
  0.00000000E+00  0.00000000E+00  0.00000000E+00
  0.00000000E+00  0.00000000E+00  0.00000000E+00
  0.00000000E+00  0.00000000E+00  0.00000000E+00
  0.00000000E+00  0.00000000E+00  0.00000000E+00
