O  C  H  Co Li                          
   1.00000000000000     
    23.9261198104165054    1.4270226320989507   -0.1702423552515908
    13.3807977504398092   19.9075722412530887    0.0070620584243260
    -0.0366049182984033    0.0428470880645103    6.8013684059336974
   O    C    H    Co   Li
    54    67    16    18     4
Direct
  0.0632262780839890  0.2534412088901713  0.2892864491116682
  0.0367922260428614  0.2969434153119149  0.9106078717883294
  0.1103573534198950  0.2623126999788482  0.6973588907899583
  0.6972002695542175  0.0641318291219425  0.3542396011671700
  0.6773955943273736  0.0332732743773442  0.9707541035775472
  0.6263577527363182  0.1072024894884643  0.7658505490744669
  0.0319145540751955  0.3943964554897447  0.6285341303086396
  0.2458776293486740  0.6988521939772904  0.3353960023116864
  0.3010048409757836  0.6663225466419869  0.9840979222148062
  0.2729440004147721  0.6163498859326206  0.7885251666138879
  0.5888455941692634  0.0201192170105564  0.6659535573707281
  0.3077403527439128  0.0506510474897166  0.3612388449306888
  0.2341942182424249  0.0887292388174699  0.5744451166304154
  0.2814003017326471  0.0945464628811105  0.9803707753539529
  0.6724109984869886  0.2972560377257989  0.3348177820014678
  0.6804165499585881  0.2475069539139101  0.6013844695763553
  0.9862551002022315  0.6400944554498131  0.7182228344579346
  0.0281650945655650  0.5648769429394974  0.9235713340471753
  0.5656901688323086  0.2977744274657607  0.1041161009635445
  0.0430601139569018  0.6545361461250304  0.3898939426455235
  0.0753313543554251  0.6954967826393066  0.6050242744586634
  0.3767316640201234  0.9935662346648185  0.6940997921200261
  0.4142430742759364  0.0273527871834319  0.9163237483232100
  0.0884670391744920  0.6379607771491035  0.0118423899429447
  0.7044012576821191  0.9640292067565588  0.6314364083519443
  0.7773328567310581  0.9338714215088452  0.4165248994929855
  0.7331807383677523  0.9194660300796159  0.0057921118373030
  0.3415692061967108  0.7178671172629949  0.5191859456745420
  0.2849605536399345  0.7980163044937767  0.3475413017050223
  0.0171695586074303  0.3677945146955180  0.2480850153978269
  0.9764644437057425  0.4416393455416875  0.0368813772416626
  0.3240123310192757  0.7517965409864290  0.9317087806297519
  0.9684922176746487  0.3420467614740403  0.5731144165169663
  0.9279491028500764  0.3104430305289282  0.3527470802295257
  0.6330635961670512  0.0087714620522293  0.2996389712440266
  0.6008732106618605  0.9704555170414311  0.0738129845385020
  0.9210704186724994  0.3647921661129992  0.9484504667088295
  0.9447036232364031  0.7540821755896114  0.6755649428107184
  0.9734338732406331  0.7097084025181786  0.0549449853379171
  0.9003227617903157  0.7463864949994232  0.2701556672727981
  0.3019477816030723  0.9579499716124948  0.6402252801781474
  0.3193440031341779  0.9812450829388919  0.0244938530312586
  0.3556956171813753  0.9065712635727469  0.2326169072970838
  0.9716402959913997  0.6135173670473676  0.3310214075197588
  0.7856579209629534  0.2702930046922486  0.6714855796954726
  0.7068278021577961  0.3595689115862364  0.0056850244497198
  0.7804127157129040  0.3086039573394567  0.2218987918274444
  0.4227789938504376  0.9771118985782153  0.3195195118248816
  0.6995109760238044  0.3990174255242653  0.5483444972652425
  0.7243433387450958  0.4604858286131225  0.6852571522380926
  0.7744184074522101  0.4092710948088484  0.4180136047638830
  0.7936243682172780  0.1207768110100709  0.6083250993629739
  0.7493849925597736  0.1674854432323821  0.8843385557874449
  0.7500702556607405  0.0828486427975271  0.7906450418265190
  0.1152579862945732  0.2163737921666607  0.2054485200275119
  0.1580200911301043  0.1730763132149659  0.3258690932685966
  0.0913098463116670  0.2609589119345515  0.8649857459758343
  0.1305118433528257  0.2174936516899076  0.0077289421374397
  0.6683840578431487  0.1187665796820014  0.2675633136842777
  0.6656578556992327  0.1645019772360801  0.3853806702615998
  0.6499181405139745  0.0888857129089805  0.9311437764263386
  0.6446350045491063  0.1320217799098738  0.0772171932208819
  0.0170964093967095  0.4467590445127972  0.5473092664829863
  0.0180907961451513  0.4888472088038459  0.6705171057250310
  0.2081808835302179  0.6827738960303087  0.2547123514592462
  0.1602830931114107  0.6897284968237248  0.3639269603667756
  0.2661979196662229  0.6447815101941239  0.9472125376077484
  0.2173132416723113  0.6561165227291554  0.0696348577669042
  0.5503345416805488  0.0088089477839893  0.5753156609481422
  0.5051381889234539  0.0106449831571028  0.6879517078146328
  0.2535298221499427  0.0881809057317924  0.4058526233683393
  0.2144958368205843  0.1312934291134132  0.2620486543827607
  0.2296202200694458  0.1320656813787056  0.0639248479053670
  0.1869473048997123  0.1756697563779166  0.9437479562518764
  0.6636944443163353  0.2581126383998043  0.4273891921580352
  0.6429620217655201  0.2226015028501505  0.3233274614082403
  0.0065834633212518  0.5848351328009044  0.7578610806577548
  0.0029999035185155  0.5457821909023299  0.6107501181138283
  0.6137451067197759  0.2361921168614640  0.1416661575626154
  0.6150088631220274  0.1924757981643157  0.0196011836638994
  0.0772686646213143  0.6750208326658319  0.4364712439697726
  0.1205488946372361  0.6721735942082560  0.2975118085094782
  0.4151544123631558  0.0078605643746005  0.7472524092595524
  0.4611893015947354  0.0009255430811630  0.6120165580370838
  0.1260170126660074  0.6507396986922468  0.1032746871747328
  0.1751304304925310  0.6422563334515972  0.9970661875764653
  0.7586948542942233  0.9291937757995447  0.5822058309092959
  0.7979566634794331  0.8832941766986651  0.7187005154268202
  0.7839418851557273  0.8815202777612897  0.9177813781706706
  0.8261239566031604  0.8361254501170853  0.0331274962504910
  0.3120019727702723  0.7755436696926402  0.5043964210910963
  0.3128856729371089  0.8141852867453725  0.6577749301429099
  0.9973531639499149  0.4226852080680919  0.2039675598008419
  0.0007639061713984  0.4621570617985292  0.3495666956715713
  0.3230252397045009  0.7998696660033993  0.8580299378019097
  0.3299264171897591  0.8381346609796790  0.9831561341308841
  0.9341084040691254  0.3221338041657182  0.5297365117855567
  0.8979378611116809  0.3163403927249410  0.6786534363439117
  0.5972682692022987  0.9910667892293753  0.2426125746072578
  0.5511725605077075  0.9960058264788244  0.3745042300738583
  0.8894759918107972  0.3434003795686162  0.8643522763385874
  0.8413194723924389  0.3494561431306409  0.9708617325942003
  0.8945719290514458  0.7932992426432817  0.7633307013959709
  0.8525093157450798  0.8391761386126351  0.6480074451887605
  0.9195094781824975  0.7472625448599014  0.1023927770994685
  0.8808228471853443  0.7922864904138426  0.9629366593547215
  0.3104894959294306  0.9078983267255987  0.7226935003140883
  0.3057701288793473  0.8683819683040165  0.5974702859913361
  0.3343413056318433  0.9274035101091622  0.0671654014532199
  0.3245438810480926  0.8915933323869946  0.9218808452067033
  0.9864883484853771  0.5613059593640177  0.4127993603533385
  0.9856429271311254  0.5190580433872837  0.2896126975603638
  0.8181615884544541  0.2932602943914580  0.7382231574237527
  0.8651297797859197  0.2888565585181890  0.6276762886501331
  0.7620939987093528  0.3308389489055774  0.0547608461376634
  0.8067440227966468  0.3250660435048284  0.9149533880607816
  0.4617124651873308  0.9880395666308934  0.4108149420751396
  0.5073075805064716  0.9859695486319713  0.2981801013969155
  0.7351032316262991  0.4245133418845954  0.5478475111513702
  0.7647634847936405  0.1220713609499522  0.7637448121153878
  0.6054830669657834  0.3032510055084802  0.0005794412148909
  0.1456145883511052  0.1719732960343607  0.4750817406696889
  0.6843541300564531  0.1519617470546078  0.5295518501198735
  0.0321079953539434  0.4753839197393965  0.8187954834830014
  0.1519344684560164  0.7111140441354330  0.5048824760571261
  0.5037946111567629  0.0220881046868675  0.8395717347743777
  0.1993191195259719  0.1768548048316243  0.7945332963745955
  0.5827422349802721  0.2062022665944707  0.9024610075407281
  0.1808621060585369  0.6229778214809869  0.8539669491467375
  0.8143384080065510  0.8346600048619843  0.1828274235947514
  0.3397332330547105  0.8253442571483928  0.1337466458165502
  0.8284960557851999  0.3798927140721476  0.0929277784288265
  0.8642473325238229  0.8403681790239136  0.4979965405392100
  0.2961119244230919  0.8812813951005315  0.4467222230064259
  0.9715740399550145  0.5324516497682313  0.1413477377005035
  0.8760174978580544  0.2621515953497940  0.4965936327737248
  0.5087561830801210  0.9745553949047595  0.1464654338124015
  0.2688083795642460  0.6560566791146597  0.5652139712050689
  0.0547926693970273  0.3160748611394968  0.4885297512906021
  0.6412396421313341  0.0490766529133180  0.5450533144645041
  0.0220246563867821  0.6936939942125662  0.8121639117493006
  0.3576266317083283  0.0324622266085177  0.1205526444619605
  0.2878748305695784  0.0327370824761964  0.7818678900055621
  0.6543068995751200  0.3281736317864664  0.0639565830036936
  0.6644799646158969  0.2325930258374204  0.8817816587274182
  0.0273880630486723  0.6204931074809980  0.1383465698653083
  0.6539113273461806  0.9719927342417066  0.8681720155590797
  0.9863907068430324  0.3120556827605058  0.1496042567991626
  0.3241662852158276  0.6910709136118830  0.7500928250447547
  0.7183582473174167  0.9839560371559588  0.2071887277781653
  0.9798417973233371  0.3843201221064131  0.8221698596610041
  0.2931029109407069  0.7318112089886794  0.1775093047286333
  0.7307150626034822  0.3201616788012520  0.4586162837019765
  0.9540650020339100  0.6901348644091450  0.4756704229820543
  0.3601995009960627  0.9611639074517319  0.4419596565976455
  0.8374249937418831  0.3395189658282998  0.3330166215911529
  0.6866492148911136  0.4244415862273433  0.8118544187522321
  0.7639789028715994  0.0666324944634430  0.5197113065001130
  0.7796703656229956  0.1989463134005333  0.6875846088826442
