O  C  H  Co Li                          
   1.00000000000000     
    23.9261198104165054    1.4270226320989507   -0.1702423552515908
    13.3807977504398092   19.9075722412530887    0.0070620584243260
    -0.0366049182984033    0.0428470880645103    6.8013684059336974
   O    C    H    Co   Li
    54    67    16    18     4
Direct
  0.0431920145127602  0.2478970636960788  0.2881128897222006
  0.0153592545508516  0.3062789033045595  0.9350650469650967
  0.0928272519376828  0.2524963775650473  0.7036650399834475
  0.6261585806746252  0.1405071527087519  0.3449811176729545
  0.6049531736896654  0.0969826126942968 -0.0061008774031275
  0.5548573599585809  0.1746072574290549  0.7435533491469577
 -0.0166980939915250  0.4186390056350857  0.6390856791933650
  0.3667145955651481  0.5511606885432384  0.3372326459337302
  0.3693813163732159  0.5749862110733034  0.9373673139232152
  0.3523866648393638  0.5052600050968367  0.7673147371646769
  0.5769734407852972  0.0314889643619105  0.6639192828442175
  0.3306998952048399 -0.0230654902728887  0.3477508928032304
  0.2537098920937210  0.0252375641197580  0.5800230956376380
  0.2967422646457505  0.0311073914418819  0.9937486359381630
  0.5751284155755091  0.4140309608002068  0.2590727974531388
  0.5861688429382480  0.3648409637566606  0.5361174928090652
  0.0272084508042692  0.6389697132602293  0.7420623985608750
  0.0434759652694988  0.5621193975308145  0.9632253112174347
  0.4649958993517725  0.4171981803078521  0.0241405460114170
  0.0877062613663358  0.6443275249065756  0.4155009906455413
  0.1462467768659720  0.6484319197549219  0.6551017159440440
  0.4086319835332503  0.9392062399643938  0.6860087747547403
  0.4366278699339265 -0.0188163323911965  0.9296249220629563
  0.1357101476117324  0.6007430610429806  0.0544958692482086
  0.6885247062234922  0.0128302023908503  0.6532655485387892
  0.7584621320398500  0.0018060822649597  0.4417002963104517
  0.7275177016791659  0.9680058668081055  0.0090851690259982
  0.4666623840596691  0.5515323320640040  0.5562839384702510
  0.4184731053502754  0.6415098152411133  0.3453893651293252
  0.9784476277826694  0.3904144651267294  0.2736918147567742
  0.9391143800815723  0.4765237954374758  0.0536959442565833
  0.4573043683617542  0.5973383453842462  0.9534788704865320
  0.9483638066637166  0.3287887729226439  0.6056846172146546
  0.8760226494608960  0.3729144257611008  0.3485594135616769
  0.6191572070925458  0.0239425461004800  0.3156268009990952
  0.6071120157369173  0.9683186948644473  0.0695153283700309
  0.8794318740043995  0.3927102437419709  0.9492350082469388
  0.9855900159267886  0.7746006455323384  0.7203401460840745
  0.0149680254055562  0.7156075366897734  0.0844509401485242
  0.9367100812808855  0.7794695118557439  0.3107783102702549
  0.3727998961461604  0.8580157144303066  0.6483132085609321
  0.3864590121188989  0.8911709546266356  0.0102616846195114
  0.4331697437457954  0.8077466923367024  0.2426619180011668
 -0.0004065098176884  0.6257672423431302  0.3717234417602798
  0.7017971072353483  0.3573934208522092  0.5993508972177245
  0.6266777027250766  0.4592608049502714  0.9549967853139809
  0.7040391627776069  0.3734506515912161  0.1691523598399126
  0.4592896477319202  0.9181731319334960  0.3311435428648527
  0.6098322233001898  0.5172529670233171  0.4891272150773440
  0.6510868920434008  0.5625960371870932  0.6606603957571138
  0.6969434335346456  0.5069997470628385  0.3675295164774729
  0.7221589183734146  0.1859225414611742  0.5833919618705724
  0.6664894729229448  0.2540545678186279  0.8484219810935112
  0.6907731642250816  0.1433691933373040  0.7968411786128030
  0.1042083504785464  0.1962102174594939  0.2115065380987441
  0.1547007175522263  0.1393695306006197  0.3330662268654280
  0.0745685510485875  0.2537073373309345  0.8745681812086157
  0.1213787230466660  0.1951298815355444  0.0138320184903396
  0.5874816070723828  0.2052297339131098  0.2517432264239211
  0.5810573799439054  0.2625683084395353  0.3487589763397853
  0.5724927106171327  0.1608433454628260  0.9221912101266169
  0.5574635746210221  0.2188460521662570  0.0617360386873151
 -0.0143092486354833  0.4700272699037424  0.5736135834357003
  0.0008413607412712  0.5049733039597211  0.7037389508731132
  0.3088485124684798  0.5644791794601579  0.2749342696200458
  0.2570221698315156  0.5874557031464807  0.4024177155387371
  0.3428397346447888  0.5427620961649733  0.9196555840580239
  0.2988216496489276  0.5555051433535254  0.0739764091856857
  0.5514420624083752  0.0015355106615759  0.5790378151867533
  0.5151218221780852 -0.0098843237493713  0.6945173611552352
  0.2703281977170912  0.0255463027674952  0.4075868948126598
  0.2197945839532230  0.0830929132371524  0.2687550624690242
  0.2359746797735610  0.0823487797387980  0.0705112677974107
  0.1860121717494688  0.1387369020184631  0.9490046514505343
  0.5664765098701346  0.3747525330872509  0.3598123280518493
  0.5477816818886946  0.3315894319795482  0.2696265312728001
  0.0268034007736315  0.5871052612234483  0.7910538728660986
  0.0063067184177033  0.5569975704968179  0.6430554109804991
  0.5099223660262697  0.3463228254693540  0.0966054359790034
  0.5158468840396319  0.2908394443177985 -0.0051861512147834
  0.1412999064710302  0.6328046346471699  0.4789953014196845
  0.1971212488371691  0.6012476866167316  0.3394713643287831
  0.4412520639165040 -0.0395076455429038  0.7527161394309080
  0.4835912559862184  0.9628830585451140  0.6182352187505483
  0.1899074989310364  0.5886303420676792  0.1382814446255887
  0.2420160783788003  0.5646576479795840  0.0119182158843071
  0.7483696098611009  0.9838603972257678  0.6023506789640851
  0.8038150239145820  0.9303510335817818  0.7376174471247143
  0.7895060184079952  0.9276938745238281  0.9356602254895878
  0.8431192263313901  0.8789611922212920  0.0599011305715606
  0.4383244920696183  0.6191866912598659  0.5193595689251688
  0.4290432875531715  0.6718118207710270  0.6683710346654509
  0.9622531482186082  0.4520295322047280  0.2236257397389648
  0.9744047834667255  0.4897346345860068  0.3721335888292331
  0.4407877532029065  0.6579203295162229  0.8731454108598622
  0.4345090360884791  0.7105778871730223  0.9962672736926150
  0.8916221687014825  0.3547492527092348  0.5295428134688808
  0.8415583282241570  0.3639611231394804  0.6559938195570434
  0.5965522421752258  0.9913776439616093  0.2448438692092222
  0.5580389865542097  0.9819850909806187  0.3765980837850894
  0.8400544635240360  0.3798571777988846  0.8589100629786243
  0.7912237149830047  0.3864134851462354  0.9665560758994550
  0.9239054897195520  0.8260599623065051  0.7947843963657872
  0.8703370163744364  0.8810587394761312  0.6737732819694314
  0.9564321925237341  0.7719516867474602  0.1371465332732068
  0.9086928167153091  0.8278120666480715  0.9943837470297388
  0.3966887626758426  0.7936979571073731  0.7245835294451061
  0.4059684700948659  0.7396753717550891  0.6009974606184344
  0.4108936576189886  0.8276256885445011  0.0686183545658051
  0.4134036313025760  0.7771252883082926  0.9271570895829004
  0.9944842752444542  0.5770792941630281  0.4422617566820782
  0.9775628290051892  0.5433594974697750  0.3126601791553038
  0.7454230640705632  0.3656930297315076  0.6790248560774382
  0.7963488179588486  0.3551218086007299  0.5716496195641525
  0.6878571864805233  0.4055866826802285  0.0079268669897191
  0.7429440083001114  0.3838271892658543  0.8791761032989515
  0.4892761100071305  0.9437709532042200  0.4151484590376333
  0.5276819706079974  0.9530115864595993  0.3004783909654754
  0.6552489851127477  0.5298678139371245  0.5046554729722290
  0.6934386897834959  0.1922307032485376  0.7451052313062696
  0.4974340193814119  0.4310023628238060  0.9047996705056234
  0.1423569752188471  0.1400544115130679  0.4841492734973979
  0.6092145175656286  0.2496594652481482  0.4846007191620140
  0.0097350819921749  0.4900495389207174  0.8570879366768213
  0.2617263861238192  0.5973927994221969  0.5557870638316721
  0.5104742474858480  0.0045262091384903  0.8493630880401228
  0.1988431176659165  0.1384755794195145  0.7988465975978256
  0.4885135786536285  0.3033316033113593  0.8562249887907072
  0.2346709464793487  0.5583548503126550  0.8575425496190631
  0.8323956716456801  0.8782204644354794  0.2116483971641800
  0.4458062193233667  0.6993001186248599  0.1512376804248770
  0.7892243118534580  0.3947010477058763  0.1242756199388697
  0.8809388870355357  0.8829065371942166  0.5225260323064140
  0.3953085279087390  0.7508613174322947  0.4458664278331043
  0.9688591983864373  0.5582257130631733  0.1592573994327476
  0.8001159991582685  0.3400203841163750  0.4171193163506171
  0.5328331596254224  0.9381411273317630  0.1459414155396058
  0.4075749341882212  0.5065307681807525  0.5841603526446709
  0.0244744434444681  0.3194385188973678  0.4963433506339154
  0.5977754122107688  0.0935597398369773  0.5382424021140322
  0.0750356386265743  0.6780610309863189  0.8510148171054904
  0.3892325458167936 -0.0303358204136517  0.1255634094224536
  0.3239379144111976 -0.0406376003608599  0.7821545343083642
  0.5643322635967755  0.4363767122604103 -0.0184631075833217
  0.5828524583453960  0.3479164159973857  0.8056197783369196
  0.0605952089599154  0.6101979432784276  0.1715606365604157
  0.6416344797870630  0.0005050267395527  0.8759205707280483
  0.9535523307054826  0.3322279773258880  0.1555800333812618
  0.4615567498170615  0.5212400893561061  0.8180083018106177
  0.6793803503113276  0.0415874220745998  0.2132837751502958
  0.9425811488510533  0.4073260947772169  0.8490527964458339
  0.4134324565930397  0.5784749134717359  0.1723036868808105
  0.6434209262233064  0.4245287955734121  0.3892371598712963
  0.9912844207392617  0.7094209475730601  0.5178653582204834
  0.4140539865780054  0.8781492008933471  0.4514390257089468
  0.7822401024130703  0.4665858676580525  0.3214436615190983
  0.5994717126209912  0.5378134129862984  0.7722958768374648
  0.7141835511950652  0.1104270118469997  0.5155644529947451
  0.7067008623948994  0.2752327646571470  0.6276400016551323
 
  0.00000000E+00  0.00000000E+00  0.00000000E+00
  0.00000000E+00  0.00000000E+00  0.00000000E+00
  0.00000000E+00  0.00000000E+00  0.00000000E+00
  0.00000000E+00  0.00000000E+00  0.00000000E+00
  0.00000000E+00  0.00000000E+00  0.00000000E+00
  0.00000000E+00  0.00000000E+00  0.00000000E+00
  0.00000000E+00  0.00000000E+00  0.00000000E+00
  0.00000000E+00  0.00000000E+00  0.00000000E+00
  0.00000000E+00  0.00000000E+00  0.00000000E+00
  0.00000000E+00  0.00000000E+00  0.00000000E+00
  0.00000000E+00  0.00000000E+00  0.00000000E+00
  0.00000000E+00  0.00000000E+00  0.00000000E+00
  0.00000000E+00  0.00000000E+00  0.00000000E+00
  0.00000000E+00  0.00000000E+00  0.00000000E+00
  0.00000000E+00  0.00000000E+00  0.00000000E+00
  0.00000000E+00  0.00000000E+00  0.00000000E+00
  0.00000000E+00  0.00000000E+00  0.00000000E+00
  0.00000000E+00  0.00000000E+00  0.00000000E+00
  0.00000000E+00  0.00000000E+00  0.00000000E+00
  0.00000000E+00  0.00000000E+00  0.00000000E+00
  0.00000000E+00  0.00000000E+00  0.00000000E+00
  0.00000000E+00  0.00000000E+00  0.00000000E+00
  0.00000000E+00  0.00000000E+00  0.00000000E+00
  0.00000000E+00  0.00000000E+00  0.00000000E+00
  0.00000000E+00  0.00000000E+00  0.00000000E+00
  0.00000000E+00  0.00000000E+00  0.00000000E+00
  0.00000000E+00  0.00000000E+00  0.00000000E+00
  0.00000000E+00  0.00000000E+00  0.00000000E+00
  0.00000000E+00  0.00000000E+00  0.00000000E+00
  0.00000000E+00  0.00000000E+00  0.00000000E+00
  0.00000000E+00  0.00000000E+00  0.00000000E+00
  0.00000000E+00  0.00000000E+00  0.00000000E+00
  0.00000000E+00  0.00000000E+00  0.00000000E+00
  0.00000000E+00  0.00000000E+00  0.00000000E+00
  0.00000000E+00  0.00000000E+00  0.00000000E+00
  0.00000000E+00  0.00000000E+00  0.00000000E+00
  0.00000000E+00  0.00000000E+00  0.00000000E+00
  0.00000000E+00  0.00000000E+00  0.00000000E+00
  0.00000000E+00  0.00000000E+00  0.00000000E+00
  0.00000000E+00  0.00000000E+00  0.00000000E+00
  0.00000000E+00  0.00000000E+00  0.00000000E+00
  0.00000000E+00  0.00000000E+00  0.00000000E+00
  0.00000000E+00  0.00000000E+00  0.00000000E+00
  0.00000000E+00  0.00000000E+00  0.00000000E+00
  0.00000000E+00  0.00000000E+00  0.00000000E+00
  0.00000000E+00  0.00000000E+00  0.00000000E+00
  0.00000000E+00  0.00000000E+00  0.00000000E+00
  0.00000000E+00  0.00000000E+00  0.00000000E+00
  0.00000000E+00  0.00000000E+00  0.00000000E+00
  0.00000000E+00  0.00000000E+00  0.00000000E+00
  0.00000000E+00  0.00000000E+00  0.00000000E+00
  0.00000000E+00  0.00000000E+00  0.00000000E+00
  0.00000000E+00  0.00000000E+00  0.00000000E+00
  0.00000000E+00  0.00000000E+00  0.00000000E+00
  0.00000000E+00  0.00000000E+00  0.00000000E+00
  0.00000000E+00  0.00000000E+00  0.00000000E+00
  0.00000000E+00  0.00000000E+00  0.00000000E+00
  0.00000000E+00  0.00000000E+00  0.00000000E+00
  0.00000000E+00  0.00000000E+00  0.00000000E+00
  0.00000000E+00  0.00000000E+00  0.00000000E+00
  0.00000000E+00  0.00000000E+00  0.00000000E+00
  0.00000000E+00  0.00000000E+00  0.00000000E+00
  0.00000000E+00  0.00000000E+00  0.00000000E+00
  0.00000000E+00  0.00000000E+00  0.00000000E+00
  0.00000000E+00  0.00000000E+00  0.00000000E+00
  0.00000000E+00  0.00000000E+00  0.00000000E+00
  0.00000000E+00  0.00000000E+00  0.00000000E+00
  0.00000000E+00  0.00000000E+00  0.00000000E+00
  0.00000000E+00  0.00000000E+00  0.00000000E+00
  0.00000000E+00  0.00000000E+00  0.00000000E+00
  0.00000000E+00  0.00000000E+00  0.00000000E+00
  0.00000000E+00  0.00000000E+00  0.00000000E+00
  0.00000000E+00  0.00000000E+00  0.00000000E+00
  0.00000000E+00  0.00000000E+00  0.00000000E+00
  0.00000000E+00  0.00000000E+00  0.00000000E+00
  0.00000000E+00  0.00000000E+00  0.00000000E+00
  0.00000000E+00  0.00000000E+00  0.00000000E+00
  0.00000000E+00  0.00000000E+00  0.00000000E+00
  0.00000000E+00  0.00000000E+00  0.00000000E+00
  0.00000000E+00  0.00000000E+00  0.00000000E+00
  0.00000000E+00  0.00000000E+00  0.00000000E+00
  0.00000000E+00  0.00000000E+00  0.00000000E+00
  0.00000000E+00  0.00000000E+00  0.00000000E+00
  0.00000000E+00  0.00000000E+00  0.00000000E+00
  0.00000000E+00  0.00000000E+00  0.00000000E+00
  0.00000000E+00  0.00000000E+00  0.00000000E+00
  0.00000000E+00  0.00000000E+00  0.00000000E+00
  0.00000000E+00  0.00000000E+00  0.00000000E+00
  0.00000000E+00  0.00000000E+00  0.00000000E+00
  0.00000000E+00  0.00000000E+00  0.00000000E+00
  0.00000000E+00  0.00000000E+00  0.00000000E+00
  0.00000000E+00  0.00000000E+00  0.00000000E+00
  0.00000000E+00  0.00000000E+00  0.00000000E+00
  0.00000000E+00  0.00000000E+00  0.00000000E+00
  0.00000000E+00  0.00000000E+00  0.00000000E+00
  0.00000000E+00  0.00000000E+00  0.00000000E+00
  0.00000000E+00  0.00000000E+00  0.00000000E+00
  0.00000000E+00  0.00000000E+00  0.00000000E+00
  0.00000000E+00  0.00000000E+00  0.00000000E+00
  0.00000000E+00  0.00000000E+00  0.00000000E+00
  0.00000000E+00  0.00000000E+00  0.00000000E+00
  0.00000000E+00  0.00000000E+00  0.00000000E+00
  0.00000000E+00  0.00000000E+00  0.00000000E+00
  0.00000000E+00  0.00000000E+00  0.00000000E+00
  0.00000000E+00  0.00000000E+00  0.00000000E+00
  0.00000000E+00  0.00000000E+00  0.00000000E+00
  0.00000000E+00  0.00000000E+00  0.00000000E+00
  0.00000000E+00  0.00000000E+00  0.00000000E+00
  0.00000000E+00  0.00000000E+00  0.00000000E+00
  0.00000000E+00  0.00000000E+00  0.00000000E+00
  0.00000000E+00  0.00000000E+00  0.00000000E+00
  0.00000000E+00  0.00000000E+00  0.00000000E+00
  0.00000000E+00  0.00000000E+00  0.00000000E+00
  0.00000000E+00  0.00000000E+00  0.00000000E+00
  0.00000000E+00  0.00000000E+00  0.00000000E+00
  0.00000000E+00  0.00000000E+00  0.00000000E+00
  0.00000000E+00  0.00000000E+00  0.00000000E+00
  0.00000000E+00  0.00000000E+00  0.00000000E+00
  0.00000000E+00  0.00000000E+00  0.00000000E+00
  0.00000000E+00  0.00000000E+00  0.00000000E+00
  0.00000000E+00  0.00000000E+00  0.00000000E+00
  0.00000000E+00  0.00000000E+00  0.00000000E+00
  0.00000000E+00  0.00000000E+00  0.00000000E+00
  0.00000000E+00  0.00000000E+00  0.00000000E+00
  0.00000000E+00  0.00000000E+00  0.00000000E+00
  0.00000000E+00  0.00000000E+00  0.00000000E+00
  0.00000000E+00  0.00000000E+00  0.00000000E+00
  0.00000000E+00  0.00000000E+00  0.00000000E+00
  0.00000000E+00  0.00000000E+00  0.00000000E+00
  0.00000000E+00  0.00000000E+00  0.00000000E+00
  0.00000000E+00  0.00000000E+00  0.00000000E+00
  0.00000000E+00  0.00000000E+00  0.00000000E+00
  0.00000000E+00  0.00000000E+00  0.00000000E+00
  0.00000000E+00  0.00000000E+00  0.00000000E+00
  0.00000000E+00  0.00000000E+00  0.00000000E+00
  0.00000000E+00  0.00000000E+00  0.00000000E+00
  0.00000000E+00  0.00000000E+00  0.00000000E+00
  0.00000000E+00  0.00000000E+00  0.00000000E+00
  0.00000000E+00  0.00000000E+00  0.00000000E+00
  0.00000000E+00  0.00000000E+00  0.00000000E+00
  0.00000000E+00  0.00000000E+00  0.00000000E+00
  0.00000000E+00  0.00000000E+00  0.00000000E+00
  0.00000000E+00  0.00000000E+00  0.00000000E+00
  0.00000000E+00  0.00000000E+00  0.00000000E+00
  0.00000000E+00  0.00000000E+00  0.00000000E+00
  0.00000000E+00  0.00000000E+00  0.00000000E+00
  0.00000000E+00  0.00000000E+00  0.00000000E+00
  0.00000000E+00  0.00000000E+00  0.00000000E+00
  0.00000000E+00  0.00000000E+00  0.00000000E+00
  0.00000000E+00  0.00000000E+00  0.00000000E+00
  0.00000000E+00  0.00000000E+00  0.00000000E+00
  0.00000000E+00  0.00000000E+00  0.00000000E+00
  0.00000000E+00  0.00000000E+00  0.00000000E+00
  0.00000000E+00  0.00000000E+00  0.00000000E+00
  0.00000000E+00  0.00000000E+00  0.00000000E+00
  0.00000000E+00  0.00000000E+00  0.00000000E+00
  0.00000000E+00  0.00000000E+00  0.00000000E+00
  0.00000000E+00  0.00000000E+00  0.00000000E+00
  0.00000000E+00  0.00000000E+00  0.00000000E+00
