C                                       
   1.00000000000000     
    30.0000000000000000    0.0000000000000000    0.0000000000000000
     0.0000000000000000   30.0000000000000000    0.0000000000000000
     0.0000000000000000    0.0000000000000000   30.0000000000000000
   C 
     1
Direct
  0.9956978508333307  0.1933207227666642  0.2314101213000015
 
  0.00000000E+00  0.00000000E+00  0.00000000E+00
