C                                       
   1.00000000000000     
     7.3987374415595850   -0.0454729827356045    0.0122224944892904
    -3.5293334795739648    6.5756252189617843   -0.0219456572704403
    -3.3685492333996998    2.0282548896509827    8.6280458382651961
   C 
     1
Direct
  0.4884796653814695  0.4845757072398741  0.5995132038754210
 
  0.00000000E+00  0.00000000E+00  0.00000000E+00
