C 
 1.0000000000000000
     9.8138465881000005    0.0000000000000000    0.0000000000000000
    -4.6282170056999998    8.6539697367000006    0.0000000000000000
    -4.4703933317000004    2.6787461803999992   11.5766030765999997
 C  
   1
Cartesian
 -0.1290644749999998  5.7996216829999989  6.9423036390000004
