C 
 1.0000000000000000
    30.0    0.0    0.0
    0.0    30.0    0.0
    0.0    0.0    30.0
 C  
   1
Cartesian
 -0.1290644749999998  5.7996216829999989  6.9423036390000004
