O  C  H  Co Li                          
   1.00000000000000     
    23.9261198104165054    1.4270226320989507   -0.1702423552515908
    13.3807977504398092   19.9075722412530887    0.0070620584243260
    -0.0366049182984033    0.0428470880645103    6.8013684059336974
   O    C    H    Co   Li
    54    67    16    18     3
Direct
  0.0581481091096048  0.2623751406012980  0.3217113084511412
  0.0277638721520836  0.3054066593721797  0.9383145926752178
  0.1077450046706733  0.2674939365099551  0.7182338439917041
  0.7018016975611066  0.0455241407566254  0.3181994940843170
  0.6844833910335812  0.0194445859450726  0.9353945255800806
  0.6463272344875410  0.0985498803375802  0.7173540892766996
  0.0360973287760137  0.3970899980714052  0.6593772796924264
  0.2453855696536049  0.7022753335239087  0.3487051535579567
  0.3000588920610837  0.6689531984259858  0.9961207606153328
  0.2696990736165815  0.6190981558103424  0.7996085570968171
  0.5807628219095879  0.0305128668253032  0.6474720338600786
  0.3107964593037446  0.0496614893401970  0.3686266827308298
  0.2312594751831331  0.0927350782635110  0.5918783220980712
  0.2817024881000813  0.0948528346561880  0.9878506724949232
  0.6915536670973279  0.2797937677369609  0.3977744233625672
  0.7695061045004178  0.1839967878236220  0.5210675468098600
  0.9803728776771081  0.6520294752884560  0.7334989730016613
  0.0251407951584086  0.5721806654553286  0.9505741337300155
  0.6689090212374343  0.2585736333287747  0.0030853718728925
  0.0387462193086004  0.6617464727396103  0.4058449359561804
  0.0717665221928338  0.7033165569728019  0.6238197608918693
  0.3733652336966531  0.9937887378121739  0.7044529862171403
  0.4100099496474875  0.0317389014122253  0.9222965498078105
  0.0833341453095841  0.6454328749384067  0.0269467594741402
  0.6869035942281672  0.9571274382410380  0.6026022240900671
  0.7684789904632175  0.9174849748181344  0.3888831796202858
  0.7151237641782585  0.9134978096642485 -0.0096603989629820
  0.3437732331234938  0.7138264416103153  0.5345668678454037
  0.2823719566276333  0.8016092812615810  0.3525195878873718
  0.0235661031120973  0.3676386152506478  0.2729003705949665
  0.9783333885364860  0.4480999099460981  0.0580945851781217
  0.3229613849350937  0.7519091189832315  0.9444424165027232
  0.9626992295813435  0.3606640991365271  0.6021020547072656
  0.9313639951650956  0.3159766754854065  0.3907919730916597
  0.6242869953825629  0.0144773207237199  0.2670085423949913
  0.5874629817840822  0.9764866912303050  0.0491784526368466
  0.9204795873459565  0.3746071021993859  0.9891397481045447
  0.9455533905249838  0.7575077389893555  0.6806929844282823
 -0.0254875792169324  0.7151872886661124  0.0671978501870305
  0.8934373391807661  0.7509960995823791  0.2806694625280841
  0.2959613621923142  0.9637240091882991  0.6506551410285011
  0.3134751653505944 -0.0119337284649920  0.0338791776391641
  0.3504934950347412  0.9090220456282907  0.2501218585065724
  0.9678151337278168  0.6223761249710588  0.3486523717136528
  0.7796321181553787  0.2870613622434786  0.7039092989446400
  0.7064085854336911  0.3479018044438503  0.0179494885616241
  0.7587423797524230  0.3594189560192013  0.2664154550537015
  0.4171713389252541  0.9774956355866082  0.3237209005132343
  0.5952353052085542  0.4040227162241290  0.2361254972813511
  0.6322872641993086  0.4654461508549850  0.2139413558148163
  0.6493749640648540  0.4122221249022663  0.4900323942226418
  0.8445988015196551  0.1251077092012599  0.0247899406844380
  0.8885794638399660  0.1197277001951238  0.6273466446399122
  0.8676789587432554  0.0388921107244972  0.6763355295665798
  0.1135886951303738  0.2225498202924014  0.2201605698387636
  0.1553898719239462  0.1788802339558485  0.3541010422409726
  0.0911852014965536  0.2644765605167720  0.8833023895699114
  0.1254763150484123  0.2244244156837703  0.0354281089345198
  0.6947796101857480  0.0960370080120870  0.2265096872557034
  0.7091202508388820  0.1309550244169508  0.3412062049932911
  0.6667805970385778  0.0790343877807870  0.8887266242588617
  0.6753652927366682  0.1130282605417628  0.0339480296527262
  0.0187471004424676  0.4527624799167130  0.5707555321274390
  0.0188031256105114  0.4939916081540669  0.6973793547293017
  0.2063114610093534  0.6871439874591254  0.2670898191757429
  0.1571857393765131  0.6956839167745646  0.3802148669814256
  0.2638536836599301  0.6479257519002369  0.9598891459207292
  0.2142437051602686  0.6608674389962564  0.0850530653876248
  0.5423043103238135  0.0169081833360117  0.5582706655339019
  0.4979650218637622  0.0187403621097504  0.6793451447037359
  0.2477481058440639  0.0940794609632966  0.4256625429775112
  0.2144620216516000  0.1341722793250936  0.2732342731515144
  0.2261996707512601  0.1357711391071014  0.0885010640649257
  0.1846693334415425  0.1797937742800191  0.9547354537223052
  0.7217691024673826  0.2145241911675458  0.3959865934698532
  0.7014006045569097  0.1862060422781744  0.2728127232838231
  0.0041360044031156  0.5900437343362238  0.7797090406697141
  0.0009505202535214  0.5539655915945325  0.6317289068322927
  0.6766562267954450  0.2057025696187921  0.0873072885157195
  0.6646374441776947  0.1704276568663818  0.9697329835494360
  0.0735344089166738  0.6827749816313328  0.4529316599745611
  0.1165970909700776  0.6790601322107597  0.3120009396793088
  0.4110352896398891  0.0112495554884367  0.7521557774240327
  0.4547384361675993  0.0058625431409186  0.6095374296275783
  0.1214689866321192  0.6579985323525239  0.1203401371747951
  0.1717006915685375  0.6480697825120039  0.0098190510108797
  0.7512248926213920  0.9159571631368147  0.5546579922701887
  0.7850689587582923  0.8782168263574305  0.7112314924342467
  0.7724511632740008  0.8752500013141998  0.8950111743577106
  0.8142048691104513  0.8333419366653947  0.0322878254323909
  0.3090726457609617  0.7805501892220312  0.5179478117717364
  0.3105721070486711  0.8156735064159961  0.6710093911189748
 -0.0005531875830703  0.4299567055220907  0.2286403353607687
  0.0026575344007381  0.4657995002361580  0.3771843740569574
  0.3210137043886290  0.8021943365400424  0.8682843757838906
  0.3271562201566980  0.8398090456562830 -0.0034082819977193
  0.9297354061725214  0.3370034949102444  0.5612990581279704
  0.8898933991326020  0.3367854042280353  0.7080935965642795
  0.5864544005581165  0.9968617737170753  0.2192903156046473
  0.5428010698098481  0.0022616931163485  0.3618157776477305
  0.8859005748086503  0.3563393132341736  0.9021450598636227
  0.8409258083710769  0.3582300297690029  0.0211854415466889
  0.8883575508798848  0.7952534025142046  0.7766374800303059
  0.8465727047200365  0.8369948061997000  0.6392595610537724
  0.9104197303338041  0.7539507700840700  0.1155872369573285
  0.8757072549364029  0.7920779201621118  0.9601963448534300
  0.3060424294353803  0.9106096840084832  0.7370913061581507
  0.3018481478612680  0.8719932014100512  0.6075561788077917
  0.3296609432566289  0.9288593537628391  0.0792911767248125
  0.3201426448609581  0.8956305319986708  0.9326347993110530
  0.9850061954109849  0.5669531079848008  0.4380058270499090
  0.9848403791215303  0.5257315191929152  0.3115412778688043
  0.8091603008387277  0.3154738433111875  0.7688459770114255
  0.8528341383621721  0.3144023296125756  0.6481223590382112
  0.7549290412594527  0.3481171770074221  0.0872405593868320
  0.8016160579782602  0.3399486140101366  0.9558973050252229
  0.4552581164755752  0.9911816606258914  0.4126992950904588
  0.4995771889017731  0.9894604570605713  0.2919811150985009
  0.6245961118734024  0.4271614217352983  0.3166150443601689
  0.8774211840023559  0.0798318981612054  0.6518179309491133
  0.7959161301368759  0.1948865644268761  0.9848420346644022
  0.1449885436085206  0.1773644037796188  0.4974986557511550
  0.7273716442001260  0.1148489117561761  0.4840141468179803
  0.0325538414773359  0.4824158928480333  0.8448237523811806
  0.1497168523948213  0.7170277053699594  0.5205305927521962
  0.4970214768967640  0.0313282542680794  0.8286952709532712
  0.1951122061479979  0.1812666572810833  0.8113019762992635
  0.6474794108902665  0.1850168618487477  0.8253286849459334
  0.1762379591855908  0.6291484765692250  0.8673461683901753
  0.8027654272708934  0.8311847355812012  0.1743702563032223
  0.3370001960091862  0.8278275658008217  0.1464297778803309
  0.8381388975414352  0.3745951412124636  0.1671072167096199
  0.8580877848385947  0.8392434412243307  0.4973743338944706
  0.2921317274650291  0.8841874178623945  0.4576848825634518
  0.9711451255350196  0.5373315716964417  0.1640833947629875
  0.8589645414476585  0.2955079622060973  0.5040027411352007
  0.5005162421583467  0.9769142686572398  0.1425023244470686
  0.2667962982689294  0.6588969239060893  0.5797956854800576
  0.0531792891527492  0.3235450139063188  0.5125295620959675
  0.6417709956127315  0.0450374602474460  0.5130839916720090
  0.0181277908161954  0.7014361787318650  0.8285459723432200
  0.3542621894477838  0.0351126446513780  0.1286978448805187
  0.2836118652590681  0.0354916428530681  0.7971126267658827
  0.6309489533947158  0.3182838651104992  0.1989932407822572
  0.7426736316631618  0.2621485771898818  0.9305095924408916
  0.0238929589234400  0.6276216327335432  0.1581848160301309
  0.6434492220926580  0.9728743675136174  0.8432087050692401
  0.9846560554963646  0.3184393853822892  0.1817116366020741
  0.3229831030169412  0.6925189720768455  0.7614887621854928
  0.7141697126763726  0.9725593757411721  0.1781209188811022
  0.9795571552183635  0.3924248365293100  0.8513621600059479
  0.2920697790565768  0.7336455823505601  0.1886535156069216
  0.7261185897670905  0.3276065782667478  0.4830777237499855
  0.9493814027126516  0.6968729664679493  0.4911822671167378
  0.3553899101814579  0.9628992916046156  0.4547442397460489
  0.7034108421680082  0.4393730156455316  0.3619063112752617
  0.6303577564265401  0.4199898460107987  0.9948634447924908
  0.8195698324346052  0.2044560573171921  0.6290779536865634
 
  0.00000000E+00  0.00000000E+00  0.00000000E+00
  0.00000000E+00  0.00000000E+00  0.00000000E+00
  0.00000000E+00  0.00000000E+00  0.00000000E+00
  0.00000000E+00  0.00000000E+00  0.00000000E+00
  0.00000000E+00  0.00000000E+00  0.00000000E+00
  0.00000000E+00  0.00000000E+00  0.00000000E+00
  0.00000000E+00  0.00000000E+00  0.00000000E+00
  0.00000000E+00  0.00000000E+00  0.00000000E+00
  0.00000000E+00  0.00000000E+00  0.00000000E+00
  0.00000000E+00  0.00000000E+00  0.00000000E+00
  0.00000000E+00  0.00000000E+00  0.00000000E+00
  0.00000000E+00  0.00000000E+00  0.00000000E+00
  0.00000000E+00  0.00000000E+00  0.00000000E+00
  0.00000000E+00  0.00000000E+00  0.00000000E+00
  0.00000000E+00  0.00000000E+00  0.00000000E+00
  0.00000000E+00  0.00000000E+00  0.00000000E+00
  0.00000000E+00  0.00000000E+00  0.00000000E+00
  0.00000000E+00  0.00000000E+00  0.00000000E+00
  0.00000000E+00  0.00000000E+00  0.00000000E+00
  0.00000000E+00  0.00000000E+00  0.00000000E+00
  0.00000000E+00  0.00000000E+00  0.00000000E+00
  0.00000000E+00  0.00000000E+00  0.00000000E+00
  0.00000000E+00  0.00000000E+00  0.00000000E+00
  0.00000000E+00  0.00000000E+00  0.00000000E+00
  0.00000000E+00  0.00000000E+00  0.00000000E+00
  0.00000000E+00  0.00000000E+00  0.00000000E+00
  0.00000000E+00  0.00000000E+00  0.00000000E+00
  0.00000000E+00  0.00000000E+00  0.00000000E+00
  0.00000000E+00  0.00000000E+00  0.00000000E+00
  0.00000000E+00  0.00000000E+00  0.00000000E+00
  0.00000000E+00  0.00000000E+00  0.00000000E+00
  0.00000000E+00  0.00000000E+00  0.00000000E+00
  0.00000000E+00  0.00000000E+00  0.00000000E+00
  0.00000000E+00  0.00000000E+00  0.00000000E+00
  0.00000000E+00  0.00000000E+00  0.00000000E+00
  0.00000000E+00  0.00000000E+00  0.00000000E+00
  0.00000000E+00  0.00000000E+00  0.00000000E+00
  0.00000000E+00  0.00000000E+00  0.00000000E+00
  0.00000000E+00  0.00000000E+00  0.00000000E+00
  0.00000000E+00  0.00000000E+00  0.00000000E+00
  0.00000000E+00  0.00000000E+00  0.00000000E+00
  0.00000000E+00  0.00000000E+00  0.00000000E+00
  0.00000000E+00  0.00000000E+00  0.00000000E+00
  0.00000000E+00  0.00000000E+00  0.00000000E+00
  0.00000000E+00  0.00000000E+00  0.00000000E+00
  0.00000000E+00  0.00000000E+00  0.00000000E+00
  0.00000000E+00  0.00000000E+00  0.00000000E+00
  0.00000000E+00  0.00000000E+00  0.00000000E+00
  0.00000000E+00  0.00000000E+00  0.00000000E+00
  0.00000000E+00  0.00000000E+00  0.00000000E+00
  0.00000000E+00  0.00000000E+00  0.00000000E+00
  0.00000000E+00  0.00000000E+00  0.00000000E+00
  0.00000000E+00  0.00000000E+00  0.00000000E+00
  0.00000000E+00  0.00000000E+00  0.00000000E+00
  0.00000000E+00  0.00000000E+00  0.00000000E+00
  0.00000000E+00  0.00000000E+00  0.00000000E+00
  0.00000000E+00  0.00000000E+00  0.00000000E+00
  0.00000000E+00  0.00000000E+00  0.00000000E+00
  0.00000000E+00  0.00000000E+00  0.00000000E+00
  0.00000000E+00  0.00000000E+00  0.00000000E+00
  0.00000000E+00  0.00000000E+00  0.00000000E+00
  0.00000000E+00  0.00000000E+00  0.00000000E+00
  0.00000000E+00  0.00000000E+00  0.00000000E+00
  0.00000000E+00  0.00000000E+00  0.00000000E+00
  0.00000000E+00  0.00000000E+00  0.00000000E+00
  0.00000000E+00  0.00000000E+00  0.00000000E+00
  0.00000000E+00  0.00000000E+00  0.00000000E+00
  0.00000000E+00  0.00000000E+00  0.00000000E+00
  0.00000000E+00  0.00000000E+00  0.00000000E+00
  0.00000000E+00  0.00000000E+00  0.00000000E+00
  0.00000000E+00  0.00000000E+00  0.00000000E+00
  0.00000000E+00  0.00000000E+00  0.00000000E+00
  0.00000000E+00  0.00000000E+00  0.00000000E+00
  0.00000000E+00  0.00000000E+00  0.00000000E+00
  0.00000000E+00  0.00000000E+00  0.00000000E+00
  0.00000000E+00  0.00000000E+00  0.00000000E+00
  0.00000000E+00  0.00000000E+00  0.00000000E+00
  0.00000000E+00  0.00000000E+00  0.00000000E+00
  0.00000000E+00  0.00000000E+00  0.00000000E+00
  0.00000000E+00  0.00000000E+00  0.00000000E+00
  0.00000000E+00  0.00000000E+00  0.00000000E+00
  0.00000000E+00  0.00000000E+00  0.00000000E+00
  0.00000000E+00  0.00000000E+00  0.00000000E+00
  0.00000000E+00  0.00000000E+00  0.00000000E+00
  0.00000000E+00  0.00000000E+00  0.00000000E+00
  0.00000000E+00  0.00000000E+00  0.00000000E+00
  0.00000000E+00  0.00000000E+00  0.00000000E+00
  0.00000000E+00  0.00000000E+00  0.00000000E+00
  0.00000000E+00  0.00000000E+00  0.00000000E+00
  0.00000000E+00  0.00000000E+00  0.00000000E+00
  0.00000000E+00  0.00000000E+00  0.00000000E+00
  0.00000000E+00  0.00000000E+00  0.00000000E+00
  0.00000000E+00  0.00000000E+00  0.00000000E+00
  0.00000000E+00  0.00000000E+00  0.00000000E+00
  0.00000000E+00  0.00000000E+00  0.00000000E+00
  0.00000000E+00  0.00000000E+00  0.00000000E+00
  0.00000000E+00  0.00000000E+00  0.00000000E+00
  0.00000000E+00  0.00000000E+00  0.00000000E+00
  0.00000000E+00  0.00000000E+00  0.00000000E+00
  0.00000000E+00  0.00000000E+00  0.00000000E+00
  0.00000000E+00  0.00000000E+00  0.00000000E+00
  0.00000000E+00  0.00000000E+00  0.00000000E+00
  0.00000000E+00  0.00000000E+00  0.00000000E+00
  0.00000000E+00  0.00000000E+00  0.00000000E+00
  0.00000000E+00  0.00000000E+00  0.00000000E+00
  0.00000000E+00  0.00000000E+00  0.00000000E+00
  0.00000000E+00  0.00000000E+00  0.00000000E+00
  0.00000000E+00  0.00000000E+00  0.00000000E+00
  0.00000000E+00  0.00000000E+00  0.00000000E+00
  0.00000000E+00  0.00000000E+00  0.00000000E+00
  0.00000000E+00  0.00000000E+00  0.00000000E+00
  0.00000000E+00  0.00000000E+00  0.00000000E+00
  0.00000000E+00  0.00000000E+00  0.00000000E+00
  0.00000000E+00  0.00000000E+00  0.00000000E+00
  0.00000000E+00  0.00000000E+00  0.00000000E+00
  0.00000000E+00  0.00000000E+00  0.00000000E+00
  0.00000000E+00  0.00000000E+00  0.00000000E+00
  0.00000000E+00  0.00000000E+00  0.00000000E+00
  0.00000000E+00  0.00000000E+00  0.00000000E+00
  0.00000000E+00  0.00000000E+00  0.00000000E+00
  0.00000000E+00  0.00000000E+00  0.00000000E+00
  0.00000000E+00  0.00000000E+00  0.00000000E+00
  0.00000000E+00  0.00000000E+00  0.00000000E+00
  0.00000000E+00  0.00000000E+00  0.00000000E+00
  0.00000000E+00  0.00000000E+00  0.00000000E+00
  0.00000000E+00  0.00000000E+00  0.00000000E+00
  0.00000000E+00  0.00000000E+00  0.00000000E+00
  0.00000000E+00  0.00000000E+00  0.00000000E+00
  0.00000000E+00  0.00000000E+00  0.00000000E+00
  0.00000000E+00  0.00000000E+00  0.00000000E+00
  0.00000000E+00  0.00000000E+00  0.00000000E+00
  0.00000000E+00  0.00000000E+00  0.00000000E+00
  0.00000000E+00  0.00000000E+00  0.00000000E+00
  0.00000000E+00  0.00000000E+00  0.00000000E+00
  0.00000000E+00  0.00000000E+00  0.00000000E+00
  0.00000000E+00  0.00000000E+00  0.00000000E+00
  0.00000000E+00  0.00000000E+00  0.00000000E+00
  0.00000000E+00  0.00000000E+00  0.00000000E+00
  0.00000000E+00  0.00000000E+00  0.00000000E+00
  0.00000000E+00  0.00000000E+00  0.00000000E+00
  0.00000000E+00  0.00000000E+00  0.00000000E+00
  0.00000000E+00  0.00000000E+00  0.00000000E+00
  0.00000000E+00  0.00000000E+00  0.00000000E+00
  0.00000000E+00  0.00000000E+00  0.00000000E+00
  0.00000000E+00  0.00000000E+00  0.00000000E+00
  0.00000000E+00  0.00000000E+00  0.00000000E+00
  0.00000000E+00  0.00000000E+00  0.00000000E+00
  0.00000000E+00  0.00000000E+00  0.00000000E+00
  0.00000000E+00  0.00000000E+00  0.00000000E+00
  0.00000000E+00  0.00000000E+00  0.00000000E+00
  0.00000000E+00  0.00000000E+00  0.00000000E+00
  0.00000000E+00  0.00000000E+00  0.00000000E+00
  0.00000000E+00  0.00000000E+00  0.00000000E+00
  0.00000000E+00  0.00000000E+00  0.00000000E+00
  0.00000000E+00  0.00000000E+00  0.00000000E+00
  0.00000000E+00  0.00000000E+00  0.00000000E+00
  0.00000000E+00  0.00000000E+00  0.00000000E+00
  0.00000000E+00  0.00000000E+00  0.00000000E+00
