O  C  H  Co Li                          
   1.00000000000000     
    25.9869300199999991    0.0014776500000000   -0.0002841700000000
    12.9947443200000006   22.5035161499999994   -0.0005769100000000
    -0.0000740900000000   -0.0001328100000000    6.8098320599999997
   O    C    H    Co   Li
    54    67    16    18     3
Direct
  0.0588726552281498  0.2584403557413594  0.3146627321022014
  0.0335578554425546  0.3019560886500539  0.9500778163288129
  0.1025049149867098  0.2622576054774655  0.7168788001947155
  0.6855243004338075  0.0542037411949366  0.3153894822991743
  0.6632090498233028  0.0329435880144325  0.9575795602305143
  0.6375317417189688  0.0999792727039694  0.7187532295120393
  0.0245750679014991  0.3972564567771607  0.6535866509787650
  0.2753042055446441  0.6690225964358354  0.3436219138258582
  0.3218860078267886  0.6404598511198026  0.9809097191627935
  0.2897352327955842  0.5923040791791978  0.7906388225196938
  0.5852925687063866  0.0153412386109933  0.6485674351061177
  0.2933867295243250  0.0341448519562991  0.3548857169089575
  0.2257425123206244  0.0757206875040455  0.5932758479534379
  0.2702698239858166  0.0802059951653342  0.9990212371128577
  0.6669128253179687  0.2880342537861418  0.4397377793023929
  0.7330400180320803  0.2007886775093046  0.5699558481358201
  0.0102873227632013  0.6332677665117484  0.7112613201691519
  0.0343742061059129  0.5664524245426232  0.9497873299250554
  0.6522397255672906  0.2680636393591606  0.0243324164076048
  0.0419326053123262  0.6741352560361223  0.3790362239208387
  0.0850799767003353  0.6961875970014978  0.6235516934088805
  0.3629249526568751  0.0016870406053824  0.6869534332525641
  0.4035117336698799  0.0285681599723358  0.9258913956295562
  0.0914794798482784  0.6444042994184863  0.0259751903114182
  0.7030369502941157  0.9598446147335029  0.6249391719236170
  0.7710841241458986  0.9214655487480951  0.3880870954600280
  0.7274663572760214  0.9150559548121258  0.9844052508904102
  0.3580631940127513  0.6978121989454907  0.5184946448732511
  0.2945873601367893  0.7776110506140922  0.3540356530164911
  0.0053727441770025  0.3736757560229578  0.2852016030156196
  0.9741792973575417  0.4438620485117432  0.0566084725651606
  0.3381241211637758  0.7282846350635783  0.9402171479048261
  0.9620395886726734  0.3456564043908384  0.6173582935368573
  0.9238647527962199  0.3141829516051916  0.3862958680448486
  0.6321840261795091  0.9913129632281382  0.2923874349052710
  0.5914793894677196  0.9658326796723151  0.0504942828928430
  0.9173820136866603  0.3651023337308876  0.9848748309421554
  0.9480783451089514  0.7503862554448049  0.6865616703670073
  0.9728298682603232  0.7064357179918318  0.0481723300822285
  0.9036395492423540  0.7436169880613697  0.2813070375543326
  0.3067397635269900  0.9421734293615888  0.6618537265907094
  0.3308099035623167  0.9628346804284874  0.0193518272463511
  0.3572920211633541  0.8945858513988454  0.2547811919866347
  0.9869145914788867  0.6112987868699362  0.3522266968701215
  0.7612913319963849  0.2953864181063546  0.7096053569650782
  0.6872120218181466  0.3652021370949626  0.0120999933855892
  0.7466585949053076  0.3564610198674225  0.2820033899303772
  0.4107242629344051  0.9762229201500250  0.3311019259032100
  0.5880734509656053  0.4202725232941880  0.2609395307480419
  0.6280924694015498  0.4789918676260568  0.2531384983127327
  0.6444244249015918  0.4216911433011856  0.5181616694147639
  0.8293475617250284  0.1786694791715299  0.2094073514776097
  0.8547511805604312  0.1233407902851788  0.6926331840329565
  0.8352818272732115  0.0506860794762436  0.5684740309952548
  0.1094733549529710  0.2156995679620778  0.2334022973160446
  0.1502197833908020  0.1692023931366613  0.3525630733487856
  0.0853388247986515  0.2618851650305909  0.8911447857705560
  0.1244287612354447  0.2148345420711435  0.0306240793837959
  0.6777534236059686  0.1051387752010336  0.2367048123781487
  0.6872604340509023  0.1426198234869227  0.3587408629923208
  0.6531460513183678  0.0839366822815418  0.8950383039814744
  0.6612546260990974  0.1227330069124897  0.0369957028919505
  0.0152932795847242  0.4486342197344978  0.5751817067616413
  0.0205659193855386  0.4890888100066487  0.6980441163443120
  0.2308010219789975  0.6607317474321647  0.2698915009495200
  0.1804484212140581  0.6753227143052595  0.3825758940746902
  0.2853358282916896  0.6206277295842005  0.9503627241474205
  0.2352972049427424  0.6360058217553095  0.0807116303154574
  0.5437486698142828  0.0055626721621264  0.5669367926128314
  0.4971835680205706  0.0111791968600777  0.6853913168769958
  0.2428590668944108  0.0753984651472959  0.4179755368657386
  0.2039782162242036  0.1232495072733464  0.2806196212445183
  0.2191711833260655  0.1226108908001094  0.0783655777131774
  0.1783692966164150  0.1690426367026181  0.9589953082218642
  0.6945732700984629  0.2293740513549647  0.4423877497670310
  0.6787083313351365  0.1974959176877620  0.2963342117539606
  0.0192617584341302  0.5826887961749152  0.7734652466728392
  0.0113107501572226  0.5438369331062057  0.6314302895853371
  0.6601633015608729  0.2166630771944990  0.0987688377475194
  0.6526096257058389  0.1777974108395730  0.9739264041496978
  0.0842920214328590  0.6808649036315241  0.4467524543447944
  0.1337523413581946  0.6682531290431506  0.3111028091548599
  0.4038509482768113  0.0112054989474725  0.7505416042480478
  0.4519238647232217  0.0020978890120439  0.6138518651325089
  0.1357875009357723  0.6481148754843165  0.1136959566706932
  0.1878116347634123  0.6308094856109674  0.0061615535738895
  0.7551122757763330  0.9211922814037397  0.5639121505513284
  0.7961585691728397  0.8761152259502684  0.7062680354593857
  0.7804327274330547  0.8757372544192744  0.9073156018798694
  0.8228813053613928  0.8318313617189481  0.0305187993386837
  0.3236553389594606  0.7555619144670099  0.5109320726789668
  0.3228907907945830  0.7947982311106205  0.6700881327060705
  0.9924382475249307  0.4260916259552600  0.2300038825504660
  0.9999445100803760  0.4647763098300259  0.3735697946984494
  0.3344275493663139  0.7788857048756324  0.8729717744482716
  0.3399378007809696  0.8183173248745277  0.0003977228967399
  0.9235475990745800  0.3313686325251078  0.5616093549616685
  0.8787880198911534  0.3359114192196995  0.7041129044759272
  0.5913492082503076  0.9818045133374430  0.2267890859034608
  0.5438597599617000  0.9900324250623304  0.3651897541447389
  0.8773244076748906  0.3532272426904244  0.9041777821102830
  0.8312690834613422  0.3574795314598458  0.0250456510401701
  0.8950485982913557  0.7898303309309580  0.7632731022285588
  0.8525172440735296  0.8337155651729313  0.6400430060311937
  0.9201351078139297  0.7445624549815868  0.1066180303547191
  0.8792758645480616  0.7894970476328860  0.9643112197874555
  0.3165313568756714  0.8902912386450894  0.7375428514913757
  0.3123239936088196  0.8504587188295913  0.6096970113235389
  0.3404788391765932  0.9118787540666924  0.0795516879528733
  0.3317552516330600  0.8732976756568277  0.9378378792538311
  0.9960431292955469  0.5598447528010954  0.4300804254462067
  0.9904620962905601  0.5196710481322835  0.3073142685900058
  0.7951837071121252  0.3199764286963002  0.7646567950667732
  0.8379092944773507  0.3190012133323043  0.6397014791011565
  0.7437082509441876  0.3436104137414853  0.0923311765197889
  0.7898067713606479  0.3424705860558291  0.9586875082947776
  0.4522391243605150  0.9862861525171877  0.4123737388721685
  0.4987635308717769  0.9807061059177260  0.2938997600790478
  0.6184454038511452  0.4413026001750779  0.3469841755664261
  0.8442842180022709  0.0873535677680379  0.6288346894161984
  0.7891459449973025  0.2172349232320923  0.1242529203123937
  0.1392839094715885  0.1691279823493133  0.5071328005971201
  0.7013405428590104  0.1283061577924494  0.5093309011119809
  0.0321588100486544  0.4770881101080064  0.8517434335800763
  0.1767622171742358  0.6929177973236534  0.5309582756164604
  0.4963647484482953  0.0232971783084932  0.8392085448386762
  0.1892350458729969  0.1691575034384907  0.8043398990947579
  0.6397468901842041  0.1911533154755012  0.8216650529094892
  0.1905803724349050  0.6140336797693351  0.8574082893082384
  0.8113478448647508  0.8312244953111869  0.1841440866178898
  0.3504212602842383  0.8061036551252260  0.1542889104388158
  0.8305736648693497  0.3702308237635397  0.1780785524140877
  0.8639261620331623  0.8343859092450038  0.4863293375558369
  0.3022180263610794  0.8630587974933422  0.4558620234147354
  0.9789297971767902  0.5317189589699587  0.1536216228317496
  0.8413780164175277  0.3031390548690812  0.4890650425421299
  0.4997001013757505  0.9686619714324315  0.1399188364558286
  0.7077294169959032  0.3343020498363228  0.4919155853952215
  0.2820191071854530  0.0219922812475690  0.7932147404907230
  0.6376147390407251  0.3336729378657798  0.1937901702522108
  0.9635291680744250  0.6903998463047614  0.4843363964804637
  0.3538022543327849  0.9526806194277595  0.4582375286618511
  0.3515870877907177  0.0239931830074330  0.1284335258539108
  0.7103171775632509  0.9755809764622521  0.1863647593371939
  0.3461056267357961  0.6633061881234362  0.7448064237805209
  0.7313517962005098  0.2787463266251083  0.0211720134302422
  0.9796853067687927  0.3165819122607564  0.1868432347307940
  0.3136331821621710  0.7062653918544094  0.1853026543733386
  0.9763709767374553  0.3850411862933790  0.8554693107950285
  0.6468015205262004  0.9702838092850357  0.8526994611742581
  0.0321299915330270  0.6257816450760236  0.1500189492532127
  0.6412367368524826  0.0391622180410276  0.5208867561491261
  0.0288697491511839  0.6938052006164662  0.8214255723188763
  0.3032974423982471  0.6258315890245264  0.5745043017986651
  0.0451140367093164  0.3189214756754289  0.5189189015838750
  0.7048980735113036  0.4374874776053276  0.3765486613738896
  0.6186727324514040  0.4431442995980838  0.0150550440295124
  0.7897061272461834  0.2115298948699412  0.6967907466948136
 
  0.00000000E+00  0.00000000E+00  0.00000000E+00
  0.00000000E+00  0.00000000E+00  0.00000000E+00
  0.00000000E+00  0.00000000E+00  0.00000000E+00
  0.00000000E+00  0.00000000E+00  0.00000000E+00
  0.00000000E+00  0.00000000E+00  0.00000000E+00
  0.00000000E+00  0.00000000E+00  0.00000000E+00
  0.00000000E+00  0.00000000E+00  0.00000000E+00
  0.00000000E+00  0.00000000E+00  0.00000000E+00
  0.00000000E+00  0.00000000E+00  0.00000000E+00
  0.00000000E+00  0.00000000E+00  0.00000000E+00
  0.00000000E+00  0.00000000E+00  0.00000000E+00
  0.00000000E+00  0.00000000E+00  0.00000000E+00
  0.00000000E+00  0.00000000E+00  0.00000000E+00
  0.00000000E+00  0.00000000E+00  0.00000000E+00
  0.00000000E+00  0.00000000E+00  0.00000000E+00
  0.00000000E+00  0.00000000E+00  0.00000000E+00
  0.00000000E+00  0.00000000E+00  0.00000000E+00
  0.00000000E+00  0.00000000E+00  0.00000000E+00
  0.00000000E+00  0.00000000E+00  0.00000000E+00
  0.00000000E+00  0.00000000E+00  0.00000000E+00
  0.00000000E+00  0.00000000E+00  0.00000000E+00
  0.00000000E+00  0.00000000E+00  0.00000000E+00
  0.00000000E+00  0.00000000E+00  0.00000000E+00
  0.00000000E+00  0.00000000E+00  0.00000000E+00
  0.00000000E+00  0.00000000E+00  0.00000000E+00
  0.00000000E+00  0.00000000E+00  0.00000000E+00
  0.00000000E+00  0.00000000E+00  0.00000000E+00
  0.00000000E+00  0.00000000E+00  0.00000000E+00
  0.00000000E+00  0.00000000E+00  0.00000000E+00
  0.00000000E+00  0.00000000E+00  0.00000000E+00
  0.00000000E+00  0.00000000E+00  0.00000000E+00
  0.00000000E+00  0.00000000E+00  0.00000000E+00
  0.00000000E+00  0.00000000E+00  0.00000000E+00
  0.00000000E+00  0.00000000E+00  0.00000000E+00
  0.00000000E+00  0.00000000E+00  0.00000000E+00
  0.00000000E+00  0.00000000E+00  0.00000000E+00
  0.00000000E+00  0.00000000E+00  0.00000000E+00
  0.00000000E+00  0.00000000E+00  0.00000000E+00
  0.00000000E+00  0.00000000E+00  0.00000000E+00
  0.00000000E+00  0.00000000E+00  0.00000000E+00
  0.00000000E+00  0.00000000E+00  0.00000000E+00
  0.00000000E+00  0.00000000E+00  0.00000000E+00
  0.00000000E+00  0.00000000E+00  0.00000000E+00
  0.00000000E+00  0.00000000E+00  0.00000000E+00
  0.00000000E+00  0.00000000E+00  0.00000000E+00
  0.00000000E+00  0.00000000E+00  0.00000000E+00
  0.00000000E+00  0.00000000E+00  0.00000000E+00
  0.00000000E+00  0.00000000E+00  0.00000000E+00
  0.00000000E+00  0.00000000E+00  0.00000000E+00
  0.00000000E+00  0.00000000E+00  0.00000000E+00
  0.00000000E+00  0.00000000E+00  0.00000000E+00
  0.00000000E+00  0.00000000E+00  0.00000000E+00
  0.00000000E+00  0.00000000E+00  0.00000000E+00
  0.00000000E+00  0.00000000E+00  0.00000000E+00
  0.00000000E+00  0.00000000E+00  0.00000000E+00
  0.00000000E+00  0.00000000E+00  0.00000000E+00
  0.00000000E+00  0.00000000E+00  0.00000000E+00
  0.00000000E+00  0.00000000E+00  0.00000000E+00
  0.00000000E+00  0.00000000E+00  0.00000000E+00
  0.00000000E+00  0.00000000E+00  0.00000000E+00
  0.00000000E+00  0.00000000E+00  0.00000000E+00
  0.00000000E+00  0.00000000E+00  0.00000000E+00
  0.00000000E+00  0.00000000E+00  0.00000000E+00
  0.00000000E+00  0.00000000E+00  0.00000000E+00
  0.00000000E+00  0.00000000E+00  0.00000000E+00
  0.00000000E+00  0.00000000E+00  0.00000000E+00
  0.00000000E+00  0.00000000E+00  0.00000000E+00
  0.00000000E+00  0.00000000E+00  0.00000000E+00
  0.00000000E+00  0.00000000E+00  0.00000000E+00
  0.00000000E+00  0.00000000E+00  0.00000000E+00
  0.00000000E+00  0.00000000E+00  0.00000000E+00
  0.00000000E+00  0.00000000E+00  0.00000000E+00
  0.00000000E+00  0.00000000E+00  0.00000000E+00
  0.00000000E+00  0.00000000E+00  0.00000000E+00
  0.00000000E+00  0.00000000E+00  0.00000000E+00
  0.00000000E+00  0.00000000E+00  0.00000000E+00
  0.00000000E+00  0.00000000E+00  0.00000000E+00
  0.00000000E+00  0.00000000E+00  0.00000000E+00
  0.00000000E+00  0.00000000E+00  0.00000000E+00
  0.00000000E+00  0.00000000E+00  0.00000000E+00
  0.00000000E+00  0.00000000E+00  0.00000000E+00
  0.00000000E+00  0.00000000E+00  0.00000000E+00
  0.00000000E+00  0.00000000E+00  0.00000000E+00
  0.00000000E+00  0.00000000E+00  0.00000000E+00
  0.00000000E+00  0.00000000E+00  0.00000000E+00
  0.00000000E+00  0.00000000E+00  0.00000000E+00
  0.00000000E+00  0.00000000E+00  0.00000000E+00
  0.00000000E+00  0.00000000E+00  0.00000000E+00
  0.00000000E+00  0.00000000E+00  0.00000000E+00
  0.00000000E+00  0.00000000E+00  0.00000000E+00
  0.00000000E+00  0.00000000E+00  0.00000000E+00
  0.00000000E+00  0.00000000E+00  0.00000000E+00
  0.00000000E+00  0.00000000E+00  0.00000000E+00
  0.00000000E+00  0.00000000E+00  0.00000000E+00
  0.00000000E+00  0.00000000E+00  0.00000000E+00
  0.00000000E+00  0.00000000E+00  0.00000000E+00
  0.00000000E+00  0.00000000E+00  0.00000000E+00
  0.00000000E+00  0.00000000E+00  0.00000000E+00
  0.00000000E+00  0.00000000E+00  0.00000000E+00
  0.00000000E+00  0.00000000E+00  0.00000000E+00
  0.00000000E+00  0.00000000E+00  0.00000000E+00
  0.00000000E+00  0.00000000E+00  0.00000000E+00
  0.00000000E+00  0.00000000E+00  0.00000000E+00
  0.00000000E+00  0.00000000E+00  0.00000000E+00
  0.00000000E+00  0.00000000E+00  0.00000000E+00
  0.00000000E+00  0.00000000E+00  0.00000000E+00
  0.00000000E+00  0.00000000E+00  0.00000000E+00
  0.00000000E+00  0.00000000E+00  0.00000000E+00
  0.00000000E+00  0.00000000E+00  0.00000000E+00
  0.00000000E+00  0.00000000E+00  0.00000000E+00
  0.00000000E+00  0.00000000E+00  0.00000000E+00
  0.00000000E+00  0.00000000E+00  0.00000000E+00
  0.00000000E+00  0.00000000E+00  0.00000000E+00
  0.00000000E+00  0.00000000E+00  0.00000000E+00
  0.00000000E+00  0.00000000E+00  0.00000000E+00
  0.00000000E+00  0.00000000E+00  0.00000000E+00
  0.00000000E+00  0.00000000E+00  0.00000000E+00
  0.00000000E+00  0.00000000E+00  0.00000000E+00
  0.00000000E+00  0.00000000E+00  0.00000000E+00
  0.00000000E+00  0.00000000E+00  0.00000000E+00
  0.00000000E+00  0.00000000E+00  0.00000000E+00
  0.00000000E+00  0.00000000E+00  0.00000000E+00
  0.00000000E+00  0.00000000E+00  0.00000000E+00
  0.00000000E+00  0.00000000E+00  0.00000000E+00
  0.00000000E+00  0.00000000E+00  0.00000000E+00
  0.00000000E+00  0.00000000E+00  0.00000000E+00
  0.00000000E+00  0.00000000E+00  0.00000000E+00
  0.00000000E+00  0.00000000E+00  0.00000000E+00
  0.00000000E+00  0.00000000E+00  0.00000000E+00
  0.00000000E+00  0.00000000E+00  0.00000000E+00
  0.00000000E+00  0.00000000E+00  0.00000000E+00
  0.00000000E+00  0.00000000E+00  0.00000000E+00
  0.00000000E+00  0.00000000E+00  0.00000000E+00
  0.00000000E+00  0.00000000E+00  0.00000000E+00
  0.00000000E+00  0.00000000E+00  0.00000000E+00
  0.00000000E+00  0.00000000E+00  0.00000000E+00
  0.00000000E+00  0.00000000E+00  0.00000000E+00
  0.00000000E+00  0.00000000E+00  0.00000000E+00
  0.00000000E+00  0.00000000E+00  0.00000000E+00
  0.00000000E+00  0.00000000E+00  0.00000000E+00
  0.00000000E+00  0.00000000E+00  0.00000000E+00
  0.00000000E+00  0.00000000E+00  0.00000000E+00
  0.00000000E+00  0.00000000E+00  0.00000000E+00
  0.00000000E+00  0.00000000E+00  0.00000000E+00
  0.00000000E+00  0.00000000E+00  0.00000000E+00
  0.00000000E+00  0.00000000E+00  0.00000000E+00
  0.00000000E+00  0.00000000E+00  0.00000000E+00
  0.00000000E+00  0.00000000E+00  0.00000000E+00
  0.00000000E+00  0.00000000E+00  0.00000000E+00
  0.00000000E+00  0.00000000E+00  0.00000000E+00
  0.00000000E+00  0.00000000E+00  0.00000000E+00
  0.00000000E+00  0.00000000E+00  0.00000000E+00
  0.00000000E+00  0.00000000E+00  0.00000000E+00
  0.00000000E+00  0.00000000E+00  0.00000000E+00
  0.00000000E+00  0.00000000E+00  0.00000000E+00
  0.00000000E+00  0.00000000E+00  0.00000000E+00
  0.00000000E+00  0.00000000E+00  0.00000000E+00
  0.00000000E+00  0.00000000E+00  0.00000000E+00
