 158 158   0   0
  0.2520405E+02  0.2598693E-08  0.2598599E-08  0.6809832E-09  0.5000000E-15
  1.000000000000000E-004
  CAR 
 Co–organic framework                  
      6.58194346    -28.02585876  301     -0.96237683      1.00000000
    -28.026  0.0000E+00  0.0000E+00  0.0000E+00  0.0000E+00
    -27.910  0.0000E+00  0.0000E+00  0.0000E+00  0.0000E+00
    -27.795  0.0000E+00  0.0000E+00  0.0000E+00  0.0000E+00
    -27.680  0.0000E+00  0.0000E+00  0.0000E+00  0.0000E+00
    -27.564  0.0000E+00  0.0000E+00  0.0000E+00  0.0000E+00
    -27.449  0.0000E+00  0.0000E+00  0.0000E+00  0.0000E+00
    -27.334  0.0000E+00  0.0000E+00  0.0000E+00  0.0000E+00
    -27.218  0.0000E+00  0.0000E+00  0.0000E+00  0.0000E+00
    -27.103  0.0000E+00  0.0000E+00  0.0000E+00  0.0000E+00
    -26.988  0.0000E+00  0.0000E+00  0.0000E+00  0.0000E+00
    -26.872  0.0000E+00  0.0000E+00  0.0000E+00  0.0000E+00
    -26.757  0.0000E+00  0.0000E+00  0.0000E+00  0.0000E+00
    -26.642  0.4046E-09  0.3875E-09  0.4667E-10  0.4470E-10
    -26.526  0.1641E-03  0.1610E-03  0.1893E-04  0.1857E-04
    -26.411  0.7484E-02  0.7474E-02  0.8823E-03  0.8807E-03
    -26.295  0.1020E-02  0.1034E-02  0.1000E-02  0.1000E-02
    -26.180  0.3733E-07  0.3871E-07  0.1000E-02  0.1000E-02
    -26.065  0.5389E-16  0.5678E-16  0.1000E-02  0.1000E-02
    -25.949  0.0000E+00  0.0000E+00  0.1000E-02  0.1000E-02
    -25.834  0.0000E+00  0.0000E+00  0.1000E-02  0.1000E-02
    -25.719  0.6746E-15  0.6386E-15  0.1000E-02  0.1000E-02
    -25.603  0.1647E-06  0.1595E-06  0.1000E-02  0.1000E-02
    -25.488  0.1698E-02  0.1680E-02  0.1196E-02  0.1194E-02
    -25.373  0.6901E-02  0.6917E-02  0.1992E-02  0.1992E-02
    -25.257  0.6984E-04  0.7126E-04  0.2000E-02  0.2000E-02
    -25.142  0.6219E-10  0.6491E-10  0.2000E-02  0.2000E-02
    -25.027  0.2061E-14  0.3618E-13  0.2000E-02  0.2000E-02
    -24.911  0.3569E-06  0.1554E-05  0.2000E-02  0.2000E-02
    -24.796  0.3217E-02  0.3729E-02  0.2371E-02  0.2430E-02
    -24.680  0.1394E-01  0.1314E-01  0.3979E-02  0.3946E-02
    -24.565  0.1907E-03  0.4664E-03  0.4001E-02  0.4000E-02
    -24.450  0.4818E-02  0.3984E-02  0.4557E-02  0.4460E-02
    -24.334  0.2090E-01  0.2288E-01  0.6968E-02  0.7099E-02
    -24.219  0.4385E-01  0.3937E-01  0.1203E-01  0.1164E-01
    -24.104  0.5101E-01  0.4692E-01  0.1791E-01  0.1705E-01
    -23.988  0.9440E-02  0.1542E-01  0.1900E-01  0.1883E-01
    -23.873  0.3748E-05  0.1451E-02  0.1900E-01  0.1900E-01
    -23.758  0.1164E-12  0.9794E-07  0.1900E-01  0.1900E-01
    -23.642  0.1505E-12  0.1088E-11  0.1900E-01  0.1900E-01
    -23.527  0.3352E-05  0.9481E-05  0.1900E-01  0.1900E-01
    -23.411  0.3988E-02  0.5010E-02  0.1946E-01  0.1958E-01
    -23.296  0.4670E-02  0.3647E-02  0.2000E-01  0.2000E-01
    -23.181  0.6756E-05  0.2322E-05  0.2000E-01  0.2000E-01
    -23.065  0.6781E-05  0.4846E-05  0.2000E-01  0.2000E-01
    -22.950  0.4674E-02  0.4343E-02  0.2054E-01  0.2050E-01
    -22.835  0.3984E-02  0.4316E-02  0.2100E-01  0.2100E-01
    -22.719  0.4445E-04  0.2335E-03  0.2100E-01  0.2103E-01
    -22.604  0.1185E-01  0.1927E-01  0.2237E-01  0.2325E-01
    -22.489  0.4184E-01  0.3393E-01  0.2720E-01  0.2716E-01
    -22.373  0.5205E-01  0.2763E-01  0.3320E-01  0.3035E-01
    -22.258  0.2966E-01  0.3650E-01  0.3662E-01  0.3456E-01
    -22.143  0.3251E-02  0.1878E-01  0.3700E-01  0.3673E-01
    -22.027  0.3528E-03  0.2950E-02  0.3704E-01  0.3707E-01
    -21.912  0.2393E-01  0.2704E-01  0.3980E-01  0.4019E-01
    -21.796  0.6731E-01  0.5437E-01  0.4757E-01  0.4646E-01
    -21.681  0.3773E-01  0.3738E-01  0.5192E-01  0.5077E-01
    -21.566  0.2254E-02  0.1326E-01  0.5218E-01  0.5230E-01
    -21.450  0.7044E-02  0.6032E-02  0.5299E-01  0.5300E-01
    -21.335  0.1544E-02  0.3561E-02  0.5317E-01  0.5341E-01
    -21.220  0.7116E-02  0.5114E-02  0.5399E-01  0.5400E-01
    -21.104  0.9229E-04  0.1052E-04  0.5400E-01  0.5400E-01
    -20.989  0.1132E-09  0.1331E-11  0.5400E-01  0.5400E-01
    -20.874  0.0000E+00  0.0000E+00  0.5400E-01  0.5400E-01
    -20.758  0.0000E+00  0.0000E+00  0.5400E-01  0.5400E-01
    -20.643  0.0000E+00  0.0000E+00  0.5400E-01  0.5400E-01
    -20.528  0.0000E+00  0.0000E+00  0.5400E-01  0.5400E-01
    -20.412  0.0000E+00  0.0000E+00  0.5400E-01  0.5400E-01
    -20.297  0.0000E+00  0.0000E+00  0.5400E-01  0.5400E-01
    -20.181  0.0000E+00  0.0000E+00  0.5400E-01  0.5400E-01
    -20.066  0.0000E+00  0.0000E+00  0.5400E-01  0.5400E-01
    -19.951  0.0000E+00  0.0000E+00  0.5400E-01  0.5400E-01
    -19.835  0.0000E+00  0.0000E+00  0.5400E-01  0.5400E-01
    -19.720  0.0000E+00  0.0000E+00  0.5400E-01  0.5400E-01
    -19.605  0.0000E+00  0.0000E+00  0.5400E-01  0.5400E-01
    -19.489  0.0000E+00  0.0000E+00  0.5400E-01  0.5400E-01
    -19.374  0.0000E+00  0.0000E+00  0.5400E-01  0.5400E-01
    -19.259  0.0000E+00  0.0000E+00  0.5400E-01  0.5400E-01
    -19.143  0.0000E+00  0.0000E+00  0.5400E-01  0.5400E-01
    -19.028  0.0000E+00  0.0000E+00  0.5400E-01  0.5400E-01
    -18.912  0.0000E+00  0.0000E+00  0.5400E-01  0.5400E-01
    -18.797  0.0000E+00  0.0000E+00  0.5400E-01  0.5400E-01
    -18.682  0.2887E-17  0.1791E-14  0.5400E-01  0.5400E-01
    -18.566  0.6115E-08  0.2884E-06  0.5400E-01  0.5400E-01
    -18.451  0.5141E-03  0.2029E-02  0.5406E-01  0.5423E-01
    -18.336  0.7773E-02  0.6592E-02  0.5496E-01  0.5499E-01
    -18.220  0.4401E-02  0.3064E-02  0.5546E-01  0.5535E-01
    -18.105  0.2693E-01  0.2759E-01  0.5857E-01  0.5853E-01
    -17.990  0.2611E-01  0.2168E-01  0.6158E-01  0.6103E-01
    -17.874  0.3615E-02  0.8316E-02  0.6200E-01  0.6199E-01
    -17.759  0.1880E-05  0.7609E-04  0.6200E-01  0.6200E-01
    -17.644  0.5151E-13  0.7452E-10  0.6200E-01  0.6200E-01
    -17.528  0.0000E+00  0.0000E+00  0.6200E-01  0.6200E-01
    -17.413  0.0000E+00  0.0000E+00  0.6200E-01  0.6200E-01
    -17.297  0.0000E+00  0.0000E+00  0.6200E-01  0.6200E-01
    -17.182  0.0000E+00  0.0000E+00  0.6200E-01  0.6200E-01
    -17.067  0.0000E+00  0.0000E+00  0.6200E-01  0.6200E-01
    -16.951  0.0000E+00  0.0000E+00  0.6200E-01  0.6200E-01
    -16.836  0.0000E+00  0.4186E-16  0.6200E-01  0.6200E-01
    -16.721  0.7493E-09  0.3216E-07  0.6200E-01  0.6200E-01
    -16.605  0.2149E-03  0.9668E-03  0.6202E-01  0.6211E-01
    -16.490  0.7614E-02  0.7524E-02  0.6290E-01  0.6298E-01
    -16.375  0.2071E-02  0.1162E-02  0.6314E-01  0.6311E-01
    -16.259  0.2862E-01  0.2897E-01  0.6644E-01  0.6646E-01
    -16.144  0.2713E-01  0.2404E-01  0.6957E-01  0.6923E-01
    -16.028  0.3698E-02  0.6678E-02  0.7000E-01  0.7000E-01
    -15.913  0.1419E-05  0.9978E-05  0.7000E-01  0.7000E-01
    -15.798  0.3061E-13  0.1170E-11  0.7000E-01  0.7000E-01
    -15.682  0.0000E+00  0.0000E+00  0.7000E-01  0.7000E-01
    -15.567  0.0000E+00  0.0000E+00  0.7000E-01  0.7000E-01
    -15.452  0.0000E+00  0.3518E-15  0.7000E-01  0.7000E-01
    -15.336  0.2149E-09  0.1129E-06  0.7000E-01  0.7000E-01
    -15.221  0.1236E-03  0.1499E-02  0.7001E-01  0.7017E-01
    -15.106  0.7320E-02  0.7082E-02  0.7086E-01  0.7099E-01
    -14.990  0.5143E-02  0.2041E-02  0.7145E-01  0.7123E-01
    -14.875  0.1569E-01  0.1771E-01  0.7326E-01  0.7327E-01
    -14.760  0.3093E-01  0.2709E-01  0.7683E-01  0.7639E-01
    -14.644  0.1002E-01  0.1153E-01  0.7799E-01  0.7772E-01
    -14.529  0.1261E-03  0.2402E-02  0.7800E-01  0.7800E-01
    -14.413  0.2234E-09  0.4994E-06  0.7800E-01  0.7800E-01
    -14.298  0.0000E+00  0.5195E-14  0.7800E-01  0.7800E-01
    -14.183  0.1665E-09  0.1354E-06  0.7800E-01  0.7800E-01
    -14.067  0.1101E-03  0.1592E-02  0.7801E-01  0.7818E-01
    -13.952  0.7243E-02  0.6997E-02  0.7885E-01  0.7899E-01
    -13.837  0.5200E-02  0.2067E-02  0.7945E-01  0.7923E-01
    -13.721  0.1803E-01  0.1970E-01  0.8153E-01  0.8150E-01
    -13.606  0.3435E-01  0.3048E-01  0.8549E-01  0.8502E-01
    -13.491  0.4416E-02  0.8479E-02  0.8600E-01  0.8600E-01
    -13.375  0.2329E-05  0.3665E-04  0.8600E-01  0.8600E-01
    -13.260  0.7593E-13  0.1585E-10  0.8600E-01  0.8600E-01
    -13.145  0.0000E+00  0.0000E+00  0.8600E-01  0.8600E-01
    -13.029  0.0000E+00  0.0000E+00  0.8600E-01  0.8600E-01
    -12.914  0.0000E+00  0.0000E+00  0.8600E-01  0.8600E-01
    -12.798  0.0000E+00  0.0000E+00  0.8600E-01  0.8600E-01
    -12.683  0.0000E+00  0.0000E+00  0.8600E-01  0.8600E-01
    -12.568  0.0000E+00  0.0000E+00  0.8600E-01  0.8600E-01
    -12.452  0.1298E-12  0.1011E-10  0.8600E-01  0.8600E-01
    -12.337  0.3096E-05  0.2916E-04  0.8600E-01  0.8600E-01
    -12.222  0.3913E-02  0.6125E-02  0.8645E-01  0.8671E-01
    -12.106  0.5613E-02  0.5150E-02  0.8710E-01  0.8730E-01
    -11.991  0.2602E-01  0.2180E-01  0.9010E-01  0.8982E-01
    -11.876  0.2487E-01  0.2627E-01  0.9297E-01  0.9285E-01
    -11.760  0.2411E-01  0.2122E-01  0.9575E-01  0.9530E-01
    -11.645  0.2423E-01  0.2343E-01  0.9855E-01  0.9800E-01
    -11.529  0.1971E-01  0.1816E-01  0.1008E+00  0.1001E+00
    -11.414  0.1860E-01  0.2590E-01  0.1030E+00  0.1031E+00
    -11.299  0.8936E-02  0.7968E-02  0.1040E+00  0.1040E+00
    -11.183  0.3751E-02  0.5268E-02  0.1044E+00  0.1046E+00
    -11.068  0.1539E-01  0.1233E-01  0.1062E+00  0.1060E+00
    -10.953  0.1080E-01  0.8388E-02  0.1075E+00  0.1070E+00
    -10.837  0.1347E-01  0.1228E-01  0.1090E+00  0.1084E+00
    -10.722  0.1174E-01  0.1615E-01  0.1104E+00  0.1103E+00
    -10.607  0.1362E-01  0.1443E-01  0.1119E+00  0.1119E+00
    -10.491  0.1830E-02  0.2371E-02  0.1121E+00  0.1122E+00
    -10.376  0.1471E-01  0.1562E-01  0.1138E+00  0.1140E+00
    -10.261  0.2645E-01  0.2218E-01  0.1169E+00  0.1166E+00
    -10.145  0.3004E-01  0.2846E-01  0.1204E+00  0.1199E+00
    -10.030  0.2069E-01  0.1819E-01  0.1227E+00  0.1220E+00
     -9.914  0.3367E-01  0.3767E-01  0.1266E+00  0.1263E+00
     -9.799  0.2515E-01  0.2242E-01  0.1295E+00  0.1289E+00
     -9.684  0.2592E-01  0.2532E-01  0.1325E+00  0.1318E+00
     -9.568  0.7346E-02  0.1286E-01  0.1334E+00  0.1333E+00
     -9.453  0.3294E-01  0.2947E-01  0.1372E+00  0.1367E+00
     -9.338  0.3079E-01  0.3363E-01  0.1407E+00  0.1406E+00
     -9.222  0.1591E-01  0.1531E-01  0.1426E+00  0.1423E+00
     -9.107  0.3349E-01  0.2984E-01  0.1464E+00  0.1458E+00
     -8.992  0.2833E-01  0.3983E-01  0.1497E+00  0.1504E+00
     -8.876  0.4352E-01  0.3246E-01  0.1547E+00  0.1541E+00
     -8.761  0.3812E-01  0.3764E-01  0.1591E+00  0.1585E+00
     -8.645  0.5004E-01  0.4412E-01  0.1649E+00  0.1636E+00
     -8.530  0.2597E-01  0.3383E-01  0.1679E+00  0.1675E+00
     -8.415  0.1034E-01  0.1371E-01  0.1691E+00  0.1690E+00
     -8.299  0.3168E-01  0.2816E-01  0.1727E+00  0.1723E+00
     -8.184  0.3174E-01  0.3055E-01  0.1764E+00  0.1758E+00
     -8.069  0.2628E-01  0.2887E-01  0.1794E+00  0.1791E+00
     -7.953  0.2467E-01  0.2724E-01  0.1823E+00  0.1823E+00
     -7.838  0.1483E-01  0.1348E-01  0.1840E+00  0.1838E+00
     -7.723  0.1500E-02  0.1103E-01  0.1841E+00  0.1851E+00
     -7.607  0.2832E-01  0.2808E-01  0.1874E+00  0.1884E+00
     -7.492  0.4794E-01  0.2660E-01  0.1929E+00  0.1914E+00
     -7.377  0.1708E-01  0.2379E-01  0.1949E+00  0.1942E+00
     -7.261  0.2343E-01  0.3467E-01  0.1976E+00  0.1982E+00
     -7.146  0.7298E-01  0.6147E-01  0.2060E+00  0.2053E+00
     -7.030  0.5854E-01  0.5342E-01  0.2128E+00  0.2114E+00
     -6.915  0.2238E-01  0.2551E-01  0.2154E+00  0.2144E+00
     -6.800  0.1882E-01  0.1596E-01  0.2175E+00  0.2162E+00
     -6.684  0.4316E-02  0.1280E-01  0.2180E+00  0.2177E+00
     -6.569  0.1018E-01  0.1397E-01  0.2192E+00  0.2193E+00
     -6.454  0.2811E-01  0.1932E-01  0.2225E+00  0.2215E+00
     -6.338  0.4734E-01  0.3810E-01  0.2279E+00  0.2259E+00
     -6.223  0.9573E-02  0.2608E-01  0.2290E+00  0.2289E+00
     -6.108  0.1419E-01  0.1235E-01  0.2307E+00  0.2303E+00
     -5.992  0.2576E-01  0.1844E-01  0.2336E+00  0.2325E+00
     -5.877  0.1806E-01  0.2372E-01  0.2357E+00  0.2352E+00
     -5.762  0.2351E-01  0.2133E-01  0.2384E+00  0.2377E+00
     -5.646  0.2565E-01  0.2726E-01  0.2414E+00  0.2408E+00
     -5.531  0.4446E-01  0.2827E-01  0.2465E+00  0.2441E+00
     -5.415  0.3389E-01  0.5178E-01  0.2504E+00  0.2500E+00
     -5.300  0.3938E-01  0.3967E-01  0.2550E+00  0.2546E+00
     -5.185  0.4747E-01  0.3224E-01  0.2604E+00  0.2583E+00
     -5.069  0.3848E-01  0.3386E-01  0.2649E+00  0.2623E+00
     -4.954  0.2745E-01  0.2839E-01  0.2680E+00  0.2655E+00
     -4.839  0.2586E-01  0.3885E-01  0.2710E+00  0.2700E+00
     -4.723  0.4451E-01  0.3737E-01  0.2762E+00  0.2743E+00
     -4.608  0.4564E-01  0.4568E-01  0.2814E+00  0.2796E+00
     -4.493  0.4338E-01  0.3689E-01  0.2864E+00  0.2838E+00
     -4.377  0.3856E-01  0.2191E-01  0.2909E+00  0.2864E+00
     -4.262  0.3965E-01  0.4256E-01  0.2955E+00  0.2913E+00
     -4.146  0.2031E-01  0.3113E-01  0.2978E+00  0.2949E+00
     -4.031  0.2613E-01  0.2507E-01  0.3008E+00  0.2978E+00
     -3.916  0.1948E-01  0.3163E-01  0.3031E+00  0.3014E+00
     -3.800  0.2074E-01  0.3036E-01  0.3054E+00  0.3049E+00
     -3.685  0.4818E-01  0.3725E-01  0.3110E+00  0.3092E+00
     -3.570  0.4768E-01  0.3383E-01  0.3165E+00  0.3131E+00
     -3.454  0.3324E-01  0.3533E-01  0.3203E+00  0.3172E+00
     -3.339  0.2480E-01  0.2846E-01  0.3232E+00  0.3205E+00
     -3.224  0.1867E-01  0.1483E-01  0.3254E+00  0.3222E+00
     -3.108  0.3320E-01  0.4038E-01  0.3292E+00  0.3268E+00
     -2.993  0.6097E-01  0.4507E-01  0.3362E+00  0.3320E+00
     -2.878  0.4330E-01  0.3899E-01  0.3412E+00  0.3365E+00
     -2.762  0.2630E-01  0.2840E-01  0.3442E+00  0.3398E+00
     -2.647  0.4595E-01  0.2190E-01  0.3495E+00  0.3423E+00
     -2.531  0.3121E-01  0.1347E-01  0.3532E+00  0.3439E+00
     -2.416  0.1619E-01  0.1899E-01  0.3550E+00  0.3461E+00
     -2.301  0.3988E-01  0.2346E-01  0.3596E+00  0.3488E+00
     -2.185  0.3375E-01  0.2705E-01  0.3635E+00  0.3519E+00
     -2.070  0.7558E-02  0.1146E-01  0.3644E+00  0.3532E+00
     -1.955  0.1436E-01  0.3018E-01  0.3660E+00  0.3567E+00
     -1.839  0.1858E-01  0.1880E-01  0.3682E+00  0.3589E+00
     -1.724  0.2218E-01  0.2352E-01  0.3707E+00  0.3616E+00
     -1.609  0.4788E-01  0.3051E-01  0.3763E+00  0.3651E+00
     -1.493  0.3180E-01  0.2830E-01  0.3799E+00  0.3684E+00
     -1.378  0.4487E-01  0.3235E-01  0.3851E+00  0.3721E+00
     -1.262  0.3459E-01  0.4098E-01  0.3891E+00  0.3768E+00
     -1.147  0.7735E-02  0.2704E-01  0.3900E+00  0.3800E+00
     -1.032  0.5983E-04  0.1376E-01  0.3900E+00  0.3815E+00
     -0.916  0.8603E-02  0.1355E-01  0.3910E+00  0.3831E+00
     -0.801  0.1304E-01  0.1576E-01  0.3925E+00  0.3849E+00
     -0.686  0.2048E-01  0.2619E-01  0.3949E+00  0.3880E+00
     -0.570  0.1736E-01  0.2383E-01  0.3969E+00  0.3907E+00
     -0.455  0.6925E-02  0.8865E-02  0.3977E+00  0.3917E+00
     -0.340  0.1122E-01  0.1151E-01  0.3990E+00  0.3931E+00
     -0.224  0.4875E-03  0.1084E-01  0.3990E+00  0.3943E+00
     -0.109  0.1463E-01  0.1942E-01  0.4007E+00  0.3965E+00
      0.006  0.2862E-01  0.3056E-01  0.4040E+00  0.4001E+00
      0.122  0.1589E-01  0.2500E-01  0.4058E+00  0.4030E+00
      0.237  0.1556E-02  0.7973E-03  0.4060E+00  0.4030E+00
      0.353  0.2029E-01  0.2405E-01  0.4084E+00  0.4058E+00
      0.468  0.4046E-01  0.3197E-01  0.4130E+00  0.4095E+00
      0.583  0.3993E-01  0.4381E-01  0.4176E+00  0.4146E+00
      0.699  0.1184E-01  0.2785E-01  0.4190E+00  0.4178E+00
      0.814  0.4627E-04  0.1037E-01  0.4190E+00  0.4190E+00
      0.929  0.2366E-10  0.2712E-03  0.4190E+00  0.4190E+00
      1.045  0.3215E-06  0.1286E-08  0.4190E+00  0.4190E+00
      1.160  0.2178E-02  0.3769E-05  0.4193E+00  0.4190E+00
      1.275  0.1353E-01  0.4100E-02  0.4208E+00  0.4195E+00
      1.391  0.1653E-02  0.5658E-02  0.4210E+00  0.4201E+00
      1.506  0.6143E-02  0.1207E-01  0.4217E+00  0.4215E+00
      1.621  0.9941E-02  0.4501E-02  0.4229E+00  0.4220E+00
      1.737  0.3955E-02  0.1225E-01  0.4233E+00  0.4235E+00
      1.852  0.6292E-02  0.4785E-02  0.4240E+00  0.4240E+00
      1.968  0.1459E-01  0.1080E-01  0.4257E+00  0.4253E+00
      2.083  0.3704E-01  0.3390E-01  0.4300E+00  0.4292E+00
      2.198  0.6162E-01  0.6351E-01  0.4371E+00  0.4365E+00
      2.314  0.4234E-01  0.4204E-01  0.4420E+00  0.4413E+00
      2.429  0.2574E-01  0.2836E-01  0.4450E+00  0.4446E+00
      2.544  0.2341E-01  0.1693E-01  0.4477E+00  0.4466E+00
      2.660  0.4881E-02  0.1200E-01  0.4482E+00  0.4479E+00
      2.775  0.1484E-01  0.8878E-02  0.4499E+00  0.4490E+00
      2.890  0.6069E-02  0.1168E-01  0.4506E+00  0.4503E+00
      3.006  0.1930E-01  0.1668E-01  0.4529E+00  0.4522E+00
      3.121  0.1907E-01  0.2162E-01  0.4551E+00  0.4547E+00
      3.237  0.1286E-01  0.1309E-01  0.4565E+00  0.4562E+00
      3.352  0.1838E-01  0.1559E-01  0.4587E+00  0.4580E+00
      3.467  0.2229E-01  0.1836E-01  0.4612E+00  0.4602E+00
      3.583  0.7099E-02  0.1947E-01  0.4621E+00  0.4624E+00
      3.698  0.1403E-01  0.1781E-01  0.4637E+00  0.4645E+00
      3.813  0.2440E-01  0.1257E-01  0.4665E+00  0.4659E+00
      3.929  0.2518E-01  0.2831E-01  0.4694E+00  0.4692E+00
      4.044  0.3130E-01  0.3298E-01  0.4730E+00  0.4730E+00
      4.159  0.1852E-01  0.1805E-01  0.4751E+00  0.4751E+00
      4.275  0.1926E-01  0.1705E-01  0.4774E+00  0.4770E+00
      4.390  0.2856E-01  0.2726E-01  0.4807E+00  0.4802E+00
      4.505  0.2305E-01  0.2498E-01  0.4833E+00  0.4831E+00
      4.621  0.2685E-01  0.2396E-01  0.4864E+00  0.4858E+00
      4.736  0.4199E-01  0.4396E-01  0.4913E+00  0.4909E+00
      4.852  0.2794E-01  0.2835E-01  0.4945E+00  0.4942E+00
      4.967  0.1884E-01  0.2158E-01  0.4967E+00  0.4967E+00
      5.082  0.1149E-01  0.1160E-01  0.4980E+00  0.4980E+00
      5.198  0.1668E-03  0.6307E-04  0.4980E+00  0.4980E+00
      5.313  0.4047E-09  0.4001E-10  0.4980E+00  0.4980E+00
      5.428  0.0000E+00  0.0000E+00  0.4980E+00  0.4980E+00
      5.544  0.0000E+00  0.0000E+00  0.4980E+00  0.4980E+00
      5.659  0.0000E+00  0.0000E+00  0.4980E+00  0.4980E+00
      5.774  0.0000E+00  0.0000E+00  0.4980E+00  0.4980E+00
      5.890  0.0000E+00  0.0000E+00  0.4980E+00  0.4980E+00
      6.005  0.0000E+00  0.0000E+00  0.4980E+00  0.4980E+00
      6.121  0.0000E+00  0.0000E+00  0.4980E+00  0.4980E+00
      6.236  0.0000E+00  0.0000E+00  0.4980E+00  0.4980E+00
      6.351  0.0000E+00  0.0000E+00  0.4980E+00  0.4980E+00
      6.467  0.0000E+00  0.0000E+00  0.4980E+00  0.4980E+00
      6.582  0.0000E+00  0.0000E+00  0.4980E+00  0.4980E+00
