 running on   24 total cores
 distrk:  each k-point on   24 cores,    1 groups
 distr:  one band on    4 cores,    6 groups
 using from now: INCAR     
 vasp.5.4.4.18Apr17-6-g9f103f2a35 (build May 21 2019 18:34:56) complex          
  
 POSCAR found type information on POSCAR  O  C  H  Co Li
 POSCAR found :  5 types and     158 ions
 LDA part: xc-table for Pade appr. of Perdew
 POSCAR found type information on POSCAR  O  C  H  Co Li
 POSCAR found :  5 types and     158 ions
 POSCAR, INCAR and KPOINTS ok, starting setup
 FFT: planning ...
 WAVECAR not read
 WARNING: random wavefunctions but no delay for mixing, default for NELMDL
 entering main loop
       N       E                     dE             d eps       ncg     rms          rms(c)
DAV:   1     0.831953264507E+04    0.83195E+04   -0.32477E+05  1992   0.134E+03
DAV:   2     0.853938785052E+03   -0.74656E+04   -0.67166E+04  2316   0.410E+02
DAV:   3    -0.117039040429E+04   -0.20243E+04   -0.19231E+04  3348   0.212E+02
DAV:   4    -0.133026282369E+04   -0.15987E+03   -0.14940E+03  3144   0.679E+01
DAV:   5    -0.133862757946E+04   -0.83648E+01   -0.76392E+01  3336   0.149E+01    0.154E+02
DAV:   6    -0.172759009988E+04   -0.38896E+03   -0.20330E+03  3228   0.169E+02    0.422E+02
DAV:   7    -0.150670286253E+04    0.22089E+03   -0.46752E+02  3114   0.792E+01    0.248E+02
DAV:   8    -0.118226691772E+04    0.32444E+03   -0.55204E+02  3096   0.206E+02    0.113E+02
DAV:   9    -0.133496543323E+04   -0.15270E+03   -0.49305E+02  3372   0.871E+01    0.174E+02
DAV:  10    -0.126270264846E+04    0.72263E+02   -0.25721E+02  3240   0.580E+01    0.142E+02
DAV:  11    -0.117304354590E+04    0.89659E+02   -0.19607E+02  2976   0.635E+01    0.101E+02
DAV:  12    -0.116744670488E+04    0.55968E+01   -0.21787E+02  3204   0.852E+01    0.114E+02
DAV:  13    -0.120473170566E+04   -0.37285E+02   -0.14476E+02  2964   0.681E+01    0.125E+02
DAV:  14    -0.112804531063E+04    0.76686E+02   -0.97328E+01  2796   0.554E+01    0.989E+01
DAV:  15    -0.110728271058E+04    0.20763E+02   -0.76890E+01  3456   0.294E+01    0.814E+01
DAV:  16    -0.109686120386E+04    0.10422E+02   -0.64896E+01  3204   0.255E+01    0.681E+01
DAV:  17    -0.109879546650E+04   -0.19343E+01   -0.54534E+01  3216   0.202E+01    0.698E+01
DAV:  18    -0.109344219434E+04    0.53533E+01   -0.23448E+01  3120   0.193E+01    0.605E+01
DAV:  19    -0.108757187912E+04    0.58703E+01   -0.19473E+01  2988   0.153E+01    0.449E+01
DAV:  20    -0.108918971896E+04   -0.16178E+01   -0.18468E+01  3072   0.122E+01    0.412E+01
DAV:  21    -0.108798764079E+04    0.12021E+01   -0.14147E+01  2952   0.881E+00    0.321E+01
DAV:  22    -0.108821380970E+04   -0.22617E+00   -0.86370E-01  2880   0.288E+00    0.328E+01
DAV:  23    -0.108825445055E+04   -0.40641E-01   -0.33298E-01  3060   0.143E+00    0.348E+01
DAV:  24    -0.108809293735E+04    0.16151E+00   -0.22074E-01  2952   0.142E+00    0.331E+01
DAV:  25    -0.108827159299E+04   -0.17866E+00   -0.15340E-01  3048   0.166E+00    0.343E+01
DAV:  26    -0.108824090601E+04    0.30687E-01   -0.50277E-01  3120   0.313E+00    0.317E+01
DAV:  27    -0.108878956814E+04   -0.54866E+00   -0.38979E+00  2904   0.306E+00    0.326E+01
DAV:  28    -0.108876427346E+04    0.25295E-01   -0.12646E-01  2784   0.158E+00    0.315E+01
DAV:  29    -0.108881445481E+04   -0.50181E-01   -0.16347E-02  3060   0.569E-01    0.314E+01
DAV:  30    -0.108856797599E+04    0.24648E+00   -0.17527E-01  3156   0.139E+00    0.318E+01
DAV:  31    -0.108862146294E+04   -0.53487E-01   -0.22026E-01  3156   0.277E+00    0.315E+01
DAV:  32    -0.108862705434E+04   -0.55914E-02   -0.35559E-02  2772   0.571E-01    0.316E+01
DAV:  33    -0.108864359160E+04   -0.16537E-01   -0.67584E-03  3084   0.234E-01    0.316E+01
DAV:  34    -0.108861646757E+04    0.27124E-01   -0.12524E-02  2988   0.428E-01    0.316E+01
DAV:  35    -0.108870460085E+04   -0.88133E-01   -0.23564E-01  3024   0.173E+00    0.315E+01
DAV:  36    -0.108943481027E+04   -0.73021E+00   -0.19164E+00  3156   0.469E+00    0.332E+01
DAV:  37    -0.108965677520E+04   -0.22196E+00   -0.22745E-01  2796   0.127E+00    0.340E+01
DAV:  38    -0.108986113484E+04   -0.20436E+00   -0.35393E-01  3096   0.135E+00    0.360E+01
DAV:  39    -0.108988963565E+04   -0.28501E-01   -0.58709E-01  2868   0.200E+00    0.360E+01
DAV:  40    -0.108957504564E+04    0.31459E+00   -0.15720E-01  2832   0.162E+00    0.363E+01
DAV:  41    -0.108995554044E+04   -0.38049E+00   -0.63862E-01  2916   0.163E+00    0.362E+01
DAV:  42    -0.109094306354E+04   -0.98752E+00   -0.37877E+00  2988   0.421E+00    0.348E+01
DAV:  43    -0.109137550682E+04   -0.43244E+00   -0.15215E-01  2640   0.141E+00    0.346E+01
DAV:  44    -0.109143231526E+04   -0.56808E-01   -0.15066E-01  3120   0.127E+00    0.342E+01
DAV:  45    -0.109268750607E+04   -0.12552E+01   -0.73771E-01  3024   0.309E+00    0.339E+01
DAV:  46    -0.109501955354E+04   -0.23320E+01   -0.41016E+00  2928   0.401E+00    0.320E+01
DAV:  47    -0.109574555786E+04   -0.72600E+00   -0.44924E-01  2748   0.189E+00    0.321E+01
DAV:  48    -0.109577291774E+04   -0.27360E-01   -0.56607E-02  2856   0.757E-01    0.322E+01
DAV:  49    -0.109583152917E+04   -0.58611E-01   -0.31348E-02  3000   0.627E-01    0.324E+01
DAV:  50    -0.109578610379E+04    0.45425E-01   -0.10972E-02  2916   0.395E-01    0.322E+01
DAV:  51    -0.110629560390E+04   -0.10510E+02   -0.21104E+01  2988   0.111E+01    0.381E+01
DAV:  52    -0.110848307137E+04   -0.21875E+01   -0.79272E+00  2928   0.928E+00    0.359E+01
DAV:  53    -0.111036990584E+04   -0.18868E+01   -0.36095E+00  3000   0.675E+00    0.370E+01
DAV:  54    -0.110920431522E+04    0.11656E+01   -0.27444E+00  2856   0.494E+00    0.382E+01
DAV:  55    -0.110726665270E+04    0.19377E+01   -0.19143E+00  2688   0.374E+00    0.388E+01
DAV:  56    -0.110353906789E+04    0.37276E+01   -0.38573E+00  3168   0.675E+00    0.463E+01
DAV:  57    -0.110497215122E+04   -0.14331E+01   -0.15162E+00  3132   0.546E+00    0.454E+01
DAV:  58    -0.110369448492E+04    0.12777E+01   -0.30154E+00  3372   0.459E+00    0.448E+01
DAV:  59    -0.109941350611E+04    0.42810E+01   -0.64598E-01  3000   0.301E+00    0.449E+01
DAV:  60    -0.109685464517E+04    0.25589E+01   -0.10834E+00  3204   0.229E+00    0.475E+01
DAV:  61    -0.111819266022E+04   -0.21338E+02   -0.38759E+01  3156   0.210E+01    0.705E+01
DAV:  62    -0.109816567706E+04    0.20027E+02   -0.53576E+01  2922   0.179E+01    0.429E+01
DAV:  63    -0.109777380738E+04    0.39187E+00   -0.80923E+00  3036   0.793E+00    0.475E+01
DAV:  64    -0.109332507109E+04    0.44487E+01   -0.16793E+00  3060   0.385E+00    0.458E+01
DAV:  65    -0.109328248500E+04    0.42586E-01   -0.16471E-01  2676   0.157E+00    0.456E+01
DAV:  66    -0.111129719595E+04   -0.18015E+02   -0.70398E+00  3168   0.109E+01    0.410E+01
DAV:  67    -0.111146944846E+04   -0.17225E+00   -0.41631E+00  3108   0.707E+00    0.383E+01
DAV:  68    -0.111304157715E+04   -0.15721E+01   -0.15499E+00  2892   0.431E+00    0.385E+01
DAV:  69    -0.111408984462E+04   -0.10483E+01   -0.16251E+00  2868   0.401E+00    0.368E+01
DAV:  70    -0.111525797582E+04   -0.11681E+01   -0.15748E+00  3000   0.501E+00    0.362E+01
DAV:  71    -0.111979838134E+04   -0.45404E+01   -0.81436E+00  3048   0.105E+01    0.408E+01
DAV:  72    -0.112023668049E+04   -0.43830E+00   -0.95650E+00  2868   0.804E+00    0.367E+01
DAV:  73    -0.112121240114E+04   -0.97572E+00   -0.10017E+00  2904   0.409E+00    0.316E+01
DAV:  74    -0.112158028198E+04   -0.36788E+00   -0.47206E-01  2964   0.270E+00    0.293E+01
DAV:  75    -0.112307731612E+04   -0.14970E+01   -0.44112E+00  2820   0.489E+00    0.325E+01
DAV:  76    -0.112360547295E+04   -0.52816E+00   -0.40766E+00  3096   0.599E+00    0.325E+01
DAV:  77    -0.112364596126E+04   -0.40488E-01   -0.47205E+00  3012   0.646E+00    0.307E+01
DAV:  78    -0.112479900419E+04   -0.11530E+01   -0.16277E+00  2868   0.380E+00    0.316E+01
DAV:  79    -0.112597890487E+04   -0.11799E+01   -0.17452E+00  3012   0.353E+00    0.318E+01
DAV:  80    -0.112785501589E+04   -0.18761E+01   -0.81031E-01  2940   0.238E+00    0.331E+01
DAV:  81    -0.112391542306E+04    0.39396E+01   -0.34281E+01  2874   0.147E+01    0.419E+01
DAV:  82    -0.112569603472E+04   -0.17806E+01   -0.15131E+01  2826   0.123E+01    0.362E+01
DAV:  83    -0.112717035182E+04   -0.14743E+01   -0.38634E+00  2796   0.614E+00    0.310E+01
DAV:  84    -0.112759418086E+04   -0.42383E+00   -0.30797E+00  3108   0.436E+00    0.277E+01
DAV:  85    -0.112864030035E+04   -0.10461E+01   -0.82444E-01  2892   0.272E+00    0.284E+01
DAV:  86    -0.112967822819E+04   -0.10379E+01   -0.20858E+01  2952   0.104E+01    0.394E+01
DAV:  87    -0.112755368434E+04    0.21245E+01   -0.42945E+00  3000   0.915E+00    0.315E+01
DAV:  88    -0.112813495171E+04   -0.58127E+00   -0.23774E+00  2820   0.435E+00    0.266E+01
DAV:  89    -0.112919276977E+04   -0.10578E+01   -0.18819E+00  3024   0.537E+00    0.277E+01
DAV:  90    -0.112943926996E+04   -0.24650E+00   -0.18461E+00  2928   0.312E+00    0.239E+01
DAV:  91    -0.112901871207E+04    0.42056E+00   -0.57574E+00  2856   0.767E+00    0.320E+01
DAV:  92    -0.112952371205E+04   -0.50500E+00   -0.20707E+00  2880   0.584E+00    0.237E+01
DAV:  93    -0.113048030422E+04   -0.95659E+00   -0.18758E+00  3132   0.335E+00    0.183E+01
DAV:  94    -0.113225722531E+04   -0.17769E+01   -0.55836E-01  2676   0.289E+00    0.160E+01
DAV:  95    -0.113417153334E+04   -0.19143E+01   -0.36724E-01  2892   0.240E+00    0.150E+01
DAV:  96    -0.113662527043E+04   -0.24537E+01   -0.83734E-01  2892   0.452E+00    0.131E+01
DAV:  97    -0.114016919994E+04   -0.35439E+01   -0.19200E+00  2688   0.323E+00    0.152E+01
DAV:  98    -0.114154508150E+04   -0.13759E+01   -0.61792E-01  2952   0.268E+00    0.128E+01
DAV:  99    -0.114266868909E+04   -0.11236E+01   -0.72621E-01  2916   0.208E+00    0.895E+00
DAV: 100    -0.114477366478E+04   -0.21050E+01   -0.40922E-01  2772   0.234E+00    0.987E+00
DAV: 101    -0.114463104846E+04    0.14262E+00   -0.40517E-01  2952   0.213E+00    0.987E+00
DAV: 102    -0.114516630736E+04   -0.53526E+00   -0.85178E-01  2904   0.267E+00    0.124E+01
DAV: 103    -0.114497154996E+04    0.19476E+00   -0.56028E-02  2742   0.108E+00    0.129E+01
DAV: 104    -0.114492336539E+04    0.48185E-01   -0.17193E-02  3000   0.513E-01    0.129E+01
DAV: 105    -0.114505429303E+04   -0.13093E+00   -0.15486E-02  3180   0.452E-01    0.126E+01
DAV: 106    -0.114642519477E+04   -0.13709E+01   -0.13339E+00  2904   0.235E+00    0.176E+01
DAV: 107    -0.114578589039E+04    0.63930E+00   -0.38553E-01  2892   0.159E+00    0.137E+01
DAV: 108    -0.114569041307E+04    0.95477E-01   -0.39156E-02  2856   0.101E+00    0.141E+01
DAV: 109    -0.114561556879E+04    0.74844E-01   -0.17337E-02  3060   0.398E-01    0.137E+01
DAV: 110    -0.114558578333E+04    0.29785E-01   -0.10878E-01  2964   0.108E+00    0.128E+01
DAV: 111    -0.114669991195E+04   -0.11141E+01   -0.84669E-01  2916   0.354E+00    0.171E+01
DAV: 112    -0.114671946721E+04   -0.19555E-01   -0.58138E-01  2772   0.230E+00    0.140E+01
DAV: 113    -0.114691276434E+04   -0.19330E+00   -0.13409E-01  2940   0.167E+00    0.131E+01
DAV: 114    -0.114727523538E+04   -0.36247E+00   -0.11783E-01  3060   0.130E+00    0.117E+01
DAV: 115    -0.114772938343E+04   -0.45415E+00   -0.42869E-02  2820   0.796E-01    0.112E+01
DAV: 116    -0.114853640825E+04   -0.80702E+00   -0.37452E-01  2712   0.240E+00    0.103E+01
DAV: 117    -0.114948678218E+04   -0.95037E+00   -0.22192E-01  2964   0.223E+00    0.922E+00
DAV: 118    -0.115063963288E+04   -0.11529E+01   -0.31730E-01  2820   0.131E+00    0.103E+01
DAV: 119    -0.115089008898E+04   -0.25046E+00   -0.15649E-01  2928   0.908E-01    0.975E+00
DAV: 120    -0.115127066923E+04   -0.38058E+00   -0.35034E-02  2880   0.689E-01
   1 F= -.11589606E+04 E0= -.11589442E+04  d E =-.115896E+04  mag=    15.2098
 curvature:   0.00 expect dE= 0.000E+00 dE for cont linesearch  0.000E+00
 trial: gam= 0.00000 g(F)=  0.120E+00 g(S)=  0.000E+00 ort = 0.000E+00 (trialstep = 0.100E+01)
 search vector abs. value=  0.120E+00
 bond charge predicted
       N       E                     dE             d eps       ncg     rms          rms(c)
DAV:   1    -0.115102180103E+04   -0.13171E+00   -0.38732E+01  2016   0.124E+01    0.106E+01
DAV:   2    -0.115764271646E+04   -0.66209E+01   -0.19428E+01  3186   0.153E+01    0.426E+01
DAV:   3    -0.115211184881E+04    0.55309E+01   -0.11542E+01  2868   0.141E+01    0.168E+01
DAV:   4    -0.115454580103E+04   -0.24340E+01   -0.16325E+01  3348   0.132E+01    0.376E+01
DAV:   5    -0.115268586740E+04    0.18599E+01   -0.88304E+00  3006   0.813E+00    0.115E+01
DAV:   6    -0.115312314312E+04   -0.43728E+00   -0.17298E+00  3168   0.543E+00    0.983E+00
DAV:   7    -0.115349631925E+04   -0.37318E+00   -0.10012E+00  3144   0.446E+00    0.807E+00
DAV:   8    -0.115370292353E+04   -0.20660E+00   -0.52708E-01  2964   0.357E+00    0.431E+00
DAV:   9    -0.115414497435E+04   -0.44205E+00   -0.49652E-01  3024   0.257E+00    0.560E+00
DAV:  10    -0.115429174914E+04   -0.14677E+00   -0.81783E-01  3096   0.202E+00    0.433E+00
DAV:  11    -0.115453192562E+04   -0.24018E+00   -0.57521E-02  3012   0.135E+00    0.386E+00
DAV:  12    -0.115475004072E+04   -0.21812E+00   -0.92670E-02  3132   0.176E+00    0.384E+00
DAV:  13    -0.115499388372E+04   -0.24384E+00   -0.41200E-01  2952   0.180E+00    0.338E+00
DAV:  14    -0.115536753838E+04   -0.37365E+00   -0.44216E-01  3180   0.192E+00    0.678E+00
DAV:  15    -0.115551070781E+04   -0.14317E+00   -0.60480E-02  3048   0.145E+00    0.579E+00
DAV:  16    -0.115560429072E+04   -0.93583E-01   -0.24338E-02  3144   0.787E-01    0.403E+00
DAV:  17    -0.115572184509E+04   -0.11755E+00   -0.12153E-01  3252   0.963E-01    0.159E+00
DAV:  18    -0.115592846995E+04   -0.20662E+00   -0.39282E-02  2796   0.100E+00    0.225E+00
DAV:  19    -0.115619815573E+04   -0.26969E+00   -0.21894E-02  2964   0.596E-01    0.206E+00
DAV:  20    -0.115631362327E+04   -0.11547E+00   -0.14663E-02  3096   0.574E-01    0.205E+00
DAV:  21    -0.115645645765E+04   -0.14283E+00   -0.84172E-03  2880   0.405E-01    0.183E+00
DAV:  22    -0.115659866364E+04   -0.14221E+00   -0.90450E-03  2928   0.322E-01    0.136E+00
DAV:  23    -0.115670146864E+04   -0.10280E+00   -0.11595E-02  2880   0.389E-01    0.103E+00
DAV:  24    -0.115685995444E+04   -0.15849E+00   -0.12626E-02  2868   0.352E-01    0.421E-01
DAV:  25    -0.115700064701E+04   -0.14069E+00   -0.89299E-03  2856   0.322E-01    0.705E-01
DAV:  26    -0.115709014223E+04   -0.89495E-01   -0.46959E-03  3036   0.326E-01    0.665E-01
DAV:  27    -0.115718780704E+04   -0.97665E-01   -0.48233E-03  2880   0.267E-01    0.295E-01
DAV:  28    -0.115732271949E+04   -0.13491E+00   -0.79250E-03  2652   0.194E-01    0.210E-01
DAV:  29    -0.115736695085E+04   -0.44231E-01   -0.27643E-03  3120   0.179E-01    0.298E-01
DAV:  30    -0.115738526277E+04   -0.18312E-01   -0.14084E-03  3012   0.159E-01    0.267E-01
DAV:  31    -0.115740272300E+04   -0.17460E-01   -0.94148E-04  2784   0.830E-02    0.161E-01
DAV:  32    -0.115741140299E+04   -0.86800E-02   -0.47329E-04  3060   0.972E-02    0.204E-01
DAV:  33    -0.115741595506E+04   -0.45521E-02   -0.29002E-04  3036   0.909E-02    0.124E-01
DAV:  34    -0.115742003780E+04   -0.40827E-02   -0.19842E-04  2796   0.416E-02    0.867E-02
DAV:  35    -0.115742374321E+04   -0.37054E-02   -0.23043E-04  2784   0.377E-02    0.472E-02
DAV:  36    -0.115742563636E+04   -0.18931E-02   -0.14580E-04  2796   0.281E-02    0.729E-02
DAV:  37    -0.115742595105E+04   -0.31469E-03   -0.39905E-05  2856   0.200E-02    0.450E-02
DAV:  38    -0.115742609539E+04   -0.14434E-03   -0.15132E-05  2400   0.124E-02    0.319E-02
DAV:  39    -0.115742623047E+04   -0.13508E-03   -0.15185E-05  2568   0.118E-02    0.256E-02
DAV:  40    -0.115742630396E+04   -0.73495E-04   -0.69874E-06  2364   0.888E-03    0.224E-02
DAV:  41    -0.115742634319E+04   -0.39225E-04   -0.39934E-06  1980   0.631E-03    0.177E-02
DAV:  42    -0.115742638310E+04   -0.39909E-04   -0.30550E-06  1932   0.550E-03    0.160E-02
DAV:  43    -0.115742642277E+04   -0.39666E-04   -0.41363E-06  1980   0.483E-03    0.108E-02
DAV:  44    -0.115742646801E+04   -0.45244E-04   -0.43044E-06  2028   0.450E-03    0.861E-03
DAV:  45    -0.115742649361E+04   -0.25603E-04   -0.23874E-06  1704   0.357E-03    0.110E-02
DAV:  46    -0.115742650589E+04   -0.12277E-04   -0.12985E-06  1776   0.288E-03    0.662E-03
DAV:  47    -0.115742651370E+04   -0.78150E-05   -0.10363E-06  1632   0.244E-03    0.375E-03
DAV:  48    -0.115742651908E+04   -0.53745E-05   -0.81862E-07  1656   0.215E-03    0.412E-03
DAV:  49    -0.115742652307E+04   -0.39935E-05   -0.85266E-07  1584   0.193E-03    0.467E-03
DAV:  50    -0.115742652520E+04   -0.21232E-05   -0.84708E-07  1644   0.176E-03    0.301E-03
DAV:  51    -0.115742652628E+04   -0.10847E-05   -0.69693E-07  1536   0.139E-03    0.181E-03
DAV:  52    -0.115742652750E+04   -0.12179E-05   -0.26790E-07  1572   0.121E-03    0.102E-03
DAV:  53    -0.115742652755E+04   -0.53486E-07   -0.16390E-07  1440   0.834E-04
   2 F= -.11651159E+04 E0= -.11651049E+04  d E =-.615529E+01  mag=    13.0151
 trial-energy change:   -6.155286  1 .order    0.037406   -0.119874    0.194686
 step:   0.3811(harm=  0.3811)  dis= 0.00595  next Energy= -1158.983431 (dE=-0.228E-01)
 bond charge predicted
       N       E                     dE             d eps       ncg     rms          rms(c)
DAV:   1    -0.115744934898E+04   -0.22821E-01   -0.14790E+01  2004   0.762E+00    0.157E+00
DAV:   2    -0.115750098798E+04   -0.51639E-01   -0.39726E-01  3156   0.155E+00    0.281E+00
DAV:   3    -0.115757664847E+04   -0.75660E-01   -0.43917E-01  3372   0.172E+00    0.879E+00
DAV:   4    -0.115748359522E+04    0.93053E-01   -0.57677E-01  3108   0.137E+00    0.245E+00
DAV:   5    -0.115749218797E+04   -0.85927E-02   -0.31335E-02  2904   0.978E-01    0.102E+00
DAV:   6    -0.115749481189E+04   -0.26239E-02   -0.14304E-02  2988   0.616E-01    0.126E+00
DAV:   7    -0.115749264363E+04    0.21683E-02   -0.87402E-03  3024   0.561E-01    0.972E-01
DAV:   8    -0.115749447112E+04   -0.18275E-02   -0.11375E-02  3276   0.537E-01    0.970E-01
DAV:   9    -0.115749328047E+04    0.11907E-02   -0.70179E-03  3132   0.505E-01    0.698E-01
DAV:  10    -0.115749305599E+04    0.22448E-03   -0.45630E-03  3180   0.386E-01    0.734E-01
DAV:  11    -0.115749239887E+04    0.65712E-03   -0.14596E-03  3084   0.242E-01    0.503E-01
DAV:  12    -0.115749219097E+04    0.20790E-03   -0.77085E-04  3024   0.175E-01    0.331E-01
DAV:  13    -0.115749222968E+04   -0.38713E-04   -0.58070E-04  3132   0.119E-01    0.169E-01
DAV:  14    -0.115749240324E+04   -0.17356E-03   -0.51378E-04  3132   0.131E-01    0.176E-01
DAV:  15    -0.115749242045E+04   -0.17208E-04   -0.35898E-04  3072   0.116E-01    0.131E-01
DAV:  16    -0.115749244778E+04   -0.27328E-04   -0.12979E-04  2940   0.744E-02    0.101E-01
DAV:  17    -0.115749244945E+04   -0.16737E-05   -0.80015E-05  2748   0.531E-02    0.835E-02
DAV:  18    -0.115749245728E+04   -0.78338E-05   -0.38553E-05  2400   0.371E-02    0.433E-02
DAV:  19    -0.115749249182E+04   -0.34537E-04   -0.21471E-05  2412   0.212E-02    0.323E-02
DAV:  20    -0.115749251485E+04   -0.23034E-04   -0.30493E-05  2088   0.233E-02    0.367E-02
DAV:  21    -0.115749254725E+04   -0.32392E-04   -0.13579E-05  1920   0.168E-02    0.156E-02
DAV:  22    -0.115749257895E+04   -0.31701E-04   -0.40893E-06  1860   0.123E-02    0.174E-02
DAV:  23    -0.115749259767E+04   -0.18727E-04   -0.35466E-06  1860   0.119E-02    0.173E-02
DAV:  24    -0.115749261859E+04   -0.20914E-04   -0.18567E-06  1656   0.808E-03    0.103E-02
DAV:  25    -0.115749264610E+04   -0.27514E-04   -0.14175E-06  1560   0.376E-03    0.501E-03
DAV:  26    -0.115749266041E+04   -0.14303E-04   -0.94540E-07  1536   0.397E-03    0.582E-03
DAV:  27    -0.115749267463E+04   -0.14227E-04   -0.65858E-07  1488   0.352E-03    0.426E-03
DAV:  28    -0.115749269411E+04   -0.19479E-04   -0.70462E-07  1644   0.197E-03    0.383E-03
DAV:  29    -0.115749270668E+04   -0.12570E-04   -0.44892E-07  1476   0.224E-03    0.400E-03
DAV:  30    -0.115749272161E+04   -0.14927E-04   -0.43909E-07  1524   0.267E-03    0.316E-03
DAV:  31    -0.115749274297E+04   -0.21366E-04   -0.78162E-07  1596   0.216E-03    0.208E-03
DAV:  32    -0.115749275997E+04   -0.16999E-04   -0.96281E-07  1596   0.156E-03    0.226E-03
DAV:  33    -0.115749276759E+04   -0.76197E-05   -0.40990E-07  1524   0.137E-03    0.222E-03
DAV:  34    -0.115749277271E+04   -0.51124E-05   -0.28102E-07  1500   0.149E-03    0.285E-03
DAV:  35    -0.115749277578E+04   -0.30737E-05   -0.21881E-07  1512   0.143E-03    0.226E-03
DAV:  36    -0.115749277896E+04   -0.31833E-05   -0.21861E-07  1452   0.768E-04    0.168E-03
DAV:  37    -0.115749278108E+04   -0.21191E-05   -0.15841E-07  1476   0.647E-04    0.143E-03
DAV:  38    -0.115749278382E+04   -0.27341E-05   -0.15577E-07  1464   0.561E-04    0.995E-04
DAV:  39    -0.115749278495E+04   -0.11302E-05   -0.10617E-07  1500   0.592E-04    0.773E-04
DAV:  40    -0.115749278579E+04   -0.84018E-06   -0.94317E-08  1392   0.430E-04
   3 F= -.11651825E+04 E0= -.11651719E+04  d E =-.622195E+01  mag=    13.0206
 curvature:  -0.19 expect dE=-0.232E-01 dE for cont linesearch -0.742E-03
 ZBRENT: interpolating
 opt :   0.3229  next Energy= -1165.183171 (dE=-0.622E+01)
 bond charge predicted
       N       E                     dE             d eps       ncg     rms          rms(c)
DAV:   1    -0.115749317056E+04   -0.38562E-03   -0.13058E-01  2028   0.717E-01    0.152E-01
DAV:   2    -0.115749354650E+04   -0.37594E-03   -0.33750E-03  3084   0.145E-01    0.278E-01
DAV:   3    -0.115749420337E+04   -0.65687E-03   -0.36367E-03  3252   0.168E-01    0.754E-01
DAV:   4    -0.115749340073E+04    0.80264E-03   -0.35683E-03  2964   0.132E-01    0.284E-01
DAV:   5    -0.115749348314E+04   -0.82413E-04   -0.36793E-04  2796   0.915E-02    0.828E-02
DAV:   6    -0.115749353625E+04   -0.53106E-04   -0.11160E-04  2904   0.586E-02    0.979E-02
DAV:   7    -0.115749352961E+04    0.66418E-05   -0.76838E-05  2964   0.508E-02    0.763E-02
DAV:   8    -0.115749356568E+04   -0.36070E-04   -0.10665E-04  3000   0.526E-02    0.125E-01
DAV:   9    -0.115749354335E+04    0.22329E-04   -0.72217E-05  2916   0.502E-02    0.803E-02
DAV:  10    -0.115749354145E+04    0.18964E-05   -0.41075E-05  2316   0.394E-02    0.740E-02
DAV:  11    -0.115749353324E+04    0.82132E-05   -0.14186E-05  1896   0.219E-02    0.491E-02
DAV:  12    -0.115749353323E+04    0.76398E-08   -0.67802E-06  1824   0.146E-02
   4 F= -.11651833E+04 E0= -.11651727E+04  d E =-.622273E+01  mag=    13.0207
 curvature:  -0.16 expect dE=-0.156E-01 dE for cont linesearch -0.408E-04
 trial: gam= 0.85397 g(F)=  0.969E-01 g(S)=  0.000E+00 ort =-0.550E-02 (trialstep = 0.593E+00)
 search vector abs. value=  0.175E+00
 bond charge predicted
       N       E                     dE             d eps       ncg     rms          rms(c)
DAV:   1    -0.115744114661E+04    0.52387E-01   -0.21138E+01  2004   0.836E+00    0.190E+00
DAV:   2    -0.115754331185E+04   -0.10217E+00   -0.63555E-01  3132   0.188E+00    0.653E+00
DAV:   3    -0.115752829931E+04    0.15013E-01   -0.98874E-01  3216   0.182E+00    0.454E+00
DAV:   4    -0.115751226254E+04    0.16037E-01   -0.85762E-02  2928   0.138E+00    0.287E+00
DAV:   5    -0.115750492642E+04    0.73361E-02   -0.16319E-01  3048   0.839E-01    0.130E+00
DAV:   6    -0.115750799142E+04   -0.30650E-02   -0.13844E-02  2988   0.743E-01    0.124E+00
DAV:   7    -0.115750964528E+04   -0.16539E-02   -0.15951E-02  3360   0.661E-01    0.155E+00
DAV:   8    -0.115750631796E+04    0.33273E-02   -0.16414E-02  3120   0.498E-01    0.844E-01
DAV:   9    -0.115750737155E+04   -0.10536E-02   -0.73987E-03  3144   0.594E-01    0.869E-01
DAV:  10    -0.115750625739E+04    0.11142E-02   -0.47210E-03  3144   0.420E-01    0.379E-01
DAV:  11    -0.115750682588E+04   -0.56849E-03   -0.15161E-03  3204   0.272E-01    0.448E-01
DAV:  12    -0.115750663714E+04    0.18874E-03   -0.10276E-03  3168   0.241E-01    0.396E-01
DAV:  13    -0.115750646599E+04    0.17115E-03   -0.62077E-04  3216   0.155E-01    0.233E-01
DAV:  14    -0.115750658660E+04   -0.12061E-03   -0.82065E-04  3108   0.147E-01    0.191E-01
DAV:  15    -0.115750658117E+04    0.54315E-05   -0.62669E-04  3108   0.145E-01    0.160E-01
DAV:  16    -0.115750660460E+04   -0.23431E-04   -0.34993E-04  2964   0.940E-02    0.128E-01
DAV:  17    -0.115750660393E+04    0.67350E-06   -0.24241E-04  3096   0.704E-02    0.868E-02
DAV:  18    -0.115750661969E+04   -0.15764E-04   -0.10304E-04  2628   0.453E-02    0.565E-02
DAV:  19    -0.115750664320E+04   -0.23505E-04   -0.30646E-05  2340   0.306E-02    0.579E-02
DAV:  20    -0.115750665339E+04   -0.10186E-04   -0.28411E-05  2280   0.296E-02    0.450E-02
DAV:  21    -0.115750668207E+04   -0.28680E-04   -0.15382E-05  2184   0.218E-02    0.223E-02
DAV:  22    -0.115750672464E+04   -0.42575E-04   -0.10802E-05  2328   0.165E-02    0.276E-02
DAV:  23    -0.115750673969E+04   -0.15053E-04   -0.11192E-05  1980   0.180E-02    0.221E-02
DAV:  24    -0.115750676751E+04   -0.27814E-04   -0.52892E-06  1752   0.103E-02    0.152E-02
DAV:  25    -0.115750679472E+04   -0.27212E-04   -0.26776E-06  1896   0.733E-03    0.126E-02
DAV:  26    -0.115750680748E+04   -0.12762E-04   -0.31699E-06  1860   0.907E-03    0.138E-02
DAV:  27    -0.115750682674E+04   -0.19259E-04   -0.17820E-06  1716   0.646E-03    0.104E-02
DAV:  28    -0.115750685352E+04   -0.26774E-04   -0.41175E-06  1968   0.459E-03    0.786E-03
DAV:  29    -0.115750686626E+04   -0.12746E-04   -0.23939E-06  1704   0.736E-03    0.140E-02
DAV:  30    -0.115750687614E+04   -0.98805E-05   -0.17170E-06  1680   0.598E-03    0.132E-02
DAV:  31    -0.115750688508E+04   -0.89413E-05   -0.94475E-07  1656   0.285E-03    0.109E-02
DAV:  32    -0.115750689139E+04   -0.63061E-05   -0.87731E-07  1632   0.326E-03    0.674E-03
DAV:  33    -0.115750689454E+04   -0.31537E-05   -0.53506E-07  1596   0.350E-03    0.380E-03
DAV:  34    -0.115750689704E+04   -0.24953E-05   -0.23883E-07  1452   0.168E-03    0.282E-03
DAV:  35    -0.115750689887E+04   -0.18353E-05   -0.20290E-07  1464   0.986E-04    0.241E-03
DAV:  36    -0.115750690030E+04   -0.14271E-05   -0.14823E-07  1464   0.788E-04    0.191E-03
DAV:  37    -0.115750690137E+04   -0.10700E-05   -0.11718E-07  1464   0.755E-04    0.154E-03
DAV:  38    -0.115750690206E+04   -0.68663E-06   -0.79587E-08  1428   0.635E-04
   5 F= -.11651959E+04 E0= -.11651878E+04  d E =-.125351E-01  mag=    13.0149
 trial-energy change:   -0.012535  1 .order   -0.012691   -0.054620    0.029237
 step:   0.3845(harm=  0.3860)  dis= 0.01007  next Energy= -1165.200995 (dE=-0.177E-01)
 bond charge predicted
       N       E                     dE             d eps       ncg     rms          rms(c)
DAV:   1    -0.115750415375E+04    0.27476E-02   -0.26105E+00  2004   0.294E+00    0.661E-01
DAV:   2    -0.115751566392E+04   -0.11510E-01   -0.73704E-02  3108   0.655E-01    0.197E+00
DAV:   3    -0.115751648948E+04   -0.82556E-03   -0.84455E-02  3192   0.682E-01    0.259E+00
DAV:   4    -0.115751145299E+04    0.50365E-02   -0.50154E-02  3048   0.515E-01    0.103E+00
DAV:   5    -0.115751128915E+04    0.16383E-03   -0.46052E-03  2952   0.370E-01    0.342E-01
DAV:   6    -0.115751197979E+04   -0.69064E-03   -0.21925E-03  3156   0.254E-01    0.475E-01
DAV:   7    -0.115751185920E+04    0.12060E-03   -0.13119E-03  3096   0.247E-01    0.472E-01
DAV:   8    -0.115751182851E+04    0.30681E-04   -0.15615E-03  3192   0.214E-01    0.413E-01
DAV:   9    -0.115751167505E+04    0.15346E-03   -0.91588E-04  3108   0.192E-01    0.232E-01
DAV:  10    -0.115751170343E+04   -0.28380E-04   -0.64854E-04  3180   0.140E-01    0.188E-01
DAV:  11    -0.115751171406E+04   -0.10630E-04   -0.16266E-04  3168   0.858E-02    0.145E-01
DAV:  12    -0.115751167706E+04    0.37005E-04   -0.82241E-05  2676   0.600E-02    0.760E-02
DAV:  13    -0.115751169201E+04   -0.14950E-04   -0.57316E-05  2748   0.424E-02    0.542E-02
DAV:  14    -0.115751171153E+04   -0.19528E-04   -0.69078E-05  2892   0.486E-02    0.651E-02
DAV:  15    -0.115751171352E+04   -0.19905E-05   -0.49172E-05  2628   0.444E-02    0.557E-02
DAV:  16    -0.115751171666E+04   -0.31310E-05   -0.16298E-05  1980   0.265E-02    0.300E-02
DAV:  17    -0.115751171842E+04   -0.17599E-05   -0.10654E-05  2028   0.188E-02    0.278E-02
DAV:  18    -0.115751172094E+04   -0.25256E-05   -0.54784E-06  1848   0.138E-02    0.158E-02
DAV:  19    -0.115751172612E+04   -0.51824E-05   -0.32203E-06  1836   0.878E-03    0.131E-02
DAV:  20    -0.115751172936E+04   -0.32371E-05   -0.31972E-06  1620   0.832E-03    0.133E-02
DAV:  21    -0.115751173351E+04   -0.41477E-05   -0.15876E-06  1500   0.568E-03    0.657E-03
DAV:  22    -0.115751173900E+04   -0.54926E-05   -0.13388E-06  1584   0.481E-03    0.978E-03
DAV:  23    -0.115751174284E+04   -0.38427E-05   -0.11676E-06  1488   0.530E-03    0.962E-03
DAV:  24    -0.115751174750E+04   -0.46518E-05   -0.47090E-07  1464   0.280E-03    0.806E-03
DAV:  25    -0.115751175077E+04   -0.32783E-05   -0.42559E-07  1500   0.266E-03    0.602E-03
DAV:  26    -0.115751175314E+04   -0.23675E-05   -0.41221E-07  1500   0.307E-03    0.400E-03
DAV:  27    -0.115751175713E+04   -0.39928E-05   -0.30068E-07  1416   0.205E-03    0.193E-03
DAV:  28    -0.115751175981E+04   -0.26737E-05   -0.32939E-07  1524   0.195E-03    0.334E-03
DAV:  29    -0.115751176083E+04   -0.10238E-05   -0.23923E-07  1488   0.217E-03    0.268E-03
DAV:  30    -0.115751176181E+04   -0.97602E-06   -0.15620E-07  1440   0.112E-03
   6 F= -.11652010E+04 E0= -.11651922E+04  d E =-.176745E-01  mag=    13.0171
 curvature:  -0.37 expect dE=-0.350E-01 dE for cont linesearch -0.107E-07
 trial: gam= 0.75777 g(F)=  0.955E-01 g(S)=  0.000E+00 ort = 0.716E-04 (trialstep = 0.492E+00)
 search vector abs. value=  0.196E+00
 bond charge predicted
       N       E                     dE             d eps       ncg     rms          rms(c)
DAV:   1    -0.115746258655E+04    0.49174E-01   -0.14979E+01  1992   0.686E+00    0.164E+00
DAV:   2    -0.115752616006E+04   -0.63574E-01   -0.39321E-01  2904   0.150E+00    0.462E+00
DAV:   3    -0.115753364972E+04   -0.74897E-02   -0.56280E-01  3204   0.152E+00    0.431E+00
DAV:   4    -0.115750774641E+04    0.25903E-01   -0.99474E-02  2988   0.103E+00    0.192E+00
DAV:   5    -0.115750688083E+04    0.86558E-03   -0.49217E-02  2976   0.720E-01    0.134E+00
DAV:   6    -0.115750866185E+04   -0.17810E-02   -0.15849E-02  3024   0.706E-01    0.118E+00
DAV:   7    -0.115750821468E+04    0.44718E-03   -0.18008E-02  3132   0.864E-01    0.127E+00
DAV:   8    -0.115750661088E+04    0.16038E-02   -0.13075E-02  3168   0.644E-01    0.820E-01
DAV:   9    -0.115750587291E+04    0.73796E-03   -0.79539E-03  3060   0.444E-01    0.528E-01
DAV:  10    -0.115750615042E+04   -0.27750E-03   -0.51693E-03  3132   0.348E-01    0.560E-01
DAV:  11    -0.115750561691E+04    0.53350E-03   -0.12638E-03  2988   0.237E-01    0.272E-01
DAV:  12    -0.115750572008E+04   -0.10316E-03   -0.63335E-04  3132   0.137E-01    0.263E-01
DAV:  13    -0.115750568027E+04    0.39806E-04   -0.55949E-04  3072   0.119E-01    0.162E-01
DAV:  14    -0.115750574868E+04   -0.68407E-04   -0.30152E-04  2892   0.838E-02    0.110E-01
DAV:  15    -0.115750585996E+04   -0.11129E-03   -0.32411E-04  3072   0.873E-02    0.142E-01
DAV:  16    -0.115750586764E+04   -0.76795E-05   -0.19808E-04  2904   0.720E-02    0.716E-02
DAV:  17    -0.115750589546E+04   -0.27818E-04   -0.47361E-05  2580   0.377E-02    0.397E-02
DAV:  18    -0.115750592598E+04   -0.30516E-04   -0.22211E-05  2256   0.270E-02    0.474E-02
DAV:  19    -0.115750594847E+04   -0.22491E-04   -0.13951E-05  2016   0.247E-02    0.337E-02
DAV:  20    -0.115750601529E+04   -0.66828E-04   -0.90262E-06  2328   0.139E-02    0.318E-02
DAV:  21    -0.115750606504E+04   -0.49748E-04   -0.11802E-05  2352   0.211E-02    0.321E-02
DAV:  22    -0.115750609993E+04   -0.34883E-04   -0.80157E-06  2028   0.182E-02    0.133E-02
DAV:  23    -0.115750613982E+04   -0.39891E-04   -0.67675E-06  2076   0.106E-02    0.190E-02
DAV:  24    -0.115750615986E+04   -0.20046E-04   -0.40333E-06  1992   0.994E-03    0.187E-02
DAV:  25    -0.115750619346E+04   -0.33600E-04   -0.19514E-06  1812   0.636E-03    0.995E-03
DAV:  26    -0.115750621336E+04   -0.19897E-04   -0.18392E-06  1788   0.712E-03    0.108E-02
DAV:  27    -0.115750623781E+04   -0.24452E-04   -0.16880E-06  1788   0.628E-03    0.577E-03
DAV:  28    -0.115750626429E+04   -0.26474E-04   -0.31162E-06  1956   0.494E-03    0.978E-03
DAV:  29    -0.115750627427E+04   -0.99829E-05   -0.14865E-06  1704   0.643E-03    0.110E-02
DAV:  30    -0.115750628399E+04   -0.97189E-05   -0.81758E-07  1596   0.397E-03    0.806E-03
DAV:  31    -0.115750628930E+04   -0.53083E-05   -0.72887E-07  1596   0.239E-03    0.522E-03
DAV:  32    -0.115750629208E+04   -0.27864E-05   -0.62166E-07  1572   0.326E-03    0.430E-03
DAV:  33    -0.115750629470E+04   -0.26131E-05   -0.37406E-07  1440   0.248E-03    0.192E-03
DAV:  34    -0.115750629627E+04   -0.15690E-05   -0.33565E-07  1500   0.135E-03    0.155E-03
DAV:  35    -0.115750629672E+04   -0.45633E-06   -0.19979E-07  1512   0.883E-04
   7 F= -.11651945E+04 E0= -.11651872E+04  d E =0.644650E-02  mag=    13.0249
 trial-energy change:    0.006447  1 .order    0.006482   -0.046968    0.059932
 step:   0.2160(harm=  0.2160)  dis= 0.00552  next Energy= -1165.211312 (dE=-0.103E-01)
 bond charge predicted
       N       E                     dE             d eps       ncg     rms          rms(c)
DAV:   1    -0.115750947158E+04   -0.31753E-02   -0.47140E+00  1992   0.384E+00    0.934E-01
DAV:   2    -0.115752806862E+04   -0.18597E-01   -0.11836E-01  2964   0.870E-01    0.225E+00
DAV:   3    -0.115753692114E+04   -0.88525E-02   -0.11642E-01  3264   0.951E-01    0.386E+00
DAV:   4    -0.115752432345E+04    0.12598E-01   -0.15044E-01  3120   0.721E-01    0.181E+00
DAV:   5    -0.115752180827E+04    0.25152E-02   -0.17634E-02  2904   0.585E-01    0.520E-01
DAV:   6    -0.115752379215E+04   -0.19839E-02   -0.67970E-03  3132   0.439E-01    0.817E-01
DAV:   7    -0.115752281674E+04    0.97541E-03   -0.48275E-03  3072   0.473E-01    0.734E-01
DAV:   8    -0.115752231253E+04    0.50421E-03   -0.46309E-03  3108   0.354E-01    0.424E-01
DAV:   9    -0.115752228632E+04    0.26219E-04   -0.22217E-03  2976   0.280E-01    0.341E-01
DAV:  10    -0.115752229696E+04   -0.10645E-04   -0.10153E-03  3108   0.196E-01    0.317E-01
DAV:  11    -0.115752219310E+04    0.10386E-03   -0.33707E-04  2892   0.105E-01    0.205E-01
DAV:  12    -0.115752218717E+04    0.59291E-05   -0.16077E-04  3084   0.637E-02    0.118E-01
DAV:  13    -0.115752221876E+04   -0.31588E-04   -0.16436E-04  2796   0.583E-02    0.913E-02
DAV:  14    -0.115752226010E+04   -0.41340E-04   -0.11347E-04  2676   0.482E-02    0.567E-02
DAV:  15    -0.115752230489E+04   -0.44790E-04   -0.54967E-05  2616   0.389E-02    0.649E-02
DAV:  16    -0.115752230735E+04   -0.24579E-05   -0.32903E-05  2184   0.350E-02    0.356E-02
DAV:  17    -0.115752232192E+04   -0.14571E-04   -0.12184E-05  2292   0.183E-02    0.271E-02
DAV:  18    -0.115752232871E+04   -0.67862E-05   -0.71075E-06  2208   0.145E-02    0.198E-02
DAV:  19    -0.115752235022E+04   -0.21508E-04   -0.32944E-06  1872   0.108E-02    0.138E-02
DAV:  20    -0.115752236469E+04   -0.14478E-04   -0.32843E-06  1908   0.109E-02    0.133E-02
DAV:  21    -0.115752238708E+04   -0.22382E-04   -0.25319E-06  1836   0.813E-03    0.776E-03
DAV:  22    -0.115752240835E+04   -0.21278E-04   -0.18387E-06  1812   0.619E-03    0.136E-02
DAV:  23    -0.115752241831E+04   -0.99601E-05   -0.12769E-06  1644   0.651E-03    0.123E-02
DAV:  24    -0.115752243589E+04   -0.17573E-04   -0.93346E-07  1632   0.409E-03    0.657E-03
DAV:  25    -0.115752245146E+04   -0.15576E-04   -0.11137E-06  1740   0.392E-03    0.653E-03
DAV:  26    -0.115752245940E+04   -0.79364E-05   -0.79118E-07  1536   0.458E-03    0.456E-03
DAV:  27    -0.115752247079E+04   -0.11396E-04   -0.80504E-07  1596   0.269E-03    0.325E-03
DAV:  28    -0.115752247967E+04   -0.88767E-05   -0.74037E-07  1596   0.202E-03    0.287E-03
DAV:  29    -0.115752248501E+04   -0.53385E-05   -0.54451E-07  1536   0.228E-03    0.266E-03
DAV:  30    -0.115752248806E+04   -0.30523E-05   -0.34076E-07  1512   0.217E-03    0.213E-03
DAV:  31    -0.115752249143E+04   -0.33703E-05   -0.32878E-07  1512   0.152E-03    0.187E-03
DAV:  32    -0.115752249346E+04   -0.20247E-05   -0.26802E-07  1488   0.111E-03    0.169E-03
DAV:  33    -0.115752249466E+04   -0.11978E-05   -0.18947E-07  1464   0.119E-03    0.144E-03
DAV:  34    -0.115752249564E+04   -0.98257E-06   -0.13892E-07  1488   0.113E-03
   8 F= -.11652113E+04 E0= -.11652032E+04  d E =-.103286E-01  mag=    13.0205
 curvature:  -0.22 expect dE=-0.191E-01 dE for cont linesearch -0.241E-07
 trial: gam= 0.91976 g(F)=  0.861E-01 g(S)=  0.000E+00 ort = 0.146E-03 (trialstep = 0.339E+00)
 search vector abs. value=  0.252E+00
 bond charge predicted
       N       E                     dE             d eps       ncg     rms          rms(c)
DAV:   1    -0.115750657233E+04    0.15922E-01   -0.89726E+00  1992   0.539E+00    0.124E+00
DAV:   2    -0.115754304037E+04   -0.36468E-01   -0.19594E-01  2976   0.116E+00    0.309E+00
DAV:   3    -0.115755714877E+04   -0.14108E-01   -0.24567E-01  3252   0.127E+00    0.381E+00
DAV:   4    -0.115754124324E+04    0.15906E-01   -0.15561E-01  3108   0.912E-01    0.317E+00
DAV:   5    -0.115752724844E+04    0.13995E-01   -0.64507E-02  2904   0.602E-01    0.468E-01
DAV:   6    -0.115753332662E+04   -0.60782E-02   -0.11231E-02  3168   0.578E-01    0.877E-01
DAV:   7    -0.115753286908E+04    0.45754E-03   -0.11897E-02  3072   0.518E-01    0.719E-01
DAV:   8    -0.115753261754E+04    0.25154E-03   -0.49333E-03  3036   0.399E-01    0.683E-01
DAV:   9    -0.115753231578E+04    0.30176E-03   -0.24101E-03  3000   0.320E-01    0.472E-01
DAV:  10    -0.115753206985E+04    0.24593E-03   -0.11622E-03  3000   0.234E-01    0.254E-01
DAV:  11    -0.115753222778E+04   -0.15793E-03   -0.53732E-04  3084   0.119E-01    0.189E-01
DAV:  12    -0.115753226044E+04   -0.32658E-04   -0.45597E-04  3120   0.115E-01    0.136E-01
DAV:  13    -0.115753232614E+04   -0.65701E-04   -0.36991E-04  3132   0.978E-02    0.131E-01
DAV:  14    -0.115753233358E+04   -0.74398E-05   -0.25708E-04  2868   0.824E-02    0.659E-02
DAV:  15    -0.115753239918E+04   -0.65595E-04   -0.17645E-04  2928   0.543E-02    0.964E-02
DAV:  16    -0.115753240008E+04   -0.89852E-06   -0.99742E-05  2424   0.481E-02    0.451E-02
DAV:  17    -0.115753242180E+04   -0.21727E-04   -0.13447E-05  2172   0.170E-02    0.392E-02
DAV:  18    -0.115753244039E+04   -0.18581E-04   -0.10934E-05  2244   0.197E-02    0.480E-02
DAV:  19    -0.115753246212E+04   -0.21731E-04   -0.61917E-06  1920   0.178E-02    0.412E-02
DAV:  20    -0.115753248956E+04   -0.27449E-04   -0.59386E-06  2136   0.140E-02    0.321E-02
DAV:  21    -0.115753251016E+04   -0.20600E-04   -0.50933E-06  1884   0.131E-02    0.152E-02
DAV:  22    -0.115753254405E+04   -0.33889E-04   -0.31199E-06  1896   0.908E-03    0.154E-02
DAV:  23    -0.115753256214E+04   -0.18084E-04   -0.23140E-06  1788   0.103E-02    0.111E-02
DAV:  24    -0.115753259275E+04   -0.30613E-04   -0.18637E-06  1776   0.549E-03    0.748E-03
DAV:  25    -0.115753261434E+04   -0.21592E-04   -0.11308E-06  1620   0.491E-03    0.765E-03
DAV:  26    -0.115753262942E+04   -0.15080E-04   -0.16507E-06  1776   0.551E-03    0.632E-03
DAV:  27    -0.115753264662E+04   -0.17201E-04   -0.12331E-06  1632   0.405E-03    0.544E-03
DAV:  28    -0.115753265727E+04   -0.10651E-04   -0.10221E-06  1608   0.301E-03    0.746E-03
DAV:  29    -0.115753266098E+04   -0.37073E-05   -0.57529E-07  1548   0.318E-03    0.761E-03
DAV:  30    -0.115753266612E+04   -0.51350E-05   -0.52618E-07  1452   0.223E-03    0.612E-03
DAV:  31    -0.115753266958E+04   -0.34629E-05   -0.65932E-07  1584   0.148E-03    0.401E-03
DAV:  32    -0.115753267086E+04   -0.12811E-05   -0.36377E-07  1536   0.136E-03    0.267E-03
DAV:  33    -0.115753267136E+04   -0.49976E-06   -0.17281E-07  1488   0.143E-03
   9 F= -.11652205E+04 E0= -.11652134E+04  d E =-.921254E-02  mag=    13.0265
 trial-energy change:   -0.009213  1 .order   -0.009239   -0.029246    0.010767
 step:   0.2480(harm=  0.2480)  dis= 0.00638  next Energy= -1165.222011 (dE=-0.107E-01)
 bond charge predicted
       N       E                     dE             d eps       ncg     rms          rms(c)
DAV:   1    -0.115753201355E+04    0.65731E-03   -0.65025E-01  1998   0.145E+00    0.335E-01
DAV:   2    -0.115753435650E+04   -0.23429E-02   -0.13722E-02  2988   0.320E-01    0.783E-01
DAV:   3    -0.115753582391E+04   -0.14674E-02   -0.10312E-02  3300   0.354E-01    0.126E+00
DAV:   4    -0.115753462087E+04    0.12030E-02   -0.20632E-02  3228   0.265E-01    0.922E-01
DAV:   5    -0.115753329544E+04    0.13254E-02   -0.43248E-03  2880   0.199E-01    0.171E-01
DAV:   6    -0.115753381377E+04   -0.51834E-03   -0.64572E-04  3120   0.140E-01    0.252E-01
DAV:   7    -0.115753377675E+04    0.37028E-04   -0.46976E-04  3000   0.128E-01    0.188E-01
DAV:   8    -0.115753377237E+04    0.43745E-05   -0.43295E-04  3072   0.112E-01    0.149E-01
DAV:   9    -0.115753377217E+04    0.19676E-06   -0.19246E-04  3108   0.962E-02    0.140E-01
DAV:  10    -0.115753376005E+04    0.12129E-04   -0.77175E-05  2748   0.599E-02    0.107E-01
DAV:  11    -0.115753375773E+04    0.23138E-05   -0.39884E-05  2124   0.292E-02    0.660E-02
DAV:  12    -0.115753376415E+04   -0.64129E-05   -0.26273E-05  2040   0.257E-02    0.395E-02
DAV:  13    -0.115753377522E+04   -0.11074E-04   -0.21509E-05  1968   0.198E-02    0.326E-02
DAV:  14    -0.115753378328E+04   -0.80655E-05   -0.17889E-05  1956   0.210E-02    0.170E-02
DAV:  15    -0.115753379172E+04   -0.84390E-05   -0.76069E-06  1908   0.146E-02    0.207E-02
DAV:  16    -0.115753379292E+04   -0.11934E-05   -0.38933E-06  1776   0.126E-02    0.133E-02
DAV:  17    -0.115753379462E+04   -0.17047E-05   -0.12088E-06  1560   0.668E-03    0.931E-03
DAV:  18    -0.115753379606E+04   -0.14411E-05   -0.93247E-07  1632   0.571E-03    0.678E-03
DAV:  19    -0.115753380046E+04   -0.44016E-05   -0.44690E-07  1464   0.354E-03    0.698E-03
DAV:  20    -0.115753380288E+04   -0.24107E-05   -0.41260E-07  1548   0.377E-03    0.705E-03
DAV:  21    -0.115753380636E+04   -0.34801E-05   -0.23438E-07  1440   0.281E-03    0.466E-03
DAV:  22    -0.115753380877E+04   -0.24194E-05   -0.18937E-07  1500   0.179E-03    0.380E-03
DAV:  23    -0.115753381025E+04   -0.14793E-05   -0.15496E-07  1452   0.196E-03    0.281E-03
DAV:  24    -0.115753381339E+04   -0.31394E-05   -0.12766E-07  1428   0.122E-03    0.181E-03
DAV:  25    -0.115753381676E+04   -0.33715E-05   -0.17559E-07  1488   0.940E-04    0.180E-03
DAV:  26    -0.115753381880E+04   -0.20326E-05   -0.14344E-07  1464   0.133E-03    0.235E-03
DAV:  27    -0.115753382040E+04   -0.15980E-05   -0.11539E-07  1488   0.121E-03    0.182E-03
DAV:  28    -0.115753382224E+04   -0.18419E-05   -0.14677E-07  1452   0.767E-04    0.175E-03
DAV:  29    -0.115753382263E+04   -0.39763E-06   -0.75670E-08  1500   0.712E-04
  10 F= -.11652220E+04 E0= -.11652146E+04  d E =-.106648E-01  mag=    13.0249
 curvature:  -0.36 expect dE=-0.169E-01 dE for cont linesearch -0.123E-07
 trial: gam= 0.54571 g(F)=  0.467E-01 g(S)=  0.000E+00 ort =-0.923E-04 (trialstep = 0.321E+00)
 search vector abs. value=  0.122E+00
 bond charge predicted
       N       E                     dE             d eps       ncg     rms          rms(c)
DAV:   1    -0.115753359407E+04    0.22817E-03   -0.39873E+00  1992   0.371E+00    0.747E-01
DAV:   2    -0.115755038560E+04   -0.16792E-01   -0.79751E-02  3084   0.823E-01    0.210E+00
DAV:   3    -0.115755150597E+04   -0.11204E-02   -0.61306E-02  3228   0.859E-01    0.217E+00
DAV:   4    -0.115755157633E+04   -0.70361E-04   -0.86804E-02  3168   0.601E-01    0.278E+00
DAV:   5    -0.115754002183E+04    0.11555E-01   -0.39379E-02  2832   0.427E-01    0.570E-01
DAV:   6    -0.115754338970E+04   -0.33679E-02   -0.31259E-03  2940   0.307E-01    0.398E-01
DAV:   7    -0.115754409260E+04   -0.70290E-03   -0.23395E-03  3204   0.218E-01    0.295E-01
DAV:   8    -0.115754448552E+04   -0.39292E-03   -0.19520E-03  3312   0.217E-01    0.398E-01
DAV:   9    -0.115754426345E+04    0.22207E-03   -0.13065E-03  3108   0.180E-01    0.285E-01
DAV:  10    -0.115754429123E+04   -0.27779E-04   -0.45801E-04  3240   0.138E-01    0.241E-01
DAV:  11    -0.115754425115E+04    0.40075E-04   -0.31649E-04  3144   0.997E-02    0.165E-01
DAV:  12    -0.115754425769E+04   -0.65354E-05   -0.15633E-04  2856   0.637E-02    0.112E-01
DAV:  13    -0.115754429025E+04   -0.32558E-04   -0.14432E-04  2844   0.556E-02    0.874E-02
DAV:  14    -0.115754431712E+04   -0.26869E-04   -0.10902E-04  2604   0.458E-02    0.402E-02
DAV:  15    -0.115754434950E+04   -0.32387E-04   -0.54004E-05  2388   0.385E-02    0.552E-02
DAV:  16    -0.115754435201E+04   -0.25068E-05   -0.23800E-05  2172   0.287E-02    0.453E-02
DAV:  17    -0.115754435310E+04   -0.10853E-05   -0.97994E-06  1944   0.181E-02    0.361E-02
DAV:  18    -0.115754436074E+04   -0.76389E-05   -0.32185E-06  1764   0.107E-02    0.323E-02
DAV:  19    -0.115754437164E+04   -0.10908E-04   -0.32084E-06  1836   0.112E-02    0.340E-02
DAV:  20    -0.115754437868E+04   -0.70410E-05   -0.28719E-06  1764   0.112E-02    0.264E-02
DAV:  21    -0.115754438944E+04   -0.10760E-04   -0.14870E-06  1644   0.505E-03    0.152E-02
DAV:  22    -0.115754439606E+04   -0.66183E-05   -0.15229E-06  1716   0.681E-03    0.128E-02
DAV:  23    -0.115754440432E+04   -0.82541E-05   -0.94361E-07  1500   0.579E-03    0.683E-03
DAV:  24    -0.115754441497E+04   -0.10651E-04   -0.15258E-06  1680   0.326E-03    0.765E-03
DAV:  25    -0.115754441913E+04   -0.41646E-05   -0.84422E-07  1608   0.493E-03    0.790E-03
DAV:  26    -0.115754442367E+04   -0.45413E-05   -0.60102E-07  1488   0.377E-03    0.258E-03
DAV:  27    -0.115754442701E+04   -0.33351E-05   -0.60218E-07  1584   0.192E-03    0.227E-03
DAV:  28    -0.115754442858E+04   -0.15694E-05   -0.44319E-07  1500   0.255E-03    0.396E-03
DAV:  29    -0.115754442944E+04   -0.86539E-06   -0.29992E-07  1464   0.212E-03
  11 F= -.11652324E+04 E0= -.11652258E+04  d E =-.103629E-01  mag=    13.0253
 trial-energy change:   -0.010363  1 .order   -0.010371   -0.014974   -0.005767
 step:   0.5221(harm=  0.5221)  dis= 0.00956  next Energy= -1165.234164 (dE=-0.122E-01)
 bond charge predicted
       N       E                     dE             d eps       ncg     rms          rms(c)
DAV:   1    -0.115754221445E+04    0.22141E-02   -0.15649E+00  1992   0.232E+00    0.466E-01
DAV:   2    -0.115754853243E+04   -0.63180E-02   -0.30811E-02  3072   0.516E-01    0.129E+00
DAV:   3    -0.115754911819E+04   -0.58576E-03   -0.20707E-02  3252   0.541E-01    0.137E+00
DAV:   4    -0.115754908682E+04    0.31365E-04   -0.35228E-02  3156   0.375E-01    0.168E+00
DAV:   5    -0.115754456644E+04    0.45204E-02   -0.14650E-02  2868   0.266E-01    0.345E-01
DAV:   6    -0.115754599649E+04   -0.14301E-02   -0.11716E-03  2952   0.188E-01    0.253E-01
DAV:   7    -0.115754625685E+04   -0.26036E-03   -0.86309E-04  3132   0.136E-01    0.184E-01
DAV:   8    -0.115754641403E+04   -0.15718E-03   -0.64906E-04  3276   0.134E-01    0.241E-01
DAV:   9    -0.115754633318E+04    0.80844E-04   -0.32733E-04  3048   0.112E-01    0.173E-01
DAV:  10    -0.115754634278E+04   -0.95947E-05   -0.16891E-04  3204   0.843E-02    0.143E-01
DAV:  11    -0.115754633291E+04    0.98732E-05   -0.10959E-04  2868   0.592E-02    0.100E-01
DAV:  12    -0.115754633524E+04   -0.23368E-05   -0.54895E-05  2220   0.385E-02    0.657E-02
DAV:  13    -0.115754635271E+04   -0.17472E-04   -0.53701E-05  2556   0.334E-02    0.537E-02
DAV:  14    -0.115754636677E+04   -0.14057E-04   -0.42879E-05  2220   0.292E-02    0.250E-02
DAV:  15    -0.115754638100E+04   -0.14230E-04   -0.21014E-05  2112   0.233E-02    0.323E-02
DAV:  16    -0.115754638262E+04   -0.16227E-05   -0.79402E-06  1956   0.168E-02    0.269E-02
DAV:  17    -0.115754638320E+04   -0.57983E-06   -0.36674E-06  1764   0.109E-02
  12 F= -.11652341E+04 E0= -.11652280E+04  d E =-.121247E-01  mag=    13.0259
 curvature:  -0.68 expect dE=-0.363E-01 dE for cont linesearch -0.225E-06
 trial: gam= 1.13778 g(F)=  0.533E-01 g(S)=  0.000E+00 ort =-0.201E-03 (trialstep = 0.209E+00)
 search vector abs. value=  0.210E+00
 bond charge predicted
       N       E                     dE             d eps       ncg     rms          rms(c)
DAV:   1    -0.115754637532E+04    0.73047E-05   -0.28679E+00  1992   0.317E+00    0.610E-01
DAV:   2    -0.115755738254E+04   -0.11007E-01   -0.57827E-02  3000   0.682E-01    0.164E+00
DAV:   3    -0.115755887372E+04   -0.14912E-02   -0.43264E-02  3312   0.692E-01    0.184E+00
DAV:   4    -0.115755754418E+04    0.13295E-02   -0.55615E-02  3120   0.490E-01    0.191E+00
DAV:   5    -0.115755169738E+04    0.58468E-02   -0.22283E-02  2874   0.346E-01    0.330E-01
DAV:   6    -0.115755361203E+04   -0.19146E-02   -0.24647E-03  3084   0.268E-01    0.317E-01
DAV:   7    -0.115755374669E+04   -0.13466E-03   -0.19850E-03  3252   0.220E-01    0.303E-01
DAV:   8    -0.115755384888E+04   -0.10219E-03   -0.20168E-03  3240   0.207E-01    0.313E-01
DAV:   9    -0.115755370413E+04    0.14475E-03   -0.13944E-03  3240   0.154E-01    0.168E-01
DAV:  10    -0.115755374693E+04   -0.42802E-04   -0.42844E-04  3120   0.984E-02    0.158E-01
DAV:  11    -0.115755373195E+04    0.14980E-04   -0.22032E-04  3048   0.694E-02    0.108E-01
DAV:  12    -0.115755372949E+04    0.24591E-05   -0.85804E-05  2616   0.513E-02    0.619E-02
DAV:  13    -0.115755376043E+04   -0.30946E-04   -0.94230E-05  2388   0.427E-02    0.711E-02
DAV:  14    -0.115755377160E+04   -0.11162E-04   -0.62666E-05  2364   0.425E-02    0.438E-02
DAV:  15    -0.115755378407E+04   -0.12477E-04   -0.14093E-05  2064   0.218E-02    0.422E-02
DAV:  16    -0.115755378638E+04   -0.23023E-05   -0.87250E-06  1956   0.182E-02    0.350E-02
DAV:  17    -0.115755378964E+04   -0.32684E-05   -0.49953E-06  1812   0.130E-02    0.262E-02
DAV:  18    -0.115755379791E+04   -0.82681E-05   -0.20310E-06  1680   0.864E-03    0.243E-02
DAV:  19    -0.115755380627E+04   -0.83574E-05   -0.17307E-06  1704   0.873E-03    0.246E-02
DAV:  20    -0.115755381297E+04   -0.67004E-05   -0.14162E-06  1656   0.822E-03    0.195E-02
DAV:  21    -0.115755382166E+04   -0.86888E-05   -0.11131E-06  1644   0.531E-03    0.117E-02
DAV:  22    -0.115755382889E+04   -0.72271E-05   -0.12991E-06  1680   0.451E-03    0.817E-03
DAV:  23    -0.115755383365E+04   -0.47594E-05   -0.12043E-06  1668   0.593E-03    0.815E-03
DAV:  24    -0.115755384086E+04   -0.72155E-05   -0.10641E-06  1560   0.427E-03    0.535E-03
DAV:  25    -0.115755384651E+04   -0.56487E-05   -0.96596E-07  1620   0.292E-03    0.355E-03
DAV:  26    -0.115755384892E+04   -0.24080E-05   -0.84997E-07  1656   0.358E-03    0.487E-03
DAV:  27    -0.115755385069E+04   -0.17737E-05   -0.45377E-07  1452   0.301E-03    0.234E-03
DAV:  28    -0.115755385216E+04   -0.14678E-05   -0.45244E-07  1524   0.149E-03    0.419E-03
DAV:  29    -0.115755385266E+04   -0.50310E-06   -0.19390E-07  1500   0.152E-03
  13 F= -.11652420E+04 E0= -.11652368E+04  d E =-.784947E-02  mag=    13.0233
 trial-energy change:   -0.007849  1 .order   -0.007817   -0.011093   -0.004540
 step:   0.3468(harm=  0.3537)  dis= 0.00966  next Energy= -1165.243469 (dE=-0.936E-02)
 bond charge predicted
       N       E                     dE             d eps       ncg     rms          rms(c)
DAV:   1    -0.115755194036E+04    0.19118E-02   -0.12488E+00  1992   0.209E+00    0.402E-01
DAV:   2    -0.115755672138E+04   -0.47810E-02   -0.25565E-02  2964   0.451E-01    0.113E+00
DAV:   3    -0.115755711788E+04   -0.39650E-03   -0.20939E-02  3300   0.454E-01    0.123E+00
DAV:   4    -0.115755658902E+04    0.52886E-03   -0.25365E-02  3096   0.325E-01    0.117E+00
DAV:   5    -0.115755430226E+04    0.22868E-02   -0.83421E-03  2838   0.235E-01    0.200E-01
DAV:   6    -0.115755505758E+04   -0.75532E-03   -0.99239E-04  3096   0.174E-01    0.208E-01
DAV:   7    -0.115755510965E+04   -0.52072E-04   -0.83502E-04  3228   0.146E-01    0.197E-01
DAV:   8    -0.115755514364E+04   -0.33989E-04   -0.86596E-04  3288   0.135E-01    0.191E-01
DAV:   9    -0.115755509376E+04    0.49881E-04   -0.58715E-04  3192   0.993E-02    0.103E-01
DAV:  10    -0.115755511125E+04   -0.17484E-04   -0.21925E-04  2928   0.615E-02    0.940E-02
DAV:  11    -0.115755510536E+04    0.58912E-05   -0.88776E-05  2604   0.419E-02    0.619E-02
DAV:  12    -0.115755510500E+04    0.35769E-06   -0.25878E-05  2136   0.310E-02    0.341E-02
DAV:  13    -0.115755511678E+04   -0.11784E-04   -0.30575E-05  1980   0.250E-02    0.418E-02
DAV:  14    -0.115755512084E+04   -0.40595E-05   -0.22030E-05  1980   0.256E-02    0.257E-02
DAV:  15    -0.115755512564E+04   -0.48017E-05   -0.59926E-06  1740   0.144E-02    0.241E-02
DAV:  16    -0.115755512670E+04   -0.10593E-05   -0.36076E-06  1788   0.117E-02    0.183E-02
DAV:  17    -0.115755512804E+04   -0.13386E-05   -0.20710E-06  1632   0.841E-03    0.136E-02
DAV:  18    -0.115755513084E+04   -0.28016E-05   -0.83038E-07  1488   0.552E-03    0.120E-02
DAV:  19    -0.115755513400E+04   -0.31550E-05   -0.62683E-07  1548   0.475E-03    0.129E-02
DAV:  20    -0.115755513606E+04   -0.20585E-05   -0.57300E-07  1560   0.475E-03    0.105E-02
DAV:  21    -0.115755513895E+04   -0.28955E-05   -0.30620E-07  1488   0.277E-03    0.678E-03
DAV:  22    -0.115755514111E+04   -0.21545E-05   -0.35204E-07  1524   0.240E-03    0.458E-03
DAV:  23    -0.115755514263E+04   -0.15200E-05   -0.34243E-07  1500   0.310E-03    0.408E-03
DAV:  24    -0.115755514535E+04   -0.27236E-05   -0.30801E-07  1404   0.217E-03    0.281E-03
DAV:  25    -0.115755514756E+04   -0.22152E-05   -0.38306E-07  1488   0.141E-03    0.211E-03
DAV:  26    -0.115755514869E+04   -0.11224E-05   -0.21362E-07  1512   0.146E-03    0.223E-03
DAV:  27    -0.115755514928E+04   -0.59188E-06   -0.20975E-07  1476   0.187E-03
  14 F= -.11652435E+04 E0= -.11652388E+04  d E =-.939904E-02  mag=    13.0218
 curvature:  -0.70 expect dE=-0.469E-01 dE for cont linesearch -0.249E-05
 trial: gam= 1.23226 g(F)=  0.671E-01 g(S)=  0.000E+00 ort = 0.866E-03 (trialstep = 0.128E+00)
 search vector abs. value=  0.389E+00
 bond charge predicted
       N       E                     dE             d eps       ncg     rms          rms(c)
DAV:   1    -0.115755561175E+04   -0.46307E-03   -0.19534E+00  1992   0.264E+00    0.496E-01
DAV:   2    -0.115756287125E+04   -0.72595E-02   -0.41505E-02  2928   0.557E-01    0.136E+00
DAV:   3    -0.115756344338E+04   -0.57213E-03   -0.30947E-02  3288   0.550E-01    0.147E+00
DAV:   4    -0.115756223603E+04    0.12073E-02   -0.33402E-02  3156   0.392E-01    0.129E+00
DAV:   5    -0.115755948881E+04    0.27472E-02   -0.11605E-02  2874   0.278E-01    0.231E-01
DAV:   6    -0.115756054831E+04   -0.10595E-02   -0.18269E-03  3144   0.235E-01    0.300E-01
DAV:   7    -0.115756042447E+04    0.12384E-03   -0.16615E-03  3168   0.209E-01    0.279E-01
DAV:   8    -0.115756040586E+04    0.18613E-04   -0.15515E-03  3228   0.181E-01    0.244E-01
DAV:   9    -0.115756033075E+04    0.75108E-04   -0.73656E-04  3180   0.123E-01    0.126E-01
DAV:  10    -0.115756035022E+04   -0.19471E-04   -0.23625E-04  2952   0.744E-02    0.108E-01
DAV:  11    -0.115756034710E+04    0.31188E-05   -0.61789E-05  2748   0.476E-02    0.689E-02
DAV:  12    -0.115756034829E+04   -0.11920E-05   -0.35270E-05  2208   0.377E-02    0.318E-02
DAV:  13    -0.115756036493E+04   -0.16639E-04   -0.33201E-05  2076   0.281E-02    0.460E-02
DAV:  14    -0.115756036835E+04   -0.34238E-05   -0.27455E-05  2076   0.291E-02    0.297E-02
DAV:  15    -0.115756037363E+04   -0.52758E-05   -0.75168E-06  1776   0.164E-02    0.232E-02
DAV:  16    -0.115756037641E+04   -0.27772E-05   -0.38924E-06  1812   0.116E-02    0.176E-02
DAV:  17    -0.115756037786E+04   -0.14513E-05   -0.29503E-06  1668   0.901E-03    0.137E-02
DAV:  18    -0.115756038131E+04   -0.34496E-05   -0.10681E-06  1524   0.615E-03    0.128E-02
DAV:  19    -0.115756038542E+04   -0.41145E-05   -0.79892E-07  1560   0.544E-03    0.130E-02
DAV:  20    -0.115756038797E+04   -0.25479E-05   -0.89518E-07  1572   0.551E-03    0.111E-02
DAV:  21    -0.115756039146E+04   -0.34849E-05   -0.52387E-07  1440   0.391E-03    0.524E-03
DAV:  22    -0.115756039508E+04   -0.36258E-05   -0.49623E-07  1524   0.206E-03    0.350E-03
DAV:  23    -0.115756039731E+04   -0.22297E-05   -0.36022E-07  1488   0.303E-03    0.489E-03
DAV:  24    -0.115756039975E+04   -0.24359E-05   -0.30113E-07  1404   0.271E-03    0.268E-03
DAV:  25    -0.115756040204E+04   -0.22887E-05   -0.31462E-07  1512   0.144E-03    0.273E-03
DAV:  26    -0.115756040299E+04   -0.95292E-06   -0.23294E-07  1488   0.204E-03
  15 F= -.11652492E+04 E0= -.11652450E+04  d E =-.571504E-02  mag=    13.0214
 trial-energy change:   -0.005715  1 .order   -0.005723   -0.008724   -0.002722
 step:   0.1861(harm=  0.1861)  dis= 0.00708  next Energy= -1165.249851 (dE=-0.634E-02)
 bond charge predicted
       N       E                     dE             d eps       ncg     rms          rms(c)
DAV:   1    -0.115755983701E+04    0.56503E-03   -0.40171E-01  1998   0.120E+00    0.225E-01
DAV:   2    -0.115756127973E+04   -0.14427E-02   -0.85357E-03  2856   0.255E-01    0.622E-01
DAV:   3    -0.115756136503E+04   -0.85292E-04   -0.57062E-03  3228   0.249E-01    0.672E-01
DAV:   4    -0.115756114529E+04    0.21974E-03   -0.71257E-03  3156   0.178E-01    0.570E-01
DAV:   5    -0.115756058404E+04    0.56125E-03   -0.22626E-03  2856   0.126E-01    0.105E-01
DAV:   6    -0.115756082375E+04   -0.23971E-03   -0.36847E-04  3120   0.106E-01    0.139E-01
DAV:   7    -0.115756080678E+04    0.16966E-04   -0.33777E-04  3168   0.953E-02    0.127E-01
DAV:   8    -0.115756080252E+04    0.42580E-05   -0.23300E-04  3156   0.812E-02    0.107E-01
DAV:   9    -0.115756079317E+04    0.93540E-05   -0.10671E-04  2880   0.548E-02    0.573E-02
DAV:  10    -0.115756079918E+04   -0.60109E-05   -0.29953E-05  2148   0.335E-02    0.496E-02
DAV:  11    -0.115756079862E+04    0.56053E-06   -0.11621E-05  1992   0.214E-02    0.308E-02
DAV:  12    -0.115756079973E+04   -0.11076E-05   -0.63982E-06  1896   0.166E-02    0.133E-02
DAV:  13    -0.115756080459E+04   -0.48596E-05   -0.56644E-06  1776   0.118E-02    0.194E-02
DAV:  14    -0.115756080608E+04   -0.14898E-05   -0.51931E-06  1776   0.133E-02    0.133E-02
DAV:  15    -0.115756080755E+04   -0.14707E-05   -0.14279E-06  1524   0.713E-03    0.960E-03
DAV:  16    -0.115756080831E+04   -0.76269E-06   -0.84206E-07  1536   0.508E-03
  16 F= -.11652498E+04 E0= -.11652458E+04  d E =-.632450E-02  mag=    13.0213
 curvature:  -0.53 expect dE=-0.190E-01 dE for cont linesearch -0.285E-07
 trial: gam= 0.56012 g(F)=  0.359E-01 g(S)=  0.000E+00 ort =-0.144E-03 (trialstep = 0.140E+00)
 search vector abs. value=  0.158E+00
 bond charge predicted
       N       E                     dE             d eps       ncg     rms          rms(c)
DAV:   1    -0.115756271744E+04   -0.19099E-02   -0.90934E-01  1992   0.182E+00    0.319E-01
DAV:   2    -0.115756599954E+04   -0.32821E-02   -0.17503E-02  2880   0.380E-01    0.901E-01
DAV:   3    -0.115756597893E+04    0.20607E-04   -0.87316E-03  3300   0.366E-01    0.902E-01
DAV:   4    -0.115756592773E+04    0.51201E-04   -0.15500E-02  3156   0.257E-01    0.981E-01
DAV:   5    -0.115756422577E+04    0.17020E-02   -0.67833E-03  2868   0.184E-01    0.149E-01
DAV:   6    -0.115756477370E+04   -0.54793E-03   -0.58369E-04  3000   0.125E-01    0.137E-01
DAV:   7    -0.115756483349E+04   -0.59785E-04   -0.41685E-04  3252   0.901E-02    0.136E-01
DAV:   8    -0.115756486217E+04   -0.28684E-04   -0.25401E-04  3288   0.911E-02    0.144E-01
DAV:   9    -0.115756483101E+04    0.31163E-04   -0.15286E-04  3132   0.694E-02    0.601E-02
DAV:  10    -0.115756484698E+04   -0.15965E-04   -0.48963E-05  2724   0.421E-02    0.548E-02
DAV:  11    -0.115756484838E+04   -0.14034E-05   -0.23606E-05  2172   0.318E-02    0.395E-02
DAV:  12    -0.115756484947E+04   -0.10930E-05   -0.13453E-05  2028   0.250E-02    0.205E-02
DAV:  13    -0.115756485711E+04   -0.76363E-05   -0.86972E-06  1824   0.142E-02    0.187E-02
DAV:  14    -0.115756486052E+04   -0.34173E-05   -0.67331E-06  1896   0.165E-02    0.231E-02
DAV:  15    -0.115756486130E+04   -0.77123E-06   -0.26725E-06  1692   0.113E-02
  17 F= -.11652541E+04 E0= -.11652502E+04  d E =-.427311E-02  mag=    13.0217
 trial-energy change:   -0.004273  1 .order   -0.004279   -0.004999   -0.003560
 step:   0.4852(harm=  0.4852)  dis= 0.01101  next Energy= -1165.258521 (dE=-0.868E-02)
 bond charge predicted
       N       E                     dE             d eps       ncg     rms          rms(c)
DAV:   1    -0.115755530068E+04    0.95598E-02   -0.55676E+00  1992   0.450E+00    0.789E-01
DAV:   2    -0.115757596966E+04   -0.20669E-01   -0.10822E-01  2940   0.940E-01    0.221E+00
DAV:   3    -0.115757603478E+04   -0.65121E-04   -0.57298E-02  3300   0.918E-01    0.217E+00
DAV:   4    -0.115757520607E+04    0.82871E-03   -0.82859E-02  3144   0.635E-01    0.239E+00
DAV:   5    -0.115756570419E+04    0.95019E-02   -0.43182E-02  2886   0.445E-01    0.343E-01
DAV:   6    -0.115756849954E+04   -0.27954E-02   -0.37520E-03  3048   0.319E-01    0.336E-01
DAV:   7    -0.115756862787E+04   -0.12833E-03   -0.26763E-03  3156   0.231E-01    0.339E-01
DAV:   8    -0.115756873097E+04   -0.10310E-03   -0.20492E-03  3252   0.235E-01    0.342E-01
DAV:   9    -0.115756855346E+04    0.17752E-03   -0.12737E-03  3192   0.173E-01    0.147E-01
DAV:  10    -0.115756861611E+04   -0.62657E-04   -0.36174E-04  3204   0.109E-01    0.135E-01
DAV:  11    -0.115756861615E+04   -0.39319E-07   -0.19471E-04  3000   0.811E-02    0.957E-02
DAV:  12    -0.115756861543E+04    0.72044E-06   -0.10304E-04  2640   0.618E-02    0.504E-02
DAV:  13    -0.115756864947E+04   -0.34036E-04   -0.56490E-05  2448   0.361E-02    0.540E-02
DAV:  14    -0.115756865884E+04   -0.93664E-05   -0.33398E-05  2160   0.395E-02    0.563E-02
DAV:  15    -0.115756866456E+04   -0.57242E-05   -0.16219E-05  1908   0.252E-02    0.301E-02
DAV:  16    -0.115756867142E+04   -0.68624E-05   -0.59849E-06  1860   0.137E-02    0.186E-02
DAV:  17    -0.115756868137E+04   -0.99433E-05   -0.32050E-06  1716   0.109E-02    0.184E-02
DAV:  18    -0.115756868835E+04   -0.69847E-05   -0.28887E-06  1776   0.108E-02    0.147E-02
DAV:  19    -0.115756870324E+04   -0.14886E-04   -0.13191E-06  1680   0.599E-03    0.119E-02
DAV:  20    -0.115756871299E+04   -0.97493E-05   -0.10711E-06  1620   0.600E-03    0.105E-02
DAV:  21    -0.115756871985E+04   -0.68616E-05   -0.84320E-07  1500   0.540E-03    0.403E-03
DAV:  22    -0.115756872886E+04   -0.90139E-05   -0.46685E-07  1464   0.250E-03    0.330E-03
DAV:  23    -0.115756873487E+04   -0.60064E-05   -0.36846E-07  1512   0.287E-03    0.423E-03
DAV:  24    -0.115756874150E+04   -0.66361E-05   -0.29488E-07  1440   0.257E-03    0.239E-03
DAV:  25    -0.115756874974E+04   -0.82363E-05   -0.37541E-07  1536   0.123E-03    0.189E-03
DAV:  26    -0.115756875450E+04   -0.47591E-05   -0.24454E-07  1500   0.109E-03    0.192E-03
DAV:  27    -0.115756876093E+04   -0.64349E-05   -0.21961E-07  1476   0.135E-03    0.265E-03
DAV:  28    -0.115756876657E+04   -0.56403E-05   -0.20347E-07  1500   0.148E-03    0.283E-03
DAV:  29    -0.115756877268E+04   -0.61077E-05   -0.24591E-07  1488   0.111E-03    0.269E-03
DAV:  30    -0.115756877439E+04   -0.17047E-05   -0.17788E-07  1524   0.939E-04    0.249E-03
DAV:  31    -0.115756877666E+04   -0.22746E-05   -0.13145E-07  1416   0.954E-04    0.188E-03
DAV:  32    -0.115756877863E+04   -0.19679E-05   -0.11019E-07  1476   0.793E-04    0.132E-03
DAV:  33    -0.115756878089E+04   -0.22562E-05   -0.14912E-07  1464   0.552E-04    0.814E-04
DAV:  34    -0.115756878162E+04   -0.73508E-06   -0.85903E-08  1500   0.553E-04
  18 F= -.11652586E+04 E0= -.11652551E+04  d E =-.871912E-02  mag=    13.0236
 curvature:  -1.07 expect dE=-0.403E-01 dE for cont linesearch -0.445E-07
 trial: gam= 1.02273 g(F)=  0.377E-01 g(S)=  0.000E+00 ort = 0.810E-04 (trialstep = 0.162E+00)
 search vector abs. value=  0.203E+00
 bond charge predicted
       N       E                     dE             d eps       ncg     rms          rms(c)
DAV:   1    -0.115757007458E+04   -0.12937E-02   -0.15875E+00  1992   0.242E+00    0.413E-01
DAV:   2    -0.115757655421E+04   -0.64796E-02   -0.31248E-02  2916   0.524E-01    0.134E+00
DAV:   3    -0.115757506394E+04    0.14903E-02   -0.14827E-02  3276   0.490E-01    0.104E+00
DAV:   4    -0.115757579781E+04   -0.73386E-03   -0.26155E-02  3132   0.331E-01    0.133E+00
DAV:   5    -0.115757259966E+04    0.31981E-02   -0.12400E-02  2880   0.243E-01    0.207E-01
DAV:   6    -0.115757358520E+04   -0.98554E-03   -0.99879E-04  3024   0.170E-01    0.189E-01
DAV:   7    -0.115757368743E+04   -0.10224E-03   -0.73530E-04  3072   0.124E-01    0.188E-01
DAV:   8    -0.115757372485E+04   -0.37411E-04   -0.36565E-04  3240   0.125E-01    0.189E-01
DAV:   9    -0.115757366452E+04    0.60325E-04   -0.21385E-04  3204   0.943E-02    0.769E-02
DAV:  10    -0.115757368919E+04   -0.24667E-04   -0.73610E-05  2940   0.490E-02    0.663E-02
DAV:  11    -0.115757369303E+04   -0.38390E-05   -0.52424E-05  2220   0.400E-02    0.531E-02
DAV:  12    -0.115757369375E+04   -0.72246E-06   -0.34040E-05  2064   0.298E-02    0.311E-02
DAV:  13    -0.115757370251E+04   -0.87609E-05   -0.18540E-05  1884   0.191E-02    0.228E-02
DAV:  14    -0.115757370886E+04   -0.63541E-05   -0.14764E-05  1860   0.209E-02    0.267E-02
DAV:  15    -0.115757371061E+04   -0.17468E-05   -0.65327E-06  1752   0.147E-02    0.196E-02
DAV:  16    -0.115757371168E+04   -0.10671E-05   -0.27217E-06  1728   0.926E-03    0.107E-02
DAV:  17    -0.115757371428E+04   -0.26019E-05   -0.90150E-07  1476   0.519E-03    0.620E-03
DAV:  18    -0.115757371678E+04   -0.24986E-05   -0.73165E-07  1536   0.561E-03    0.806E-03
DAV:  19    -0.115757371972E+04   -0.29457E-05   -0.50674E-07  1500   0.465E-03    0.510E-03
DAV:  20    -0.115757372362E+04   -0.38939E-05   -0.27192E-07  1476   0.224E-03    0.397E-03
DAV:  21    -0.115757372544E+04   -0.18214E-05   -0.25667E-07  1488   0.250E-03    0.351E-03
DAV:  22    -0.115757372663E+04   -0.11895E-05   -0.16400E-07  1428   0.201E-03    0.154E-03
DAV:  23    -0.115757372861E+04   -0.19778E-05   -0.10804E-07  1404   0.972E-04    0.120E-03
DAV:  24    -0.115757372984E+04   -0.12334E-05   -0.72527E-08  1452   0.107E-03    0.150E-03
DAV:  25    -0.115757373140E+04   -0.15621E-05   -0.58610E-08  1416   0.106E-03    0.100E-03
DAV:  26    -0.115757373334E+04   -0.19368E-05   -0.61345E-08  1452   0.617E-04    0.867E-04
DAV:  27    -0.115757373426E+04   -0.92331E-06   -0.44914E-08  1464   0.715E-04
  19 F= -.11652635E+04 E0= -.11652601E+04  d E =-.494442E-02  mag=    13.0253
 trial-energy change:   -0.004944  1 .order   -0.004950   -0.006134   -0.003767
 step:   0.4206(harm=  0.4206)  dis= 0.01071  next Energy= -1165.266502 (dE=-0.795E-02)
 bond charge predicted
       N       E                     dE             d eps       ncg     rms          rms(c)
DAV:   1    -0.115756735122E+04    0.63821E-02   -0.40199E+00  1992   0.385E+00    0.656E-01
DAV:   2    -0.115758372854E+04   -0.16377E-01   -0.79155E-02  2904   0.829E-01    0.209E+00
DAV:   3    -0.115758041691E+04    0.33116E-02   -0.40211E-02  3276   0.781E-01    0.165E+00
DAV:   4    -0.115758190346E+04   -0.14866E-02   -0.62928E-02  3132   0.524E-01    0.210E+00
DAV:   5    -0.115757435298E+04    0.75505E-02   -0.31321E-02  2922   0.382E-01    0.321E-01
DAV:   6    -0.115757648545E+04   -0.21325E-02   -0.25994E-03  3072   0.270E-01    0.300E-01
DAV:   7    -0.115757664801E+04   -0.16256E-03   -0.18276E-03  3120   0.197E-01    0.299E-01
DAV:   8    -0.115757672487E+04   -0.76863E-04   -0.91434E-04  3228   0.197E-01    0.295E-01
DAV:   9    -0.115757656814E+04    0.15673E-03   -0.52415E-04  3240   0.149E-01    0.118E-01
DAV:  10    -0.115757662494E+04   -0.56804E-04   -0.18184E-04  3108   0.789E-02    0.111E-01
DAV:  11    -0.115757662654E+04   -0.15944E-05   -0.13563E-04  2880   0.654E-02    0.857E-02
DAV:  12    -0.115757662683E+04   -0.29049E-06   -0.87236E-05  2436   0.473E-02    0.524E-02
DAV:  13    -0.115757664529E+04   -0.18461E-04   -0.50726E-05  2088   0.305E-02    0.367E-02
DAV:  14    -0.115757666022E+04   -0.14928E-04   -0.38460E-05  2136   0.329E-02    0.434E-02
DAV:  15    -0.115757666441E+04   -0.41897E-05   -0.16298E-05  1860   0.228E-02    0.301E-02
DAV:  16    -0.115757666703E+04   -0.26223E-05   -0.64483E-06  1836   0.139E-02    0.170E-02
DAV:  17    -0.115757667289E+04   -0.58633E-05   -0.23220E-06  1680   0.883E-03    0.115E-02
DAV:  18    -0.115757667832E+04   -0.54315E-05   -0.19071E-06  1656   0.906E-03    0.126E-02
DAV:  19    -0.115757668587E+04   -0.75437E-05   -0.11392E-06  1596   0.696E-03    0.828E-03
DAV:  20    -0.115757669550E+04   -0.96306E-05   -0.67590E-07  1548   0.368E-03    0.617E-03
DAV:  21    -0.115757669970E+04   -0.42042E-05   -0.62796E-07  1524   0.432E-03    0.589E-03
DAV:  22    -0.115757670329E+04   -0.35853E-05   -0.36014E-07  1428   0.324E-03    0.222E-03
DAV:  23    -0.115757670828E+04   -0.49895E-05   -0.26709E-07  1512   0.156E-03    0.225E-03
DAV:  24    -0.115757671119E+04   -0.29084E-05   -0.20591E-07  1452   0.201E-03    0.233E-03
DAV:  25    -0.115757671593E+04   -0.47424E-05   -0.17209E-07  1404   0.143E-03    0.140E-03
DAV:  26    -0.115757672090E+04   -0.49698E-05   -0.19459E-07  1488   0.976E-04    0.161E-03
DAV:  27    -0.115757672355E+04   -0.26478E-05   -0.13901E-07  1476   0.122E-03    0.153E-03
DAV:  28    -0.115757672744E+04   -0.38940E-05   -0.11008E-07  1404   0.991E-04    0.151E-03
DAV:  29    -0.115757673139E+04   -0.39534E-05   -0.13084E-07  1512   0.844E-04    0.128E-03
DAV:  30    -0.115757673271E+04   -0.13149E-05   -0.87415E-08  1452   0.781E-04    0.116E-03
DAV:  31    -0.115757673512E+04   -0.24121E-05   -0.84503E-08  1344   0.686E-04    0.676E-04
DAV:  32    -0.115757673740E+04   -0.22749E-05   -0.88387E-08  1476   0.542E-04    0.607E-04
DAV:  33    -0.115757673889E+04   -0.14950E-05   -0.72156E-08  1488   0.627E-04    0.746E-04
DAV:  34    -0.115757674028E+04   -0.13854E-05   -0.64703E-08  1404   0.511E-04    0.419E-04
DAV:  35    -0.115757674131E+04   -0.10335E-05   -0.61538E-08  1488   0.367E-04    0.528E-04
DAV:  36    -0.115757674181E+04   -0.50309E-06   -0.39531E-08  1452   0.301E-04
  20 F= -.11652665E+04 E0= -.11652632E+04  d E =-.793951E-02  mag=    13.0286
 curvature:  -1.13 expect dE=-0.591E-01 dE for cont linesearch -0.153E-07
 trial: gam= 1.39559 g(F)=  0.524E-01 g(S)=  0.000E+00 ort =-0.525E-04 (trialstep = 0.970E-01)
 search vector abs. value=  0.447E+00
 bond charge predicted
       N       E                     dE             d eps       ncg     rms          rms(c)
DAV:   1    -0.115757780058E+04   -0.10593E-02   -0.12355E+00  1992   0.213E+00    0.370E-01
DAV:   2    -0.115758285606E+04   -0.50555E-02   -0.25014E-02  2868   0.457E-01    0.119E+00
DAV:   3    -0.115758170034E+04    0.11557E-02   -0.12115E-02  3300   0.428E-01    0.926E-01
DAV:   4    -0.115758201897E+04   -0.31863E-03   -0.18912E-02  3108   0.280E-01    0.106E+00
DAV:   5    -0.115757995542E+04    0.20636E-02   -0.81104E-03  2916   0.207E-01    0.166E-01
DAV:   6    -0.115758069284E+04   -0.73742E-03   -0.88713E-04  3132   0.162E-01    0.207E-01
DAV:   7    -0.115758064567E+04    0.47172E-04   -0.74888E-04  3084   0.137E-01    0.187E-01
DAV:   8    -0.115758068955E+04   -0.43889E-04   -0.38022E-04  3300   0.125E-01    0.194E-01
DAV:   9    -0.115758061579E+04    0.73768E-04   -0.18958E-04  3180   0.918E-02    0.724E-02
DAV:  10    -0.115758063840E+04   -0.22610E-04   -0.42056E-05  2868   0.362E-02    0.552E-02
DAV:  11    -0.115758064292E+04   -0.45212E-05   -0.25114E-05  2196   0.320E-02    0.454E-02
DAV:  12    -0.115758064595E+04   -0.30359E-05   -0.20752E-05  2004   0.261E-02    0.303E-02
DAV:  13    -0.115758065375E+04   -0.77998E-05   -0.16221E-05  1872   0.178E-02    0.187E-02
DAV:  14    -0.115758065991E+04   -0.61609E-05   -0.12862E-05  1860   0.173E-02    0.255E-02
DAV:  15    -0.115758066016E+04   -0.24316E-06   -0.77506E-06  1692   0.128E-02
  21 F= -.11652703E+04 E0= -.11652671E+04  d E =-.383920E-02  mag=    13.0293
 trial-energy change:   -0.003839  1 .order   -0.003867   -0.005073   -0.002661
 step:   0.2245(harm=  0.2040)  dis= 0.00835  next Energy= -1165.272018 (dE=-0.552E-02)
 bond charge predicted
       N       E                     dE             d eps       ncg     rms          rms(c)
DAV:   1    -0.115757718936E+04    0.34706E-02   -0.21320E+00  1992   0.280E+00    0.486E-01
DAV:   2    -0.115758607008E+04   -0.88807E-02   -0.43511E-02  2856   0.602E-01    0.157E+00
DAV:   3    -0.115758397627E+04    0.20938E-02   -0.21520E-02  3324   0.564E-01    0.120E+00
DAV:   4    -0.115758452797E+04   -0.55169E-03   -0.31765E-02  3132   0.366E-01    0.139E+00
DAV:   5    -0.115758100168E+04    0.35263E-02   -0.14118E-02  2928   0.272E-01    0.214E-01
DAV:   6    -0.115758224090E+04   -0.12392E-02   -0.15128E-03  3120   0.214E-01    0.274E-01
DAV:   7    -0.115758214017E+04    0.10073E-03   -0.12764E-03  3108   0.184E-01    0.253E-01
DAV:   8    -0.115758219124E+04   -0.51071E-04   -0.60950E-04  3288   0.164E-01    0.250E-01
DAV:   9    -0.115758207765E+04    0.11359E-03   -0.30208E-04  3204   0.117E-01    0.893E-02
DAV:  10    -0.115758211473E+04   -0.37082E-04   -0.73403E-05  2916   0.507E-02    0.712E-02
DAV:  11    -0.115758212159E+04   -0.68653E-05   -0.41861E-05  2412   0.437E-02    0.601E-02
DAV:  12    -0.115758212767E+04   -0.60758E-05   -0.28142E-05  2100   0.349E-02    0.411E-02
DAV:  13    -0.115758214334E+04   -0.15665E-04   -0.27037E-05  2124   0.246E-02    0.234E-02
DAV:  14    -0.115758215558E+04   -0.12242E-04   -0.17467E-05  1896   0.223E-02    0.332E-02
DAV:  15    -0.115758215672E+04   -0.11435E-05   -0.10222E-05  1800   0.168E-02    0.170E-02
DAV:  16    -0.115758216023E+04   -0.35048E-05   -0.26789E-06  1584   0.792E-03    0.104E-02
DAV:  17    -0.115758216379E+04   -0.35661E-05   -0.26922E-06  1620   0.788E-03    0.108E-02
DAV:  18    -0.115758217123E+04   -0.74376E-05   -0.16163E-06  1560   0.628E-03    0.593E-03
DAV:  19    -0.115758217946E+04   -0.82311E-05   -0.85180E-07  1512   0.507E-03    0.727E-03
DAV:  20    -0.115758218358E+04   -0.41230E-05   -0.62331E-07  1584   0.498E-03    0.490E-03
DAV:  21    -0.115758218724E+04   -0.36549E-05   -0.34303E-07  1452   0.295E-03    0.321E-03
DAV:  22    -0.115758219060E+04   -0.33607E-05   -0.30331E-07  1488   0.253E-03    0.179E-03
DAV:  23    -0.115758219483E+04   -0.42294E-05   -0.24587E-07  1500   0.128E-03    0.183E-03
DAV:  24    -0.115758219720E+04   -0.23666E-05   -0.17018E-07  1512   0.164E-03    0.184E-03
DAV:  25    -0.115758220112E+04   -0.39209E-05   -0.13949E-07  1428   0.124E-03    0.113E-03
DAV:  26    -0.115758220649E+04   -0.53695E-05   -0.20695E-07  1488   0.923E-04    0.156E-03
DAV:  27    -0.115758220833E+04   -0.18417E-05   -0.12871E-07  1512   0.107E-03    0.145E-03
DAV:  28    -0.115758221094E+04   -0.26115E-05   -0.10188E-07  1380   0.898E-04    0.122E-03
DAV:  29    -0.115758221330E+04   -0.23658E-05   -0.94881E-08  1524   0.765E-04    0.913E-04
DAV:  30    -0.115758221444E+04   -0.11373E-05   -0.71482E-08  1476   0.704E-04    0.949E-04
DAV:  31    -0.115758221600E+04   -0.15567E-05   -0.67623E-08  1416   0.690E-04    0.584E-04
DAV:  32    -0.115758221759E+04   -0.15955E-05   -0.77738E-08  1464   0.376E-04    0.533E-04
DAV:  33    -0.115758221868E+04   -0.10826E-05   -0.51722E-08  1464   0.346E-04    0.408E-04
DAV:  34    -0.115758221956E+04   -0.88385E-06   -0.37563E-08  1428   0.349E-04
  22 F= -.11652718E+04 E0= -.11652686E+04  d E =-.529357E-02  mag=    13.0306
 curvature:  -0.84 expect dE=-0.414E-01 dE for cont linesearch -0.464E-04
 trial: gam= 1.03260 g(F)=  0.493E-01 g(S)=  0.000E+00 ort =-0.497E-02 (trialstep = 0.106E+00)
 search vector abs. value=  0.516E+00
 bond charge predicted
       N       E                     dE             d eps       ncg     rms          rms(c)
DAV:   1    -0.115758211781E+04    0.10086E-03   -0.16935E+00  1992   0.251E+00    0.420E-01
DAV:   2    -0.115758870932E+04   -0.65915E-02   -0.33661E-02  2952   0.520E-01    0.131E+00
DAV:   3    -0.115758773748E+04    0.97183E-03   -0.16867E-02  3336   0.492E-01    0.112E+00
DAV:   4    -0.115758770959E+04    0.27895E-04   -0.23726E-02  3108   0.334E-01    0.112E+00
DAV:   5    -0.115758534493E+04    0.23647E-02   -0.95867E-03  2940   0.237E-01    0.168E-01
DAV:   6    -0.115758602180E+04   -0.67687E-03   -0.91071E-04  3084   0.153E-01    0.167E-01
DAV:   7    -0.115758606758E+04   -0.45779E-04   -0.57053E-04  3108   0.111E-01    0.163E-01
DAV:   8    -0.115758611839E+04   -0.50807E-04   -0.34336E-04  3240   0.122E-01    0.175E-01
DAV:   9    -0.115758606731E+04    0.51083E-04   -0.19379E-04  3276   0.914E-02    0.740E-02
DAV:  10    -0.115758608755E+04   -0.20245E-04   -0.57788E-05  2904   0.443E-02    0.597E-02
DAV:  11    -0.115758608590E+04    0.16477E-05   -0.31401E-05  2256   0.374E-02    0.398E-02
DAV:  12    -0.115758608798E+04   -0.20727E-05   -0.17076E-05  2064   0.257E-02    0.262E-02
DAV:  13    -0.115758609557E+04   -0.75915E-05   -0.12658E-05  2016   0.174E-02    0.204E-02
DAV:  14    -0.115758610103E+04   -0.54613E-05   -0.62690E-06  1860   0.161E-02    0.244E-02
DAV:  15    -0.115758610108E+04   -0.45868E-07   -0.36699E-06  1740   0.135E-02
  23 F= -.11652756E+04 E0= -.11652726E+04  d E =-.383663E-02  mag=    13.0315
 trial-energy change:   -0.003837  1 .order   -0.003867   -0.004687   -0.003048
 step:   0.3038(harm=  0.3038)  dis= 0.01148  next Energy= -1165.278490 (dE=-0.670E-02)
 bond charge predicted
       N       E                     dE             d eps       ncg     rms          rms(c)
DAV:   1    -0.115757492125E+04    0.11180E-01   -0.58582E+00  1992   0.467E+00    0.781E-01
DAV:   2    -0.115759784530E+04   -0.22924E-01   -0.11654E-01  2892   0.959E-01    0.242E+00
DAV:   3    -0.115759494083E+04    0.29045E-02   -0.64403E-02  3300   0.913E-01    0.205E+00
DAV:   4    -0.115759422560E+04    0.71523E-03   -0.73244E-02  3060   0.617E-01    0.201E+00
DAV:   5    -0.115758688176E+04    0.73438E-02   -0.32514E-02  2910   0.430E-01    0.293E-01
DAV:   6    -0.115758885897E+04   -0.19772E-02   -0.31358E-03  3120   0.286E-01    0.312E-01
DAV:   7    -0.115758888621E+04   -0.27247E-04   -0.18940E-03  3192   0.213E-01    0.304E-01
DAV:   8    -0.115758901224E+04   -0.12603E-03   -0.12228E-03  3264   0.227E-01    0.312E-01
DAV:   9    -0.115758885771E+04    0.15453E-03   -0.66032E-04  3228   0.168E-01    0.141E-01
DAV:  10    -0.115758891629E+04   -0.58581E-04   -0.27806E-04  3132   0.922E-02    0.129E-01
DAV:  11    -0.115758889187E+04    0.24417E-04   -0.19224E-04  3000   0.754E-02    0.674E-02
DAV:  12    -0.115758890481E+04   -0.12936E-04   -0.84241E-05  2808   0.453E-02    0.511E-02
DAV:  13    -0.115758892995E+04   -0.25142E-04   -0.92046E-05  2568   0.411E-02    0.606E-02
DAV:  14    -0.115758893734E+04   -0.73897E-05   -0.71837E-05  2124   0.387E-02    0.515E-02
DAV:  15    -0.115758894147E+04   -0.41335E-05   -0.17432E-05  1944   0.217E-02    0.214E-02
DAV:  16    -0.115758894953E+04   -0.80627E-05   -0.58760E-06  1836   0.136E-02    0.189E-02
DAV:  17    -0.115758895557E+04   -0.60389E-05   -0.39590E-06  1788   0.130E-02    0.144E-02
DAV:  18    -0.115758896457E+04   -0.90025E-05   -0.21879E-06  1788   0.908E-03    0.119E-02
DAV:  19    -0.115758897675E+04   -0.12172E-04   -0.12126E-06  1680   0.706E-03    0.804E-03
DAV:  20    -0.115758898714E+04   -0.10393E-04   -0.80510E-07  1524   0.438E-03    0.507E-03
DAV:  21    -0.115758899153E+04   -0.43881E-05   -0.58514E-07  1560   0.436E-03    0.454E-03
DAV:  22    -0.115758899864E+04   -0.71095E-05   -0.39568E-07  1428   0.291E-03    0.271E-03
DAV:  23    -0.115758900487E+04   -0.62366E-05   -0.31329E-07  1488   0.188E-03    0.281E-03
DAV:  24    -0.115758900804E+04   -0.31646E-05   -0.22845E-07  1464   0.198E-03    0.209E-03
DAV:  25    -0.115758901459E+04   -0.65470E-05   -0.20615E-07  1440   0.115E-03    0.158E-03
DAV:  26    -0.115758902125E+04   -0.66614E-05   -0.23800E-07  1500   0.788E-04    0.177E-03
DAV:  27    -0.115758902645E+04   -0.51982E-05   -0.16119E-07  1464   0.108E-03    0.201E-03
DAV:  28    -0.115758902955E+04   -0.31008E-05   -0.11741E-07  1464   0.126E-03    0.187E-03
DAV:  29    -0.115758903282E+04   -0.32788E-05   -0.10828E-07  1488   0.946E-04    0.139E-03
DAV:  30    -0.115758903530E+04   -0.24732E-05   -0.10706E-07  1452   0.844E-04    0.149E-03
DAV:  31    -0.115758903792E+04   -0.26184E-05   -0.10370E-07  1464   0.898E-04    0.751E-04
DAV:  32    -0.115758904037E+04   -0.24561E-05   -0.11169E-07  1440   0.520E-04    0.719E-04
DAV:  33    -0.115758904178E+04   -0.14039E-05   -0.79457E-08  1464   0.455E-04    0.538E-04
DAV:  34    -0.115758904318E+04   -0.14015E-05   -0.68229E-08  1416   0.442E-04    0.627E-04
DAV:  35    -0.115758904392E+04   -0.73887E-06   -0.49897E-08  1464   0.507E-04
  24 F= -.11652785E+04 E0= -.11652756E+04  d E =-.670117E-02  mag=    13.0341
 curvature:  -1.78 expect dE=-0.520E-01 dE for cont linesearch -0.119E-06
 trial: gam= 0.33585 g(F)=  0.293E-01 g(S)=  0.000E+00 ort = 0.186E-03 (trialstep = 0.146E+00)
 search vector abs. value=  0.876E-01
 bond charge predicted
       N       E                     dE             d eps       ncg     rms          rms(c)
DAV:   1    -0.115759121143E+04   -0.21683E-02   -0.52985E-01  1998   0.148E+00    0.234E-01
DAV:   2    -0.115759277119E+04   -0.15598E-02   -0.11471E-02  3072   0.286E-01    0.479E-01
DAV:   3    -0.115759345697E+04   -0.68578E-03   -0.35633E-03  3384   0.286E-01    0.751E-01
DAV:   4    -0.115759276436E+04    0.69260E-03   -0.47038E-03  3120   0.203E-01    0.457E-01
DAV:   5    -0.115759236379E+04    0.40057E-03   -0.23865E-03  3096   0.131E-01    0.147E-01
DAV:   6    -0.115759246938E+04   -0.10558E-03   -0.39773E-04  3060   0.931E-02    0.102E-01
DAV:   7    -0.115759248057E+04   -0.11199E-04   -0.18354E-04  3120   0.711E-02    0.103E-01
DAV:   8    -0.115759247666E+04    0.39099E-05   -0.13248E-04  3180   0.749E-02    0.769E-02
DAV:   9    -0.115759247890E+04   -0.22336E-05   -0.50566E-05  3024   0.466E-02    0.524E-02
DAV:  10    -0.115759248019E+04   -0.12919E-05   -0.22056E-05  2220   0.320E-02    0.426E-02
DAV:  11    -0.115759247857E+04    0.16177E-05   -0.77287E-06  1860   0.203E-02    0.196E-02
DAV:  12    -0.115759248040E+04   -0.18303E-05   -0.42118E-06  1800   0.125E-02    0.116E-02
DAV:  13    -0.115759248323E+04   -0.28283E-05   -0.45810E-06  1704   0.109E-02    0.143E-02
DAV:  14    -0.115759248460E+04   -0.13681E-05   -0.51152E-06  1716   0.108E-02    0.117E-02
DAV:  15    -0.115759248579E+04   -0.11936E-05   -0.16424E-06  1500   0.646E-03    0.621E-03
DAV:  16    -0.115759248661E+04   -0.81871E-06   -0.54069E-07  1500   0.447E-03
  25 F= -.11652821E+04 E0= -.11652792E+04  d E =-.358879E-02  mag=    13.0347
 trial-energy change:   -0.003589  1 .order   -0.003595   -0.004278   -0.002912
 step:   0.4565(harm=  0.4565)  dis= 0.00610  next Energy= -1165.285190 (dE=-0.670E-02)
 bond charge predicted
       N       E                     dE             d eps       ncg     rms          rms(c)
DAV:   1    -0.115758949112E+04    0.29947E-02   -0.24096E+00  1992   0.315E+00    0.500E-01
DAV:   2    -0.115759685341E+04   -0.73623E-02   -0.52399E-02  3048   0.609E-01    0.102E+00
DAV:   3    -0.115760001733E+04   -0.31639E-02   -0.17701E-02  3420   0.610E-01    0.160E+00
DAV:   4    -0.115759661302E+04    0.34043E-02   -0.19157E-02  3096   0.435E-01    0.909E-01
DAV:   5    -0.115759505129E+04    0.15617E-02   -0.10339E-02  3156   0.279E-01    0.327E-01
DAV:   6    -0.115759532642E+04   -0.27512E-03   -0.19276E-03  3048   0.197E-01    0.220E-01
DAV:   7    -0.115759533155E+04   -0.51380E-05   -0.85024E-04  3108   0.153E-01    0.216E-01
DAV:   8    -0.115759529501E+04    0.36538E-04   -0.59628E-04  3204   0.159E-01    0.159E-01
DAV:   9    -0.115759529719E+04   -0.21756E-05   -0.22756E-04  3156   0.997E-02    0.118E-01
DAV:  10    -0.115759529179E+04    0.53989E-05   -0.11168E-04  3048   0.699E-02    0.875E-02
DAV:  11    -0.115759528664E+04    0.51538E-05   -0.36385E-05  2304   0.413E-02    0.388E-02
DAV:  12    -0.115759529466E+04   -0.80240E-05   -0.23983E-05  2256   0.273E-02    0.279E-02
DAV:  13    -0.115759530650E+04   -0.11840E-04   -0.33196E-05  1992   0.249E-02    0.360E-02
DAV:  14    -0.115759531156E+04   -0.50552E-05   -0.25928E-05  1920   0.221E-02    0.212E-02
DAV:  15    -0.115759531747E+04   -0.59085E-05   -0.53094E-06  1788   0.124E-02    0.137E-02
DAV:  16    -0.115759532081E+04   -0.33418E-05   -0.23447E-06  1752   0.950E-03    0.143E-02
DAV:  17    -0.115759532445E+04   -0.36401E-05   -0.14395E-06  1608   0.804E-03    0.670E-03
DAV:  18    -0.115759533292E+04   -0.84768E-05   -0.63931E-07  1524   0.397E-03    0.524E-03
DAV:  19    -0.115759533869E+04   -0.57611E-05   -0.66972E-07  1584   0.490E-03    0.659E-03
DAV:  20    -0.115759534413E+04   -0.54471E-05   -0.40213E-07  1500   0.404E-03    0.295E-03
DAV:  21    -0.115759535120E+04   -0.70703E-05   -0.39393E-07  1476   0.217E-03    0.332E-03
DAV:  22    -0.115759535373E+04   -0.25242E-05   -0.23488E-07  1524   0.217E-03    0.356E-03
DAV:  23    -0.115759535687E+04   -0.31406E-05   -0.16177E-07  1452   0.164E-03    0.268E-03
DAV:  24    -0.115759535982E+04   -0.29564E-05   -0.13707E-07  1476   0.889E-04    0.213E-03
DAV:  25    -0.115759536277E+04   -0.29484E-05   -0.10935E-07  1476   0.915E-04    0.173E-03
DAV:  26    -0.115759536696E+04   -0.41871E-05   -0.12296E-07  1428   0.112E-03    0.146E-03
DAV:  27    -0.115759537012E+04   -0.31644E-05   -0.12833E-07  1476   0.115E-03    0.125E-03
DAV:  28    -0.115759537282E+04   -0.26952E-05   -0.11280E-07  1452   0.900E-04    0.117E-03
DAV:  29    -0.115759537429E+04   -0.14697E-05   -0.98520E-08  1500   0.706E-04    0.821E-04
DAV:  30    -0.115759537589E+04   -0.16035E-05   -0.82931E-08  1452   0.581E-04    0.852E-04
DAV:  31    -0.115759537709E+04   -0.11994E-05   -0.61694E-08  1476   0.725E-04    0.675E-04
DAV:  32    -0.115759537872E+04   -0.16293E-05   -0.78784E-08  1440   0.590E-04    0.710E-04
DAV:  33    -0.115759537950E+04   -0.78067E-06   -0.63101E-08  1500   0.573E-04
  26 F= -.11652852E+04 E0= -.11652824E+04  d E =-.675820E-02  mag=    13.0367
 curvature:  -0.68 expect dE=-0.159E-01 dE for cont linesearch -0.700E-06
 trial: gam= 0.82112 g(F)=  0.233E-01 g(S)=  0.000E+00 ort = 0.300E-03 (trialstep = 0.208E+00)
 search vector abs. value=  0.829E-01
 bond charge predicted
       N       E                     dE             d eps       ncg     rms          rms(c)
DAV:   1    -0.115759607299E+04   -0.69427E-03   -0.99138E-01  1992   0.203E+00    0.304E-01
DAV:   2    -0.115759892950E+04   -0.28565E-02   -0.22626E-02  2988   0.376E-01    0.640E-01
DAV:   3    -0.115759967844E+04   -0.74894E-03   -0.45883E-03  3324   0.346E-01    0.850E-01
DAV:   4    -0.115759870764E+04    0.97080E-03   -0.49088E-03  3072   0.219E-01    0.512E-01
DAV:   5    -0.115759826189E+04    0.44575E-03   -0.31544E-03  2976   0.140E-01    0.191E-01
DAV:   6    -0.115759867537E+04   -0.41347E-03   -0.12807E-03  3186   0.173E-01    0.284E-01
DAV:   7    -0.115759845653E+04    0.21883E-03   -0.93586E-04  3252   0.176E-01    0.193E-01
DAV:   8    -0.115759843266E+04    0.23877E-04   -0.43551E-04  3216   0.131E-01    0.127E-01
DAV:   9    -0.115759842632E+04    0.63403E-05   -0.16433E-04  3228   0.814E-02    0.922E-02
DAV:  10    -0.115759842031E+04    0.60042E-05   -0.58739E-05  2892   0.464E-02    0.637E-02
DAV:  11    -0.115759841997E+04    0.34103E-06   -0.23320E-05  2148   0.293E-02    0.363E-02
DAV:  12    -0.115759842114E+04   -0.11727E-05   -0.13915E-05  2052   0.202E-02    0.196E-02
DAV:  13    -0.115759842619E+04   -0.50481E-05   -0.15699E-05  1944   0.166E-02    0.263E-02
DAV:  14    -0.115759842860E+04   -0.24060E-05   -0.12233E-05  1920   0.163E-02    0.128E-02
DAV:  15    -0.115759843267E+04   -0.40767E-05   -0.20358E-06  1668   0.877E-03    0.106E-02
DAV:  16    -0.115759843401E+04   -0.13335E-05   -0.90526E-07  1620   0.684E-03    0.896E-03
DAV:  17    -0.115759843515E+04   -0.11467E-05   -0.59338E-07  1476   0.528E-03    0.511E-03
DAV:  18    -0.115759843799E+04   -0.28371E-05   -0.41437E-07  1500   0.361E-03    0.465E-03
DAV:  19    -0.115759844110E+04   -0.31140E-05   -0.36519E-07  1500   0.345E-03    0.329E-03
DAV:  20    -0.115759844361E+04   -0.25007E-05   -0.27768E-07  1464   0.318E-03    0.404E-03
DAV:  21    -0.115759844597E+04   -0.23657E-05   -0.20862E-07  1476   0.258E-03    0.142E-03
DAV:  22    -0.115759844812E+04   -0.21541E-05   -0.14247E-07  1452   0.109E-03    0.133E-03
DAV:  23    -0.115759844938E+04   -0.12597E-05   -0.10159E-07  1464   0.126E-03    0.144E-03
DAV:  24    -0.115759845092E+04   -0.15344E-05   -0.69750E-08  1452   0.104E-03    0.995E-04
DAV:  25    -0.115759845286E+04   -0.19451E-05   -0.65457E-08  1464   0.668E-04    0.847E-04
DAV:  26    -0.115759845411E+04   -0.12454E-05   -0.54158E-08  1488   0.740E-04    0.103E-03
DAV:  27    -0.115759845565E+04   -0.15375E-05   -0.51997E-08  1428   0.816E-04    0.693E-04
DAV:  28    -0.115759845685E+04   -0.12026E-05   -0.47879E-08  1452   0.555E-04    0.579E-04
DAV:  29    -0.115759845753E+04   -0.68204E-06   -0.35888E-08  1440   0.414E-04
  27 F= -.11652883E+04 E0= -.11652855E+04  d E =-.306682E-02  mag=    13.0376
 trial-energy change:   -0.003067  1 .order   -0.003071   -0.004905   -0.001238
 step:   0.2781(harm=  0.2781)  dis= 0.00418  next Energy= -1165.288528 (dE=-0.328E-02)
 bond charge predicted
       N       E                     dE             d eps       ncg     rms          rms(c)
DAV:   1    -0.115759839961E+04    0.57241E-04   -0.11301E-01  1992   0.686E-01    0.103E-01
DAV:   2    -0.115759869962E+04   -0.30001E-03   -0.25738E-03  2952   0.127E-01    0.216E-01
DAV:   3    -0.115759878813E+04   -0.88517E-04   -0.50852E-04  3288   0.117E-01    0.287E-01
DAV:   4    -0.115759868489E+04    0.10324E-03   -0.58548E-04  3000   0.735E-02    0.175E-01
DAV:   5    -0.115759862846E+04    0.56438E-04   -0.35490E-04  2796   0.471E-02    0.632E-02
DAV:   6    -0.115759868839E+04   -0.59938E-04   -0.14467E-04  2988   0.585E-02    0.967E-02
DAV:   7    -0.115759866413E+04    0.24261E-04   -0.10855E-04  3204   0.593E-02    0.653E-02
DAV:   8    -0.115759866384E+04    0.28986E-06   -0.50091E-05  2880   0.442E-02    0.433E-02
DAV:   9    -0.115759866456E+04   -0.71655E-06   -0.19004E-05  2292   0.278E-02    0.307E-02
DAV:  10    -0.115759866452E+04    0.43859E-07   -0.68148E-06  1968   0.161E-02
  28 F= -.11652885E+04 E0= -.11652857E+04  d E =-.326982E-02  mag=    13.0378
 curvature:  -0.49 expect dE=-0.190E-01 dE for cont linesearch -0.228E-09
 trial: gam= 1.67430 g(F)=  0.388E-01 g(S)=  0.000E+00 ort = 0.621E-05 (trialstep = 0.678E-01)
 search vector abs. value=  0.271E+00
 bond charge predicted
       N       E                     dE             d eps       ncg     rms          rms(c)
DAV:   1    -0.115760021831E+04   -0.15537E-02   -0.34218E-01  1992   0.122E+00    0.169E-01
DAV:   2    -0.115760133335E+04   -0.11150E-02   -0.76704E-03  3012   0.240E-01    0.462E-01
DAV:   3    -0.115760130379E+04    0.29559E-04   -0.18882E-03  3300   0.215E-01    0.450E-01
DAV:   4    -0.115760122003E+04    0.83763E-04   -0.26520E-03  3084   0.142E-01    0.373E-01
DAV:   5    -0.115760092720E+04    0.29283E-03   -0.13281E-03  2940   0.948E-02    0.906E-02
DAV:   6    -0.115760102465E+04   -0.97448E-04   -0.22244E-04  3024   0.745E-02    0.927E-02
DAV:   7    -0.115760104323E+04   -0.18584E-04   -0.16822E-04  3132   0.662E-02    0.996E-02
DAV:   8    -0.115760103136E+04    0.11874E-04   -0.12515E-04  3168   0.649E-02    0.601E-02
DAV:   9    -0.115760104232E+04   -0.10963E-04   -0.67466E-05  2928   0.419E-02    0.514E-02
DAV:  10    -0.115760103899E+04    0.33303E-05   -0.33216E-05  2280   0.284E-02    0.315E-02
DAV:  11    -0.115760104034E+04   -0.13529E-05   -0.82007E-06  1812   0.157E-02    0.161E-02
DAV:  12    -0.115760104176E+04   -0.14178E-05   -0.40585E-06  1848   0.113E-02    0.137E-02
DAV:  13    -0.115760104286E+04   -0.10939E-05   -0.24358E-06  1668   0.928E-03    0.104E-02
DAV:  14    -0.115760104506E+04   -0.22018E-05   -0.16952E-06  1620   0.778E-03    0.677E-03
DAV:  15    -0.115760104745E+04   -0.23945E-05   -0.55915E-07  1488   0.523E-03    0.705E-03
DAV:  16    -0.115760104829E+04   -0.83328E-06   -0.38392E-07  1500   0.446E-03
  29 F= -.11652908E+04 E0= -.11652880E+04  d E =-.231406E-02  mag=    13.0385
 ZBRENT: can't locate minimum, use default step
 trial-energy change:   -0.002314  1 .order   -0.002316   -0.002632   -0.002000
 step:   0.2713(harm=  0.2822)  dis= 0.00766  next Energy= -1165.293992 (dE=-0.547E-02)
 bond charge predicted
       N       E                     dE             d eps       ncg     rms          rms(c)
DAV:   1    -0.115759695139E+04    0.40961E-02   -0.30797E+00  1992   0.366E+00    0.501E-01
DAV:   2    -0.115760610730E+04   -0.91559E-02   -0.67532E-02  2964   0.675E-01    0.112E+00
DAV:   3    -0.115760829154E+04   -0.21842E-02   -0.15786E-02  3324   0.632E-01    0.149E+00
DAV:   4    -0.115760556141E+04    0.27301E-02   -0.16604E-02  3084   0.414E-01    0.924E-01
DAV:   5    -0.115760395022E+04    0.16112E-02   -0.95683E-03  3000   0.259E-01    0.283E-01
DAV:   6    -0.115760445181E+04   -0.50159E-03   -0.21781E-03  3096   0.215E-01    0.288E-01
DAV:   7    -0.115760441774E+04    0.34067E-04   -0.12531E-03  3156   0.192E-01    0.260E-01
DAV:   8    -0.115760436444E+04    0.53305E-04   -0.85175E-04  3276   0.184E-01    0.177E-01
DAV:   9    -0.115760438714E+04   -0.22698E-04   -0.45138E-04  3144   0.134E-01    0.153E-01
DAV:  10    -0.115760435074E+04    0.36393E-04   -0.23136E-04  3120   0.868E-02    0.959E-02
DAV:  11    -0.115760434806E+04    0.26851E-05   -0.88642E-05  2592   0.506E-02    0.554E-02
DAV:  12    -0.115760435169E+04   -0.36336E-05   -0.48397E-05  2328   0.321E-02    0.337E-02
DAV:  13    -0.115760436222E+04   -0.10526E-04   -0.42091E-05  2100   0.297E-02    0.413E-02
DAV:  14    -0.115760437024E+04   -0.80165E-05   -0.22468E-05  2052   0.250E-02    0.182E-02
DAV:  15    -0.115760438140E+04   -0.11169E-04   -0.37775E-06  1788   0.135E-02    0.195E-02
DAV:  16    -0.115760438456E+04   -0.31577E-05   -0.28637E-06  1788   0.120E-02    0.155E-02
DAV:  17    -0.115760438894E+04   -0.43755E-05   -0.14927E-06  1656   0.826E-03    0.776E-03
DAV:  18    -0.115760439763E+04   -0.86898E-05   -0.91818E-07  1560   0.524E-03    0.828E-03
DAV:  19    -0.115760440498E+04   -0.73499E-05   -0.88743E-07  1560   0.604E-03    0.753E-03
DAV:  20    -0.115760441252E+04   -0.75408E-05   -0.54850E-07  1500   0.477E-03    0.529E-03
DAV:  21    -0.115760442002E+04   -0.74986E-05   -0.46013E-07  1500   0.332E-03    0.318E-03
DAV:  22    -0.115760442549E+04   -0.54720E-05   -0.29851E-07  1500   0.210E-03    0.251E-03
DAV:  23    -0.115760442891E+04   -0.34254E-05   -0.24298E-07  1476   0.211E-03    0.259E-03
DAV:  24    -0.115760443361E+04   -0.46977E-05   -0.16556E-07  1416   0.162E-03    0.159E-03
DAV:  25    -0.115760443934E+04   -0.57298E-05   -0.17492E-07  1500   0.104E-03    0.170E-03
DAV:  26    -0.115760444245E+04   -0.31062E-05   -0.12856E-07  1464   0.131E-03    0.163E-03
DAV:  27    -0.115760444870E+04   -0.62498E-05   -0.14022E-07  1452   0.105E-03    0.147E-03
DAV:  28    -0.115760445421E+04   -0.55114E-05   -0.17140E-07  1488   0.849E-04    0.133E-03
DAV:  29    -0.115760445645E+04   -0.22429E-05   -0.12165E-07  1476   0.648E-04    0.120E-03
DAV:  30    -0.115760445872E+04   -0.22659E-05   -0.80929E-08  1428   0.770E-04    0.103E-03
DAV:  31    -0.115760446056E+04   -0.18397E-05   -0.67515E-08  1476   0.733E-04    0.727E-04
DAV:  32    -0.115760446303E+04   -0.24696E-05   -0.88313E-08  1440   0.563E-04    0.591E-04
DAV:  33    -0.115760446466E+04   -0.16315E-05   -0.89168E-08  1452   0.508E-04    0.720E-04
DAV:  34    -0.115760446522E+04   -0.56182E-06   -0.56663E-08  1464   0.559E-04
  30 F= -.11652940E+04 E0= -.11652912E+04  d E =-.551917E-02  mag=    13.0413
 curvature:  -0.98 expect dE=-0.221E-01 dE for cont linesearch -0.122E-04
 trial: gam= 0.51512 g(F)=  0.225E-01 g(S)=  0.000E+00 ort = 0.184E-02 (trialstep = 0.109E+00)
 search vector abs. value=  0.964E-01
 bond charge predicted
       N       E                     dE             d eps       ncg     rms          rms(c)
DAV:   1    -0.115760610608E+04   -0.16414E-02   -0.30881E-01  1998   0.118E+00    0.157E-01
DAV:   2    -0.115760697086E+04   -0.86478E-03   -0.70238E-03  3000   0.212E-01    0.335E-01
DAV:   3    -0.115760722415E+04   -0.25329E-03   -0.18792E-03  3252   0.209E-01    0.494E-01
DAV:   4    -0.115760694619E+04    0.27797E-03   -0.20422E-03  3120   0.142E-01    0.277E-01
DAV:   5    -0.115760678857E+04    0.15761E-03   -0.10457E-03  2988   0.949E-02    0.121E-01
DAV:   6    -0.115760681470E+04   -0.26126E-04   -0.25681E-04  2988   0.646E-02    0.720E-02
DAV:   7    -0.115760682971E+04   -0.15006E-04   -0.91036E-05  3066   0.501E-02    0.783E-02
DAV:   8    -0.115760682088E+04    0.88315E-05   -0.62933E-05  3072   0.501E-02    0.423E-02
DAV:   9    -0.115760683347E+04   -0.12593E-04   -0.36894E-05  2616   0.348E-02    0.480E-02
DAV:  10    -0.115760682888E+04    0.45868E-05   -0.28413E-05  2220   0.282E-02    0.263E-02
DAV:  11    -0.115760682993E+04   -0.10493E-05   -0.10065E-05  1776   0.156E-02    0.159E-02
DAV:  12    -0.115760683093E+04   -0.99443E-06   -0.48648E-06  1704   0.102E-02
  31 F= -.11652962E+04 E0= -.11652934E+04  d E =-.221012E-02  mag=    13.0416
 trial-energy change:   -0.002210  1 .order   -0.002224   -0.002544   -0.001904
 step:   0.4315(harm=  0.4315)  dis= 0.00675  next Energy= -1165.299093 (dE=-0.506E-02)
 bond charge predicted
       N       E                     dE             d eps       ncg     rms          rms(c)
DAV:   1    -0.115760363207E+04    0.31979E-02   -0.27331E+00  1992   0.350E+00    0.467E-01
DAV:   2    -0.115761172255E+04   -0.80905E-02   -0.62295E-02  3024   0.631E-01    0.988E-01
DAV:   3    -0.115761395731E+04   -0.22348E-02   -0.17918E-02  3288   0.623E-01    0.147E+00
DAV:   4    -0.115761131499E+04    0.26423E-02   -0.16490E-02  3192   0.424E-01    0.783E-01
DAV:   5    -0.115761000686E+04    0.13081E-02   -0.88523E-03  3036   0.285E-01    0.361E-01
DAV:   6    -0.115761008374E+04   -0.76885E-04   -0.22832E-03  3072   0.189E-01    0.220E-01
DAV:   7    -0.115761014547E+04   -0.61726E-04   -0.84454E-04  3096   0.152E-01    0.227E-01
DAV:   8    -0.115761004947E+04    0.96000E-04   -0.64268E-04  3084   0.151E-01    0.128E-01
DAV:   9    -0.115761014490E+04   -0.95431E-04   -0.59581E-04  3084   0.110E-01    0.172E-01
DAV:  10    -0.115761007660E+04    0.68298E-04   -0.37570E-04  3144   0.886E-02    0.716E-02
DAV:  11    -0.115761008655E+04   -0.99469E-05   -0.79277E-05  2544   0.450E-02    0.448E-02
DAV:  12    -0.115761009275E+04   -0.62066E-05   -0.33465E-05  2148   0.295E-02    0.317E-02
DAV:  13    -0.115761010193E+04   -0.91763E-05   -0.28382E-05  2064   0.268E-02    0.345E-02
DAV:  14    -0.115761011036E+04   -0.84326E-05   -0.10869E-05  1872   0.200E-02    0.155E-02
DAV:  15    -0.115761011910E+04   -0.87345E-05   -0.28462E-06  1788   0.930E-03    0.160E-02
DAV:  16    -0.115761012175E+04   -0.26531E-05   -0.25696E-06  1704   0.102E-02    0.119E-02
DAV:  17    -0.115761012803E+04   -0.62847E-05   -0.10900E-06  1500   0.613E-03    0.789E-03
DAV:  18    -0.115761013539E+04   -0.73563E-05   -0.10905E-06  1656   0.538E-03    0.885E-03
DAV:  19    -0.115761014420E+04   -0.88091E-05   -0.94527E-07  1560   0.585E-03    0.759E-03
DAV:  20    -0.115761015143E+04   -0.72270E-05   -0.57967E-07  1464   0.454E-03    0.492E-03
DAV:  21    -0.115761015916E+04   -0.77363E-05   -0.50880E-07  1512   0.301E-03    0.292E-03
DAV:  22    -0.115761016447E+04   -0.53030E-05   -0.42506E-07  1500   0.209E-03    0.355E-03
DAV:  23    -0.115761016772E+04   -0.32583E-05   -0.24756E-07  1488   0.214E-03    0.282E-03
DAV:  24    -0.115761017188E+04   -0.41566E-05   -0.16870E-07  1464   0.130E-03    0.194E-03
DAV:  25    -0.115761017669E+04   -0.48121E-05   -0.18638E-07  1488   0.113E-03    0.220E-03
DAV:  26    -0.115761018018E+04   -0.34825E-05   -0.16724E-07  1464   0.166E-03    0.241E-03
DAV:  27    -0.115761018459E+04   -0.44141E-05   -0.18685E-07  1524   0.142E-03    0.170E-03
DAV:  28    -0.115761018899E+04   -0.43998E-05   -0.23967E-07  1488   0.114E-03    0.163E-03
DAV:  29    -0.115761018990E+04   -0.91196E-06   -0.15164E-07  1536   0.118E-03
  32 F= -.11652991E+04 E0= -.11652964E+04  d E =-.506602E-02  mag=    13.0426
 curvature:  -0.89 expect dE=-0.203E-01 dE for cont linesearch -0.157E-06
 trial: gam= 1.08764 g(F)=  0.229E-01 g(S)=  0.000E+00 ort = 0.131E-03 (trialstep = 0.122E+00)
 search vector abs. value=  0.137E+00
 bond charge predicted
       N       E                     dE             d eps       ncg     rms          rms(c)
DAV:   1    -0.115761123485E+04   -0.10459E-02   -0.53537E-01  1992   0.155E+00    0.203E-01
DAV:   2    -0.115761259730E+04   -0.13625E-02   -0.12204E-02  2904   0.255E-01    0.388E-01
DAV:   3    -0.115761330435E+04   -0.70704E-03   -0.30387E-03  3372   0.231E-01    0.677E-01
DAV:   4    -0.115761251349E+04    0.79086E-03   -0.28652E-03  3012   0.150E-01    0.288E-01
DAV:   5    -0.115761242772E+04    0.85763E-04   -0.10322E-03  3000   0.850E-02    0.110E-01
DAV:   6    -0.115761253489E+04   -0.10717E-03   -0.32389E-04  2988   0.888E-02    0.139E-01
DAV:   7    -0.115761249931E+04    0.35584E-04   -0.25246E-04  3120   0.951E-02    0.101E-01
DAV:   8    -0.115761251893E+04   -0.19625E-04   -0.18153E-04  3048   0.766E-02    0.848E-02
DAV:   9    -0.115761250910E+04    0.98345E-05   -0.11744E-04  2904   0.572E-02    0.672E-02
DAV:  10    -0.115761250791E+04    0.11881E-05   -0.44811E-05  2376   0.317E-02    0.504E-02
DAV:  11    -0.115761250626E+04    0.16520E-05   -0.23639E-05  2064   0.232E-02    0.245E-02
DAV:  12    -0.115761250804E+04   -0.17810E-05   -0.79876E-06  1896   0.157E-02    0.109E-02
DAV:  13    -0.115761251047E+04   -0.24272E-05   -0.32284E-06  1788   0.958E-03    0.119E-02
DAV:  14    -0.115761251120E+04   -0.73110E-06   -0.17666E-06  1680   0.897E-03
  33 F= -.11653012E+04 E0= -.11652985E+04  d E =-.213035E-02  mag=    13.0434
 trial-energy change:   -0.002130  1 .order   -0.002136   -0.002799   -0.001472
 step:   0.2641(harm=  0.2566)  dis= 0.00449  next Energy= -1165.302086 (dE=-0.298E-02)
 bond charge predicted
       N       E                     dE             d eps       ncg     rms          rms(c)
DAV:   1    -0.115761180694E+04    0.70353E-03   -0.73412E-01  1992   0.181E+00    0.239E-01
DAV:   2    -0.115761378479E+04   -0.19779E-02   -0.16827E-02  2916   0.306E-01    0.497E-01
DAV:   3    -0.115761450685E+04   -0.72206E-03   -0.40149E-03  3336   0.271E-01    0.745E-01
DAV:   4    -0.115761363753E+04    0.86932E-03   -0.40257E-03  3012   0.172E-01    0.373E-01
DAV:   5    -0.115761343387E+04    0.20366E-03   -0.15834E-03  2976   0.103E-01    0.118E-01
DAV:   6    -0.115761359794E+04   -0.16407E-03   -0.41383E-04  2928   0.107E-01    0.166E-01
DAV:   7    -0.115761354440E+04    0.53539E-04   -0.35565E-04  3144   0.111E-01    0.119E-01
DAV:   8    -0.115761357176E+04   -0.27354E-04   -0.25876E-04  3120   0.894E-02    0.997E-02
DAV:   9    -0.115761355634E+04    0.15411E-04   -0.16799E-04  3048   0.661E-02    0.737E-02
DAV:  10    -0.115761355662E+04   -0.27913E-06   -0.62839E-05  2520   0.366E-02    0.565E-02
DAV:  11    -0.115761355523E+04    0.13921E-05   -0.30479E-05  2136   0.269E-02    0.276E-02
DAV:  12    -0.115761355804E+04   -0.28111E-05   -0.10589E-05  1956   0.185E-02    0.131E-02
DAV:  13    -0.115761356233E+04   -0.42925E-05   -0.44567E-06  1788   0.115E-02    0.147E-02
DAV:  14    -0.115761356398E+04   -0.16454E-05   -0.29443E-06  1740   0.112E-02    0.119E-02
DAV:  15    -0.115761356663E+04   -0.26506E-05   -0.97622E-07  1500   0.631E-03    0.787E-03
DAV:  16    -0.115761356865E+04   -0.20208E-05   -0.68349E-07  1500   0.486E-03    0.622E-03
DAV:  17    -0.115761356989E+04   -0.12422E-05   -0.56985E-07  1440   0.472E-03    0.495E-03
DAV:  18    -0.115761357214E+04   -0.22475E-05   -0.31161E-07  1440   0.310E-03    0.430E-03
DAV:  19    -0.115761357446E+04   -0.23143E-05   -0.25818E-07  1476   0.274E-03    0.289E-03
DAV:  20    -0.115761357686E+04   -0.24068E-05   -0.20823E-07  1428   0.229E-03    0.305E-03
DAV:  21    -0.115761357835E+04   -0.14887E-05   -0.18480E-07  1512   0.218E-03    0.179E-03
DAV:  22    -0.115761357995E+04   -0.15999E-05   -0.13832E-07  1428   0.112E-03    0.143E-03
DAV:  23    -0.115761358086E+04   -0.90512E-06   -0.84798E-08  1464   0.979E-04
  34 F= -.11653021E+04 E0= -.11652993E+04  d E =-.296154E-02  mag=    13.0446
 curvature:  -0.76 expect dE=-0.176E-01 dE for cont linesearch -0.189E-05
 trial: gam= 1.01440 g(F)=  0.231E-01 g(S)=  0.000E+00 ort =-0.583E-03 (trialstep = 0.126E+00)
 search vector abs. value=  0.163E+00
 bond charge predicted
       N       E                     dE             d eps       ncg     rms          rms(c)
DAV:   1    -0.115761411498E+04   -0.53503E-03   -0.69386E-01  1992   0.177E+00    0.226E-01
DAV:   2    -0.115761585062E+04   -0.17356E-02   -0.15231E-02  2964   0.291E-01    0.416E-01
DAV:   3    -0.115761671624E+04   -0.86561E-03   -0.34238E-03  3432   0.275E-01    0.739E-01
DAV:   4    -0.115761580235E+04    0.91389E-03   -0.31149E-03  3036   0.175E-01    0.325E-01
DAV:   5    -0.115761565848E+04    0.14387E-03   -0.13672E-03  3036   0.107E-01    0.137E-01
DAV:   6    -0.115761581494E+04   -0.15647E-03   -0.59075E-04  3216   0.103E-01    0.180E-01
DAV:   7    -0.115761573834E+04    0.76599E-04   -0.34103E-04  3192   0.103E-01    0.113E-01
DAV:   8    -0.115761576168E+04   -0.23337E-04   -0.21299E-04  3180   0.883E-02    0.898E-02
DAV:   9    -0.115761575504E+04    0.66436E-05   -0.14311E-04  3144   0.655E-02    0.827E-02
DAV:  10    -0.115761574584E+04    0.91977E-05   -0.61557E-05  2616   0.380E-02    0.509E-02
DAV:  11    -0.115761574650E+04   -0.66070E-06   -0.24114E-05  2232   0.246E-02    0.248E-02
DAV:  12    -0.115761574879E+04   -0.22898E-05   -0.14096E-05  1956   0.174E-02    0.171E-02
DAV:  13    -0.115761575084E+04   -0.20537E-05   -0.69857E-06  1836   0.129E-02    0.135E-02
DAV:  14    -0.115761575256E+04   -0.17148E-05   -0.18757E-06  1608   0.855E-03    0.637E-03
DAV:  15    -0.115761575447E+04   -0.19149E-05   -0.44775E-07  1464   0.424E-03    0.786E-03
DAV:  16    -0.115761575526E+04   -0.78305E-06   -0.52665E-07  1488   0.508E-03
  35 F= -.11653043E+04 E0= -.11653015E+04  d E =-.222895E-02  mag=    13.0457
 trial-energy change:   -0.002229  1 .order   -0.002230   -0.002842   -0.001618
 step:   0.2932(harm=  0.2932)  dis= 0.00495  next Energy= -1165.305363 (dE=-0.330E-02)
 bond charge predicted
       N       E                     dE             d eps       ncg     rms          rms(c)
DAV:   1    -0.115761388573E+04    0.18687E-02   -0.12125E+00  1992   0.233E+00    0.299E-01
DAV:   2    -0.115761692739E+04   -0.30417E-02   -0.26601E-02  2952   0.382E-01    0.531E-01
DAV:   3    -0.115761853351E+04   -0.16061E-02   -0.60120E-03  3432   0.364E-01    0.989E-01
DAV:   4    -0.115761684224E+04    0.16913E-02   -0.51495E-03  3036   0.233E-01    0.411E-01
DAV:   5    -0.115761662183E+04    0.22041E-03   -0.23001E-03  3012   0.140E-01    0.187E-01
DAV:   6    -0.115761686958E+04   -0.24775E-03   -0.10962E-03  3264   0.135E-01    0.240E-01
DAV:   7    -0.115761672942E+04    0.14016E-03   -0.60266E-04  3180   0.136E-01    0.150E-01
DAV:   8    -0.115761676266E+04   -0.33246E-04   -0.37228E-04  3192   0.116E-01    0.119E-01
DAV:   9    -0.115761675001E+04    0.12652E-04   -0.25174E-04  3216   0.868E-02    0.111E-01
DAV:  10    -0.115761673313E+04    0.16878E-04   -0.10999E-04  2988   0.505E-02    0.672E-02
DAV:  11    -0.115761673406E+04   -0.92920E-06   -0.43539E-05  2208   0.326E-02    0.327E-02
DAV:  12    -0.115761673841E+04   -0.43486E-05   -0.25120E-05  2100   0.228E-02    0.232E-02
DAV:  13    -0.115761674225E+04   -0.38426E-05   -0.12249E-05  1872   0.171E-02    0.183E-02
DAV:  14    -0.115761674583E+04   -0.35796E-05   -0.32797E-06  1692   0.110E-02    0.828E-03
DAV:  15    -0.115761674949E+04   -0.36586E-05   -0.73111E-07  1524   0.527E-03    0.971E-03
DAV:  16    -0.115761675113E+04   -0.16356E-05   -0.88214E-07  1500   0.648E-03    0.760E-03
DAV:  17    -0.115761675483E+04   -0.37077E-05   -0.58807E-07  1452   0.417E-03    0.470E-03
DAV:  18    -0.115761675837E+04   -0.35307E-05   -0.39055E-07  1464   0.349E-03    0.544E-03
DAV:  19    -0.115761676047E+04   -0.21069E-05   -0.32415E-07  1464   0.354E-03    0.268E-03
DAV:  20    -0.115761676397E+04   -0.34955E-05   -0.18461E-07  1428   0.202E-03    0.219E-03
DAV:  21    -0.115761676640E+04   -0.24301E-05   -0.18847E-07  1524   0.188E-03    0.159E-03
DAV:  22    -0.115761676799E+04   -0.15938E-05   -0.13194E-07  1452   0.116E-03    0.160E-03
DAV:  23    -0.115761676927E+04   -0.12816E-05   -0.88135E-08  1452   0.116E-03    0.133E-03
DAV:  24    -0.115761677153E+04   -0.22585E-05   -0.72565E-08  1416   0.793E-04    0.870E-04
DAV:  25    -0.115761677357E+04   -0.20374E-05   -0.72914E-08  1476   0.676E-04    0.111E-03
DAV:  26    -0.115761677505E+04   -0.14775E-05   -0.56802E-08  1464   0.877E-04    0.880E-04
DAV:  27    -0.115761677675E+04   -0.17062E-05   -0.52978E-08  1404   0.654E-04    0.700E-04
DAV:  28    -0.115761677811E+04   -0.13621E-05   -0.62080E-08  1452   0.472E-04    0.674E-04
DAV:  29    -0.115761677875E+04   -0.63539E-06   -0.37741E-08  1452   0.389E-04
  36 F= -.11653054E+04 E0= -.11653026E+04  d E =-.332538E-02  mag=    13.0479
 curvature:  -1.06 expect dE=-0.332E-01 dE for cont linesearch -0.718E-07
 trial: gam= 1.28997 g(F)=  0.313E-01 g(S)=  0.000E+00 ort = 0.105E-03 (trialstep = 0.860E-01)
 search vector abs. value=  0.303E+00
 bond charge predicted
       N       E                     dE             d eps       ncg     rms          rms(c)
DAV:   1    -0.115761737301E+04   -0.59489E-03   -0.60070E-01  1992   0.164E+00    0.208E-01
DAV:   2    -0.115761906031E+04   -0.16873E-02   -0.13406E-02  3012   0.297E-01    0.423E-01
DAV:   3    -0.115761942242E+04   -0.36211E-03   -0.30910E-03  3348   0.293E-01    0.623E-01
DAV:   4    -0.115761900745E+04    0.41497E-03   -0.28175E-03  3144   0.187E-01    0.360E-01
DAV:   5    -0.115761871201E+04    0.29544E-03   -0.17779E-03  3114   0.133E-01    0.174E-01
DAV:   6    -0.115761873216E+04   -0.20149E-04   -0.55250E-04  3108   0.823E-02    0.112E-01
DAV:   7    -0.115761877112E+04   -0.38966E-04   -0.21884E-04  3012   0.742E-02    0.123E-01
DAV:   8    -0.115761873510E+04    0.36023E-04   -0.14833E-04  3108   0.731E-02    0.464E-02
DAV:   9    -0.115761877013E+04   -0.35028E-04   -0.10412E-04  3024   0.530E-02    0.884E-02
DAV:  10    -0.115761874661E+04    0.23521E-04   -0.63828E-05  2496   0.428E-02    0.252E-02
DAV:  11    -0.115761875292E+04   -0.63143E-05   -0.16925E-05  1884   0.179E-02    0.212E-02
DAV:  12    -0.115761875444E+04   -0.15192E-05   -0.13831E-05  1896   0.149E-02    0.185E-02
DAV:  13    -0.115761875534E+04   -0.90191E-06   -0.47522E-06  1680   0.105E-02
  37 F= -.11653076E+04 E0= -.11653048E+04  d E =-.219215E-02  mag=    13.0482
 trial-energy change:   -0.002192  1 .order   -0.002203   -0.002699   -0.001706
 step:   0.2703(harm=  0.2335)  dis= 0.00610  next Energy= -1165.309307 (dE=-0.392E-02)
 bond charge predicted
       N       E                     dE             d eps       ncg     rms          rms(c)
DAV:   1    -0.115761329964E+04    0.54548E-02   -0.27613E+00  1992   0.352E+00    0.447E-01
DAV:   2    -0.115762137062E+04   -0.80710E-02   -0.61883E-02  3012   0.640E-01    0.912E-01
DAV:   3    -0.115762287320E+04   -0.15026E-02   -0.14080E-02  3360   0.631E-01    0.131E+00
DAV:   4    -0.115762103001E+04    0.18432E-02   -0.11768E-02  3192   0.402E-01    0.771E-01
DAV:   5    -0.115761963298E+04    0.13970E-02   -0.83641E-03  3096   0.285E-01    0.378E-01
DAV:   6    -0.115761965556E+04   -0.22585E-04   -0.25794E-03  3180   0.176E-01    0.240E-01
DAV:   7    -0.115761978747E+04   -0.13190E-03   -0.13059E-03  3012   0.159E-01    0.256E-01
DAV:   8    -0.115761961027E+04    0.17719E-03   -0.90073E-04  3096   0.156E-01    0.101E-01
DAV:   9    -0.115761974388E+04   -0.13361E-03   -0.47745E-04  3144   0.118E-01    0.191E-01
DAV:  10    -0.115761964025E+04    0.10363E-03   -0.28784E-04  3096   0.951E-02    0.534E-02
DAV:  11    -0.115761966414E+04   -0.23890E-04   -0.80628E-05  2604   0.391E-02    0.474E-02
DAV:  12    -0.115761966978E+04   -0.56358E-05   -0.68899E-05  2292   0.324E-02    0.411E-02
DAV:  13    -0.115761967397E+04   -0.41881E-05   -0.23601E-05  2076   0.229E-02    0.184E-02
DAV:  14    -0.115761968175E+04   -0.77819E-05   -0.38279E-06  1800   0.120E-02    0.150E-02
DAV:  15    -0.115761968594E+04   -0.41916E-05   -0.25790E-06  1752   0.105E-02    0.158E-02
DAV:  16    -0.115761969014E+04   -0.42040E-05   -0.18258E-06  1668   0.866E-03    0.777E-03
DAV:  17    -0.115761969872E+04   -0.85734E-05   -0.11533E-06  1476   0.468E-03    0.636E-03
DAV:  18    -0.115761970523E+04   -0.65160E-05   -0.96209E-07  1632   0.591E-03    0.889E-03
DAV:  19    -0.115761971085E+04   -0.56175E-05   -0.65799E-07  1476   0.517E-03    0.405E-03
DAV:  20    -0.115761971862E+04   -0.77713E-05   -0.51799E-07  1548   0.279E-03    0.290E-03
DAV:  21    -0.115761972139E+04   -0.27644E-05   -0.33761E-07  1524   0.268E-03    0.300E-03
DAV:  22    -0.115761972558E+04   -0.41965E-05   -0.21779E-07  1416   0.202E-03    0.169E-03
DAV:  23    -0.115761973041E+04   -0.48223E-05   -0.21223E-07  1512   0.128E-03    0.169E-03
DAV:  24    -0.115761973320E+04   -0.27972E-05   -0.16793E-07  1464   0.155E-03    0.170E-03
DAV:  25    -0.115761973763E+04   -0.44239E-05   -0.16649E-07  1512   0.142E-03    0.127E-03
DAV:  26    -0.115761974215E+04   -0.45246E-05   -0.20080E-07  1464   0.107E-03    0.122E-03
DAV:  27    -0.115761974373E+04   -0.15751E-05   -0.14656E-07  1524   0.993E-04    0.117E-03
DAV:  28    -0.115761974596E+04   -0.22314E-05   -0.12834E-07  1392   0.833E-04    0.112E-03
DAV:  29    -0.115761974786E+04   -0.19054E-05   -0.10292E-07  1476   0.828E-04    0.997E-04
DAV:  30    -0.115761974967E+04   -0.18100E-05   -0.11896E-07  1500   0.791E-04    0.838E-04
DAV:  31    -0.115761975060E+04   -0.92221E-06   -0.76566E-08  1512   0.550E-04
  38 F= -.11653090E+04 E0= -.11653062E+04  d E =-.361947E-02  mag=    13.0494
 curvature:  -1.06 expect dE=-0.243E-01 dE for cont linesearch -0.737E-04
 ZBRENT: interpolating
 opt :   0.2356  next Energy= -1165.309088 (dE=-0.370E-02)
 bond charge predicted
       N       E                     dE             d eps       ncg     rms          rms(c)
DAV:   1    -0.115761968155E+04    0.68127E-04   -0.97720E-02  2010   0.662E-01    0.839E-02
DAV:   2    -0.115761994024E+04   -0.25869E-03   -0.21786E-03  2976   0.119E-01    0.171E-01
DAV:   3    -0.115762000488E+04   -0.64645E-04   -0.52800E-04  3300   0.118E-01    0.256E-01
DAV:   4    -0.115761993616E+04    0.68718E-04   -0.52506E-04  3072   0.753E-02    0.145E-01
DAV:   5    -0.115761989078E+04    0.45379E-04   -0.27283E-04  3060   0.545E-02    0.686E-02
DAV:   6    -0.115761989927E+04   -0.84897E-05   -0.85778E-05  2700   0.328E-02    0.460E-02
DAV:   7    -0.115761990866E+04   -0.93871E-05   -0.36617E-05  2712   0.302E-02    0.511E-02
DAV:   8    -0.115761990372E+04    0.49385E-05   -0.25434E-05  2652   0.299E-02    0.189E-02
DAV:   9    -0.115761991133E+04   -0.76077E-05   -0.17691E-05  2232   0.213E-02    0.364E-02
DAV:  10    -0.115761990695E+04    0.43822E-05   -0.11265E-05  1764   0.174E-02    0.109E-02
DAV:  11    -0.115761990839E+04   -0.14442E-05   -0.28484E-06  1620   0.756E-03    0.882E-03
DAV:  12    -0.115761990872E+04   -0.32796E-06   -0.23009E-06  1572   0.634E-03
  39 F= -.11653091E+04 E0= -.11653063E+04  d E =-.369942E-02  mag=    13.0493
 curvature:  -1.14 expect dE=-0.192E-01 dE for cont linesearch -0.100E-08
 trial: gam= 0.56411 g(F)=  0.168E-01 g(S)=  0.000E+00 ort =-0.163E-04 (trialstep = 0.116E+00)
 search vector abs. value=  0.113E+00
 bond charge predicted
       N       E                     dE             d eps       ncg     rms          rms(c)
DAV:   1    -0.115762061020E+04   -0.70180E-03   -0.36808E-01  1992   0.129E+00    0.170E-01
DAV:   2    -0.115762163338E+04   -0.10232E-02   -0.84825E-03  3048   0.231E-01    0.348E-01
DAV:   3    -0.115762202785E+04   -0.39447E-03   -0.23908E-03  3408   0.218E-01    0.557E-01
DAV:   4    -0.115762158060E+04    0.44725E-03   -0.22791E-03  2988   0.145E-01    0.271E-01
DAV:   5    -0.115762145003E+04    0.13057E-03   -0.86506E-04  2994   0.961E-02    0.989E-02
DAV:   6    -0.115762150552E+04   -0.55496E-04   -0.25022E-04  3096   0.642E-02    0.941E-02
DAV:   7    -0.115762150572E+04   -0.19795E-06   -0.10546E-04  3120   0.562E-02    0.724E-02
DAV:   8    -0.115762151020E+04   -0.44740E-05   -0.77275E-05  3096   0.533E-02    0.501E-02
DAV:   9    -0.115762152235E+04   -0.12155E-04   -0.65686E-05  2868   0.430E-02    0.646E-02
DAV:  10    -0.115762151397E+04    0.83867E-05   -0.41528E-05  2244   0.314E-02    0.356E-02
DAV:  11    -0.115762151502E+04   -0.10569E-05   -0.12217E-05  1860   0.175E-02    0.181E-02
DAV:  12    -0.115762151572E+04   -0.70041E-06   -0.71329E-06  1836   0.120E-02
  40 F= -.11653108E+04 E0= -.11653080E+04  d E =-.174691E-02  mag=    13.0498
 ZBRENT: can't locate minimum, use default step
 trial-energy change:   -0.001747  1 .order   -0.001752   -0.001945   -0.001558
 step:   0.4635(harm=  0.5830)  dis= 0.00655  next Energy= -1165.313981 (dE=-0.489E-02)
 bond charge predicted
       N       E                     dE             d eps       ncg     rms          rms(c)
DAV:   1    -0.115761582026E+04    0.56948E-02   -0.33126E+00  1992   0.387E+00    0.509E-01
DAV:   2    -0.115762523774E+04   -0.94175E-02   -0.76161E-02  3012   0.687E-01    0.975E-01
DAV:   3    -0.115762930514E+04   -0.40674E-02   -0.21632E-02  3468   0.664E-01    0.168E+00
DAV:   4    -0.115762486978E+04    0.44354E-02   -0.17171E-02  3060   0.437E-01    0.761E-01
DAV:   5    -0.115762374807E+04    0.11217E-02   -0.74857E-03  3060   0.283E-01    0.311E-01
DAV:   6    -0.115762405393E+04   -0.30586E-03   -0.24929E-03  3132   0.188E-01    0.293E-01
DAV:   7    -0.115762398227E+04    0.71666E-04   -0.96345E-04  3108   0.163E-01    0.210E-01
DAV:   8    -0.115762399134E+04   -0.90713E-05   -0.70191E-04  3240   0.158E-01    0.155E-01
DAV:   9    -0.115762406402E+04   -0.72684E-04   -0.64809E-04  3204   0.132E-01    0.197E-01
DAV:  10    -0.115762398980E+04    0.74224E-04   -0.39245E-04  3144   0.949E-02    0.107E-01
DAV:  11    -0.115762398880E+04    0.99855E-06   -0.12381E-04  2784   0.554E-02    0.559E-02
DAV:  12    -0.115762399486E+04   -0.60639E-05   -0.66471E-05  2472   0.354E-02    0.406E-02
DAV:  13    -0.115762399781E+04   -0.29438E-05   -0.29601E-05  2244   0.254E-02    0.211E-02
DAV:  14    -0.115762400543E+04   -0.76277E-05   -0.58732E-06  1812   0.140E-02    0.128E-02
DAV:  15    -0.115762401250E+04   -0.70616E-05   -0.21377E-06  1692   0.940E-03    0.145E-02
DAV:  16    -0.115762401535E+04   -0.28525E-05   -0.18861E-06  1704   0.905E-03    0.118E-02
DAV:  17    -0.115762401892E+04   -0.35726E-05   -0.10290E-06  1512   0.602E-03    0.767E-03
DAV:  18    -0.115762402366E+04   -0.47370E-05   -0.59381E-07  1500   0.371E-03    0.750E-03
DAV:  19    -0.115762402681E+04   -0.31547E-05   -0.54777E-07  1464   0.471E-03    0.640E-03
DAV:  20    -0.115762403257E+04   -0.57554E-05   -0.31219E-07  1476   0.327E-03    0.320E-03
DAV:  21    -0.115762403795E+04   -0.53824E-05   -0.34659E-07  1464   0.242E-03    0.361E-03
DAV:  22    -0.115762403996E+04   -0.20087E-05   -0.23878E-07  1488   0.227E-03    0.294E-03
DAV:  23    -0.115762404290E+04   -0.29452E-05   -0.14659E-07  1464   0.158E-03    0.269E-03
DAV:  24    -0.115762404628E+04   -0.33759E-05   -0.14705E-07  1464   0.151E-03    0.217E-03
DAV:  25    -0.115762404992E+04   -0.36362E-05   -0.13474E-07  1464   0.122E-03    0.212E-03
DAV:  26    -0.115762405234E+04   -0.24260E-05   -0.12941E-07  1476   0.150E-03    0.197E-03
DAV:  27    -0.115762405584E+04   -0.34967E-05   -0.13281E-07  1464   0.115E-03    0.134E-03
DAV:  28    -0.115762405787E+04   -0.20300E-05   -0.14436E-07  1476   0.723E-04    0.140E-03
DAV:  29    -0.115762405875E+04   -0.87581E-06   -0.87529E-08  1464   0.792E-04
  41 F= -.11653138E+04 E0= -.11653109E+04  d E =-.469447E-02  mag=    13.0522
 curvature:  -1.84 expect dE=-0.225E-01 dE for cont linesearch -0.196E-03
 ZBRENT: extrapolating
 opt :   0.5849  next Energy= -1165.313994 (dE=-0.491E-02)
 bond charge predicted
       N       E                     dE             d eps       ncg     rms          rms(c)
DAV:   1    -0.115762313331E+04    0.92456E-03   -0.40348E-01  1992   0.135E+00    0.178E-01
DAV:   2    -0.115762424327E+04   -0.11100E-02   -0.92720E-03  3036   0.242E-01    0.352E-01
DAV:   3    -0.115762470079E+04   -0.45753E-03   -0.24705E-03  3432   0.231E-01    0.581E-01
DAV:   4    -0.115762420311E+04    0.49768E-03   -0.23323E-03  3048   0.152E-01    0.281E-01
DAV:   5    -0.115762405643E+04    0.14669E-03   -0.93832E-04  2940   0.100E-01    0.105E-01
DAV:   6    -0.115762411435E+04   -0.57927E-04   -0.28568E-04  3084   0.664E-02    0.101E-01
DAV:   7    -0.115762411163E+04    0.27236E-05   -0.11796E-04  3108   0.574E-02    0.744E-02
DAV:   8    -0.115762411757E+04   -0.59400E-05   -0.87534E-05  3120   0.555E-02    0.541E-02
DAV:   9    -0.115762412996E+04   -0.12389E-04   -0.75544E-05  2964   0.453E-02    0.679E-02
DAV:  10    -0.115762412098E+04    0.89795E-05   -0.46738E-05  2292   0.328E-02    0.365E-02
DAV:  11    -0.115762412241E+04   -0.14351E-05   -0.14227E-05  1920   0.190E-02    0.194E-02
DAV:  12    -0.115762412361E+04   -0.11924E-05   -0.82471E-06  1812   0.128E-02    0.140E-02
DAV:  13    -0.115762412437E+04   -0.76251E-06   -0.33033E-06  1644   0.897E-03
  42 F= -.11653140E+04 E0= -.11653111E+04  d E =-.489603E-02  mag=    13.0528
 curvature:  -1.97 expect dE=-0.361E-01 dE for cont linesearch -0.377E-07
 trial: gam= 1.08409 g(F)=  0.183E-01 g(S)=  0.000E+00 ort =-0.465E-04 (trialstep = 0.157E+00)
 search vector abs. value=  0.151E+00
 bond charge predicted
       N       E                     dE             d eps       ncg     rms          rms(c)
DAV:   1    -0.115762402816E+04    0.95451E-04   -0.89796E-01  1992   0.202E+00    0.258E-01
DAV:   2    -0.115762649375E+04   -0.24656E-02   -0.21076E-02  2964   0.347E-01    0.483E-01
DAV:   3    -0.115762744379E+04   -0.95005E-03   -0.44220E-03  3516   0.318E-01    0.812E-01
DAV:   4    -0.115762636882E+04    0.10750E-02   -0.38343E-03  3072   0.205E-01    0.368E-01
DAV:   5    -0.115762615200E+04    0.21682E-03   -0.18603E-03  3042   0.130E-01    0.170E-01
DAV:   6    -0.115762632515E+04   -0.17315E-03   -0.86692E-04  3210   0.114E-01    0.203E-01
DAV:   7    -0.115762623445E+04    0.90705E-04   -0.43293E-04  3204   0.112E-01    0.132E-01
DAV:   8    -0.115762624064E+04   -0.61912E-05   -0.27023E-04  3252   0.985E-02    0.931E-02
DAV:   9    -0.115762624876E+04   -0.81220E-05   -0.15839E-04  3108   0.726E-02    0.990E-02
DAV:  10    -0.115762623379E+04    0.14974E-04   -0.78935E-05  2712   0.459E-02    0.600E-02
DAV:  11    -0.115762623499E+04   -0.12025E-05   -0.27233E-05  2040   0.249E-02    0.265E-02
DAV:  12    -0.115762623802E+04   -0.30298E-05   -0.16247E-05  2004   0.180E-02    0.188E-02
DAV:  13    -0.115762624135E+04   -0.33301E-05   -0.68706E-06  1788   0.126E-02    0.106E-02
DAV:  14    -0.115762624535E+04   -0.40013E-05   -0.18721E-06  1680   0.828E-03    0.668E-03
DAV:  15    -0.115762624899E+04   -0.36435E-05   -0.79985E-07  1476   0.568E-03    0.833E-03
DAV:  16    -0.115762625016E+04   -0.11684E-05   -0.44842E-07  1512   0.471E-03    0.606E-03
DAV:  17    -0.115762625155E+04   -0.13913E-05   -0.21827E-07  1440   0.291E-03    0.441E-03
DAV:  18    -0.115762625358E+04   -0.20307E-05   -0.18866E-07  1440   0.228E-03    0.448E-03
DAV:  19    -0.115762625582E+04   -0.22377E-05   -0.22673E-07  1440   0.288E-03    0.377E-03
DAV:  20    -0.115762625830E+04   -0.24768E-05   -0.14031E-07  1464   0.231E-03    0.245E-03
DAV:  21    -0.115762626076E+04   -0.24566E-05   -0.14633E-07  1500   0.181E-03    0.181E-03
DAV:  22    -0.115762626252E+04   -0.17609E-05   -0.10684E-07  1476   0.106E-03    0.169E-03
DAV:  23    -0.115762626353E+04   -0.10120E-05   -0.84360E-08  1440   0.111E-03    0.183E-03
DAV:  24    -0.115762626494E+04   -0.14155E-05   -0.62670E-08  1404   0.970E-04    0.134E-03
DAV:  25    -0.115762626699E+04   -0.20443E-05   -0.71437E-08  1464   0.709E-04    0.134E-03
DAV:  26    -0.115762626808E+04   -0.10900E-05   -0.57117E-08  1488   0.953E-04    0.133E-03
DAV:  27    -0.115762626998E+04   -0.19002E-05   -0.68409E-08  1392   0.826E-04    0.774E-04
DAV:  28    -0.115762627083E+04   -0.85343E-06   -0.66203E-08  1500   0.572E-04
  43 F= -.11653162E+04 E0= -.11653133E+04  d E =-.221949E-02  mag=    13.0541
 trial-energy change:   -0.002219  1 .order   -0.002211   -0.002867   -0.001556
 step:   0.3298(harm=  0.3431)  dis= 0.00556  next Energy= -1165.317072 (dE=-0.309E-02)
 bond charge predicted
       N       E                     dE             d eps       ncg     rms          rms(c)
DAV:   1    -0.115762439235E+04    0.18776E-02   -0.10900E+00  1992   0.222E+00    0.285E-01
DAV:   2    -0.115762741059E+04   -0.30182E-02   -0.25608E-02  2952   0.383E-01    0.544E-01
DAV:   3    -0.115762852595E+04   -0.11154E-02   -0.59387E-03  3492   0.350E-01    0.896E-01
DAV:   4    -0.115762721926E+04    0.13067E-02   -0.48804E-03  3072   0.226E-01    0.393E-01
DAV:   5    -0.115762698273E+04    0.23653E-03   -0.21376E-03  3072   0.145E-01    0.187E-01
DAV:   6    -0.115762718129E+04   -0.19856E-03   -0.10359E-03  3192   0.125E-01    0.224E-01
DAV:   7    -0.115762707011E+04    0.11119E-03   -0.52351E-04  3192   0.124E-01    0.146E-01
DAV:   8    -0.115762707699E+04   -0.68810E-05   -0.32709E-04  3276   0.108E-01    0.102E-01
DAV:   9    -0.115762708468E+04   -0.76911E-05   -0.19117E-04  3168   0.802E-02    0.109E-01
DAV:  10    -0.115762706645E+04    0.18233E-04   -0.91992E-05  2880   0.502E-02    0.674E-02
DAV:  11    -0.115762706634E+04    0.10860E-06   -0.32090E-05  2016   0.276E-02    0.303E-02
DAV:  12    -0.115762706952E+04   -0.31864E-05   -0.19584E-05  2076   0.196E-02    0.203E-02
DAV:  13    -0.115762707260E+04   -0.30763E-05   -0.84621E-06  1812   0.137E-02    0.118E-02
DAV:  14    -0.115762707640E+04   -0.37958E-05   -0.19925E-06  1692   0.839E-03    0.619E-03
DAV:  15    -0.115762708001E+04   -0.36183E-05   -0.86309E-07  1464   0.574E-03    0.881E-03
DAV:  16    -0.115762708119E+04   -0.11761E-05   -0.51169E-07  1524   0.503E-03    0.591E-03
DAV:  17    -0.115762708267E+04   -0.14788E-05   -0.22845E-07  1452   0.287E-03    0.452E-03
DAV:  18    -0.115762708442E+04   -0.17543E-05   -0.21020E-07  1464   0.247E-03    0.462E-03
DAV:  19    -0.115762708666E+04   -0.22362E-05   -0.23531E-07  1428   0.295E-03    0.389E-03
DAV:  20    -0.115762708867E+04   -0.20106E-05   -0.14725E-07  1476   0.245E-03    0.227E-03
DAV:  21    -0.115762709098E+04   -0.23088E-05   -0.13953E-07  1488   0.167E-03    0.159E-03
DAV:  22    -0.115762709242E+04   -0.14421E-05   -0.10540E-07  1476   0.101E-03    0.169E-03
DAV:  23    -0.115762709335E+04   -0.92667E-06   -0.79890E-08  1428   0.111E-03
  44 F= -.11653171E+04 E0= -.11653141E+04  d E =-.312324E-02  mag=    13.0552
 curvature:  -1.41 expect dE=-0.482E-01 dE for cont linesearch -0.406E-05
 trial: gam= 1.82302 g(F)=  0.341E-01 g(S)=  0.000E+00 ort = 0.659E-03 (trialstep = 0.537E-01)
 search vector abs. value=  0.539E+00
 bond charge predicted
       N       E                     dE             d eps       ncg     rms          rms(c)
DAV:   1    -0.115762780361E+04   -0.71119E-03   -0.37800E-01  1992   0.132E+00    0.165E-01
DAV:   2    -0.115762880740E+04   -0.10038E-02   -0.87535E-03  2976   0.226E-01    0.299E-01
DAV:   3    -0.115762921271E+04   -0.40531E-03   -0.16639E-03  3444   0.209E-01    0.522E-01
DAV:   4    -0.115762877780E+04    0.43491E-03   -0.15016E-03  3024   0.136E-01    0.242E-01
DAV:   5    -0.115762867279E+04    0.10501E-03   -0.82163E-04  2976   0.871E-02    0.111E-01
DAV:   6    -0.115762872774E+04   -0.54951E-04   -0.32017E-04  3066   0.674E-02    0.109E-01
DAV:   7    -0.115762871539E+04    0.12351E-04   -0.14556E-04  3132   0.624E-02    0.826E-02
DAV:   8    -0.115762871405E+04    0.13472E-05   -0.96140E-05  3192   0.579E-02    0.516E-02
DAV:   9    -0.115762872388E+04   -0.98334E-05   -0.48862E-05  2880   0.423E-02    0.594E-02
DAV:  10    -0.115762871784E+04    0.60384E-05   -0.26239E-05  2088   0.296E-02    0.333E-02
DAV:  11    -0.115762872003E+04   -0.21919E-05   -0.86293E-06  1776   0.151E-02    0.161E-02
DAV:  12    -0.115762872155E+04   -0.15191E-05   -0.66486E-06  1812   0.116E-02    0.122E-02
DAV:  13    -0.115762872329E+04   -0.17385E-05   -0.28553E-06  1596   0.797E-03    0.701E-03
DAV:  14    -0.115762872520E+04   -0.19121E-05   -0.77957E-07  1500   0.542E-03    0.399E-03
DAV:  15    -0.115762872684E+04   -0.16408E-05   -0.33691E-07  1464   0.343E-03    0.473E-03
DAV:  16    -0.115762872741E+04   -0.56479E-06   -0.19901E-07  1488   0.278E-03
  45 F= -.11653188E+04 E0= -.11653158E+04  d E =-.166549E-02  mag=    13.0554
 ZBRENT: can't locate minimum, use default step
 trial-energy change:   -0.001665  1 .order   -0.001665   -0.001897   -0.001433
 step:   0.2149(harm=  0.2199)  dis= 0.00679  next Energy= -1165.320990 (dE=-0.388E-02)
 bond charge predicted
       N       E                     dE             d eps       ncg     rms          rms(c)
DAV:   1    -0.115762252389E+04    0.62030E-02   -0.34020E+00  1992   0.395E+00    0.495E-01
DAV:   2    -0.115763198061E+04   -0.94567E-02   -0.79061E-02  3000   0.679E-01    0.907E-01
DAV:   3    -0.115763553289E+04   -0.35523E-02   -0.16070E-02  3504   0.630E-01    0.156E+00
DAV:   4    -0.115763155269E+04    0.39802E-02   -0.12178E-02  3084   0.409E-01    0.684E-01
DAV:   5    -0.115763066497E+04    0.88772E-03   -0.70992E-03  3000   0.262E-01    0.341E-01
DAV:   6    -0.115763101736E+04   -0.35239E-03   -0.30607E-03  3180   0.200E-01    0.333E-01
DAV:   7    -0.115763084514E+04    0.17222E-03   -0.13279E-03  3168   0.188E-01    0.243E-01
DAV:   8    -0.115763079846E+04    0.46685E-04   -0.84332E-04  3252   0.173E-01    0.155E-01
DAV:   9    -0.115763084917E+04   -0.50713E-04   -0.43510E-04  3144   0.128E-01    0.178E-01
DAV:  10    -0.115763079459E+04    0.54578E-04   -0.21819E-04  3048   0.905E-02    0.101E-01
DAV:  11    -0.115763079910E+04   -0.45109E-05   -0.81885E-05  2688   0.459E-02    0.469E-02
DAV:  12    -0.115763080712E+04   -0.80169E-05   -0.56802E-05  2220   0.333E-02    0.368E-02
DAV:  13    -0.115763081556E+04   -0.84372E-05   -0.25839E-05  1992   0.234E-02    0.209E-02
DAV:  14    -0.115763082635E+04   -0.10790E-04   -0.57553E-06  1812   0.151E-02    0.115E-02
DAV:  15    -0.115763083525E+04   -0.89012E-05   -0.24819E-06  1716   0.983E-03    0.141E-02
DAV:  16    -0.115763083877E+04   -0.35223E-05   -0.14260E-06  1680   0.802E-03    0.988E-03
DAV:  17    -0.115763084320E+04   -0.44298E-05   -0.59441E-07  1488   0.495E-03    0.730E-03
DAV:  18    -0.115763085021E+04   -0.70100E-05   -0.57103E-07  1512   0.441E-03    0.758E-03
DAV:  19    -0.115763085787E+04   -0.76585E-05   -0.86050E-07  1500   0.547E-03    0.718E-03
DAV:  20    -0.115763086351E+04   -0.56444E-05   -0.50667E-07  1572   0.453E-03    0.387E-03
DAV:  21    -0.115763086957E+04   -0.60607E-05   -0.37092E-07  1452   0.275E-03    0.252E-03
DAV:  22    -0.115763087378E+04   -0.42045E-05   -0.28957E-07  1524   0.171E-03    0.283E-03
DAV:  23    -0.115763087662E+04   -0.28450E-05   -0.20969E-07  1476   0.175E-03    0.294E-03
DAV:  24    -0.115763088001E+04   -0.33832E-05   -0.15492E-07  1476   0.148E-03    0.210E-03
DAV:  25    -0.115763088516E+04   -0.51576E-05   -0.16784E-07  1464   0.947E-04    0.187E-03
DAV:  26    -0.115763088868E+04   -0.35191E-05   -0.15022E-07  1464   0.123E-03    0.193E-03
DAV:  27    -0.115763089342E+04   -0.47365E-05   -0.17031E-07  1512   0.140E-03    0.155E-03
DAV:  28    -0.115763089662E+04   -0.32028E-05   -0.14820E-07  1488   0.113E-03    0.112E-03
DAV:  29    -0.115763089834E+04   -0.17227E-05   -0.13784E-07  1464   0.627E-04    0.981E-04
DAV:  30    -0.115763089931E+04   -0.96681E-06   -0.78890E-08  1512   0.628E-04
  46 F= -.11653210E+04 E0= -.11653181E+04  d E =-.393060E-02  mag=    13.0558
 curvature:  -1.68 expect dE=-0.215E-01 dE for cont linesearch -0.512E-05
 trial: gam= 0.42400 g(F)=  0.128E-01 g(S)=  0.000E+00 ort = 0.128E-02 (trialstep = 0.859E-01)
 search vector abs. value=  0.111E+00
 bond charge predicted
       N       E                     dE             d eps       ncg     rms          rms(c)
DAV:   1    -0.115763143374E+04   -0.53540E-03   -0.19585E-01  1992   0.942E-01    0.119E-01
DAV:   2    -0.115763194370E+04   -0.50995E-03   -0.44274E-03  3036   0.166E-01    0.219E-01
DAV:   3    -0.115763213515E+04   -0.19145E-03   -0.72319E-04  3372   0.159E-01    0.359E-01
DAV:   4    -0.115763194072E+04    0.19442E-03   -0.47700E-04  3108   0.101E-01    0.185E-01
DAV:   5    -0.115763186710E+04    0.73630E-04   -0.46884E-04  2964   0.627E-02    0.823E-02
DAV:   6    -0.115763189095E+04   -0.23852E-04   -0.15560E-04  2952   0.443E-02    0.622E-02
DAV:   7    -0.115763189606E+04   -0.51091E-05   -0.57477E-05  2880   0.368E-02    0.533E-02
DAV:   8    -0.115763189588E+04    0.17876E-06   -0.38612E-05  2904   0.366E-02    0.326E-02
DAV:   9    -0.115763190579E+04   -0.99134E-05   -0.32895E-05  2292   0.309E-02    0.483E-02
DAV:  10    -0.115763190054E+04    0.52499E-05   -0.20386E-05  1956   0.239E-02    0.187E-02
DAV:  11    -0.115763190283E+04   -0.22894E-05   -0.52566E-06  1704   0.116E-02    0.131E-02
DAV:  12    -0.115763190376E+04   -0.93271E-06   -0.36339E-06  1692   0.905E-03
  47 F= -.11653221E+04 E0= -.11653192E+04  d E =-.107242E-02  mag=    13.0560
 ZBRENT: can't locate minimum, use default step
 trial-energy change:   -0.001072  1 .order   -0.001078   -0.001150   -0.001007
 step:   0.3438(harm=  0.6906)  dis= 0.00504  next Energy= -1165.325658 (dE=-0.462E-02)
 bond charge predicted
       N       E                     dE             d eps       ncg     rms          rms(c)
DAV:   1    -0.115762976869E+04    0.21341E-02   -0.17626E+00  1992   0.282E+00    0.357E-01
DAV:   2    -0.115763456215E+04   -0.47935E-02   -0.39860E-02  3000   0.495E-01    0.635E-01
DAV:   3    -0.115763634295E+04   -0.17808E-02   -0.65801E-03  3432   0.481E-01    0.108E+00
DAV:   4    -0.115763447636E+04    0.18666E-02   -0.35525E-03  3108   0.301E-01    0.523E-01
DAV:   5    -0.115763388545E+04    0.59090E-03   -0.39715E-03  3024   0.187E-01    0.258E-01
DAV:   6    -0.115763399127E+04   -0.10582E-03   -0.15031E-03  3186   0.130E-01    0.191E-01
DAV:   7    -0.115763399650E+04   -0.52271E-05   -0.53687E-04  3072   0.109E-01    0.155E-01
DAV:   8    -0.115763398286E+04    0.13636E-04   -0.35916E-04  3216   0.110E-01    0.101E-01
DAV:   9    -0.115763404832E+04   -0.65459E-04   -0.35041E-04  3072   0.935E-02    0.150E-01
DAV:  10    -0.115763399737E+04    0.50952E-04   -0.20379E-04  3000   0.714E-02    0.552E-02
DAV:  11    -0.115763400945E+04   -0.12086E-04   -0.47648E-05  2184   0.350E-02    0.392E-02
DAV:  12    -0.115763401388E+04   -0.44237E-05   -0.29709E-05  2124   0.261E-02    0.279E-02
DAV:  13    -0.115763401826E+04   -0.43828E-05   -0.13142E-05  1920   0.191E-02    0.183E-02
DAV:  14    -0.115763402489E+04   -0.66361E-05   -0.33364E-06  1752   0.124E-02    0.998E-03
DAV:  15    -0.115763402994E+04   -0.50423E-05   -0.13650E-06  1740   0.803E-03    0.113E-02
DAV:  16    -0.115763403123E+04   -0.12944E-05   -0.91590E-07  1620   0.663E-03    0.840E-03
DAV:  17    -0.115763403341E+04   -0.21764E-05   -0.47463E-07  1440   0.433E-03    0.472E-03
DAV:  18    -0.115763403688E+04   -0.34684E-05   -0.40581E-07  1464   0.346E-03    0.487E-03
DAV:  19    -0.115763404005E+04   -0.31764E-05   -0.45589E-07  1536   0.377E-03    0.443E-03
DAV:  20    -0.115763404339E+04   -0.33401E-05   -0.24727E-07  1440   0.301E-03    0.279E-03
DAV:  21    -0.115763404685E+04   -0.34543E-05   -0.18064E-07  1464   0.196E-03    0.131E-03
DAV:  22    -0.115763404917E+04   -0.23197E-05   -0.15595E-07  1488   0.120E-03    0.163E-03
DAV:  23    -0.115763405030E+04   -0.11372E-05   -0.10147E-07  1452   0.130E-03    0.137E-03
DAV:  24    -0.115763405177E+04   -0.14615E-05   -0.55299E-08  1440   0.802E-04    0.863E-04
DAV:  25    -0.115763405294E+04   -0.11699E-05   -0.45896E-08  1440   0.502E-04    0.792E-04
DAV:  26    -0.115763405398E+04   -0.10497E-05   -0.29944E-08  1428   0.526E-04    0.654E-04
DAV:  27    -0.115763405555E+04   -0.15624E-05   -0.23133E-08  1440   0.504E-04    0.653E-04
DAV:  28    -0.115763405750E+04   -0.19529E-05   -0.32616E-08  1404   0.494E-04    0.639E-04
DAV:  29    -0.115763405906E+04   -0.15564E-05   -0.37683E-08  1476   0.390E-04    0.622E-04
DAV:  30    -0.115763405978E+04   -0.71860E-06   -0.25628E-08  1476   0.342E-04
  48 F= -.11653245E+04 E0= -.11653215E+04  d E =-.343279E-02  mag=    13.0571
 curvature:  -1.92 expect dE=-0.146E-01 dE for cont linesearch -0.753E-03
 ZBRENT: increasing intervall
 opt :   0.8594  next Energy= -1165.325230 (dE=-0.419E-02)
 bond charge predicted
       N       E                     dE             d eps       ncg     rms          rms(c)
DAV:   1    -0.115761725626E+04    0.16803E-01   -0.70506E+00  1992   0.565E+00    0.715E-01
DAV:   2    -0.115763706389E+04   -0.19808E-01   -0.16023E-01  3012   0.998E-01    0.130E+00
DAV:   3    -0.115764385006E+04   -0.67862E-02   -0.26493E-02  3396   0.970E-01    0.216E+00
DAV:   4    -0.115763637159E+04    0.74785E-02   -0.13529E-02  3096   0.607E-01    0.101E+00
DAV:   5    -0.115763406562E+04    0.23060E-02   -0.15607E-02  3060   0.381E-01    0.518E-01
DAV:   6    -0.115763437978E+04   -0.31416E-03   -0.61857E-03  3216   0.255E-01    0.392E-01
DAV:   7    -0.115763432182E+04    0.57958E-04   -0.22351E-03  3072   0.219E-01    0.303E-01
DAV:   8    -0.115763424088E+04    0.80945E-04   -0.13961E-03  3204   0.220E-01    0.198E-01
DAV:   9    -0.115763445104E+04   -0.21017E-03   -0.11686E-03  3144   0.187E-01    0.290E-01
DAV:  10    -0.115763425644E+04    0.19460E-03   -0.69766E-04  3108   0.142E-01    0.114E-01
DAV:  11    -0.115763428936E+04   -0.32918E-04   -0.20360E-04  3012   0.701E-02    0.796E-02
DAV:  12    -0.115763429835E+04   -0.89922E-05   -0.13704E-04  2784   0.531E-02    0.575E-02
DAV:  13    -0.115763430929E+04   -0.10943E-04   -0.54925E-05  2304   0.376E-02    0.358E-02
DAV:  14    -0.115763432591E+04   -0.16618E-04   -0.11944E-05  2028   0.231E-02    0.195E-02
DAV:  15    -0.115763433850E+04   -0.12583E-04   -0.46526E-06  1908   0.153E-02    0.223E-02
DAV:  16    -0.115763434202E+04   -0.35283E-05   -0.30681E-06  1812   0.123E-02    0.152E-02
DAV:  17    -0.115763434857E+04   -0.65472E-05   -0.17360E-06  1680   0.799E-03    0.957E-03
DAV:  18    -0.115763435804E+04   -0.94640E-05   -0.15050E-06  1644   0.706E-03    0.103E-02
DAV:  19    -0.115763436743E+04   -0.93986E-05   -0.15567E-06  1668   0.778E-03    0.922E-03
DAV:  20    -0.115763437628E+04   -0.88496E-05   -0.86699E-07  1560   0.613E-03    0.510E-03
DAV:  21    -0.115763438576E+04   -0.94815E-05   -0.52052E-07  1464   0.362E-03    0.241E-03
DAV:  22    -0.115763439181E+04   -0.60466E-05   -0.44244E-07  1500   0.227E-03    0.328E-03
DAV:  23    -0.115763439478E+04   -0.29724E-05   -0.30081E-07  1488   0.244E-03    0.265E-03
DAV:  24    -0.115763439865E+04   -0.38625E-05   -0.16318E-07  1452   0.146E-03    0.151E-03
DAV:  25    -0.115763440148E+04   -0.28372E-05   -0.13522E-07  1464   0.100E-03    0.157E-03
DAV:  26    -0.115763440474E+04   -0.32527E-05   -0.10739E-07  1428   0.109E-03    0.110E-03
DAV:  27    -0.115763440921E+04   -0.44726E-05   -0.10156E-07  1476   0.781E-04    0.107E-03
DAV:  28    -0.115763441427E+04   -0.50579E-05   -0.12836E-07  1440   0.726E-04    0.143E-03
DAV:  29    -0.115763441709E+04   -0.28261E-05   -0.93267E-08  1476   0.917E-04    0.111E-03
DAV:  30    -0.115763442056E+04   -0.34662E-05   -0.10105E-07  1452   0.604E-04    0.108E-03
DAV:  31    -0.115763442255E+04   -0.19925E-05   -0.81428E-08  1488   0.552E-04    0.793E-04
DAV:  32    -0.115763442447E+04   -0.19206E-05   -0.79521E-08  1440   0.376E-04    0.698E-04
DAV:  33    -0.115763442555E+04   -0.10731E-05   -0.50780E-08  1488   0.496E-04    0.548E-04
DAV:  34    -0.115763442684E+04   -0.12980E-05   -0.50962E-08  1440   0.414E-04    0.449E-04
DAV:  35    -0.115763442797E+04   -0.11242E-05   -0.46513E-08  1452   0.424E-04    0.314E-04
DAV:  36    -0.115763442855E+04   -0.57926E-06   -0.42914E-08  1452   0.281E-04
  49 F= -.11653253E+04 E0= -.11653223E+04  d E =-.421230E-02  mag=    13.0592
 curvature:  -1.94 expect dE=-0.601E-01 dE for cont linesearch -0.222E-03
 ZBRENT: bracketing found
 ZBRENT: interpolating
 opt :   0.6784  next Energy= -1165.325573 (dE=-0.453E-02)
 bond charge predicted
       N       E                     dE             d eps       ncg     rms          rms(c)
DAV:   1    -0.115763278870E+04    0.16393E-02   -0.86879E-01  1992   0.198E+00    0.251E-01
DAV:   2    -0.115763513952E+04   -0.23508E-02   -0.19587E-02  3036   0.348E-01    0.459E-01
DAV:   3    -0.115763599461E+04   -0.85508E-03   -0.32298E-03  3396   0.335E-01    0.763E-01
DAV:   4    -0.115763512884E+04    0.86576E-03   -0.25449E-03  3096   0.213E-01    0.405E-01
DAV:   5    -0.115763477171E+04    0.35713E-03   -0.20803E-03  3000   0.133E-01    0.163E-01
DAV:   6    -0.115763486107E+04   -0.89357E-04   -0.64681E-04  3132   0.940E-02    0.131E-01
DAV:   7    -0.115763486700E+04   -0.59286E-05   -0.25548E-04  3072   0.775E-02    0.114E-01
DAV:   8    -0.115763486011E+04    0.68825E-05   -0.17708E-04  3288   0.770E-02    0.699E-02
DAV:   9    -0.115763489420E+04   -0.34089E-04   -0.15111E-04  3048   0.643E-02    0.102E-01
DAV:  10    -0.115763487003E+04    0.24171E-04   -0.96018E-05  2688   0.488E-02    0.395E-02
DAV:  11    -0.115763487681E+04   -0.67820E-05   -0.24022E-05  2076   0.241E-02    0.278E-02
DAV:  12    -0.115763487843E+04   -0.16112E-05   -0.15432E-05  1920   0.184E-02    0.189E-02
DAV:  13    -0.115763488072E+04   -0.22911E-05   -0.63267E-06  1836   0.131E-02    0.115E-02
DAV:  14    -0.115763488336E+04   -0.26472E-05   -0.17852E-06  1704   0.878E-03    0.680E-03
DAV:  15    -0.115763488532E+04   -0.19608E-05   -0.71082E-07  1548   0.554E-03    0.736E-03
DAV:  16    -0.115763488573E+04   -0.40492E-06   -0.42873E-07  1536   0.432E-03
  50 F= -.11653256E+04 E0= -.11653226E+04  d E =-.452501E-02  mag=    13.0587
 curvature:  -2.81 expect dE=-0.522E-01 dE for cont linesearch -0.504E-07
 trial: gam= 1.48677 g(F)=  0.186E-01 g(S)=  0.000E+00 ort = 0.446E-04 (trialstep = 0.859E-01)
 search vector abs. value=  0.264E+00
 bond charge predicted
       N       E                     dE             d eps       ncg     rms          rms(c)
DAV:   1    -0.115763510566E+04   -0.22034E-03   -0.45153E-01  1992   0.141E+00    0.189E-01
DAV:   2    -0.115763631011E+04   -0.12044E-02   -0.10129E-02  2964   0.248E-01    0.351E-01
DAV:   3    -0.115763691362E+04   -0.60351E-03   -0.18690E-03  3468   0.236E-01    0.611E-01
DAV:   4    -0.115763626619E+04    0.64743E-03   -0.16614E-03  3048   0.151E-01    0.275E-01
DAV:   5    -0.115763613898E+04    0.12721E-03   -0.96056E-04  2928   0.868E-02    0.927E-02
DAV:   6    -0.115763623311E+04   -0.94133E-04   -0.27301E-04  3144   0.710E-02    0.112E-01
DAV:   7    -0.115763621021E+04    0.22898E-04   -0.13565E-04  3144   0.646E-02    0.677E-02
DAV:   8    -0.115763623278E+04   -0.22569E-04   -0.92952E-05  3168   0.575E-02    0.670E-02
DAV:   9    -0.115763623302E+04   -0.23415E-06   -0.79651E-05  2964   0.494E-02    0.639E-02
DAV:  10    -0.115763622855E+04    0.44705E-05   -0.39375E-05  2280   0.309E-02    0.387E-02
DAV:  11    -0.115763622890E+04   -0.35436E-06   -0.12441E-05  1848   0.189E-02    0.191E-02
DAV:  12    -0.115763622991E+04   -0.10112E-05   -0.69464E-06  1848   0.132E-02    0.132E-02
DAV:  13    -0.115763623066E+04   -0.74650E-06   -0.27954E-06  1656   0.928E-03
  51 F= -.11653270E+04 E0= -.11653241E+04  d E =-.144972E-02  mag=    13.0591
 ZBRENT: can't locate minimum, use default step
 trial-energy change:   -0.001450  1 .order   -0.001445   -0.001600   -0.001290
 step:   0.3437(harm=  0.4435)  dis= 0.00783  next Energy= -1165.329129 (dE=-0.357E-02)
 bond charge predicted
       N       E                     dE             d eps       ncg     rms          rms(c)
DAV:   1    -0.115762830006E+04    0.79298E-02   -0.40645E+00  1992   0.423E+00    0.567E-01
DAV:   2    -0.115763957481E+04   -0.11275E-01   -0.91525E-02  3000   0.743E-01    0.103E+00
DAV:   3    -0.115764493680E+04   -0.53620E-02   -0.16976E-02  3480   0.712E-01    0.182E+00
DAV:   4    -0.115763896439E+04    0.59724E-02   -0.11769E-02  3060   0.455E-01    0.759E-01
DAV:   5    -0.115763798821E+04    0.97618E-03   -0.82245E-03  3012   0.259E-01    0.306E-01
DAV:   6    -0.115763853807E+04   -0.54986E-03   -0.27492E-03  3180   0.209E-01    0.338E-01
DAV:   7    -0.115763828439E+04    0.25368E-03   -0.12171E-03  3168   0.192E-01    0.203E-01
DAV:   8    -0.115763841421E+04   -0.12982E-03   -0.80154E-04  3288   0.172E-01    0.198E-01
DAV:   9    -0.115763839897E+04    0.15241E-04   -0.63278E-04  3144   0.147E-01    0.189E-01
DAV:  10    -0.115763835536E+04    0.43609E-04   -0.32632E-04  3168   0.910E-02    0.115E-01
DAV:  11    -0.115763835231E+04    0.30546E-05   -0.11758E-04  2760   0.551E-02    0.565E-02
DAV:  12    -0.115763836090E+04   -0.85952E-05   -0.67094E-05  2376   0.388E-02    0.448E-02
DAV:  13    -0.115763836775E+04   -0.68491E-05   -0.31716E-05  2196   0.301E-02    0.276E-02
DAV:  14    -0.115763838132E+04   -0.13572E-04   -0.10762E-05  2052   0.219E-02    0.228E-02
DAV:  15    -0.115763838884E+04   -0.75196E-05   -0.47997E-06  1824   0.172E-02    0.234E-02
DAV:  16    -0.115763839066E+04   -0.18222E-05   -0.30258E-06  1752   0.130E-02    0.145E-02
DAV:  17    -0.115763839347E+04   -0.28096E-05   -0.13545E-06  1668   0.836E-03    0.901E-03
DAV:  18    -0.115763839842E+04   -0.49521E-05   -0.11433E-06  1608   0.605E-03    0.927E-03
DAV:  19    -0.115763840314E+04   -0.47179E-05   -0.10468E-06  1584   0.647E-03    0.692E-03
DAV:  20    -0.115763840804E+04   -0.48944E-05   -0.53228E-07  1500   0.488E-03    0.438E-03
DAV:  21    -0.115763841493E+04   -0.68945E-05   -0.45362E-07  1440   0.320E-03    0.239E-03
DAV:  22    -0.115763841908E+04   -0.41477E-05   -0.33769E-07  1500   0.200E-03    0.252E-03
DAV:  23    -0.115763842118E+04   -0.21030E-05   -0.25608E-07  1464   0.218E-03    0.218E-03
DAV:  24    -0.115763842424E+04   -0.30615E-05   -0.15734E-07  1428   0.138E-03    0.143E-03
DAV:  25    -0.115763842626E+04   -0.20170E-05   -0.12627E-07  1464   0.986E-04    0.158E-03
DAV:  26    -0.115763842819E+04   -0.19336E-05   -0.10047E-07  1440   0.103E-03    0.101E-03
DAV:  27    -0.115763843082E+04   -0.26241E-05   -0.79317E-08  1464   0.708E-04    0.959E-04
DAV:  28    -0.115763843371E+04   -0.28887E-05   -0.10234E-07  1428   0.600E-04    0.113E-03
DAV:  29    -0.115763843521E+04   -0.15069E-05   -0.66176E-08  1488   0.747E-04    0.988E-04
DAV:  30    -0.115763843681E+04   -0.15933E-05   -0.55129E-08  1440   0.568E-04    0.961E-04
DAV:  31    -0.115763843775E+04   -0.94642E-06   -0.45919E-08  1464   0.569E-04
  52 F= -.11653295E+04 E0= -.11653265E+04  d E =-.396690E-02  mag=    13.0615
 curvature:  -2.89 expect dE=-0.473E-01 dE for cont linesearch -0.219E-03
 ZBRENT: extrapolating
 opt :   0.4529  next Energy= -1165.329774 (dE=-0.421E-02)
 bond charge predicted
       N       E                     dE             d eps       ncg     rms          rms(c)
DAV:   1    -0.115763673401E+04    0.17028E-02   -0.72928E-01  1992   0.179E+00    0.240E-01
DAV:   2    -0.115763866866E+04   -0.19346E-02   -0.16351E-02  2988   0.313E-01    0.431E-01
DAV:   3    -0.115763968416E+04   -0.10155E-02   -0.30030E-03  3432   0.301E-01    0.779E-01
DAV:   4    -0.115763860036E+04    0.10838E-02   -0.24944E-03  3072   0.192E-01    0.335E-01
DAV:   5    -0.115763841279E+04    0.18758E-03   -0.14726E-03  2964   0.110E-01    0.121E-01
DAV:   6    -0.115763854218E+04   -0.12939E-03   -0.46295E-04  3102   0.887E-02    0.143E-01
DAV:   7    -0.115763849914E+04    0.43037E-04   -0.22100E-04  3144   0.807E-02    0.851E-02
DAV:   8    -0.115763853228E+04   -0.33139E-04   -0.14621E-04  3216   0.724E-02    0.850E-02
DAV:   9    -0.115763853196E+04    0.31501E-06   -0.11927E-04  3072   0.624E-02    0.801E-02
DAV:  10    -0.115763852523E+04    0.67302E-05   -0.60628E-05  2472   0.385E-02    0.487E-02
DAV:  11    -0.115763852643E+04   -0.11939E-05   -0.21163E-05  2028   0.239E-02    0.244E-02
DAV:  12    -0.115763852885E+04   -0.24201E-05   -0.12074E-05  1944   0.170E-02    0.177E-02
DAV:  13    -0.115763853111E+04   -0.22657E-05   -0.52715E-06  1752   0.125E-02    0.115E-02
DAV:  14    -0.115763853419E+04   -0.30772E-05   -0.18973E-06  1632   0.919E-03    0.836E-03
DAV:  15    -0.115763853613E+04   -0.19431E-05   -0.82695E-07  1608   0.673E-03    0.884E-03
DAV:  16    -0.115763853667E+04   -0.53970E-06   -0.51165E-07  1536   0.509E-03
  53 F= -.11653298E+04 E0= -.11653267E+04  d E =-.419531E-02  mag=    13.0623
 curvature:  -3.22 expect dE=-0.845E-01 dE for cont linesearch -0.121E-06
 trial: gam= 1.37789 g(F)=  0.262E-01 g(S)=  0.000E+00 ort =-0.997E-04 (trialstep = 0.798E-01)
 search vector abs. value=  0.527E+00
 bond charge predicted
       N       E                     dE             d eps       ncg     rms          rms(c)
DAV:   1    -0.115763827663E+04    0.25950E-03   -0.80089E-01  1992   0.188E+00    0.253E-01
DAV:   2    -0.115764057640E+04   -0.22998E-02   -0.17993E-02  3060   0.347E-01    0.480E-01
DAV:   3    -0.115764132131E+04   -0.74491E-03   -0.40118E-03  3342   0.355E-01    0.768E-01
DAV:   4    -0.115764053895E+04    0.78236E-03   -0.32538E-03  3192   0.226E-01    0.398E-01
DAV:   5    -0.115764014414E+04    0.39481E-03   -0.22132E-03  3012   0.159E-01    0.187E-01
DAV:   6    -0.115764017559E+04   -0.31455E-04   -0.70476E-04  3192   0.890E-02    0.119E-01
DAV:   7    -0.115764020681E+04   -0.31213E-04   -0.24383E-04  3096   0.767E-02    0.120E-01
DAV:   8    -0.115764018493E+04    0.21879E-04   -0.15116E-04  3192   0.740E-02    0.552E-02
DAV:   9    -0.115764022565E+04   -0.40719E-04   -0.88438E-05  2988   0.574E-02    0.895E-02
DAV:  10    -0.115764020825E+04    0.17402E-04   -0.64572E-05  2544   0.489E-02    0.394E-02
DAV:  11    -0.115764021424E+04   -0.59905E-05   -0.21063E-05  2076   0.228E-02    0.262E-02
DAV:  12    -0.115764021699E+04   -0.27491E-05   -0.16077E-05  1932   0.178E-02    0.217E-02
DAV:  13    -0.115764021977E+04   -0.27846E-05   -0.88180E-06  1812   0.142E-02    0.128E-02
DAV:  14    -0.115764022467E+04   -0.48990E-05   -0.19963E-06  1656   0.915E-03    0.858E-03
DAV:  15    -0.115764022676E+04   -0.20888E-05   -0.10744E-06  1596   0.725E-03    0.947E-03
DAV:  16    -0.115764022757E+04   -0.81248E-06   -0.63288E-07  1536   0.546E-03
  54 F= -.11653316E+04 E0= -.11653286E+04  d E =-.182101E-02  mag=    13.0627
 ZBRENT: can't locate minimum, use default step
 trial-energy change:   -0.001821  1 .order   -0.001828   -0.002082   -0.001573
 step:   0.3191(harm=  0.3264)  dis= 0.01029  next Energy= -1165.334018 (dE=-0.426E-02)
 bond charge predicted
       N       E                     dE             d eps       ncg     rms          rms(c)
DAV:   1    -0.115762455111E+04    0.15676E-01   -0.72074E+00  1992   0.562E+00    0.757E-01
DAV:   2    -0.115764630800E+04   -0.21757E-01   -0.16327E-01  3024   0.105E+00    0.146E+00
DAV:   3    -0.115765237032E+04   -0.60623E-02   -0.37923E-02  3384   0.107E+00    0.226E+00
DAV:   4    -0.115764545121E+04    0.69191E-02   -0.24580E-02  3192   0.679E-01    0.115E+00
DAV:   5    -0.115764190142E+04    0.35498E-02   -0.18785E-02  3072   0.481E-01    0.537E-01
DAV:   6    -0.115764211275E+04   -0.21133E-03   -0.62804E-03  3312   0.258E-01    0.383E-01
DAV:   7    -0.115764218983E+04   -0.77082E-04   -0.29030E-03  3084   0.229E-01    0.339E-01
DAV:   8    -0.115764199160E+04    0.19823E-03   -0.21221E-03  3168   0.219E-01    0.168E-01
DAV:   9    -0.115764222459E+04   -0.23299E-03   -0.65218E-04  2988   0.170E-01    0.253E-01
DAV:  10    -0.115764208972E+04    0.13487E-03   -0.44208E-04  3168   0.145E-01    0.115E-01
DAV:  11    -0.115764211007E+04   -0.20353E-04   -0.14716E-04  3048   0.692E-02    0.680E-02
DAV:  12    -0.115764212247E+04   -0.12395E-04   -0.10282E-04  2832   0.471E-02    0.559E-02
DAV:  13    -0.115764213783E+04   -0.15365E-04   -0.88448E-05  2376   0.397E-02    0.487E-02
DAV:  14    -0.115764215613E+04   -0.18302E-04   -0.27938E-05  2004   0.275E-02    0.232E-02
DAV:  15    -0.115764216891E+04   -0.12775E-04   -0.10126E-05  2040   0.203E-02    0.291E-02
DAV:  16    -0.115764217258E+04   -0.36739E-05   -0.56287E-06  1848   0.160E-02    0.159E-02
DAV:  17    -0.115764217876E+04   -0.61776E-05   -0.24876E-06  1764   0.995E-03    0.122E-02
DAV:  18    -0.115764219049E+04   -0.11729E-04   -0.16695E-06  1668   0.762E-03    0.102E-02
DAV:  19    -0.115764220112E+04   -0.10632E-04   -0.17652E-06  1752   0.832E-03    0.123E-02
DAV:  20    -0.115764221495E+04   -0.13831E-04   -0.97665E-07  1608   0.683E-03    0.467E-03
DAV:  21    -0.115764222906E+04   -0.14104E-04   -0.66185E-07  1524   0.323E-03    0.333E-03
DAV:  22    -0.115764223625E+04   -0.71898E-05   -0.57741E-07  1488   0.349E-03    0.431E-03
DAV:  23    -0.115764224143E+04   -0.51887E-05   -0.40669E-07  1488   0.285E-03    0.266E-03
DAV:  24    -0.115764224755E+04   -0.61183E-05   -0.26771E-07  1488   0.155E-03    0.181E-03
DAV:  25    -0.115764225176E+04   -0.42117E-05   -0.19964E-07  1464   0.139E-03    0.218E-03
DAV:  26    -0.115764225710E+04   -0.53390E-05   -0.18875E-07  1428   0.166E-03    0.186E-03
DAV:  27    -0.115764226501E+04   -0.79090E-05   -0.24792E-07  1548   0.118E-03    0.168E-03
DAV:  28    -0.115764227159E+04   -0.65776E-05   -0.29011E-07  1488   0.964E-04    0.192E-03
DAV:  29    -0.115764227506E+04   -0.34734E-05   -0.20234E-07  1476   0.132E-03    0.169E-03
DAV:  30    -0.115764227768E+04   -0.26119E-05   -0.14608E-07  1500   0.102E-03    0.118E-03
DAV:  31    -0.115764228082E+04   -0.31430E-05   -0.16818E-07  1476   0.784E-04    0.946E-04
DAV:  32    -0.115764228152E+04   -0.69759E-06   -0.10599E-07  1536   0.612E-04
  55 F= -.11653340E+04 E0= -.11653310E+04  d E =-.425549E-02  mag=    13.0641
 curvature:  -3.29 expect dE=-0.502E-01 dE for cont linesearch -0.132E-05
 trial: gam= 0.55482 g(F)=  0.153E-01 g(S)=  0.000E+00 ort = 0.460E-03 (trialstep = 0.128E+00)
 search vector abs. value=  0.178E+00
 bond charge predicted
       N       E                     dE             d eps       ncg     rms          rms(c)
DAV:   1    -0.115764222649E+04    0.54329E-04   -0.69450E-01  1992   0.176E+00    0.232E-01
DAV:   2    -0.115764401753E+04   -0.17910E-02   -0.15415E-02  2952   0.305E-01    0.392E-01
DAV:   3    -0.115764502559E+04   -0.10081E-02   -0.29357E-03  3444   0.307E-01    0.756E-01
DAV:   4    -0.115764400511E+04    0.10205E-02   -0.22471E-03  3108   0.193E-01    0.310E-01
DAV:   5    -0.115764383320E+04    0.17191E-03   -0.13429E-03  3012   0.121E-01    0.137E-01
DAV:   6    -0.115764391188E+04   -0.78680E-04   -0.51127E-04  3168   0.829E-02    0.131E-01
DAV:   7    -0.115764389946E+04    0.12423E-04   -0.21548E-04  3060   0.781E-02    0.964E-02
DAV:   8    -0.115764390536E+04   -0.59053E-05   -0.13025E-04  3180   0.725E-02    0.649E-02
DAV:   9    -0.115764392335E+04   -0.17990E-04   -0.75230E-05  3048   0.560E-02    0.792E-02
DAV:  10    -0.115764391162E+04    0.11727E-04   -0.43265E-05  2244   0.390E-02    0.421E-02
DAV:  11    -0.115764391506E+04   -0.34310E-05   -0.15390E-05  2016   0.200E-02    0.229E-02
DAV:  12    -0.115764391666E+04   -0.16006E-05   -0.11170E-05  1932   0.157E-02    0.169E-02
DAV:  13    -0.115764391907E+04   -0.24126E-05   -0.51811E-06  1812   0.119E-02    0.113E-02
DAV:  14    -0.115764392258E+04   -0.35084E-05   -0.17053E-06  1656   0.917E-03    0.941E-03
DAV:  15    -0.115764392452E+04   -0.19447E-05   -0.97340E-07  1608   0.718E-03    0.946E-03
DAV:  16    -0.115764392511E+04   -0.58659E-06   -0.63582E-07  1428   0.570E-03
  56 F= -.11653357E+04 E0= -.11653327E+04  d E =-.170126E-02  mag=    13.0647
 ZBRENT: can't locate minimum, use default step
 trial-energy change:   -0.001701  1 .order   -0.001707   -0.001981   -0.001434
 step:   0.5106(harm=  0.4626)  dis= 0.00947  next Energy= -1165.338169 (dE=-0.415E-02)
 bond charge predicted
       N       E                     dE             d eps       ncg     rms          rms(c)
DAV:   1    -0.115763016005E+04    0.13764E-01   -0.62512E+00  1992   0.529E+00    0.695E-01
DAV:   2    -0.115764699070E+04   -0.16831E-01   -0.13936E-01  2976   0.912E-01    0.114E+00
DAV:   3    -0.115765600709E+04   -0.90164E-02   -0.27303E-02  3444   0.926E-01    0.225E+00
DAV:   4    -0.115764653812E+04    0.94690E-02   -0.14770E-02  3132   0.573E-01    0.839E-01
DAV:   5    -0.115764522307E+04    0.13150E-02   -0.10964E-02  3072   0.357E-01    0.431E-01
DAV:   6    -0.115764568511E+04   -0.46204E-03   -0.50259E-03  3240   0.240E-01    0.411E-01
DAV:   7    -0.115764547451E+04    0.21060E-03   -0.22971E-03  3084   0.235E-01    0.286E-01
DAV:   8    -0.115764547608E+04   -0.15658E-05   -0.15010E-03  3228   0.216E-01    0.195E-01
DAV:   9    -0.115764557448E+04   -0.98404E-04   -0.60177E-04  3192   0.164E-01    0.229E-01
DAV:  10    -0.115764548601E+04    0.88470E-04   -0.33184E-04  3108   0.113E-01    0.132E-01
DAV:  11    -0.115764549045E+04   -0.44364E-05   -0.14034E-04  3012   0.601E-02    0.650E-02
DAV:  12    -0.115764550204E+04   -0.11592E-04   -0.96209E-05  2796   0.445E-02    0.535E-02
DAV:  13    -0.115764551461E+04   -0.12567E-04   -0.57952E-05  2244   0.365E-02    0.383E-02
DAV:  14    -0.115764553601E+04   -0.21404E-04   -0.16338E-05  2040   0.264E-02    0.273E-02
DAV:  15    -0.115764554805E+04   -0.12043E-04   -0.80930E-06  1944   0.202E-02    0.272E-02
DAV:  16    -0.115764555153E+04   -0.34784E-05   -0.54088E-06  1800   0.164E-02    0.165E-02
DAV:  17    -0.115764555699E+04   -0.54586E-05   -0.20435E-06  1716   0.998E-03    0.117E-02
DAV:  18    -0.115764556625E+04   -0.92572E-05   -0.15861E-06  1704   0.702E-03    0.960E-03
DAV:  19    -0.115764557697E+04   -0.10720E-04   -0.15165E-06  1632   0.753E-03    0.910E-03
DAV:  20    -0.115764558658E+04   -0.96149E-05   -0.84118E-07  1560   0.633E-03    0.546E-03
DAV:  21    -0.115764559963E+04   -0.13049E-04   -0.57152E-07  1488   0.387E-03    0.259E-03
DAV:  22    -0.115764560693E+04   -0.72979E-05   -0.52899E-07  1512   0.284E-03    0.423E-03
DAV:  23    -0.115764561210E+04   -0.51754E-05   -0.36450E-07  1488   0.263E-03    0.235E-03
DAV:  24    -0.115764561734E+04   -0.52389E-05   -0.22398E-07  1452   0.126E-03    0.177E-03
DAV:  25    -0.115764561944E+04   -0.21016E-05   -0.14261E-07  1488   0.122E-03    0.153E-03
DAV:  26    -0.115764562499E+04   -0.55420E-05   -0.11707E-07  1452   0.104E-03    0.128E-03
DAV:  27    -0.115764563119E+04   -0.62065E-05   -0.14006E-07  1464   0.769E-04    0.115E-03
DAV:  28    -0.115764563650E+04   -0.53017E-05   -0.15234E-07  1440   0.580E-04    0.131E-03
DAV:  29    -0.115764564158E+04   -0.50806E-05   -0.11122E-07  1512   0.821E-04    0.107E-03
DAV:  30    -0.115764564456E+04   -0.29808E-05   -0.91159E-08  1452   0.783E-04    0.110E-03
DAV:  31    -0.115764564723E+04   -0.26770E-05   -0.89819E-08  1464   0.680E-04    0.727E-04
DAV:  32    -0.115764564871E+04   -0.14794E-05   -0.77155E-08  1476   0.502E-04    0.792E-04
DAV:  33    -0.115764564999E+04   -0.12781E-05   -0.60202E-08  1428   0.596E-04    0.599E-04
DAV:  34    -0.115764565120E+04   -0.12100E-05   -0.54104E-08  1476   0.441E-04    0.431E-04
DAV:  35    -0.115764565234E+04   -0.11401E-05   -0.62277E-08  1392   0.358E-04    0.360E-04
DAV:  36    -0.115764565290E+04   -0.55572E-06   -0.44867E-08  1464   0.324E-04
  57 F= -.11653376E+04 E0= -.11653345E+04  d E =-.360281E-02  mag=    13.0676
 curvature:  -2.60 expect dE=-0.355E-01 dE for cont linesearch -0.280E-04
 trial: gam= 1.01981 g(F)=  0.137E-01 g(S)=  0.000E+00 ort =-0.138E-02 (trialstep = 0.185E+00)
 search vector abs. value=  0.196E+00
 bond charge predicted
       N       E                     dE             d eps       ncg     rms          rms(c)
DAV:   1    -0.115764344851E+04    0.22038E-02   -0.16189E+00  1992   0.269E+00    0.350E-01
DAV:   2    -0.115764756669E+04   -0.41182E-02   -0.35751E-02  3012   0.454E-01    0.519E-01
DAV:   3    -0.115765000995E+04   -0.24433E-02   -0.59259E-03  3408   0.476E-01    0.112E+00
DAV:   4    -0.115764760498E+04    0.24050E-02   -0.26857E-03  3060   0.287E-01    0.423E-01
DAV:   5    -0.115764728872E+04    0.31625E-03   -0.26988E-03  3072   0.175E-01    0.231E-01
DAV:   6    -0.115764740030E+04   -0.11158E-03   -0.13747E-03  3228   0.119E-01    0.198E-01
DAV:   7    -0.115764737685E+04    0.23459E-04   -0.55783E-04  3048   0.114E-01    0.146E-01
DAV:   8    -0.115764737885E+04   -0.20013E-05   -0.29199E-04  3240   0.109E-01    0.995E-02
DAV:   9    -0.115764741771E+04   -0.38862E-04   -0.16989E-04  3144   0.845E-02    0.121E-01
DAV:  10    -0.115764739071E+04    0.26996E-04   -0.10779E-04  2928   0.616E-02    0.621E-02
DAV:  11    -0.115764739711E+04   -0.63960E-05   -0.42196E-05  2196   0.319E-02    0.375E-02
DAV:  12    -0.115764740051E+04   -0.34038E-05   -0.28641E-05  2136   0.251E-02    0.266E-02
DAV:  13    -0.115764740533E+04   -0.48131E-05   -0.13861E-05  1956   0.188E-02    0.194E-02
DAV:  14    -0.115764741245E+04   -0.71216E-05   -0.41913E-06  1800   0.134E-02    0.114E-02
DAV:  15    -0.115764741739E+04   -0.49413E-05   -0.18995E-06  1752   0.958E-03    0.123E-02
DAV:  16    -0.115764741885E+04   -0.14656E-05   -0.13593E-06  1560   0.810E-03    0.824E-03
DAV:  17    -0.115764742078E+04   -0.19249E-05   -0.52821E-07  1476   0.504E-03    0.518E-03
DAV:  18    -0.115764742411E+04   -0.33309E-05   -0.35138E-07  1464   0.353E-03    0.437E-03
DAV:  19    -0.115764742814E+04   -0.40340E-05   -0.42664E-07  1512   0.360E-03    0.445E-03
DAV:  20    -0.115764743166E+04   -0.35196E-05   -0.25808E-07  1452   0.321E-03    0.274E-03
DAV:  21    -0.115764743583E+04   -0.41694E-05   -0.18364E-07  1440   0.187E-03    0.161E-03
DAV:  22    -0.115764743850E+04   -0.26683E-05   -0.15222E-07  1500   0.137E-03    0.176E-03
DAV:  23    -0.115764744015E+04   -0.16454E-05   -0.10305E-07  1452   0.130E-03    0.117E-03
DAV:  24    -0.115764744210E+04   -0.19532E-05   -0.62219E-08  1428   0.670E-04    0.918E-04
DAV:  25    -0.115764744291E+04   -0.81274E-06   -0.40498E-08  1464   0.527E-04
  58 F= -.11653395E+04 E0= -.11653364E+04  d E =-.192727E-02  mag=    13.0689
 trial-energy change:   -0.001927  1 .order   -0.001939   -0.002274   -0.001603
 step:   0.6288(harm=  0.6288)  dis= 0.01238  next Energy= -1165.341472 (dE=-0.385E-02)
 bond charge predicted
       N       E                     dE             d eps       ncg     rms          rms(c)
DAV:   1    -0.115762603482E+04    0.21407E-01   -0.92465E+00  1992   0.643E+00    0.837E-01
DAV:   2    -0.115765033476E+04   -0.24300E-01   -0.20539E-01  2964   0.108E+00    0.122E+00
DAV:   3    -0.115766396761E+04   -0.13633E-01   -0.37741E-02  3396   0.114E+00    0.265E+00
DAV:   4    -0.115765007265E+04    0.13895E-01   -0.12229E-02  3012   0.679E-01    0.910E-01
DAV:   5    -0.115764859257E+04    0.14801E-02   -0.13323E-02  3048   0.419E-01    0.566E-01
DAV:   6    -0.115764904810E+04   -0.45553E-03   -0.83373E-03  3252   0.271E-01    0.518E-01
DAV:   7    -0.115764874214E+04    0.30596E-03   -0.38126E-03  3060   0.270E-01    0.338E-01
DAV:   8    -0.115764874892E+04   -0.67839E-05   -0.19223E-03  3192   0.259E-01    0.244E-01
DAV:   9    -0.115764889086E+04   -0.14193E-03   -0.85990E-04  3132   0.198E-01    0.278E-01
DAV:  10    -0.115764877003E+04    0.12083E-03   -0.54743E-04  3084   0.143E-01    0.163E-01
DAV:  11    -0.115764877775E+04   -0.77208E-05   -0.25355E-04  3156   0.770E-02    0.944E-02
DAV:  12    -0.115764879083E+04   -0.13086E-04   -0.15791E-04  2868   0.593E-02    0.649E-02
DAV:  13    -0.115764881298E+04   -0.22151E-04   -0.92077E-05  2568   0.458E-02    0.522E-02
DAV:  14    -0.115764883911E+04   -0.26129E-04   -0.30632E-05  2064   0.325E-02    0.257E-02
DAV:  15    -0.115764886405E+04   -0.24940E-04   -0.12208E-05  2088   0.224E-02    0.293E-02
DAV:  16    -0.115764887188E+04   -0.78241E-05   -0.93894E-06  1908   0.201E-02    0.212E-02
DAV:  17    -0.115764888107E+04   -0.91926E-05   -0.39368E-06  1872   0.129E-02    0.125E-02
DAV:  18    -0.115764889723E+04   -0.16164E-04   -0.21032E-06  1716   0.857E-03    0.902E-03
DAV:  19    -0.115764891910E+04   -0.21865E-04   -0.19340E-06  1716   0.834E-03    0.112E-02
DAV:  20    -0.115764893406E+04   -0.14958E-04   -0.15872E-06  1608   0.821E-03    0.666E-03
DAV:  21    -0.115764895345E+04   -0.19394E-04   -0.78073E-07  1500   0.481E-03    0.343E-03
DAV:  22    -0.115764896600E+04   -0.12551E-04   -0.62433E-07  1488   0.357E-03    0.503E-03
DAV:  23    -0.115764897257E+04   -0.65650E-05   -0.49389E-07  1476   0.327E-03    0.322E-03
DAV:  24    -0.115764898097E+04   -0.84004E-05   -0.31361E-07  1488   0.152E-03    0.222E-03
DAV:  25    -0.115764898485E+04   -0.38859E-05   -0.20923E-07  1524   0.124E-03    0.200E-03
DAV:  26    -0.115764899221E+04   -0.73562E-05   -0.15002E-07  1416   0.129E-03    0.158E-03
DAV:  27    -0.115764900159E+04   -0.93758E-05   -0.16642E-07  1512   0.108E-03    0.111E-03
DAV:  28    -0.115764901127E+04   -0.96811E-05   -0.18947E-07  1428   0.105E-03    0.170E-03
DAV:  29    -0.115764901936E+04   -0.80921E-05   -0.18403E-07  1476   0.117E-03    0.122E-03
DAV:  30    -0.115764902559E+04   -0.62354E-05   -0.18892E-07  1476   0.674E-04    0.106E-03
DAV:  31    -0.115764902882E+04   -0.32308E-05   -0.12235E-07  1500   0.537E-04    0.839E-04
DAV:  32    -0.115764903379E+04   -0.49669E-05   -0.11350E-07  1464   0.581E-04    0.839E-04
DAV:  33    -0.115764903741E+04   -0.36181E-05   -0.10115E-07  1476   0.652E-04    0.709E-04
DAV:  34    -0.115764904080E+04   -0.33894E-05   -0.11211E-07  1452   0.560E-04    0.491E-04
DAV:  35    -0.115764904259E+04   -0.17956E-05   -0.91396E-08  1488   0.439E-04    0.385E-04
DAV:  36    -0.115764904483E+04   -0.22325E-05   -0.95307E-08  1452   0.360E-04    0.281E-04
DAV:  37    -0.115764904629E+04   -0.14630E-05   -0.75220E-08  1464   0.397E-04    0.252E-04
DAV:  38    -0.115764904722E+04   -0.92790E-06   -0.72061E-08  1428   0.319E-04
  59 F= -.11653415E+04 E0= -.11653382E+04  d E =-.385966E-02  mag=    13.0729
 curvature:  -5.02 expect dE=-0.106E+00 dE for cont linesearch -0.651E-08
 trial: gam= 1.28970 g(F)=  0.210E-01 g(S)=  0.000E+00 ort = 0.159E-04 (trialstep = 0.155E+00)
 search vector abs. value=  0.347E+00
 bond charge predicted
       N       E                     dE             d eps       ncg     rms          rms(c)
DAV:   1    -0.115764583001E+04    0.32163E-02   -0.19555E+00  1992   0.294E+00    0.403E-01
DAV:   2    -0.115765086687E+04   -0.50369E-02   -0.45305E-02  2964   0.501E-01    0.556E-01
DAV:   3    -0.115765398177E+04   -0.31149E-02   -0.76340E-03  3432   0.525E-01    0.125E+00
DAV:   4    -0.115765089282E+04    0.30890E-02   -0.36393E-03  3048   0.316E-01    0.450E-01
DAV:   5    -0.115765059738E+04    0.29544E-03   -0.34875E-03  3084   0.207E-01    0.300E-01
DAV:   6    -0.115765084690E+04   -0.24953E-03   -0.27443E-03  3288   0.161E-01    0.325E-01
DAV:   7    -0.115765064695E+04    0.19995E-03   -0.13985E-03  3132   0.173E-01    0.204E-01
DAV:   8    -0.115765064001E+04    0.69418E-05   -0.57878E-04  3276   0.151E-01    0.134E-01
DAV:   9    -0.115765066684E+04   -0.26827E-04   -0.22644E-04  3168   0.102E-01    0.136E-01
DAV:  10    -0.115765063910E+04    0.27736E-04   -0.12199E-04  2940   0.683E-02    0.794E-02
DAV:  11    -0.115765064317E+04   -0.40627E-05   -0.51090E-05  2280   0.359E-02    0.420E-02
DAV:  12    -0.115765064869E+04   -0.55295E-05   -0.34912E-05  2184   0.285E-02    0.304E-02
DAV:  13    -0.115765065529E+04   -0.65968E-05   -0.18678E-05  1968   0.211E-02    0.224E-02
DAV:  14    -0.115765066509E+04   -0.97992E-05   -0.60831E-06  1824   0.149E-02    0.130E-02
DAV:  15    -0.115765067046E+04   -0.53722E-05   -0.29421E-06  1836   0.106E-02    0.127E-02
DAV:  16    -0.115765067265E+04   -0.21864E-05   -0.19313E-06  1608   0.870E-03    0.889E-03
DAV:  17    -0.115765067494E+04   -0.22876E-05   -0.77862E-07  1512   0.569E-03    0.644E-03
DAV:  18    -0.115765067992E+04   -0.49862E-05   -0.49200E-07  1488   0.382E-03    0.463E-03
DAV:  19    -0.115765068643E+04   -0.65076E-05   -0.59379E-07  1512   0.438E-03    0.614E-03
DAV:  20    -0.115765069066E+04   -0.42317E-05   -0.44566E-07  1488   0.423E-03    0.288E-03
DAV:  21    -0.115765069693E+04   -0.62669E-05   -0.29670E-07  1488   0.196E-03    0.183E-03
DAV:  22    -0.115765069900E+04   -0.20739E-05   -0.21019E-07  1536   0.185E-03    0.205E-03
DAV:  23    -0.115765070209E+04   -0.30900E-05   -0.14239E-07  1404   0.144E-03    0.131E-03
DAV:  24    -0.115765070453E+04   -0.24404E-05   -0.11141E-07  1512   0.802E-04    0.107E-03
DAV:  25    -0.115765070572E+04   -0.11833E-05   -0.68193E-08  1440   0.741E-04    0.840E-04
DAV:  26    -0.115765070835E+04   -0.26328E-05   -0.50902E-08  1404   0.654E-04    0.778E-04
DAV:  27    -0.115765071204E+04   -0.36889E-05   -0.76213E-08  1476   0.621E-04    0.615E-04
DAV:  28    -0.115765071488E+04   -0.28381E-05   -0.84280E-08  1452   0.522E-04    0.717E-04
DAV:  29    -0.115765071636E+04   -0.14861E-05   -0.55345E-08  1452   0.564E-04    0.600E-04
DAV:  30    -0.115765071715E+04   -0.79034E-06   -0.35932E-08  1464   0.455E-04
  60 F= -.11653434E+04 E0= -.11653402E+04  d E =-.193390E-02  mag=    13.0731
 trial-energy change:   -0.001934  1 .order   -0.001939   -0.003262   -0.000616
 step:   0.1909(harm=  0.1909)  dis= 0.00483  next Energy= -1165.343488 (dE=-0.201E-02)
 bond charge predicted
       N       E                     dE             d eps       ncg     rms          rms(c)
DAV:   1    -0.115765046197E+04    0.25439E-03   -0.10614E-01  2004   0.686E-01    0.938E-02
DAV:   2    -0.115765071079E+04   -0.24882E-03   -0.24536E-03  2964   0.117E-01    0.132E-01
DAV:   3    -0.115765088795E+04   -0.17716E-03   -0.41363E-04  3360   0.122E-01    0.292E-01
DAV:   4    -0.115765071846E+04    0.16948E-03   -0.23341E-04  3024   0.740E-02    0.110E-01
DAV:   5    -0.115765070494E+04    0.13519E-04   -0.20090E-04  2856   0.482E-02    0.688E-02
DAV:   6    -0.115765072329E+04   -0.18350E-04   -0.13977E-04  2844   0.381E-02    0.727E-02
DAV:   7    -0.115765071541E+04    0.78852E-05   -0.70310E-05  2808   0.404E-02    0.481E-02
DAV:   8    -0.115765071718E+04   -0.17735E-05   -0.30988E-05  2664   0.352E-02    0.314E-02
DAV:   9    -0.115765072102E+04   -0.38336E-05   -0.12550E-05  2064   0.242E-02    0.324E-02
DAV:  10    -0.115765071959E+04    0.14256E-05   -0.74404E-06  1788   0.164E-02    0.183E-02
DAV:  11    -0.115765072066E+04   -0.10669E-05   -0.28646E-06  1608   0.861E-03    0.106E-02
DAV:  12    -0.115765072141E+04   -0.75580E-06   -0.22030E-06  1704   0.720E-03
  61 F= -.11653435E+04 E0= -.11653402E+04  d E =-.200024E-02  mag=    13.0731
 curvature:  -1.57 expect dE=-0.283E-01 dE for cont linesearch -0.570E-08
 trial: gam= 0.88373 g(F)=  0.180E-01 g(S)=  0.000E+00 ort = 0.355E-04 (trialstep = 0.162E+00)
 search vector abs. value=  0.289E+00
 bond charge predicted
       N       E                     dE             d eps       ncg     rms          rms(c)
DAV:   1    -0.115764815774E+04    0.25629E-02   -0.17576E+00  1992   0.282E+00    0.375E-01
DAV:   2    -0.115765262529E+04   -0.44675E-02   -0.40606E-02  2988   0.477E-01    0.484E-01
DAV:   3    -0.115765568248E+04   -0.30572E-02   -0.74875E-03  3432   0.506E-01    0.121E+00
DAV:   4    -0.115765273500E+04    0.29475E-02   -0.41368E-03  3072   0.309E-01    0.433E-01
DAV:   5    -0.115765239340E+04    0.34160E-03   -0.26976E-03  3060   0.194E-01    0.237E-01
DAV:   6    -0.115765255192E+04   -0.15852E-03   -0.17270E-03  3228   0.128E-01    0.254E-01
DAV:   7    -0.115765246000E+04    0.91913E-04   -0.87294E-04  3060   0.129E-01    0.163E-01
DAV:   8    -0.115765247423E+04   -0.14229E-04   -0.37199E-04  3180   0.118E-01    0.113E-01
DAV:   9    -0.115765251549E+04   -0.41263E-04   -0.19907E-04  3132   0.905E-02    0.130E-01
DAV:  10    -0.115765248944E+04    0.26050E-04   -0.14147E-04  2916   0.650E-02    0.738E-02
DAV:  11    -0.115765249400E+04   -0.45566E-05   -0.54782E-05  2244   0.344E-02    0.419E-02
DAV:  12    -0.115765250011E+04   -0.61064E-05   -0.32799E-05  2208   0.275E-02    0.300E-02
DAV:  13    -0.115765250579E+04   -0.56830E-05   -0.14145E-05  1944   0.203E-02    0.177E-02
DAV:  14    -0.115765251547E+04   -0.96811E-05   -0.43881E-06  1740   0.133E-02    0.125E-02
DAV:  15    -0.115765252061E+04   -0.51419E-05   -0.26081E-06  1752   0.101E-02    0.118E-02
DAV:  16    -0.115765252287E+04   -0.22534E-05   -0.16559E-06  1596   0.827E-03    0.924E-03
DAV:  17    -0.115765252499E+04   -0.21248E-05   -0.69802E-07  1500   0.554E-03    0.568E-03
DAV:  18    -0.115765252919E+04   -0.41959E-05   -0.41749E-07  1536   0.362E-03    0.466E-03
DAV:  19    -0.115765253493E+04   -0.57464E-05   -0.42100E-07  1452   0.376E-03    0.451E-03
DAV:  20    -0.115765253831E+04   -0.33762E-05   -0.35446E-07  1500   0.358E-03    0.328E-03
DAV:  21    -0.115765254390E+04   -0.55856E-05   -0.23559E-07  1440   0.228E-03    0.154E-03
DAV:  22    -0.115765254659E+04   -0.26939E-05   -0.19931E-07  1548   0.154E-03    0.225E-03
DAV:  23    -0.115765254862E+04   -0.20318E-05   -0.14133E-07  1440   0.159E-03    0.146E-03
DAV:  24    -0.115765255060E+04   -0.19810E-05   -0.89346E-08  1452   0.727E-04    0.854E-04
DAV:  25    -0.115765255161E+04   -0.10034E-05   -0.60071E-08  1428   0.524E-04    0.739E-04
DAV:  26    -0.115765255378E+04   -0.21787E-05   -0.35488E-08  1416   0.532E-04    0.664E-04
DAV:  27    -0.115765255558E+04   -0.17973E-05   -0.29023E-08  1452   0.575E-04    0.598E-04
DAV:  28    -0.115765255856E+04   -0.29797E-05   -0.47383E-08  1440   0.530E-04    0.575E-04
DAV:  29    -0.115765256000E+04   -0.14428E-05   -0.39482E-08  1500   0.470E-04    0.648E-04
DAV:  30    -0.115765256105E+04   -0.10433E-05   -0.29711E-08  1440   0.437E-04    0.438E-04
DAV:  31    -0.115765256198E+04   -0.93303E-06   -0.24192E-08  1452   0.273E-04
  62 F= -.11653457E+04 E0= -.11653425E+04  d E =-.219025E-02  mag=    13.0730
 trial-energy change:   -0.002190  1 .order   -0.002186   -0.002920   -0.001452
 step:   0.3223(harm=  0.3223)  dis= 0.00755  next Energy= -1165.346382 (dE=-0.290E-02)
 bond charge predicted
       N       E                     dE             d eps       ncg     rms          rms(c)
DAV:   1    -0.115764863297E+04    0.39281E-02   -0.17213E+00  1992   0.279E+00    0.371E-01
DAV:   2    -0.115765303655E+04   -0.44036E-02   -0.39787E-02  3000   0.474E-01    0.496E-01
DAV:   3    -0.115765600968E+04   -0.29731E-02   -0.74901E-03  3432   0.500E-01    0.121E+00
DAV:   4    -0.115765311502E+04    0.28947E-02   -0.42971E-03  3072   0.306E-01    0.432E-01
DAV:   5    -0.115765277368E+04    0.34134E-03   -0.27202E-03  3060   0.196E-01    0.233E-01
DAV:   6    -0.115765293253E+04   -0.15884E-03   -0.16948E-03  3276   0.127E-01    0.248E-01
DAV:   7    -0.115765284499E+04    0.87537E-04   -0.84029E-04  3120   0.128E-01    0.162E-01
DAV:   8    -0.115765285600E+04   -0.11009E-04   -0.37160E-04  3228   0.119E-01    0.111E-01
DAV:   9    -0.115765288873E+04   -0.32731E-04   -0.16315E-04  3060   0.863E-02    0.118E-01
DAV:  10    -0.115765287023E+04    0.18500E-04   -0.10588E-04  2892   0.623E-02    0.709E-02
DAV:  11    -0.115765287381E+04   -0.35763E-05   -0.46428E-05  2232   0.329E-02    0.373E-02
DAV:  12    -0.115765287989E+04   -0.60847E-05   -0.29420E-05  2160   0.260E-02    0.296E-02
DAV:  13    -0.115765288490E+04   -0.50068E-05   -0.13958E-05  1860   0.191E-02    0.174E-02
DAV:  14    -0.115765289352E+04   -0.86252E-05   -0.43649E-06  1800   0.127E-02    0.118E-02
DAV:  15    -0.115765289782E+04   -0.42968E-05   -0.25093E-06  1740   0.958E-03    0.112E-02
DAV:  16    -0.115765289975E+04   -0.19294E-05   -0.15250E-06  1584   0.741E-03    0.792E-03
DAV:  17    -0.115765290184E+04   -0.20912E-05   -0.60119E-07  1488   0.484E-03    0.522E-03
DAV:  18    -0.115765290585E+04   -0.40060E-05   -0.37188E-07  1476   0.328E-03    0.459E-03
DAV:  19    -0.115765291130E+04   -0.54503E-05   -0.38763E-07  1500   0.360E-03    0.433E-03
DAV:  20    -0.115765291427E+04   -0.29768E-05   -0.31713E-07  1464   0.339E-03    0.302E-03
DAV:  21    -0.115765291921E+04   -0.49398E-05   -0.21559E-07  1452   0.204E-03    0.145E-03
DAV:  22    -0.115765292157E+04   -0.23616E-05   -0.17292E-07  1500   0.141E-03    0.197E-03
DAV:  23    -0.115765292338E+04   -0.18104E-05   -0.11870E-07  1440   0.144E-03    0.126E-03
DAV:  24    -0.115765292529E+04   -0.19048E-05   -0.77637E-08  1452   0.659E-04    0.794E-04
DAV:  25    -0.115765292640E+04   -0.11125E-05   -0.54613E-08  1428   0.461E-04    0.660E-04
DAV:  26    -0.115765292862E+04   -0.22210E-05   -0.34948E-08  1404   0.453E-04    0.618E-04
DAV:  27    -0.115765293032E+04   -0.16995E-05   -0.27402E-08  1488   0.567E-04    0.649E-04
DAV:  28    -0.115765293275E+04   -0.24281E-05   -0.38606E-08  1428   0.533E-04    0.532E-04
DAV:  29    -0.115765293462E+04   -0.18737E-05   -0.46997E-08  1452   0.423E-04    0.572E-04
DAV:  30    -0.115765293534E+04   -0.71555E-06   -0.27642E-08  1452   0.422E-04
  63 F= -.11653464E+04 E0= -.11653432E+04  d E =-.290841E-02  mag=    13.0729
 curvature:  -2.58 expect dE=-0.312E-01 dE for cont linesearch -0.127E-07
 trial: gam= 0.67035 g(F)=  0.121E-01 g(S)=  0.000E+00 ort = 0.377E-04 (trialstep = 0.194E+00)
 search vector abs. value=  0.142E+00
 bond charge predicted
       N       E                     dE             d eps       ncg     rms          rms(c)
DAV:   1    -0.115765148638E+04    0.14482E-02   -0.12691E+00  1992   0.244E+00    0.293E-01
DAV:   2    -0.115765468416E+04   -0.31978E-02   -0.29288E-02  3012   0.412E-01    0.410E-01
DAV:   3    -0.115765628359E+04   -0.15994E-02   -0.46708E-03  3456   0.411E-01    0.898E-01
DAV:   4    -0.115765476434E+04    0.15193E-02   -0.22692E-03  3012   0.243E-01    0.380E-01
DAV:   5    -0.115765446600E+04    0.29834E-03   -0.18001E-03  3012   0.163E-01    0.190E-01
DAV:   6    -0.115765454889E+04   -0.82890E-04   -0.10656E-03  3252   0.982E-02    0.186E-01
DAV:   7    -0.115765452876E+04    0.20132E-04   -0.50443E-04  3048   0.989E-02    0.135E-01
DAV:   8    -0.115765453013E+04   -0.13733E-05   -0.24311E-04  3204   0.992E-02    0.855E-02
DAV:   9    -0.115765455972E+04   -0.29591E-04   -0.10351E-04  3024   0.675E-02    0.927E-02
DAV:  10    -0.115765454766E+04    0.12067E-04   -0.70761E-05  2760   0.515E-02    0.531E-02
DAV:  11    -0.115765455250E+04   -0.48446E-05   -0.28295E-05  2100   0.264E-02    0.292E-02
DAV:  12    -0.115765455620E+04   -0.36968E-05   -0.17974E-05  2004   0.204E-02    0.228E-02
DAV:  13    -0.115765456045E+04   -0.42471E-05   -0.73464E-06  1812   0.144E-02    0.122E-02
DAV:  14    -0.115765456556E+04   -0.51190E-05   -0.22138E-06  1728   0.933E-03    0.817E-03
DAV:  15    -0.115765456917E+04   -0.36015E-05   -0.12383E-06  1608   0.689E-03    0.843E-03
DAV:  16    -0.115765457086E+04   -0.16967E-05   -0.81675E-07  1488   0.562E-03    0.575E-03
DAV:  17    -0.115765457285E+04   -0.19913E-05   -0.37176E-07  1476   0.350E-03    0.369E-03
DAV:  18    -0.115765457585E+04   -0.29944E-05   -0.24401E-07  1452   0.252E-03    0.333E-03
DAV:  19    -0.115765457974E+04   -0.38951E-05   -0.23990E-07  1464   0.262E-03    0.300E-03
DAV:  20    -0.115765458190E+04   -0.21579E-05   -0.23302E-07  1476   0.258E-03    0.256E-03
DAV:  21    -0.115765458455E+04   -0.26509E-05   -0.14242E-07  1440   0.171E-03    0.111E-03
DAV:  22    -0.115765458627E+04   -0.17229E-05   -0.98210E-08  1464   0.106E-03    0.151E-03
DAV:  23    -0.115765458731E+04   -0.10397E-05   -0.72218E-08  1416   0.114E-03    0.897E-04
DAV:  24    -0.115765458872E+04   -0.14068E-05   -0.49187E-08  1440   0.479E-04    0.629E-04
DAV:  25    -0.115765458957E+04   -0.85249E-06   -0.28382E-08  1428   0.428E-04
  64 F= -.11653483E+04 E0= -.11653452E+04  d E =-.194675E-02  mag=    13.0726
 trial-energy change:   -0.001947  1 .order   -0.001954   -0.002351   -0.001557
 step:   0.6633(harm=  0.5746)  dis= 0.01035  next Energy= -1165.350111 (dE=-0.373E-02)
 bond charge predicted
       N       E                     dE             d eps       ncg     rms          rms(c)
DAV:   1    -0.115763711642E+04    0.17472E-01   -0.74187E+00  1992   0.590E+00    0.708E-01
DAV:   2    -0.115765639402E+04   -0.19278E-01   -0.17165E-01  3000   0.997E-01    0.982E-01
DAV:   3    -0.115766550715E+04   -0.91131E-02   -0.32215E-02  3456   0.999E-01    0.215E+00
DAV:   4    -0.115765667574E+04    0.88314E-02   -0.10888E-02  3024   0.581E-01    0.887E-01
DAV:   5    -0.115765493392E+04    0.17418E-02   -0.95613E-03  3096   0.393E-01    0.448E-01
DAV:   6    -0.115765538548E+04   -0.45156E-03   -0.64735E-03  3312   0.232E-01    0.486E-01
DAV:   7    -0.115765510160E+04    0.28388E-03   -0.32760E-03  3096   0.237E-01    0.313E-01
DAV:   8    -0.115765512086E+04   -0.19256E-04   -0.14665E-03  3228   0.243E-01    0.216E-01
DAV:   9    -0.115765519640E+04   -0.75539E-04   -0.60378E-04  3084   0.164E-01    0.209E-01
DAV:  10    -0.115765514626E+04    0.50134E-04   -0.34152E-04  3108   0.122E-01    0.131E-01
DAV:  11    -0.115765514409E+04    0.21716E-05   -0.13366E-04  2952   0.671E-02    0.562E-02
DAV:  12    -0.115765516816E+04   -0.24072E-04   -0.80517E-05  2652   0.440E-02    0.577E-02
DAV:  13    -0.115765517963E+04   -0.11467E-04   -0.54150E-05  2304   0.343E-02    0.335E-02
DAV:  14    -0.115765519983E+04   -0.20205E-04   -0.14916E-05  1980   0.220E-02    0.196E-02
DAV:  15    -0.115765521417E+04   -0.14335E-04   -0.70627E-06  1860   0.160E-02    0.195E-02
DAV:  16    -0.115765522073E+04   -0.65618E-05   -0.46544E-06  1824   0.128E-02    0.141E-02
DAV:  17    -0.115765522878E+04   -0.80450E-05   -0.20704E-06  1716   0.836E-03    0.907E-03
DAV:  18    -0.115765524126E+04   -0.12482E-04   -0.12596E-06  1620   0.588E-03    0.816E-03
DAV:  19    -0.115765525830E+04   -0.17043E-04   -0.11464E-06  1584   0.574E-03    0.596E-03
DAV:  20    -0.115765526721E+04   -0.89142E-05   -0.11162E-06  1560   0.552E-03    0.677E-03
DAV:  21    -0.115765527738E+04   -0.10163E-04   -0.62254E-07  1476   0.420E-03    0.243E-03
DAV:  22    -0.115765528540E+04   -0.80200E-05   -0.39992E-07  1500   0.232E-03    0.343E-03
DAV:  23    -0.115765528935E+04   -0.39536E-05   -0.30965E-07  1476   0.251E-03    0.199E-03
DAV:  24    -0.115765529614E+04   -0.67853E-05   -0.21005E-07  1464   0.116E-03    0.131E-03
DAV:  25    -0.115765529999E+04   -0.38554E-05   -0.15688E-07  1488   0.942E-04    0.125E-03
DAV:  26    -0.115765530533E+04   -0.53347E-05   -0.10651E-07  1440   0.104E-03    0.126E-03
DAV:  27    -0.115765531087E+04   -0.55421E-05   -0.96909E-08  1476   0.941E-04    0.950E-04
DAV:  28    -0.115765531979E+04   -0.89172E-05   -0.17958E-07  1476   0.763E-04    0.133E-03
DAV:  29    -0.115765532243E+04   -0.26396E-05   -0.10627E-07  1536   0.906E-04    0.857E-04
DAV:  30    -0.115765532742E+04   -0.49980E-05   -0.13510E-07  1404   0.449E-04    0.806E-04
DAV:  31    -0.115765533043E+04   -0.30034E-05   -0.78635E-08  1464   0.514E-04    0.572E-04
DAV:  32    -0.115765533359E+04   -0.31660E-05   -0.83895E-08  1476   0.371E-04    0.463E-04
DAV:  33    -0.115765533539E+04   -0.17988E-05   -0.55884E-08  1488   0.436E-04    0.396E-04
DAV:  34    -0.115765533703E+04   -0.16378E-05   -0.54965E-08  1416   0.384E-04    0.483E-04
DAV:  35    -0.115765533838E+04   -0.13542E-05   -0.46678E-08  1452   0.471E-04    0.385E-04
DAV:  36    -0.115765533957E+04   -0.11856E-05   -0.54109E-08  1464   0.331E-04    0.309E-04
DAV:  37    -0.115765534028E+04   -0.70759E-06   -0.41578E-08  1452   0.323E-04
  65 F= -.11653498E+04 E0= -.11653467E+04  d E =-.340707E-02  mag=    13.0719
 curvature:  -3.18 expect dE=-0.476E-01 dE for cont linesearch -0.741E-04
 trial: gam= 1.39171 g(F)=  0.150E-01 g(S)=  0.000E+00 ort =-0.182E-02 (trialstep = 0.143E+00)
 search vector abs. value=  0.285E+00
 bond charge predicted
       N       E                     dE             d eps       ncg     rms          rms(c)
DAV:   1    -0.115765314614E+04    0.21934E-02   -0.13985E+00  1992   0.258E+00    0.298E-01
DAV:   2    -0.115765662675E+04   -0.34806E-02   -0.32687E-02  2976   0.421E-01    0.402E-01
DAV:   3    -0.115765837341E+04   -0.17467E-02   -0.54673E-03  3480   0.407E-01    0.920E-01
DAV:   4    -0.115765665765E+04    0.17158E-02   -0.16840E-03  3072   0.241E-01    0.348E-01
DAV:   5    -0.115765646583E+04    0.19182E-03   -0.17260E-03  3108   0.151E-01    0.203E-01
DAV:   6    -0.115765656644E+04   -0.10060E-03   -0.12073E-03  3240   0.104E-01    0.207E-01
DAV:   7    -0.115765651779E+04    0.48642E-04   -0.58758E-04  3084   0.106E-01    0.133E-01
DAV:   8    -0.115765653340E+04   -0.15601E-04   -0.28206E-04  3252   0.104E-01    0.965E-02
DAV:   9    -0.115765655532E+04   -0.21921E-04   -0.12853E-04  3048   0.731E-02    0.101E-01
DAV:  10    -0.115765654016E+04    0.15156E-04   -0.74644E-05  2844   0.513E-02    0.568E-02
DAV:  11    -0.115765654582E+04   -0.56636E-05   -0.33742E-05  2196   0.286E-02    0.339E-02
DAV:  12    -0.115765654875E+04   -0.29227E-05   -0.22001E-05  2088   0.224E-02    0.227E-02
DAV:  13    -0.115765655206E+04   -0.33108E-05   -0.71846E-06  1884   0.140E-02    0.120E-02
DAV:  14    -0.115765655725E+04   -0.51967E-05   -0.22977E-06  1692   0.858E-03    0.838E-03
DAV:  15    -0.115765656063E+04   -0.33748E-05   -0.13883E-06  1584   0.690E-03    0.841E-03
DAV:  16    -0.115765656320E+04   -0.25722E-05   -0.10551E-06  1476   0.565E-03    0.556E-03
DAV:  17    -0.115765656562E+04   -0.24182E-05   -0.45371E-07  1464   0.383E-03    0.307E-03
DAV:  18    -0.115765656893E+04   -0.33123E-05   -0.26395E-07  1476   0.218E-03    0.249E-03
DAV:  19    -0.115765657175E+04   -0.28222E-05   -0.22896E-07  1464   0.251E-03    0.324E-03
DAV:  20    -0.115765657401E+04   -0.22590E-05   -0.17318E-07  1440   0.235E-03    0.195E-03
DAV:  21    -0.115765657694E+04   -0.29317E-05   -0.12020E-07  1440   0.135E-03    0.111E-03
DAV:  22    -0.115765657834E+04   -0.13955E-05   -0.83140E-08  1488   0.100E-03    0.127E-03
DAV:  23    -0.115765657958E+04   -0.12417E-05   -0.56050E-08  1428   0.959E-04    0.878E-04
DAV:  24    -0.115765658097E+04   -0.13895E-05   -0.39546E-08  1464   0.500E-04    0.743E-04
DAV:  25    -0.115765658193E+04   -0.95792E-06   -0.25496E-08  1464   0.437E-04
  66 F= -.11653513E+04 E0= -.11653481E+04  d E =-.146988E-02  mag=    13.0732
 trial-energy change:   -0.001470  1 .order   -0.001482   -0.001783   -0.001182
 step:   0.4259(harm=  0.4259)  dis= 0.00941  next Energy= -1165.352438 (dE=-0.265E-02)
 bond charge predicted
       N       E                     dE             d eps       ncg     rms          rms(c)
DAV:   1    -0.115764393959E+04    0.12641E-01   -0.54181E+00  1992   0.507E+00    0.588E-01
DAV:   2    -0.115765773727E+04   -0.13798E-01   -0.12713E-01  2964   0.828E-01    0.786E-01
DAV:   3    -0.115766443638E+04   -0.66991E-02   -0.21117E-02  3468   0.803E-01    0.181E+00
DAV:   4    -0.115765777941E+04    0.66570E-02   -0.60504E-03  3012   0.472E-01    0.666E-01
DAV:   5    -0.115765701818E+04    0.76122E-03   -0.63124E-03  3132   0.299E-01    0.397E-01
DAV:   6    -0.115765736779E+04   -0.34961E-03   -0.48303E-03  3264   0.202E-01    0.426E-01
DAV:   7    -0.115765709782E+04    0.26997E-03   -0.23977E-03  3048   0.207E-01    0.253E-01
DAV:   8    -0.115765715625E+04   -0.58430E-04   -0.11164E-03  3264   0.205E-01    0.197E-01
DAV:   9    -0.115765719626E+04   -0.40018E-04   -0.51814E-04  3084   0.145E-01    0.193E-01
DAV:  10    -0.115765714780E+04    0.48462E-04   -0.27272E-04  3072   0.987E-02    0.118E-01
DAV:  11    -0.115765715461E+04   -0.68110E-05   -0.12979E-04  2952   0.565E-02    0.643E-02
DAV:  12    -0.115765716657E+04   -0.11955E-04   -0.76147E-05  2652   0.427E-02    0.463E-02
DAV:  13    -0.115765717574E+04   -0.91704E-05   -0.32649E-05  2148   0.282E-02    0.259E-02
DAV:  14    -0.115765719147E+04   -0.15734E-04   -0.10359E-05  1836   0.171E-02    0.162E-02
DAV:  15    -0.115765720336E+04   -0.11889E-04   -0.60184E-06  1812   0.137E-02    0.168E-02
DAV:  16    -0.115765721222E+04   -0.88568E-05   -0.47224E-06  1800   0.114E-02    0.121E-02
DAV:  17    -0.115765722039E+04   -0.81749E-05   -0.20572E-06  1692   0.807E-03    0.627E-03
DAV:  18    -0.115765723256E+04   -0.12170E-04   -0.97969E-07  1500   0.430E-03    0.507E-03
DAV:  19    -0.115765724305E+04   -0.10489E-04   -0.78949E-07  1500   0.478E-03    0.618E-03
DAV:  20    -0.115765724970E+04   -0.66465E-05   -0.62716E-07  1464   0.460E-03    0.428E-03
DAV:  21    -0.115765725972E+04   -0.10023E-04   -0.40052E-07  1488   0.273E-03    0.224E-03
DAV:  22    -0.115765726496E+04   -0.52395E-05   -0.30019E-07  1536   0.204E-03    0.283E-03
DAV:  23    -0.115765726915E+04   -0.41918E-05   -0.22266E-07  1452   0.192E-03    0.171E-03
DAV:  24    -0.115765727395E+04   -0.47967E-05   -0.17106E-07  1440   0.926E-04    0.146E-03
DAV:  25    -0.115765727732E+04   -0.33690E-05   -0.11479E-07  1452   0.845E-04    0.135E-03
DAV:  26    -0.115765728249E+04   -0.51766E-05   -0.91262E-08  1464   0.907E-04    0.119E-03
DAV:  27    -0.115765728942E+04   -0.69285E-05   -0.11773E-07  1440   0.860E-04    0.959E-04
DAV:  28    -0.115765729652E+04   -0.70947E-05   -0.17164E-07  1500   0.714E-04    0.958E-04
DAV:  29    -0.115765729916E+04   -0.26463E-05   -0.10560E-07  1500   0.706E-04    0.919E-04
DAV:  30    -0.115765730219E+04   -0.30305E-05   -0.95251E-08  1416   0.664E-04    0.824E-04
DAV:  31    -0.115765730487E+04   -0.26801E-05   -0.87352E-08  1476   0.543E-04    0.687E-04
DAV:  32    -0.115765730663E+04   -0.17523E-05   -0.75311E-08  1464   0.433E-04    0.537E-04
DAV:  33    -0.115765730787E+04   -0.12443E-05   -0.53312E-08  1452   0.397E-04    0.476E-04
DAV:  34    -0.115765730919E+04   -0.13230E-05   -0.45484E-08  1416   0.420E-04    0.477E-04
DAV:  35    -0.115765731035E+04   -0.11524E-05   -0.42218E-08  1464   0.401E-04    0.321E-04
DAV:  36    -0.115765731136E+04   -0.10152E-05   -0.47921E-08  1392   0.304E-04    0.326E-04
DAV:  37    -0.115765731181E+04   -0.44343E-06   -0.31246E-08  1500   0.269E-04
  67 F= -.11653524E+04 E0= -.11653492E+04  d E =-.264879E-02  mag=    13.0763
 curvature:  -4.88 expect dE=-0.106E+00 dE for cont linesearch -0.730E-07
 trial: gam= 1.13422 g(F)=  0.218E-01 g(S)=  0.000E+00 ort = 0.653E-04 (trialstep = 0.147E+00)
 search vector abs. value=  0.388E+00
 bond charge predicted
       N       E                     dE             d eps       ncg     rms          rms(c)
DAV:   1    -0.115765418176E+04    0.31296E-02   -0.19723E+00  1992   0.306E+00    0.369E-01
DAV:   2    -0.115765923227E+04   -0.50505E-02   -0.48185E-02  2952   0.503E-01    0.489E-01
DAV:   3    -0.115766179540E+04   -0.25631E-02   -0.79721E-03  3480   0.480E-01    0.113E+00
DAV:   4    -0.115765920987E+04    0.25855E-02   -0.28045E-03  3108   0.287E-01    0.403E-01
DAV:   5    -0.115765901565E+04    0.19422E-03   -0.28328E-03  3132   0.191E-01    0.283E-01
DAV:   6    -0.115765926309E+04   -0.24744E-03   -0.25861E-03  3264   0.153E-01    0.333E-01
DAV:   7    -0.115765902440E+04    0.23869E-03   -0.13661E-03  3108   0.164E-01    0.181E-01
DAV:   8    -0.115765906334E+04   -0.38941E-04   -0.59013E-04  3264   0.146E-01    0.140E-01
DAV:   9    -0.115765906533E+04   -0.19888E-05   -0.24850E-04  3084   0.975E-02    0.124E-01
DAV:  10    -0.115765904821E+04    0.17124E-04   -0.11333E-04  2916   0.621E-02    0.794E-02
DAV:  11    -0.115765905066E+04   -0.24561E-05   -0.50918E-05  2340   0.361E-02    0.410E-02
DAV:  12    -0.115765905582E+04   -0.51592E-05   -0.31816E-05  2184   0.278E-02    0.299E-02
DAV:  13    -0.115765905968E+04   -0.38582E-05   -0.13767E-05  1932   0.180E-02    0.161E-02
DAV:  14    -0.115765906634E+04   -0.66556E-05   -0.41871E-06  1716   0.109E-02    0.100E-02
DAV:  15    -0.115765907140E+04   -0.50611E-05   -0.27535E-06  1680   0.901E-03    0.109E-02
DAV:  16    -0.115765907530E+04   -0.38985E-05   -0.18419E-06  1620   0.715E-03    0.707E-03
DAV:  17    -0.115765907845E+04   -0.31576E-05   -0.74286E-07  1548   0.485E-03    0.381E-03
DAV:  18    -0.115765908292E+04   -0.44641E-05   -0.38780E-07  1488   0.259E-03    0.326E-03
DAV:  19    -0.115765908744E+04   -0.45167E-05   -0.29386E-07  1464   0.254E-03    0.336E-03
DAV:  20    -0.115765908994E+04   -0.25000E-05   -0.26186E-07  1488   0.288E-03    0.323E-03
DAV:  21    -0.115765909376E+04   -0.38266E-05   -0.16218E-07  1476   0.185E-03    0.142E-03
DAV:  22    -0.115765909602E+04   -0.22596E-05   -0.12192E-07  1488   0.118E-03    0.187E-03
DAV:  23    -0.115765909766E+04   -0.16395E-05   -0.91766E-08  1452   0.125E-03    0.110E-03
DAV:  24    -0.115765909964E+04   -0.19800E-05   -0.67537E-08  1440   0.583E-04    0.979E-04
DAV:  25    -0.115765910128E+04   -0.16365E-05   -0.50270E-08  1452   0.498E-04    0.934E-04
DAV:  26    -0.115765910366E+04   -0.23816E-05   -0.43061E-08  1476   0.679E-04    0.923E-04
DAV:  27    -0.115765910608E+04   -0.24187E-05   -0.45833E-08  1452   0.679E-04    0.728E-04
DAV:  28    -0.115765910878E+04   -0.27047E-05   -0.68022E-08  1464   0.539E-04    0.540E-04
DAV:  29    -0.115765910957E+04   -0.78882E-06   -0.48637E-08  1536   0.387E-04
  68 F= -.11653545E+04 E0= -.11653511E+04  d E =-.201324E-02  mag=    13.0778
 trial-energy change:   -0.002013  1 .order   -0.002019   -0.003203   -0.000835
 step:   0.1994(harm=  0.1984)  dis= 0.00480  next Energy= -1165.354604 (dE=-0.216E-02)
 bond charge predicted
       N       E                     dE             d eps       ncg     rms          rms(c)
DAV:   1    -0.115765854402E+04    0.56476E-03   -0.25438E-01  1992   0.110E+00    0.132E-01
DAV:   2    -0.115765916740E+04   -0.62338E-03   -0.62099E-03  2940   0.181E-01    0.177E-01
DAV:   3    -0.115765950245E+04   -0.33505E-03   -0.10150E-03  3408   0.171E-01    0.405E-01
DAV:   4    -0.115765916650E+04    0.33595E-03   -0.49009E-04  2988   0.102E-01    0.149E-01
DAV:   5    -0.115765914546E+04    0.21044E-04   -0.38168E-04  3096   0.683E-02    0.101E-01
DAV:   6    -0.115765918247E+04   -0.37012E-04   -0.31750E-04  3144   0.555E-02    0.115E-01
DAV:   7    -0.115765915645E+04    0.26019E-04   -0.16698E-04  3024   0.589E-02    0.660E-02
DAV:   8    -0.115765916495E+04   -0.84959E-05   -0.75000E-05  3144   0.524E-02    0.500E-02
DAV:   9    -0.115765916808E+04   -0.31268E-05   -0.30322E-05  2472   0.350E-02    0.452E-02
DAV:  10    -0.115765916626E+04    0.18139E-05   -0.14763E-05  2028   0.227E-02    0.290E-02
DAV:  11    -0.115765916763E+04   -0.13649E-05   -0.68165E-06  1836   0.134E-02    0.156E-02
DAV:  12    -0.115765916882E+04   -0.11925E-05   -0.46883E-06  1824   0.107E-02    0.105E-02
DAV:  13    -0.115765916993E+04   -0.11163E-05   -0.17295E-06  1548   0.665E-03    0.584E-03
DAV:  14    -0.115765917139E+04   -0.14560E-05   -0.55795E-07  1440   0.406E-03    0.330E-03
DAV:  15    -0.115765917256E+04   -0.11723E-05   -0.35558E-07  1452   0.320E-03    0.382E-03
DAV:  16    -0.115765917351E+04   -0.94732E-06   -0.25846E-07  1452   0.264E-03
  69 F= -.11653546E+04 E0= -.11653513E+04  d E =-.215441E-02  mag=    13.0782
 curvature:  -1.76 expect dE=-0.291E-01 dE for cont linesearch -0.193E-06
 trial: gam= 0.83590 g(F)=  0.165E-01 g(S)=  0.000E+00 ort =-0.206E-03 (trialstep = 0.157E+00)
 search vector abs. value=  0.287E+00
 bond charge predicted
       N       E                     dE             d eps       ncg     rms          rms(c)
DAV:   1    -0.115765681018E+04    0.23624E-02   -0.16585E+00  1992   0.282E+00    0.331E-01
DAV:   2    -0.115766106309E+04   -0.42529E-02   -0.40226E-02  2940   0.461E-01    0.446E-01
DAV:   3    -0.115766347158E+04   -0.24085E-02   -0.75621E-03  3504   0.442E-01    0.110E+00
DAV:   4    -0.115766103735E+04    0.24342E-02   -0.36627E-03  3024   0.269E-01    0.370E-01
DAV:   5    -0.115766083627E+04    0.20107E-03   -0.21092E-03  3096   0.175E-01    0.212E-01
DAV:   6    -0.115766100329E+04   -0.16702E-03   -0.14684E-03  3204   0.119E-01    0.252E-01
DAV:   7    -0.115766088204E+04    0.12125E-03   -0.75546E-04  3120   0.123E-01    0.140E-01
DAV:   8    -0.115766092818E+04   -0.46141E-04   -0.36279E-04  3204   0.115E-01    0.121E-01
DAV:   9    -0.115766093822E+04   -0.10038E-04   -0.18513E-04  3072   0.860E-02    0.116E-01
DAV:  10    -0.115766092418E+04    0.14044E-04   -0.10332E-04  2952   0.554E-02    0.756E-02
DAV:  11    -0.115766092616E+04   -0.19815E-05   -0.50761E-05  2196   0.332E-02    0.398E-02
DAV:  12    -0.115766093131E+04   -0.51571E-05   -0.29474E-05  2112   0.262E-02    0.276E-02
DAV:  13    -0.115766093479E+04   -0.34805E-05   -0.11215E-05  1944   0.167E-02    0.123E-02
DAV:  14    -0.115766094131E+04   -0.65118E-05   -0.28091E-06  1740   0.886E-03    0.896E-03
DAV:  15    -0.115766094520E+04   -0.38960E-05   -0.21403E-06  1680   0.806E-03    0.981E-03
DAV:  16    -0.115766094882E+04   -0.36155E-05   -0.12875E-06  1524   0.607E-03    0.553E-03
DAV:  17    -0.115766095123E+04   -0.24170E-05   -0.53503E-07  1536   0.404E-03    0.362E-03
DAV:  18    -0.115766095488E+04   -0.36418E-05   -0.28954E-07  1464   0.241E-03    0.304E-03
DAV:  19    -0.115766095889E+04   -0.40108E-05   -0.26062E-07  1440   0.252E-03    0.345E-03
DAV:  20    -0.115766096098E+04   -0.20899E-05   -0.22521E-07  1512   0.275E-03    0.271E-03
DAV:  21    -0.115766096414E+04   -0.31651E-05   -0.13262E-07  1452   0.164E-03    0.140E-03
DAV:  22    -0.115766096586E+04   -0.17191E-05   -0.98419E-08  1500   0.116E-03    0.171E-03
DAV:  23    -0.115766096724E+04   -0.13801E-05   -0.77002E-08  1428   0.119E-03    0.113E-03
DAV:  24    -0.115766096890E+04   -0.16575E-05   -0.57599E-08  1428   0.531E-04    0.928E-04
DAV:  25    -0.115766097016E+04   -0.12566E-05   -0.37959E-08  1440   0.443E-04    0.873E-04
DAV:  26    -0.115766097202E+04   -0.18647E-05   -0.27927E-08  1428   0.564E-04    0.829E-04
DAV:  27    -0.115766097395E+04   -0.19333E-05   -0.29701E-08  1428   0.611E-04    0.725E-04
DAV:  28    -0.115766097629E+04   -0.23401E-05   -0.48315E-08  1428   0.553E-04    0.584E-04
DAV:  29    -0.115766097691E+04   -0.61831E-06   -0.32497E-08  1524   0.482E-04
  70 F= -.11653566E+04 E0= -.11653532E+04  d E =-.199321E-02  mag=    13.0799
 trial-energy change:   -0.001993  1 .order   -0.001982   -0.002564   -0.001400
 step:   0.3263(harm=  0.3465)  dis= 0.00678  next Energy= -1165.357356 (dE=-0.276E-02)
 bond charge predicted
       N       E                     dE             d eps       ncg     rms          rms(c)
DAV:   1    -0.115765677964E+04    0.41967E-02   -0.19179E+00  1992   0.303E+00    0.356E-01
DAV:   2    -0.115766171442E+04   -0.49348E-02   -0.46533E-02  2964   0.497E-01    0.482E-01
DAV:   3    -0.115766448332E+04   -0.27689E-02   -0.86949E-03  3504   0.474E-01    0.118E+00
DAV:   4    -0.115766168200E+04    0.28013E-02   -0.41517E-03  3036   0.288E-01    0.398E-01
DAV:   5    -0.115766144322E+04    0.23878E-03   -0.24632E-03  3096   0.188E-01    0.228E-01
DAV:   6    -0.115766163323E+04   -0.19001E-03   -0.16916E-03  3216   0.128E-01    0.269E-01
DAV:   7    -0.115766149354E+04    0.13969E-03   -0.86235E-04  3108   0.132E-01    0.150E-01
DAV:   8    -0.115766154643E+04   -0.52885E-04   -0.42292E-04  3192   0.124E-01    0.131E-01
DAV:   9    -0.115766155450E+04   -0.80700E-05   -0.21520E-04  3036   0.923E-02    0.124E-01
DAV:  10    -0.115766153841E+04    0.16089E-04   -0.11815E-04  2964   0.594E-02    0.818E-02
DAV:  11    -0.115766153964E+04   -0.12284E-05   -0.58914E-05  2256   0.361E-02    0.431E-02
DAV:  12    -0.115766154487E+04   -0.52362E-05   -0.34088E-05  2148   0.281E-02    0.295E-02
DAV:  13    -0.115766154844E+04   -0.35652E-05   -0.13237E-05  1920   0.179E-02    0.137E-02
DAV:  14    -0.115766155490E+04   -0.64657E-05   -0.33566E-06  1716   0.964E-03    0.954E-03
DAV:  15    -0.115766155900E+04   -0.40987E-05   -0.24823E-06  1692   0.872E-03    0.105E-02
DAV:  16    -0.115766156266E+04   -0.36564E-05   -0.15347E-06  1596   0.661E-03    0.624E-03
DAV:  17    -0.115766156521E+04   -0.25477E-05   -0.65219E-07  1536   0.447E-03    0.385E-03
DAV:  18    -0.115766156893E+04   -0.37225E-05   -0.33168E-07  1464   0.260E-03    0.327E-03
DAV:  19    -0.115766157295E+04   -0.40257E-05   -0.29778E-07  1452   0.274E-03    0.387E-03
DAV:  20    -0.115766157508E+04   -0.21264E-05   -0.24685E-07  1512   0.295E-03    0.274E-03
DAV:  21    -0.115766157853E+04   -0.34503E-05   -0.14857E-07  1440   0.167E-03    0.149E-03
DAV:  22    -0.115766158038E+04   -0.18537E-05   -0.11206E-07  1488   0.124E-03    0.180E-03
DAV:  23    -0.115766158178E+04   -0.13935E-05   -0.84561E-08  1428   0.125E-03    0.117E-03
DAV:  24    -0.115766158356E+04   -0.17862E-05   -0.61393E-08  1440   0.586E-04    0.977E-04
DAV:  25    -0.115766158484E+04   -0.12775E-05   -0.40197E-08  1440   0.524E-04    0.959E-04
DAV:  26    -0.115766158664E+04   -0.17987E-05   -0.32006E-08  1404   0.632E-04    0.857E-04
DAV:  27    -0.115766158883E+04   -0.21877E-05   -0.36939E-08  1476   0.604E-04    0.724E-04
DAV:  28    -0.115766159124E+04   -0.24074E-05   -0.60425E-08  1416   0.582E-04    0.731E-04
DAV:  29    -0.115766159189E+04   -0.65409E-06   -0.35047E-08  1524   0.564E-04
  71 F= -.11653574E+04 E0= -.11653540E+04  d E =-.281249E-02  mag=    13.0817
 curvature:  -3.02 expect dE=-0.380E-01 dE for cont linesearch -0.735E-05
 trial: gam= 0.69369 g(F)=  0.126E-01 g(S)=  0.000E+00 ort = 0.836E-03 (trialstep = 0.191E+00)
 search vector abs. value=  0.152E+00
 bond charge predicted
       N       E                     dE             d eps       ncg     rms          rms(c)
DAV:   1    -0.115766018057E+04    0.14107E-02   -0.13046E+00  1992   0.251E+00    0.289E-01
DAV:   2    -0.115766343050E+04   -0.32499E-02   -0.31105E-02  2952   0.405E-01    0.385E-01
DAV:   3    -0.115766537670E+04   -0.19462E-02   -0.62992E-03  3492   0.386E-01    0.985E-01
DAV:   4    -0.115766340387E+04    0.19728E-02   -0.33986E-03  3072   0.236E-01    0.314E-01
DAV:   5    -0.115766330342E+04    0.10045E-03   -0.13477E-03  3120   0.152E-01    0.168E-01
DAV:   6    -0.115766344487E+04   -0.14145E-03   -0.10432E-03  3204   0.102E-01    0.232E-01
DAV:   7    -0.115766333978E+04    0.10509E-03   -0.57050E-04  3036   0.108E-01    0.115E-01
DAV:   8    -0.115766339896E+04   -0.59178E-04   -0.26049E-04  3180   0.101E-01    0.110E-01
DAV:   9    -0.115766339308E+04    0.58735E-05   -0.12921E-04  3060   0.727E-02    0.921E-02
DAV:  10    -0.115766339140E+04    0.16817E-05   -0.56267E-05  2748   0.442E-02    0.676E-02
DAV:  11    -0.115766339223E+04   -0.82333E-06   -0.29970E-05  2088   0.271E-02    0.254E-02
DAV:  12    -0.115766339687E+04   -0.46483E-05   -0.13643E-05  1956   0.184E-02    0.203E-02
DAV:  13    -0.115766340140E+04   -0.45306E-05   -0.63393E-06  1872   0.124E-02    0.111E-02
DAV:  14    -0.115766340516E+04   -0.37574E-05   -0.27729E-06  1764   0.969E-03    0.845E-03
DAV:  15    -0.115766340855E+04   -0.33922E-05   -0.20598E-06  1620   0.763E-03    0.987E-03
DAV:  16    -0.115766341015E+04   -0.15998E-05   -0.11599E-06  1536   0.600E-03    0.431E-03
DAV:  17    -0.115766341209E+04   -0.19401E-05   -0.37136E-07  1440   0.307E-03    0.386E-03
DAV:  18    -0.115766341404E+04   -0.19493E-05   -0.31064E-07  1464   0.320E-03    0.245E-03
DAV:  19    -0.115766341676E+04   -0.27150E-05   -0.25351E-07  1488   0.251E-03    0.362E-03
DAV:  20    -0.115766341820E+04   -0.14389E-05   -0.21512E-07  1476   0.266E-03    0.203E-03
DAV:  21    -0.115766342035E+04   -0.21508E-05   -0.12121E-07  1428   0.138E-03    0.128E-03
DAV:  22    -0.115766342116E+04   -0.81307E-06   -0.77444E-08  1488   0.112E-03
  72 F= -.11653594E+04 E0= -.11653560E+04  d E =-.202369E-02  mag=    13.0820
 trial-energy change:   -0.002024  1 .order   -0.002029   -0.002513   -0.001545
 step:   0.5257(harm=  0.4958)  dis= 0.00767  next Energy= -1165.360757 (dE=-0.335E-02)
 bond charge predicted
       N       E                     dE             d eps       ncg     rms          rms(c)
DAV:   1    -0.115765436205E+04    0.90583E-02   -0.40042E+00  1992   0.440E+00    0.507E-01
DAV:   2    -0.115766451387E+04   -0.10152E-01   -0.95529E-02  2928   0.709E-01    0.671E-01
DAV:   3    -0.115767042195E+04   -0.59081E-02   -0.19820E-02  3528   0.676E-01    0.171E+00
DAV:   4    -0.115766442703E+04    0.59949E-02   -0.98115E-03  3084   0.415E-01    0.538E-01
DAV:   5    -0.115766407364E+04    0.35339E-03   -0.39414E-03  3204   0.267E-01    0.289E-01
DAV:   6    -0.115766448877E+04   -0.41514E-03   -0.32996E-03  3228   0.176E-01    0.422E-01
DAV:   7    -0.115766411780E+04    0.37098E-03   -0.18521E-03  3060   0.188E-01    0.197E-01
DAV:   8    -0.115766428447E+04   -0.16667E-03   -0.83801E-04  3204   0.177E-01    0.195E-01
DAV:   9    -0.115766424796E+04    0.36513E-04   -0.43829E-04  3096   0.129E-01    0.157E-01
DAV:  10    -0.115766424362E+04    0.43350E-05   -0.16624E-04  3012   0.777E-02    0.115E-01
DAV:  11    -0.115766423869E+04    0.49322E-05   -0.90175E-05  2904   0.499E-02    0.342E-02
DAV:  12    -0.115766425532E+04   -0.16635E-04   -0.28755E-05  2220   0.300E-02    0.342E-02
DAV:  13    -0.115766426418E+04   -0.88565E-05   -0.19107E-05  2148   0.231E-02    0.284E-02
DAV:  14    -0.115766427244E+04   -0.82544E-05   -0.10764E-05  1872   0.172E-02    0.152E-02
DAV:  15    -0.115766428117E+04   -0.87347E-05   -0.71141E-06  1800   0.130E-02    0.177E-02
DAV:  16    -0.115766428584E+04   -0.46714E-05   -0.43066E-06  1728   0.104E-02    0.831E-03
DAV:  17    -0.115766429011E+04   -0.42659E-05   -0.12236E-06  1656   0.600E-03    0.673E-03
DAV:  18    -0.115766429641E+04   -0.63043E-05   -0.84035E-07  1512   0.495E-03    0.422E-03
DAV:  19    -0.115766430300E+04   -0.65872E-05   -0.72817E-07  1512   0.431E-03    0.667E-03
DAV:  20    -0.115766430721E+04   -0.42096E-05   -0.63240E-07  1476   0.460E-03    0.351E-03
DAV:  21    -0.115766431260E+04   -0.53875E-05   -0.29630E-07  1476   0.229E-03    0.201E-03
DAV:  22    -0.115766431536E+04   -0.27617E-05   -0.21992E-07  1512   0.179E-03    0.238E-03
DAV:  23    -0.115766431750E+04   -0.21449E-05   -0.15872E-07  1440   0.162E-03    0.151E-03
DAV:  24    -0.115766432039E+04   -0.28835E-05   -0.10378E-07  1416   0.853E-04    0.123E-03
DAV:  25    -0.115766432224E+04   -0.18585E-05   -0.76505E-08  1464   0.714E-04    0.127E-03
DAV:  26    -0.115766432480E+04   -0.25549E-05   -0.60996E-08  1464   0.852E-04    0.123E-03
DAV:  27    -0.115766432799E+04   -0.31884E-05   -0.68433E-08  1464   0.785E-04    0.115E-03
DAV:  28    -0.115766433140E+04   -0.34084E-05   -0.97390E-08  1464   0.654E-04    0.906E-04
DAV:  29    -0.115766433253E+04   -0.11303E-05   -0.61405E-08  1524   0.652E-04    0.901E-04
DAV:  30    -0.115766433434E+04   -0.18089E-05   -0.68499E-08  1368   0.622E-04    0.695E-04
DAV:  31    -0.115766433540E+04   -0.10680E-05   -0.58317E-08  1464   0.481E-04    0.550E-04
DAV:  32    -0.115766433601E+04   -0.60649E-06   -0.46691E-08  1464   0.358E-04
  73 F= -.11653607E+04 E0= -.11653572E+04  d E =-.327278E-02  mag=    13.0822
 curvature:  -2.84 expect dE=-0.385E-01 dE for cont linesearch -0.893E-05
 trial: gam= 1.23919 g(F)=  0.136E-01 g(S)=  0.000E+00 ort =-0.692E-03 (trialstep = 0.160E+00)
 search vector abs. value=  0.245E+00
 bond charge predicted
       N       E                     dE             d eps       ncg     rms          rms(c)
DAV:   1    -0.115766192344E+04    0.24120E-02   -0.15075E+00  1992   0.269E+00    0.308E-01
DAV:   2    -0.115766566992E+04   -0.37465E-02   -0.35393E-02  2964   0.433E-01    0.388E-01
DAV:   3    -0.115766734550E+04   -0.16756E-02   -0.63034E-03  3408   0.434E-01    0.888E-01
DAV:   4    -0.115766580679E+04    0.15387E-02   -0.29433E-03  3108   0.253E-01    0.409E-01
DAV:   5    -0.115766546798E+04    0.33881E-03   -0.16305E-03  3216   0.171E-01    0.176E-01
DAV:   6    -0.115766565906E+04   -0.19108E-03   -0.13845E-03  3264   0.114E-01    0.278E-01
DAV:   7    -0.115766551775E+04    0.14131E-03   -0.10062E-03  2988   0.116E-01    0.153E-01
DAV:   8    -0.115766554845E+04   -0.30707E-04   -0.40381E-04  3204   0.120E-01    0.108E-01
DAV:   9    -0.115766555853E+04   -0.10081E-04   -0.15177E-04  2952   0.745E-02    0.893E-02
DAV:  10    -0.115766555065E+04    0.78862E-05   -0.74275E-05  2808   0.520E-02    0.504E-02
DAV:  11    -0.115766555861E+04   -0.79651E-05   -0.27476E-05  2124   0.261E-02    0.312E-02
DAV:  12    -0.115766556173E+04   -0.31165E-05   -0.18098E-05  2088   0.215E-02    0.234E-02
DAV:  13    -0.115766556628E+04   -0.45470E-05   -0.76814E-06  1824   0.142E-02    0.123E-02
DAV:  14    -0.115766557159E+04   -0.53104E-05   -0.29389E-06  1716   0.936E-03    0.871E-03
DAV:  15    -0.115766557530E+04   -0.37178E-05   -0.22305E-06  1644   0.771E-03    0.910E-03
DAV:  16    -0.115766557779E+04   -0.24868E-05   -0.12778E-06  1536   0.584E-03    0.513E-03
DAV:  17    -0.115766558005E+04   -0.22564E-05   -0.46732E-07  1452   0.365E-03    0.349E-03
DAV:  18    -0.115766558361E+04   -0.35589E-05   -0.32148E-07  1464   0.269E-03    0.291E-03
DAV:  19    -0.115766558712E+04   -0.35114E-05   -0.34813E-07  1476   0.301E-03    0.440E-03
DAV:  20    -0.115766558895E+04   -0.18369E-05   -0.25762E-07  1464   0.292E-03    0.260E-03
DAV:  21    -0.115766559107E+04   -0.21170E-05   -0.14773E-07  1464   0.152E-03    0.146E-03
DAV:  22    -0.115766559265E+04   -0.15747E-05   -0.11752E-07  1464   0.966E-04    0.147E-03
DAV:  23    -0.115766559363E+04   -0.98749E-06   -0.76827E-08  1428   0.113E-03
  74 F= -.11653621E+04 E0= -.11653586E+04  d E =-.142682E-02  mag=    13.0828
 trial-energy change:   -0.001427  1 .order   -0.001436   -0.002032   -0.000840
 step:   0.2828(harm=  0.2726)  dis= 0.00549  next Energy= -1165.362427 (dE=-0.175E-02)
 bond charge predicted
       N       E                     dE             d eps       ncg     rms          rms(c)
DAV:   1    -0.115766358367E+04    0.20090E-02   -0.89160E-01  1992   0.207E+00    0.237E-01
DAV:   2    -0.115766577805E+04   -0.21944E-02   -0.20935E-02  2904   0.334E-01    0.300E-01
DAV:   3    -0.115766677777E+04   -0.99972E-03   -0.37765E-03  3408   0.333E-01    0.686E-01
DAV:   4    -0.115766586033E+04    0.91744E-03   -0.18570E-03  3072   0.195E-01    0.317E-01
DAV:   5    -0.115766566171E+04    0.19862E-03   -0.97581E-04  3204   0.132E-01    0.134E-01
DAV:   6    -0.115766577931E+04   -0.11760E-03   -0.80685E-04  3288   0.879E-02    0.213E-01
DAV:   7    -0.115766569596E+04    0.83358E-04   -0.59214E-04  3012   0.894E-02    0.119E-01
DAV:   8    -0.115766571678E+04   -0.20824E-04   -0.23911E-04  3156   0.923E-02    0.823E-02
DAV:   9    -0.115766572635E+04   -0.95676E-05   -0.90373E-05  2964   0.568E-02    0.685E-02
DAV:  10    -0.115766572238E+04    0.39728E-05   -0.43733E-05  2352   0.398E-02    0.383E-02
DAV:  11    -0.115766572909E+04   -0.67126E-05   -0.15867E-05  2076   0.200E-02    0.239E-02
DAV:  12    -0.115766573173E+04   -0.26383E-05   -0.10565E-05  1992   0.166E-02    0.178E-02
DAV:  13    -0.115766573561E+04   -0.38826E-05   -0.45566E-06  1788   0.110E-02    0.979E-03
DAV:  14    -0.115766573986E+04   -0.42481E-05   -0.18671E-06  1680   0.744E-03    0.684E-03
DAV:  15    -0.115766574289E+04   -0.30320E-05   -0.13428E-06  1500   0.593E-03    0.702E-03
DAV:  16    -0.115766574499E+04   -0.20983E-05   -0.78017E-07  1476   0.452E-03    0.396E-03
DAV:  17    -0.115766574695E+04   -0.19605E-05   -0.29206E-07  1464   0.282E-03    0.275E-03
DAV:  18    -0.115766574992E+04   -0.29694E-05   -0.22353E-07  1452   0.214E-03    0.237E-03
DAV:  19    -0.115766575276E+04   -0.28403E-05   -0.23261E-07  1488   0.240E-03    0.353E-03
DAV:  20    -0.115766575440E+04   -0.16378E-05   -0.17088E-07  1440   0.231E-03    0.201E-03
DAV:  21    -0.115766575621E+04   -0.18116E-05   -0.10812E-07  1476   0.119E-03    0.123E-03
DAV:  22    -0.115766575757E+04   -0.13652E-05   -0.87967E-08  1452   0.807E-04    0.123E-03
DAV:  23    -0.115766575845E+04   -0.87814E-06   -0.55223E-08  1428   0.931E-04
  75 F= -.11653624E+04 E0= -.11653589E+04  d E =-.172062E-02  mag=    13.0832
 curvature:  -2.61 expect dE=-0.497E-01 dE for cont linesearch -0.264E-05
 trial: gam= 1.29945 g(F)=  0.190E-01 g(S)=  0.000E+00 ort =-0.498E-03 (trialstep = 0.105E+00)
 search vector abs. value=  0.432E+00
 bond charge predicted
       N       E                     dE             d eps       ncg     rms          rms(c)
DAV:   1    -0.115766446183E+04    0.12957E-02   -0.11264E+00  1992   0.232E+00    0.268E-01
DAV:   2    -0.115766716283E+04   -0.27010E-02   -0.26160E-02  2928   0.367E-01    0.297E-01
DAV:   3    -0.115766850820E+04   -0.13454E-02   -0.44824E-03  3372   0.369E-01    0.752E-01
DAV:   4    -0.115766731490E+04    0.11933E-02   -0.21367E-03  3012   0.228E-01    0.338E-01
DAV:   5    -0.115766711581E+04    0.19909E-03   -0.10724E-03  3204   0.141E-01    0.143E-01
DAV:   6    -0.115766726149E+04   -0.14568E-03   -0.96230E-04  3252   0.943E-02    0.234E-01
DAV:   7    -0.115766715018E+04    0.11130E-03   -0.71437E-04  3060   0.935E-02    0.119E-01
DAV:   8    -0.115766719520E+04   -0.45019E-04   -0.28084E-04  3144   0.971E-02    0.988E-02
DAV:   9    -0.115766719423E+04    0.96905E-06   -0.12326E-04  3036   0.658E-02    0.737E-02
DAV:  10    -0.115766719377E+04    0.46481E-06   -0.57723E-05  2544   0.441E-02    0.481E-02
DAV:  11    -0.115766719985E+04   -0.60852E-05   -0.21834E-05  2160   0.232E-02    0.260E-02
DAV:  12    -0.115766720300E+04   -0.31511E-05   -0.13551E-05  1992   0.182E-02    0.202E-02
DAV:  13    -0.115766720813E+04   -0.51208E-05   -0.56976E-06  1824   0.117E-02    0.107E-02
DAV:  14    -0.115766721177E+04   -0.36458E-05   -0.22848E-06  1740   0.819E-03    0.680E-03
DAV:  15    -0.115766721608E+04   -0.43075E-05   -0.16040E-06  1548   0.609E-03    0.811E-03
DAV:  16    -0.115766721816E+04   -0.20780E-05   -0.92116E-07  1512   0.504E-03    0.376E-03
DAV:  17    -0.115766722092E+04   -0.27639E-05   -0.25570E-07  1416   0.243E-03    0.278E-03
DAV:  18    -0.115766722375E+04   -0.28345E-05   -0.25567E-07  1500   0.264E-03    0.309E-03
DAV:  19    -0.115766722624E+04   -0.24896E-05   -0.25641E-07  1464   0.271E-03    0.326E-03
DAV:  20    -0.115766722801E+04   -0.17645E-05   -0.15568E-07  1464   0.218E-03    0.197E-03
DAV:  21    -0.115766722984E+04   -0.18338E-05   -0.11675E-07  1428   0.135E-03    0.159E-03
DAV:  22    -0.115766723078E+04   -0.93529E-06   -0.83187E-08  1476   0.118E-03
  76 F= -.11653640E+04 E0= -.11653604E+04  d E =-.155357E-02  mag=    13.0838
 trial-energy change:   -0.001554  1 .order   -0.001555   -0.001926   -0.001185
 step:   0.2723(harm=  0.2723)  dis= 0.00703  next Energy= -1165.364904 (dE=-0.250E-02)
 bond charge predicted
       N       E                     dE             d eps       ncg     rms          rms(c)
DAV:   1    -0.115766096437E+04    0.62655E-02   -0.28805E+00  1992   0.371E+00    0.429E-01
DAV:   2    -0.115766799882E+04   -0.70345E-02   -0.66891E-02  2928   0.587E-01    0.474E-01
DAV:   3    -0.115767138327E+04   -0.33845E-02   -0.11481E-02  3384   0.592E-01    0.120E+00
DAV:   4    -0.115766836039E+04    0.30229E-02   -0.53107E-03  3024   0.366E-01    0.539E-01
DAV:   5    -0.115766783069E+04    0.52969E-03   -0.27284E-03  3240   0.225E-01    0.229E-01
DAV:   6    -0.115766818694E+04   -0.35625E-03   -0.24547E-03  3264   0.150E-01    0.382E-01
DAV:   7    -0.115766788309E+04    0.30385E-03   -0.18155E-03  3096   0.149E-01    0.184E-01
DAV:   8    -0.115766799310E+04   -0.11001E-03   -0.73426E-04  3180   0.155E-01    0.163E-01
DAV:   9    -0.115766796618E+04    0.26912E-04   -0.34278E-04  3048   0.107E-01    0.112E-01
DAV:  10    -0.115766797026E+04   -0.40760E-05   -0.15344E-04  3060   0.696E-02    0.800E-02
DAV:  11    -0.115766797509E+04   -0.48344E-05   -0.53213E-05  2544   0.385E-02    0.306E-02
DAV:  12    -0.115766798740E+04   -0.12306E-04   -0.25076E-05  2196   0.264E-02    0.378E-02
DAV:  13    -0.115766799432E+04   -0.69243E-05   -0.15338E-05  1920   0.197E-02    0.171E-02
DAV:  14    -0.115766800263E+04   -0.83054E-05   -0.62294E-06  1824   0.129E-02    0.126E-02
DAV:  15    -0.115766801110E+04   -0.84673E-05   -0.51098E-06  1716   0.105E-02    0.128E-02
DAV:  16    -0.115766801617E+04   -0.50700E-05   -0.25119E-06  1632   0.800E-03    0.643E-03
DAV:  17    -0.115766802133E+04   -0.51616E-05   -0.75348E-07  1512   0.427E-03    0.450E-03
DAV:  18    -0.115766802759E+04   -0.62561E-05   -0.51214E-07  1476   0.386E-03    0.443E-03
DAV:  19    -0.115766803395E+04   -0.63667E-05   -0.59256E-07  1488   0.409E-03    0.537E-03
DAV:  20    -0.115766803733E+04   -0.33766E-05   -0.41721E-07  1488   0.352E-03    0.344E-03
DAV:  21    -0.115766804103E+04   -0.37023E-05   -0.25486E-07  1464   0.214E-03    0.232E-03
DAV:  22    -0.115766804350E+04   -0.24715E-05   -0.18544E-07  1476   0.176E-03    0.244E-03
DAV:  23    -0.115766804575E+04   -0.22429E-05   -0.14269E-07  1452   0.162E-03    0.159E-03
DAV:  24    -0.115766804932E+04   -0.35700E-05   -0.13143E-07  1464   0.775E-04    0.141E-03
DAV:  25    -0.115766805155E+04   -0.22351E-05   -0.90961E-08  1476   0.815E-04    0.137E-03
DAV:  26    -0.115766805471E+04   -0.31610E-05   -0.79986E-08  1428   0.978E-04    0.137E-03
DAV:  27    -0.115766805814E+04   -0.34278E-05   -0.93206E-08  1476   0.967E-04    0.106E-03
DAV:  28    -0.115766806140E+04   -0.32617E-05   -0.13752E-07  1488   0.765E-04    0.961E-04
DAV:  29    -0.115766806185E+04   -0.44434E-06   -0.75679E-08  1536   0.676E-04
  77 F= -.11653649E+04 E0= -.11653614E+04  d E =-.251529E-02  mag=    13.0848
 curvature:  -3.20 expect dE=-0.407E-01 dE for cont linesearch -0.754E-07
 trial: gam= 0.65457 g(F)=  0.127E-01 g(S)=  0.000E+00 ort = 0.101E-03 (trialstep = 0.138E+00)
 search vector abs. value=  0.198E+00
 bond charge predicted
       N       E                     dE             d eps       ncg     rms          rms(c)
DAV:   1    -0.115766727089E+04    0.79051E-03   -0.87718E-01  1992   0.205E+00    0.246E-01
DAV:   2    -0.115766931521E+04   -0.20443E-02   -0.20611E-02  2796   0.314E-01    0.239E-01
DAV:   3    -0.115767067125E+04   -0.13560E-02   -0.42806E-03  3444   0.309E-01    0.777E-01
DAV:   4    -0.115766934663E+04    0.13246E-02   -0.27222E-03  3036   0.203E-01    0.225E-01
DAV:   5    -0.115766938706E+04   -0.40432E-04   -0.59258E-04  3168   0.121E-01    0.127E-01
DAV:   6    -0.115766948862E+04   -0.10156E-03   -0.60243E-04  3024   0.788E-02    0.206E-01
DAV:   7    -0.115766939428E+04    0.94342E-04   -0.48496E-04  3120   0.852E-02    0.951E-02
DAV:   8    -0.115766948859E+04   -0.94308E-04   -0.20079E-04  3132   0.842E-02    0.137E-01
DAV:   9    -0.115766943863E+04    0.49955E-04   -0.17825E-04  3132   0.749E-02    0.819E-02
DAV:  10    -0.115766944112E+04   -0.24852E-05   -0.76422E-05  2712   0.396E-02    0.595E-02
DAV:  11    -0.115766944246E+04   -0.13388E-05   -0.31065E-05  2196   0.289E-02    0.261E-02
DAV:  12    -0.115766944666E+04   -0.42060E-05   -0.11162E-05  1908   0.186E-02    0.161E-02
DAV:  13    -0.115766945079E+04   -0.41247E-05   -0.37564E-06  1728   0.106E-02    0.904E-03
DAV:  14    -0.115766945334E+04   -0.25543E-05   -0.19633E-06  1704   0.783E-03    0.678E-03
DAV:  15    -0.115766945648E+04   -0.31379E-05   -0.15759E-06  1560   0.639E-03    0.875E-03
DAV:  16    -0.115766945847E+04   -0.19890E-05   -0.85412E-07  1476   0.516E-03    0.270E-03
DAV:  17    -0.115766946045E+04   -0.19807E-05   -0.27848E-07  1476   0.213E-03    0.255E-03
DAV:  18    -0.115766946187E+04   -0.14150E-05   -0.28787E-07  1464   0.286E-03    0.335E-03
DAV:  19    -0.115766946353E+04   -0.16660E-05   -0.20705E-07  1440   0.224E-03    0.201E-03
DAV:  20    -0.115766946457E+04   -0.10353E-05   -0.10721E-07  1452   0.165E-03    0.157E-03
DAV:  21    -0.115766946563E+04   -0.10668E-05   -0.85197E-08  1440   0.135E-03    0.134E-03
DAV:  22    -0.115766946629E+04   -0.65561E-06   -0.59081E-08  1440   0.110E-03
  78 F= -.11653663E+04 E0= -.11653627E+04  d E =-.137841E-02  mag=    13.0857
 trial-energy change:   -0.001378  1 .order   -0.001380   -0.001767   -0.000994
 step:   0.3159(harm=  0.3159)  dis= 0.00532  next Energy= -1165.366936 (dE=-0.202E-02)
 bond charge predicted
       N       E                     dE             d eps       ncg     rms          rms(c)
DAV:   1    -0.115766652473E+04    0.29409E-02   -0.14480E+00  1992   0.263E+00    0.315E-01
DAV:   2    -0.115766993544E+04   -0.34107E-02   -0.34017E-02  2808   0.403E-01    0.305E-01
DAV:   3    -0.115767214353E+04   -0.22081E-02   -0.72511E-03  3444   0.396E-01    0.996E-01
DAV:   4    -0.115766999017E+04    0.21534E-02   -0.45655E-03  3012   0.260E-01    0.289E-01
DAV:   5    -0.115767003348E+04   -0.43308E-04   -0.95611E-04  3162   0.155E-01    0.160E-01
DAV:   6    -0.115767018828E+04   -0.15481E-03   -0.94433E-04  2976   0.100E-01    0.259E-01
DAV:   7    -0.115767004366E+04    0.14463E-03   -0.79174E-04  3108   0.108E-01    0.125E-01
DAV:   8    -0.115767018653E+04   -0.14288E-03   -0.32948E-04  3180   0.107E-01    0.175E-01
DAV:   9    -0.115767010479E+04    0.81745E-04   -0.29123E-04  3180   0.962E-02    0.105E-01
DAV:  10    -0.115767010802E+04   -0.32263E-05   -0.12649E-04  2952   0.509E-02    0.768E-02
DAV:  11    -0.115767010898E+04   -0.96742E-06   -0.50379E-05  2304   0.367E-02    0.326E-02
DAV:  12    -0.115767011552E+04   -0.65333E-05   -0.18410E-05  1992   0.237E-02    0.211E-02
DAV:  13    -0.115767012201E+04   -0.64941E-05   -0.64134E-06  1860   0.138E-02    0.116E-02
DAV:  14    -0.115767012619E+04   -0.41818E-05   -0.34361E-06  1776   0.101E-02    0.909E-03
DAV:  15    -0.115767013128E+04   -0.50916E-05   -0.28097E-06  1656   0.831E-03    0.114E-02
DAV:  16    -0.115767013458E+04   -0.32931E-05   -0.14862E-06  1560   0.662E-03    0.346E-03
DAV:  17    -0.115767013772E+04   -0.31380E-05   -0.45299E-07  1476   0.280E-03    0.332E-03
DAV:  18    -0.115767014010E+04   -0.23847E-05   -0.44970E-07  1476   0.366E-03    0.423E-03
DAV:  19    -0.115767014283E+04   -0.27329E-05   -0.34317E-07  1464   0.292E-03    0.278E-03
DAV:  20    -0.115767014460E+04   -0.17647E-05   -0.18159E-07  1476   0.221E-03    0.201E-03
DAV:  21    -0.115767014644E+04   -0.18401E-05   -0.14490E-07  1428   0.171E-03    0.168E-03
DAV:  22    -0.115767014751E+04   -0.10698E-05   -0.10337E-07  1452   0.139E-03    0.150E-03
DAV:  23    -0.115767014889E+04   -0.13829E-05   -0.72971E-08  1452   0.107E-03    0.852E-04
DAV:  24    -0.115767015051E+04   -0.16219E-05   -0.72668E-08  1440   0.551E-04    0.846E-04
DAV:  25    -0.115767015149E+04   -0.97867E-06   -0.39380E-08  1416   0.634E-04
  79 F= -.11653669E+04 E0= -.11653633E+04  d E =-.202058E-02  mag=    13.0872
 curvature:  -2.45 expect dE=-0.299E-01 dE for cont linesearch -0.966E-08
 trial: gam= 0.99258 g(F)=  0.122E-01 g(S)=  0.000E+00 ort = 0.280E-04 (trialstep = 0.166E+00)
 search vector abs. value=  0.207E+00
 bond charge predicted
       N       E                     dE             d eps       ncg     rms          rms(c)
DAV:   1    -0.115766842275E+04    0.17278E-02   -0.13291E+00  1992   0.252E+00    0.300E-01
DAV:   2    -0.115767169587E+04   -0.32731E-02   -0.31066E-02  2904   0.402E-01    0.354E-01
DAV:   3    -0.115767353628E+04   -0.18404E-02   -0.94782E-03  3432   0.419E-01    0.939E-01
DAV:   4    -0.115767180588E+04    0.17304E-02   -0.61697E-03  2988   0.254E-01    0.380E-01
DAV:   5    -0.115767157388E+04    0.23199E-03   -0.11597E-03  3228   0.176E-01    0.124E-01
DAV:   6    -0.115767171371E+04   -0.13983E-03   -0.49207E-04  3120   0.107E-01    0.181E-01
DAV:   7    -0.115767164588E+04    0.67831E-04   -0.53641E-04  3180   0.115E-01    0.148E-01
DAV:   8    -0.115767168879E+04   -0.42907E-04   -0.43051E-04  3120   0.913E-02    0.157E-01
DAV:   9    -0.115767167716E+04    0.11629E-04   -0.29752E-04  3180   0.796E-02    0.122E-01
DAV:  10    -0.115767165719E+04    0.19966E-04   -0.14017E-04  2904   0.565E-02    0.562E-02
DAV:  11    -0.115767166825E+04   -0.11060E-04   -0.39013E-05  2088   0.324E-02    0.386E-02
DAV:  12    -0.115767167083E+04   -0.25728E-05   -0.22329E-05  2016   0.250E-02    0.198E-02
DAV:  13    -0.115767167654E+04   -0.57170E-05   -0.61846E-06  1872   0.141E-02    0.115E-02
DAV:  14    -0.115767168170E+04   -0.51561E-05   -0.21931E-06  1740   0.813E-03    0.713E-03
DAV:  15    -0.115767168584E+04   -0.41427E-05   -0.13634E-06  1536   0.641E-03    0.697E-03
DAV:  16    -0.115767168877E+04   -0.29258E-05   -0.95430E-07  1500   0.538E-03    0.535E-03
DAV:  17    -0.115767169154E+04   -0.27734E-05   -0.46787E-07  1488   0.376E-03    0.301E-03
DAV:  18    -0.115767169590E+04   -0.43603E-05   -0.33291E-07  1428   0.255E-03    0.319E-03
DAV:  19    -0.115767169898E+04   -0.30837E-05   -0.33303E-07  1476   0.262E-03    0.357E-03
DAV:  20    -0.115767170067E+04   -0.16899E-05   -0.19529E-07  1452   0.226E-03    0.154E-03
DAV:  21    -0.115767170271E+04   -0.20354E-05   -0.11545E-07  1416   0.106E-03    0.120E-03
DAV:  22    -0.115767170390E+04   -0.11939E-05   -0.76270E-08  1464   0.106E-03    0.128E-03
DAV:  23    -0.115767170556E+04   -0.16586E-05   -0.51674E-08  1428   0.101E-03    0.957E-04
DAV:  24    -0.115767170770E+04   -0.21362E-05   -0.46615E-08  1452   0.623E-04    0.748E-04
DAV:  25    -0.115767170889E+04   -0.11901E-05   -0.35157E-08  1440   0.557E-04    0.793E-04
DAV:  26    -0.115767171070E+04   -0.18154E-05   -0.32247E-08  1428   0.571E-04    0.539E-04
DAV:  27    -0.115767171259E+04   -0.18860E-05   -0.36116E-08  1452   0.423E-04    0.546E-04
DAV:  28    -0.115767171374E+04   -0.11532E-05   -0.29928E-08  1464   0.389E-04    0.554E-04
DAV:  29    -0.115767171451E+04   -0.76366E-06   -0.18550E-08  1428   0.392E-04
  80 F= -.11653684E+04 E0= -.11653648E+04  d E =-.149741E-02  mag=    13.0871
 trial-energy change:   -0.001497  1 .order   -0.001494   -0.002031   -0.000957
 step:   0.3139(harm=  0.3139)  dis= 0.00516  next Energy= -1165.368858 (dE=-0.192E-02)
 bond charge predicted
       N       E                     dE             d eps       ncg     rms          rms(c)
DAV:   1    -0.115766959725E+04    0.21165E-02   -0.10557E+00  1992   0.224E+00    0.267E-01
DAV:   2    -0.115767217809E+04   -0.25808E-02   -0.24639E-02  2904   0.358E-01    0.314E-01
DAV:   3    -0.115767364695E+04   -0.14689E-02   -0.73032E-03  3408   0.374E-01    0.837E-01
DAV:   4    -0.115767227037E+04    0.13766E-02   -0.49637E-03  2988   0.227E-01    0.340E-01
DAV:   5    -0.115767209241E+04    0.17795E-03   -0.92592E-04  3168   0.157E-01    0.111E-01
DAV:   6    -0.115767220752E+04   -0.11511E-03   -0.39523E-04  3096   0.960E-02    0.163E-01
DAV:   7    -0.115767215272E+04    0.54799E-04   -0.42581E-04  3156   0.102E-01    0.133E-01
DAV:   8    -0.115767218654E+04   -0.33820E-04   -0.33930E-04  3132   0.819E-02    0.138E-01
DAV:   9    -0.115767218044E+04    0.61030E-05   -0.23885E-04  3156   0.712E-02    0.111E-01
DAV:  10    -0.115767216287E+04    0.17568E-04   -0.11657E-04  2832   0.513E-02    0.503E-02
DAV:  11    -0.115767217231E+04   -0.94376E-05   -0.31327E-05  2052   0.293E-02    0.355E-02
DAV:  12    -0.115767217408E+04   -0.17719E-05   -0.17794E-05  1980   0.224E-02    0.170E-02
DAV:  13    -0.115767217884E+04   -0.47653E-05   -0.50451E-06  1872   0.125E-02    0.103E-02
DAV:  14    -0.115767218300E+04   -0.41567E-05   -0.17883E-06  1704   0.725E-03    0.647E-03
DAV:  15    -0.115767218634E+04   -0.33400E-05   -0.11142E-06  1476   0.579E-03    0.631E-03
DAV:  16    -0.115767218871E+04   -0.23699E-05   -0.78274E-07  1500   0.484E-03    0.478E-03
DAV:  17    -0.115767219103E+04   -0.23202E-05   -0.38939E-07  1476   0.338E-03    0.268E-03
DAV:  18    -0.115767219455E+04   -0.35230E-05   -0.26860E-07  1440   0.226E-03    0.285E-03
DAV:  19    -0.115767219695E+04   -0.24003E-05   -0.26651E-07  1464   0.234E-03    0.318E-03
DAV:  20    -0.115767219836E+04   -0.14045E-05   -0.15437E-07  1452   0.198E-03    0.138E-03
DAV:  21    -0.115767219996E+04   -0.16062E-05   -0.91009E-08  1416   0.951E-04    0.112E-03
DAV:  22    -0.115767220089E+04   -0.92756E-06   -0.59251E-08  1452   0.970E-04
  81 F= -.11653689E+04 E0= -.11653653E+04  d E =-.191491E-02  mag=    13.0870
 curvature:  -2.66 expect dE=-0.284E-01 dE for cont linesearch -0.312E-07
 trial: gam= 0.87561 g(F)=  0.107E-01 g(S)=  0.000E+00 ort =-0.493E-04 (trialstep = 0.196E+00)
 search vector abs. value=  0.170E+00
 bond charge predicted
       N       E                     dE             d eps       ncg     rms          rms(c)
DAV:   1    -0.115766987518E+04    0.23248E-02   -0.14913E+00  1992   0.266E+00    0.322E-01
DAV:   2    -0.115767351373E+04   -0.36386E-02   -0.34866E-02  2880   0.422E-01    0.369E-01
DAV:   3    -0.115767565164E+04   -0.21379E-02   -0.12030E-02  3420   0.439E-01    0.102E+00
DAV:   4    -0.115767358325E+04    0.20684E-02   -0.78330E-03  3024   0.270E-01    0.376E-01
DAV:   5    -0.115767344761E+04    0.13563E-03   -0.10575E-03  3174   0.181E-01    0.138E-01
DAV:   6    -0.115767360100E+04   -0.15338E-03   -0.44856E-04  3060   0.116E-01    0.203E-01
DAV:   7    -0.115767351769E+04    0.83307E-04   -0.58679E-04  3144   0.132E-01    0.169E-01
DAV:   8    -0.115767357972E+04   -0.62032E-04   -0.69454E-04  3216   0.105E-01    0.192E-01
DAV:   9    -0.115767353455E+04    0.45167E-04   -0.26859E-04  3228   0.941E-02    0.134E-01
DAV:  10    -0.115767351462E+04    0.19939E-04   -0.16620E-04  3072   0.606E-02    0.676E-02
DAV:  11    -0.115767352250E+04   -0.78797E-05   -0.60085E-05  2196   0.358E-02    0.413E-02
DAV:  12    -0.115767352813E+04   -0.56360E-05   -0.26539E-05  2064   0.274E-02    0.228E-02
DAV:  13    -0.115767353606E+04   -0.79322E-05   -0.71692E-06  1860   0.153E-02    0.130E-02
DAV:  14    -0.115767354419E+04   -0.81296E-05   -0.26740E-06  1740   0.898E-03    0.820E-03
DAV:  15    -0.115767354925E+04   -0.50618E-05   -0.16601E-06  1596   0.724E-03    0.808E-03
DAV:  16    -0.115767355383E+04   -0.45792E-05   -0.10963E-06  1512   0.570E-03    0.592E-03
DAV:  17    -0.115767355814E+04   -0.43057E-05   -0.64198E-07  1464   0.422E-03    0.444E-03
DAV:  18    -0.115767356538E+04   -0.72413E-05   -0.49660E-07  1476   0.295E-03    0.425E-03
DAV:  19    -0.115767356955E+04   -0.41700E-05   -0.42897E-07  1476   0.301E-03    0.409E-03
DAV:  20    -0.115767357195E+04   -0.23963E-05   -0.25645E-07  1440   0.247E-03    0.205E-03
DAV:  21    -0.115767357540E+04   -0.34571E-05   -0.16920E-07  1440   0.125E-03    0.185E-03
DAV:  22    -0.115767357767E+04   -0.22633E-05   -0.12344E-07  1464   0.126E-03    0.203E-03
DAV:  23    -0.115767358054E+04   -0.28703E-05   -0.92873E-08  1428   0.132E-03    0.172E-03
DAV:  24    -0.115767358461E+04   -0.40703E-05   -0.98183E-08  1476   0.900E-04    0.126E-03
DAV:  25    -0.115767358715E+04   -0.25456E-05   -0.91197E-08  1464   0.933E-04    0.145E-03
DAV:  26    -0.115767359031E+04   -0.31606E-05   -0.94066E-08  1452   0.103E-03    0.880E-04
DAV:  27    -0.115767359294E+04   -0.26254E-05   -0.10506E-07  1500   0.682E-04    0.926E-04
DAV:  28    -0.115767359399E+04   -0.10468E-05   -0.74603E-08  1476   0.554E-04    0.820E-04
DAV:  29    -0.115767359485E+04   -0.86497E-06   -0.45558E-08  1416   0.526E-04
  82 F= -.11653702E+04 E0= -.11653667E+04  d E =-.138690E-02  mag=    13.0869
 trial-energy change:   -0.001387  1 .order   -0.001377   -0.002081   -0.000672
 step:   0.2833(harm=  0.2888)  dis= 0.00408  next Energy= -1165.370391 (dE=-0.154E-02)
 bond charge predicted
       N       E                     dE             d eps       ncg     rms          rms(c)
DAV:   1    -0.115767301220E+04    0.58179E-03   -0.30006E-01  1992   0.119E+00    0.144E-01
DAV:   2    -0.115767371309E+04   -0.70089E-03   -0.70188E-03  2880   0.189E-01    0.166E-01
DAV:   3    -0.115767415699E+04   -0.44390E-03   -0.24037E-03  3444   0.197E-01    0.459E-01
DAV:   4    -0.115767372099E+04    0.43600E-03   -0.16226E-03  3000   0.121E-01    0.170E-01
DAV:   5    -0.115767371451E+04    0.64770E-05   -0.21463E-04  3144   0.820E-02    0.619E-02
DAV:   6    -0.115767375322E+04   -0.38707E-04   -0.92868E-05  3048   0.535E-02    0.933E-02
DAV:   7    -0.115767373529E+04    0.17936E-04   -0.11575E-04  3072   0.594E-02    0.730E-02
DAV:   8    -0.115767375134E+04   -0.16050E-04   -0.13986E-04  2916   0.481E-02    0.862E-02
DAV:   9    -0.115767374355E+04    0.77865E-05   -0.55481E-05  2604   0.417E-02    0.631E-02
DAV:  10    -0.115767373990E+04    0.36466E-05   -0.34674E-05  2184   0.281E-02    0.306E-02
DAV:  11    -0.115767374252E+04   -0.26184E-05   -0.12531E-05  1764   0.167E-02    0.194E-02
DAV:  12    -0.115767374429E+04   -0.17700E-05   -0.56155E-06  1788   0.129E-02    0.970E-03
DAV:  13    -0.115767374656E+04   -0.22685E-05   -0.13916E-06  1560   0.695E-03    0.602E-03
DAV:  14    -0.115767374858E+04   -0.20201E-05   -0.60049E-07  1476   0.414E-03    0.386E-03
DAV:  15    -0.115767375002E+04   -0.14426E-05   -0.39563E-07  1440   0.334E-03    0.377E-03
DAV:  16    -0.115767375126E+04   -0.12406E-05   -0.27478E-07  1428   0.266E-03    0.272E-03
DAV:  17    -0.115767375257E+04   -0.13038E-05   -0.15761E-07  1440   0.194E-03    0.193E-03
DAV:  18    -0.115767375433E+04   -0.17645E-05   -0.11317E-07  1476   0.127E-03    0.169E-03
DAV:  19    -0.115767375552E+04   -0.11902E-05   -0.88600E-08  1452   0.114E-03    0.164E-03
DAV:  20    -0.115767375606E+04   -0.54231E-06   -0.49947E-08  1428   0.111E-03
  83 F= -.11653704E+04 E0= -.11653668E+04  d E =-.154306E-02  mag=    13.0869
 curvature:  -2.29 expect dE=-0.271E-01 dE for cont linesearch -0.449E-06
 trial: gam= 1.07688 g(F)=  0.118E-01 g(S)=  0.000E+00 ort = 0.182E-03 (trialstep = 0.173E+00)
 search vector abs. value=  0.209E+00
 bond charge predicted
       N       E                     dE             d eps       ncg     rms          rms(c)
DAV:   1    -0.115767148924E+04    0.22663E-02   -0.14223E+00  1992   0.259E+00    0.319E-01
DAV:   2    -0.115767480953E+04   -0.33203E-02   -0.33215E-02  2832   0.399E-01    0.305E-01
DAV:   3    -0.115767703293E+04   -0.22234E-02   -0.12674E-02  3468   0.392E-01    0.104E+00
DAV:   4    -0.115767473299E+04    0.22999E-02   -0.80104E-03  3000   0.261E-01    0.276E-01
DAV:   5    -0.115767493400E+04   -0.20100E-03   -0.69844E-04  3198   0.168E-01    0.159E-01
DAV:   6    -0.115767511228E+04   -0.17828E-03   -0.47644E-04  2988   0.109E-01    0.282E-01
DAV:   7    -0.115767493581E+04    0.17647E-03   -0.62726E-04  3156   0.105E-01    0.124E-01
DAV:   8    -0.115767504725E+04   -0.11144E-03   -0.40579E-04  3252   0.102E-01    0.164E-01
DAV:   9    -0.115767497137E+04    0.75886E-04   -0.22174E-04  3192   0.938E-02    0.995E-02
DAV:  10    -0.115767497695E+04   -0.55867E-05   -0.10144E-04  2832   0.474E-02    0.740E-02
DAV:  11    -0.115767497687E+04    0.83899E-07   -0.59829E-05  2280   0.369E-02    0.310E-02
DAV:  12    -0.115767498644E+04   -0.95644E-05   -0.16107E-05  1860   0.216E-02    0.262E-02
DAV:  13    -0.115767499566E+04   -0.92288E-05   -0.60691E-06  1812   0.138E-02    0.968E-03
DAV:  14    -0.115767500312E+04   -0.74575E-05   -0.34463E-06  1716   0.909E-03    0.121E-02
DAV:  15    -0.115767500834E+04   -0.52138E-05   -0.24140E-06  1596   0.782E-03    0.706E-03
DAV:  16    -0.115767501276E+04   -0.44237E-05   -0.76820E-07  1452   0.483E-03    0.452E-03
DAV:  17    -0.115767501856E+04   -0.57979E-05   -0.56682E-07  1524   0.367E-03    0.476E-03
DAV:  18    -0.115767502545E+04   -0.68949E-05   -0.53966E-07  1440   0.336E-03    0.417E-03
DAV:  19    -0.115767502883E+04   -0.33741E-05   -0.34382E-07  1524   0.296E-03    0.342E-03
DAV:  20    -0.115767503192E+04   -0.30987E-05   -0.22849E-07  1452   0.218E-03    0.245E-03
DAV:  21    -0.115767503478E+04   -0.28559E-05   -0.17212E-07  1464   0.150E-03    0.202E-03
DAV:  22    -0.115767503701E+04   -0.22298E-05   -0.13126E-07  1464   0.105E-03    0.189E-03
DAV:  23    -0.115767503913E+04   -0.21190E-05   -0.86375E-08  1452   0.115E-03    0.183E-03
DAV:  24    -0.115767504324E+04   -0.41062E-05   -0.87981E-08  1452   0.920E-04    0.142E-03
DAV:  25    -0.115767504741E+04   -0.41771E-05   -0.12649E-07  1512   0.751E-04    0.131E-03
DAV:  26    -0.115767504951E+04   -0.20980E-05   -0.83117E-08  1464   0.100E-03    0.108E-03
DAV:  27    -0.115767505215E+04   -0.26385E-05   -0.86268E-08  1464   0.864E-04    0.907E-04
DAV:  28    -0.115767505416E+04   -0.20081E-05   -0.98888E-08  1476   0.738E-04    0.901E-04
DAV:  29    -0.115767505469E+04   -0.52862E-06   -0.63925E-08  1500   0.673E-04
  84 F= -.11653718E+04 E0= -.11653682E+04  d E =-.136094E-02  mag=    13.0869
 trial-energy change:   -0.001361  1 .order   -0.001352   -0.002077   -0.000627
 step:   0.2441(harm=  0.2479)  dis= 0.00399  next Energy= -1165.371886 (dE=-0.149E-02)
 bond charge predicted
       N       E                     dE             d eps       ncg     rms          rms(c)
DAV:   1    -0.115767456391E+04    0.49025E-03   -0.24032E-01  1992   0.106E+00    0.131E-01
DAV:   2    -0.115767509413E+04   -0.53022E-03   -0.56006E-03  2820   0.164E-01    0.125E-01
DAV:   3    -0.115767548455E+04   -0.39042E-03   -0.21273E-03  3420   0.161E-01    0.431E-01
DAV:   4    -0.115767506886E+04    0.41569E-03   -0.13906E-03  2988   0.107E-01    0.114E-01
DAV:   5    -0.115767512949E+04   -0.60636E-04   -0.11834E-04  3054   0.694E-02    0.655E-02
DAV:   6    -0.115767516701E+04   -0.37511E-04   -0.91104E-05  2928   0.449E-02    0.117E-01
DAV:   7    -0.115767513569E+04    0.31312E-04   -0.10849E-04  2988   0.434E-02    0.513E-02
DAV:   8    -0.115767515872E+04   -0.23026E-04   -0.68559E-05  2760   0.421E-02    0.661E-02
DAV:   9    -0.115767514610E+04    0.12622E-04   -0.37274E-05  2556   0.390E-02    0.414E-02
DAV:  10    -0.115767514761E+04   -0.15173E-05   -0.16986E-05  2004   0.198E-02    0.301E-02
DAV:  11    -0.115767514835E+04   -0.73335E-06   -0.10170E-05  1920   0.154E-02    0.130E-02
DAV:  12    -0.115767515068E+04   -0.23342E-05   -0.28926E-06  1620   0.928E-03    0.111E-02
DAV:  13    -0.115767515276E+04   -0.20757E-05   -0.10217E-06  1524   0.584E-03    0.402E-03
DAV:  14    -0.115767515453E+04   -0.17707E-05   -0.50067E-07  1464   0.346E-03    0.464E-03
DAV:  15    -0.115767515571E+04   -0.11770E-05   -0.42222E-07  1440   0.326E-03    0.290E-03
DAV:  16    -0.115767515703E+04   -0.13258E-05   -0.14057E-07  1464   0.191E-03    0.173E-03
DAV:  17    -0.115767515831E+04   -0.12828E-05   -0.11586E-07  1464   0.155E-03    0.184E-03
DAV:  18    -0.115767515985E+04   -0.15395E-05   -0.10023E-07  1428   0.138E-03    0.166E-03
DAV:  19    -0.115767516056E+04   -0.70252E-06   -0.60321E-08  1464   0.117E-03
  85 F= -.11653719E+04 E0= -.11653683E+04  d E =-.149213E-02  mag=    13.0869
 curvature:  -2.15 expect dE=-0.143E-01 dE for cont linesearch -0.171E-06
 trial: gam= 0.58888 g(F)=  0.663E-02 g(S)=  0.000E+00 ort = 0.129E-03 (trialstep = 0.187E+00)
 search vector abs. value=  0.792E-01
 bond charge predicted
       N       E                     dE             d eps       ncg     rms          rms(c)
DAV:   1    -0.115767449216E+04    0.66770E-03   -0.62205E-01  1992   0.171E+00    0.210E-01
DAV:   2    -0.115767591482E+04   -0.14227E-02   -0.14538E-02  2808   0.266E-01    0.192E-01
DAV:   3    -0.115767667370E+04   -0.75888E-03   -0.50370E-03  3468   0.263E-01    0.575E-01
DAV:   4    -0.115767591825E+04    0.75545E-03   -0.35672E-03  2940   0.174E-01    0.211E-01
DAV:   5    -0.115767597607E+04   -0.57825E-04   -0.39943E-04  3084   0.107E-01    0.114E-01
DAV:   6    -0.115767606852E+04   -0.92451E-04   -0.20371E-04  3060   0.708E-02    0.196E-01
DAV:   7    -0.115767597752E+04    0.91000E-04   -0.19157E-04  3072   0.736E-02    0.700E-02
DAV:   8    -0.115767602714E+04   -0.49613E-04   -0.16378E-04  3132   0.726E-02    0.934E-02
DAV:   9    -0.115767600451E+04    0.22630E-04   -0.10124E-04  3096   0.625E-02    0.640E-02
DAV:  10    -0.115767600097E+04    0.35382E-05   -0.41774E-05  2304   0.341E-02    0.384E-02
DAV:  11    -0.115767600641E+04   -0.54447E-05   -0.22602E-05  1992   0.213E-02    0.270E-02
DAV:  12    -0.115767600942E+04   -0.30037E-05   -0.11450E-05  1932   0.164E-02    0.134E-02
DAV:  13    -0.115767601478E+04   -0.53583E-05   -0.38746E-06  1764   0.956E-03    0.114E-02
DAV:  14    -0.115767601834E+04   -0.35672E-05   -0.17028E-06  1716   0.701E-03    0.529E-03
DAV:  15    -0.115767602280E+04   -0.44603E-05   -0.81283E-07  1488   0.440E-03    0.580E-03
DAV:  16    -0.115767602506E+04   -0.22534E-05   -0.54662E-07  1464   0.395E-03    0.310E-03
DAV:  17    -0.115767602815E+04   -0.30922E-05   -0.21134E-07  1452   0.227E-03    0.221E-03
DAV:  18    -0.115767603220E+04   -0.40526E-05   -0.21873E-07  1452   0.207E-03    0.237E-03
DAV:  19    -0.115767603524E+04   -0.30418E-05   -0.18682E-07  1476   0.204E-03    0.234E-03
DAV:  20    -0.115767603680E+04   -0.15612E-05   -0.11951E-07  1440   0.168E-03    0.147E-03
DAV:  21    -0.115767603851E+04   -0.17065E-05   -0.81095E-08  1428   0.102E-03    0.991E-04
DAV:  22    -0.115767604005E+04   -0.15374E-05   -0.61417E-08  1452   0.738E-04    0.107E-03
DAV:  23    -0.115767604132E+04   -0.12744E-05   -0.42692E-08  1416   0.802E-04    0.796E-04
DAV:  24    -0.115767604336E+04   -0.20351E-05   -0.36678E-08  1440   0.519E-04    0.621E-04
DAV:  25    -0.115767604507E+04   -0.17098E-05   -0.35627E-08  1440   0.439E-04    0.759E-04
DAV:  26    -0.115767604668E+04   -0.16076E-05   -0.28798E-08  1452   0.573E-04    0.588E-04
DAV:  27    -0.115767604798E+04   -0.13023E-05   -0.23414E-08  1440   0.446E-04    0.501E-04
DAV:  28    -0.115767604902E+04   -0.10420E-05   -0.25812E-08  1500   0.365E-04    0.450E-04
DAV:  29    -0.115767604973E+04   -0.71092E-06   -0.15352E-08  1428   0.334E-04
  86 F= -.11653729E+04 E0= -.11653693E+04  d E =-.100627E-02  mag=    13.0874
 trial-energy change:   -0.001006  1 .order   -0.001001   -0.001256   -0.000746
 step:   0.4267(harm=  0.4611)  dis= 0.00432  next Energy= -1165.373382 (dE=-0.149E-02)
 bond charge predicted
       N       E                     dE             d eps       ncg     rms          rms(c)
DAV:   1    -0.115767388834E+04    0.21607E-02   -0.10171E+00  1992   0.219E+00    0.269E-01
DAV:   2    -0.115767624860E+04   -0.23603E-02   -0.23796E-02  2832   0.340E-01    0.248E-01
DAV:   3    -0.115767750307E+04   -0.12545E-02   -0.85590E-03  3468   0.337E-01    0.747E-01
DAV:   4    -0.115767625096E+04    0.12521E-02   -0.59407E-03  2964   0.222E-01    0.268E-01
DAV:   5    -0.115767633496E+04   -0.84002E-04   -0.63668E-04  3084   0.136E-01    0.147E-01
DAV:   6    -0.115767648239E+04   -0.14743E-03   -0.33630E-04  3108   0.899E-02    0.251E-01
DAV:   7    -0.115767633166E+04    0.15073E-03   -0.30926E-04  3084   0.949E-02    0.864E-02
DAV:   8    -0.115767641277E+04   -0.81106E-04   -0.26792E-04  3144   0.926E-02    0.122E-01
DAV:   9    -0.115767636976E+04    0.43011E-04   -0.16645E-04  3204   0.804E-02    0.807E-02
DAV:  10    -0.115767636473E+04    0.50246E-05   -0.69048E-05  2736   0.431E-02    0.507E-02
DAV:  11    -0.115767637106E+04   -0.63233E-05   -0.37365E-05  2160   0.271E-02    0.337E-02
DAV:  12    -0.115767637514E+04   -0.40880E-05   -0.18116E-05  2004   0.205E-02    0.175E-02
DAV:  13    -0.115767638264E+04   -0.74925E-05   -0.64327E-06  1884   0.121E-02    0.145E-02
DAV:  14    -0.115767638730E+04   -0.46597E-05   -0.28100E-06  1788   0.891E-03    0.707E-03
DAV:  15    -0.115767639309E+04   -0.57935E-05   -0.13000E-06  1476   0.559E-03    0.725E-03
DAV:  16    -0.115767639593E+04   -0.28414E-05   -0.83892E-07  1524   0.490E-03    0.403E-03
DAV:  17    -0.115767640030E+04   -0.43719E-05   -0.32739E-07  1464   0.294E-03    0.288E-03
DAV:  18    -0.115767640611E+04   -0.58088E-05   -0.35694E-07  1464   0.274E-03    0.316E-03
DAV:  19    -0.115767641010E+04   -0.39837E-05   -0.28616E-07  1464   0.272E-03    0.301E-03
DAV:  20    -0.115767641230E+04   -0.22029E-05   -0.18176E-07  1452   0.213E-03    0.185E-03
DAV:  21    -0.115767641489E+04   -0.25958E-05   -0.12730E-07  1416   0.130E-03    0.119E-03
DAV:  22    -0.115767641713E+04   -0.22381E-05   -0.97171E-08  1488   0.940E-04    0.129E-03
DAV:  23    -0.115767641877E+04   -0.16354E-05   -0.66409E-08  1440   0.987E-04    0.923E-04
DAV:  24    -0.115767642172E+04   -0.29524E-05   -0.57575E-08  1416   0.611E-04    0.739E-04
DAV:  25    -0.115767642363E+04   -0.19072E-05   -0.47258E-08  1464   0.540E-04    0.843E-04
DAV:  26    -0.115767642593E+04   -0.23037E-05   -0.40815E-08  1464   0.659E-04    0.690E-04
DAV:  27    -0.115767642790E+04   -0.19670E-05   -0.37060E-08  1452   0.520E-04    0.557E-04
DAV:  28    -0.115767642949E+04   -0.15962E-05   -0.40633E-08  1452   0.405E-04    0.522E-04
DAV:  29    -0.115767643045E+04   -0.95642E-06   -0.23787E-08  1452   0.389E-04
  87 F= -.11653734E+04 E0= -.11653698E+04  d E =-.153653E-02  mag=    13.0880
 curvature:  -2.68 expect dE=-0.206E-01 dE for cont linesearch -0.778E-05
 trial: gam= 1.09487 g(F)=  0.768E-02 g(S)=  0.000E+00 ort = 0.479E-03 (trialstep = 0.180E+00)
 search vector abs. value=  0.104E+00
 bond charge predicted
       N       E                     dE             d eps       ncg     rms          rms(c)
DAV:   1    -0.115767546924E+04    0.96025E-03   -0.75830E-01  1992   0.189E+00    0.229E-01
DAV:   2    -0.115767717861E+04   -0.17094E-02   -0.17631E-02  2760   0.288E-01    0.208E-01
DAV:   3    -0.115767794439E+04   -0.76578E-03   -0.53176E-03  3420   0.271E-01    0.569E-01
DAV:   4    -0.115767718805E+04    0.75635E-03   -0.39109E-03  2928   0.181E-01    0.220E-01
DAV:   5    -0.115767727710E+04   -0.89053E-04   -0.63629E-04  3144   0.123E-01    0.168E-01
DAV:   6    -0.115767739738E+04   -0.12028E-03   -0.29014E-04  3096   0.934E-02    0.253E-01
DAV:   7    -0.115767723770E+04    0.15968E-03   -0.27851E-04  3144   0.994E-02    0.921E-02
DAV:   8    -0.115767727976E+04   -0.42063E-04   -0.21324E-04  3156   0.865E-02    0.937E-02
DAV:   9    -0.115767726064E+04    0.19123E-04   -0.10181E-04  3048   0.644E-02    0.629E-02
DAV:  10    -0.115767725688E+04    0.37651E-05   -0.41935E-05  2484   0.367E-02    0.391E-02
DAV:  11    -0.115767726394E+04   -0.70649E-05   -0.23960E-05  2136   0.220E-02    0.298E-02
DAV:  12    -0.115767726709E+04   -0.31520E-05   -0.12394E-05  1920   0.179E-02    0.160E-02
DAV:  13    -0.115767727202E+04   -0.49256E-05   -0.41667E-06  1800   0.110E-02    0.121E-02
DAV:  14    -0.115767727678E+04   -0.47626E-05   -0.18687E-06  1656   0.755E-03    0.635E-03
DAV:  15    -0.115767728223E+04   -0.54452E-05   -0.10420E-06  1524   0.503E-03    0.538E-03
DAV:  16    -0.115767728529E+04   -0.30662E-05   -0.62031E-07  1464   0.429E-03    0.437E-03
DAV:  17    -0.115767728796E+04   -0.26646E-05   -0.33846E-07  1488   0.305E-03    0.264E-03
DAV:  18    -0.115767729202E+04   -0.40573E-05   -0.23044E-07  1464   0.218E-03    0.212E-03
DAV:  19    -0.115767729654E+04   -0.45289E-05   -0.21205E-07  1452   0.176E-03    0.223E-03
DAV:  20    -0.115767729857E+04   -0.20294E-05   -0.15455E-07  1500   0.187E-03    0.188E-03
DAV:  21    -0.115767730126E+04   -0.26851E-05   -0.99021E-08  1416   0.124E-03    0.874E-04
DAV:  22    -0.115767730354E+04   -0.22792E-05   -0.80948E-08  1500   0.746E-04    0.106E-03
DAV:  23    -0.115767730494E+04   -0.13981E-05   -0.54760E-08  1464   0.868E-04    0.780E-04
DAV:  24    -0.115767730720E+04   -0.22615E-05   -0.40319E-08  1428   0.634E-04    0.609E-04
DAV:  25    -0.115767731027E+04   -0.30709E-05   -0.63439E-08  1440   0.451E-04    0.606E-04
DAV:  26    -0.115767731132E+04   -0.10558E-05   -0.32475E-08  1524   0.445E-04    0.482E-04
DAV:  27    -0.115767731275E+04   -0.14290E-05   -0.24817E-08  1428   0.432E-04    0.513E-04
DAV:  28    -0.115767731437E+04   -0.16142E-05   -0.26907E-08  1464   0.408E-04    0.366E-04
DAV:  29    -0.115767731574E+04   -0.13681E-05   -0.30294E-08  1428   0.331E-04    0.386E-04
DAV:  30    -0.115767731634E+04   -0.60334E-06   -0.19020E-08  1500   0.316E-04
  88 F= -.11653744E+04 E0= -.11653708E+04  d E =-.975161E-03  mag=    13.0876
 trial-energy change:   -0.000975  1 .order   -0.000974   -0.001473   -0.000474
 step:   0.2649(harm=  0.2649)  dis= 0.00337  next Energy= -1165.374510 (dE=-0.109E-02)
 bond charge predicted
       N       E                     dE             d eps       ncg     rms          rms(c)
DAV:   1    -0.115767697173E+04    0.34400E-03   -0.17085E-01  1992   0.898E-01    0.109E-01
DAV:   2    -0.115767733799E+04   -0.36626E-03   -0.39699E-03  2736   0.137E-01    0.989E-02
DAV:   3    -0.115767752044E+04   -0.18245E-03   -0.12092E-03  3372   0.129E-01    0.273E-01
DAV:   4    -0.115767733539E+04    0.18504E-03   -0.90050E-04  2904   0.854E-02    0.104E-01
DAV:   5    -0.115767736953E+04   -0.34133E-04   -0.14248E-04  2982   0.587E-02    0.800E-02
DAV:   6    -0.115767739872E+04   -0.29191E-04   -0.65712E-05  2868   0.446E-02    0.120E-01
DAV:   7    -0.115767736326E+04    0.35459E-04   -0.63262E-05  2952   0.474E-02    0.446E-02
DAV:   8    -0.115767737454E+04   -0.11276E-04   -0.48248E-05  2832   0.412E-02    0.437E-02
DAV:   9    -0.115767737127E+04    0.32697E-05   -0.22024E-05  2448   0.304E-02    0.298E-02
DAV:  10    -0.115767737050E+04    0.76405E-06   -0.91571E-06  1896   0.177E-02
  89 F= -.11653745E+04 E0= -.11653709E+04  d E =-.107173E-02  mag=    13.0875
 curvature:  -1.67 expect dE=-0.151E-01 dE for cont linesearch -0.154E-06
 trial: gam= 1.27852 g(F)=  0.901E-02 g(S)=  0.000E+00 ort = 0.976E-04 (trialstep = 0.114E+00)
 search vector abs. value=  0.179E+00
 bond charge predicted
       N       E                     dE             d eps       ncg     rms          rms(c)
DAV:   1    -0.115767687714E+04    0.49412E-03   -0.51848E-01  1992   0.157E+00    0.187E-01
DAV:   2    -0.115767805157E+04   -0.11744E-02   -0.12107E-02  2748   0.239E-01    0.189E-01
DAV:   3    -0.115767869091E+04   -0.63934E-03   -0.48073E-03  3408   0.237E-01    0.545E-01
DAV:   4    -0.115767799385E+04    0.69706E-03   -0.29874E-03  2952   0.159E-01    0.161E-01
DAV:   5    -0.115767809667E+04   -0.10282E-03   -0.34789E-04  3024   0.859E-02    0.127E-01
DAV:   6    -0.115767815864E+04   -0.61967E-04   -0.15941E-04  2988   0.691E-02    0.168E-01
DAV:   7    -0.115767809972E+04    0.58921E-04   -0.14196E-04  3084   0.734E-02    0.828E-02
DAV:   8    -0.115767813469E+04   -0.34979E-04   -0.19307E-04  3192   0.691E-02    0.114E-01
DAV:   9    -0.115767811285E+04    0.21842E-04   -0.14342E-04  2976   0.511E-02    0.501E-02
DAV:  10    -0.115767811757E+04   -0.47133E-05   -0.31173E-05  2472   0.326E-02    0.401E-02
DAV:  11    -0.115767811968E+04   -0.21160E-05   -0.11560E-05  2052   0.207E-02    0.186E-02
DAV:  12    -0.115767812592E+04   -0.62415E-05   -0.55872E-06  1872   0.137E-02    0.149E-02
DAV:  13    -0.115767813110E+04   -0.51738E-05   -0.22293E-06  1716   0.994E-03    0.917E-03
DAV:  14    -0.115767813645E+04   -0.53515E-05   -0.10626E-06  1548   0.541E-03    0.517E-03
DAV:  15    -0.115767814000E+04   -0.35512E-05   -0.62165E-07  1464   0.436E-03    0.466E-03
DAV:  16    -0.115767814268E+04   -0.26766E-05   -0.30928E-07  1500   0.321E-03    0.295E-03
DAV:  17    -0.115767814551E+04   -0.28305E-05   -0.17360E-07  1452   0.214E-03    0.186E-03
DAV:  18    -0.115767814974E+04   -0.42334E-05   -0.20697E-07  1428   0.164E-03    0.269E-03
DAV:  19    -0.115767815216E+04   -0.24174E-05   -0.19439E-07  1476   0.201E-03    0.191E-03
DAV:  20    -0.115767815583E+04   -0.36688E-05   -0.93834E-08  1452   0.118E-03    0.107E-03
DAV:  21    -0.115767815787E+04   -0.20428E-05   -0.85184E-08  1488   0.103E-03    0.102E-03
DAV:  22    -0.115767816013E+04   -0.22593E-05   -0.56192E-08  1440   0.787E-04    0.824E-04
DAV:  23    -0.115767816133E+04   -0.12039E-05   -0.38998E-08  1464   0.666E-04    0.709E-04
DAV:  24    -0.115767816319E+04   -0.18595E-05   -0.30611E-08  1428   0.526E-04    0.567E-04
DAV:  25    -0.115767816500E+04   -0.18063E-05   -0.30550E-08  1452   0.329E-04    0.532E-04
DAV:  26    -0.115767816600E+04   -0.99940E-06   -0.16623E-08  1428   0.358E-04
  90 F= -.11653753E+04 E0= -.11653718E+04  d E =-.840065E-03  mag=    13.0872
 trial-energy change:   -0.000840  1 .order   -0.000835   -0.001042   -0.000627
 step:   0.2611(harm=  0.2868)  dis= 0.00465  next Energy= -1165.375751 (dE=-0.126E-02)
 bond charge predicted
       N       E                     dE             d eps       ncg     rms          rms(c)
DAV:   1    -0.115767647100E+04    0.16940E-02   -0.86065E-01  1992   0.203E+00    0.240E-01
DAV:   2    -0.115767838271E+04   -0.19117E-02   -0.19893E-02  2700   0.299E-01    0.188E-01
DAV:   3    -0.115767913478E+04   -0.75207E-03   -0.53360E-03  3420   0.245E-01    0.577E-01
DAV:   4    -0.115767837336E+04    0.76142E-03   -0.36588E-03  2952   0.170E-01    0.172E-01
DAV:   5    -0.115767854094E+04   -0.16758E-03   -0.43650E-04  3024   0.109E-01    0.180E-01
DAV:   6    -0.115767857802E+04   -0.37079E-04   -0.16799E-04  2952   0.770E-02    0.201E-01
DAV:   7    -0.115767849600E+04    0.82020E-04   -0.21066E-04  3096   0.933E-02    0.874E-02
DAV:   8    -0.115767853741E+04   -0.41408E-04   -0.18618E-04  3156   0.790E-02    0.960E-02
DAV:   9    -0.115767852312E+04    0.14289E-04   -0.12908E-04  3252   0.682E-02    0.705E-02
DAV:  10    -0.115767851785E+04    0.52754E-05   -0.53230E-05  2412   0.374E-02    0.445E-02
DAV:  11    -0.115767852611E+04   -0.82692E-05   -0.23120E-05  2004   0.241E-02    0.293E-02
DAV:  12    -0.115767853107E+04   -0.49505E-05   -0.10994E-05  1944   0.189E-02    0.167E-02
DAV:  13    -0.115767853746E+04   -0.63921E-05   -0.34815E-06  1764   0.110E-02    0.110E-02
DAV:  14    -0.115767854399E+04   -0.65357E-05   -0.17722E-06  1656   0.744E-03    0.660E-03
DAV:  15    -0.115767854904E+04   -0.50508E-05   -0.10401E-06  1536   0.588E-03    0.707E-03
DAV:  16    -0.115767855259E+04   -0.35447E-05   -0.48382E-07  1464   0.438E-03    0.341E-03
DAV:  17    -0.115767855665E+04   -0.40608E-05   -0.26183E-07  1452   0.231E-03    0.281E-03
DAV:  18    -0.115767856000E+04   -0.33524E-05   -0.29292E-07  1488   0.273E-03    0.287E-03
DAV:  19    -0.115767856517E+04   -0.51695E-05   -0.21465E-07  1452   0.214E-03    0.197E-03
DAV:  20    -0.115767856770E+04   -0.25335E-05   -0.14945E-07  1524   0.193E-03    0.220E-03
DAV:  21    -0.115767857144E+04   -0.37312E-05   -0.13164E-07  1416   0.155E-03    0.948E-04
DAV:  22    -0.115767857368E+04   -0.22470E-05   -0.10928E-07  1464   0.782E-04    0.114E-03
DAV:  23    -0.115767857499E+04   -0.13091E-05   -0.66861E-08  1428   0.933E-04    0.795E-04
DAV:  24    -0.115767857723E+04   -0.22368E-05   -0.43470E-08  1464   0.516E-04    0.580E-04
DAV:  25    -0.115767857964E+04   -0.24113E-05   -0.47566E-08  1440   0.385E-04    0.616E-04
DAV:  26    -0.115767858140E+04   -0.17560E-05   -0.29105E-08  1440   0.418E-04    0.481E-04
DAV:  27    -0.115767858305E+04   -0.16538E-05   -0.20875E-08  1464   0.425E-04    0.505E-04
DAV:  28    -0.115767858517E+04   -0.21187E-05   -0.27957E-08  1440   0.399E-04    0.335E-04
DAV:  29    -0.115767858666E+04   -0.14892E-05   -0.29736E-08  1464   0.314E-04    0.338E-04
DAV:  30    -0.115767858747E+04   -0.81331E-06   -0.19546E-08  1428   0.252E-04
  91 F= -.11653758E+04 E0= -.11653723E+04  d E =-.131874E-02  mag=    13.0869
 curvature:  -2.74 expect dE=-0.160E-01 dE for cont linesearch -0.136E-04
 trial: gam= 0.44260 g(F)=  0.582E-02 g(S)=  0.000E+00 ort = 0.942E-03 (trialstep = 0.143E+00)
 search vector abs. value=  0.417E-01
 bond charge predicted
       N       E                     dE             d eps       ncg     rms          rms(c)
DAV:   1    -0.115767885111E+04   -0.26445E-03   -0.18899E-01  1992   0.949E-01    0.115E-01
DAV:   2    -0.115767925473E+04   -0.40362E-03   -0.44331E-03  2700   0.142E-01    0.822E-02
DAV:   3    -0.115767938627E+04   -0.13154E-03   -0.59768E-04  3444   0.117E-01    0.190E-01
DAV:   4    -0.115767927732E+04    0.10894E-03   -0.32249E-04  2940   0.843E-02    0.837E-02
DAV:   5    -0.115767928904E+04   -0.11711E-04   -0.88300E-05  3036   0.482E-02    0.597E-02
DAV:   6    -0.115767929575E+04   -0.67157E-05   -0.49152E-05  2856   0.418E-02    0.818E-02
DAV:   7    -0.115767928801E+04    0.77387E-05   -0.99818E-05  2700   0.356E-02    0.693E-02
DAV:   8    -0.115767929596E+04   -0.79520E-05   -0.10070E-04  2436   0.364E-02    0.728E-02
DAV:   9    -0.115767928612E+04    0.98458E-05   -0.37680E-05  2160   0.341E-02    0.326E-02
DAV:  10    -0.115767929052E+04   -0.44037E-05   -0.16217E-05  1776   0.198E-02    0.218E-02
DAV:  11    -0.115767929307E+04   -0.25471E-05   -0.62915E-06  1872   0.129E-02    0.113E-02
DAV:  12    -0.115767929550E+04   -0.24346E-05   -0.29695E-06  1752   0.905E-03    0.748E-03
DAV:  13    -0.115767929760E+04   -0.20982E-05   -0.10294E-06  1488   0.580E-03    0.594E-03
DAV:  14    -0.115767929927E+04   -0.16648E-05   -0.42762E-07  1464   0.393E-03    0.321E-03
DAV:  15    -0.115767930110E+04   -0.18283E-05   -0.19753E-07  1440   0.241E-03    0.219E-03
DAV:  16    -0.115767930245E+04   -0.13588E-05   -0.13258E-07  1440   0.186E-03    0.190E-03
DAV:  17    -0.115767930382E+04   -0.13617E-05   -0.92829E-08  1452   0.160E-03    0.199E-03
DAV:  18    -0.115767930569E+04   -0.18780E-05   -0.78043E-08  1464   0.146E-03    0.144E-03
DAV:  19    -0.115767930737E+04   -0.16760E-05   -0.64800E-08  1476   0.101E-03    0.142E-03
DAV:  20    -0.115767930814E+04   -0.76837E-06   -0.53360E-08  1452   0.105E-03
  92 F= -.11653766E+04 E0= -.11653730E+04  d E =-.764863E-03  mag=    13.0866
 trial-energy change:   -0.000765  1 .order   -0.000767   -0.000895   -0.000640
 step:   0.5044(harm=  0.5044)  dis= 0.00403  next Energy= -1165.377387 (dE=-0.157E-02)
 bond charge predicted
       N       E                     dE             d eps       ncg     rms          rms(c)
DAV:   1    -0.115767709830E+04    0.22091E-02   -0.11957E+00  1992   0.239E+00    0.288E-01
DAV:   2    -0.115767978573E+04   -0.26874E-02   -0.27987E-02  2700   0.357E-01    0.206E-01
DAV:   3    -0.115768056023E+04   -0.77450E-03   -0.38085E-03  3456   0.295E-01    0.479E-01
DAV:   4    -0.115767990309E+04    0.65714E-03   -0.19928E-03  2988   0.213E-01    0.212E-01
DAV:   5    -0.115767993381E+04   -0.30728E-04   -0.53868E-04  3336   0.121E-01    0.150E-01
DAV:   6    -0.115767998664E+04   -0.52830E-04   -0.40108E-04  3060   0.106E-01    0.236E-01
DAV:   7    -0.115767990046E+04    0.86182E-04   -0.73438E-04  3228   0.871E-02    0.159E-01
DAV:   8    -0.115767995611E+04   -0.55650E-04   -0.55733E-04  3216   0.937E-02    0.172E-01
DAV:   9    -0.115767990017E+04    0.55937E-04   -0.22534E-04  3036   0.832E-02    0.812E-02
DAV:  10    -0.115767991320E+04   -0.13021E-04   -0.10851E-04  2844   0.489E-02    0.555E-02
DAV:  11    -0.115767992203E+04   -0.88343E-05   -0.40858E-05  2148   0.316E-02    0.294E-02
DAV:  12    -0.115767993123E+04   -0.91960E-05   -0.17902E-05  2136   0.219E-02    0.194E-02
DAV:  13    -0.115767994004E+04   -0.88104E-05   -0.62128E-06  1872   0.139E-02    0.154E-02
DAV:  14    -0.115767994728E+04   -0.72485E-05   -0.25124E-06  1740   0.984E-03    0.803E-03
DAV:  15    -0.115767995567E+04   -0.83870E-05   -0.11207E-06  1596   0.608E-03    0.537E-03
DAV:  16    -0.115767996152E+04   -0.58479E-05   -0.62584E-07  1500   0.444E-03    0.447E-03
DAV:  17    -0.115767996683E+04   -0.53102E-05   -0.40175E-07  1488   0.373E-03    0.494E-03
DAV:  18    -0.115767997492E+04   -0.80872E-05   -0.36768E-07  1452   0.335E-03    0.360E-03
DAV:  19    -0.115767998217E+04   -0.72517E-05   -0.31990E-07  1488   0.234E-03    0.319E-03
DAV:  20    -0.115767998539E+04   -0.32200E-05   -0.29500E-07  1476   0.240E-03    0.224E-03
DAV:  21    -0.115767999041E+04   -0.50205E-05   -0.18678E-07  1452   0.130E-03    0.141E-03
DAV:  22    -0.115767999316E+04   -0.27528E-05   -0.13382E-07  1488   0.941E-04    0.144E-03
DAV:  23    -0.115767999595E+04   -0.27901E-05   -0.85946E-08  1428   0.111E-03    0.116E-03
DAV:  24    -0.115768000005E+04   -0.40942E-05   -0.73127E-08  1476   0.806E-04    0.947E-04
DAV:  25    -0.115768000569E+04   -0.56424E-05   -0.12597E-07  1440   0.648E-04    0.995E-04
DAV:  26    -0.115768000737E+04   -0.16809E-05   -0.70666E-08  1512   0.637E-04    0.835E-04
DAV:  27    -0.115768001111E+04   -0.37420E-05   -0.78111E-08  1416   0.655E-04    0.904E-04
DAV:  28    -0.115768001384E+04   -0.27323E-05   -0.74457E-08  1476   0.683E-04    0.586E-04
DAV:  29    -0.115768001629E+04   -0.24429E-05   -0.10046E-07  1488   0.503E-04    0.743E-04
DAV:  30    -0.115768001713E+04   -0.83852E-06   -0.60895E-08  1488   0.568E-04
  93 F= -.11653774E+04 E0= -.11653739E+04  d E =-.158506E-02  mag=    13.0857
 curvature:  -1.69 expect dE=-0.118E-01 dE for cont linesearch -0.778E-07
 trial: gam= 1.32748 g(F)=  0.699E-02 g(S)=  0.000E+00 ort = 0.438E-04 (trialstep = 0.112E+00)
 search vector abs. value=  0.805E-01
 bond charge predicted
       N       E                     dE             d eps       ncg     rms          rms(c)
DAV:   1    -0.115768002486E+04   -0.85754E-05   -0.22529E-01  1998   0.103E+00    0.121E-01
DAV:   2    -0.115768050574E+04   -0.48088E-03   -0.51418E-03  2754   0.156E-01    0.102E-01
DAV:   3    -0.115768072060E+04   -0.21485E-03   -0.81247E-04  3312   0.149E-01    0.252E-01
DAV:   4    -0.115768053481E+04    0.18579E-03   -0.28209E-04  2928   0.104E-01    0.117E-01
DAV:   5    -0.115768053255E+04    0.22583E-05   -0.13858E-04  3216   0.542E-02    0.840E-02
DAV:   6    -0.115768054424E+04   -0.11686E-04   -0.23988E-04  3000   0.394E-02    0.109E-01
DAV:   7    -0.115768052067E+04    0.23569E-04   -0.14924E-04  2820   0.399E-02    0.497E-02
DAV:   8    -0.115768053131E+04   -0.10641E-04   -0.58531E-05  2856   0.416E-02    0.443E-02
DAV:   9    -0.115768053491E+04   -0.35991E-05   -0.47459E-05  2484   0.324E-02    0.487E-02
DAV:  10    -0.115768053086E+04    0.40476E-05   -0.26441E-05  2064   0.252E-02    0.231E-02
DAV:  11    -0.115768053356E+04   -0.27010E-05   -0.56856E-06  1812   0.146E-02    0.150E-02
DAV:  12    -0.115768053575E+04   -0.21929E-05   -0.26068E-06  1728   0.107E-02    0.820E-03
DAV:  13    -0.115768053787E+04   -0.21125E-05   -0.96180E-07  1536   0.665E-03    0.677E-03
DAV:  14    -0.115768054049E+04   -0.26285E-05   -0.46508E-07  1476   0.452E-03    0.342E-03
DAV:  15    -0.115768054302E+04   -0.25221E-05   -0.24349E-07  1452   0.282E-03    0.237E-03
DAV:  16    -0.115768054497E+04   -0.19514E-05   -0.16078E-07  1452   0.188E-03    0.198E-03
DAV:  17    -0.115768054600E+04   -0.10348E-05   -0.11369E-07  1428   0.163E-03    0.233E-03
DAV:  18    -0.115768054733E+04   -0.13292E-05   -0.67692E-08  1440   0.134E-03    0.149E-03
DAV:  19    -0.115768054943E+04   -0.20989E-05   -0.50652E-08  1452   0.884E-04    0.141E-03
DAV:  20    -0.115768055063E+04   -0.11955E-05   -0.58744E-08  1464   0.119E-03    0.130E-03
DAV:  21    -0.115768055274E+04   -0.21161E-05   -0.47368E-08  1464   0.858E-04    0.730E-04
DAV:  22    -0.115768055392E+04   -0.11811E-05   -0.50375E-08  1500   0.644E-04    0.104E-03
DAV:  23    -0.115768055472E+04   -0.79343E-06   -0.32869E-08  1416   0.706E-04
  94 F= -.11653781E+04 E0= -.11653746E+04  d E =-.651463E-03  mag=    13.0850
 trial-energy change:   -0.000651  1 .order   -0.000654   -0.000787   -0.000521
 step:   0.3303(harm=  0.3303)  dis= 0.00379  next Energy= -1165.378564 (dE=-0.116E-02)
 bond charge predicted
       N       E                     dE             d eps       ncg     rms          rms(c)
DAV:   1    -0.115767880322E+04    0.17507E-02   -0.86517E-01  1992   0.201E+00    0.237E-01
DAV:   2    -0.115768072955E+04   -0.19263E-02   -0.19780E-02  2724   0.306E-01    0.199E-01
DAV:   3    -0.115768152568E+04   -0.79614E-03   -0.30799E-03  3348   0.292E-01    0.498E-01
DAV:   4    -0.115768082627E+04    0.69941E-03   -0.10707E-03  3048   0.204E-01    0.232E-01
DAV:   5    -0.115768079686E+04    0.29418E-04   -0.55851E-04  3336   0.106E-01    0.168E-01
DAV:   6    -0.115768083444E+04   -0.37580E-04   -0.93519E-04  3252   0.770E-02    0.209E-01
DAV:   7    -0.115768074955E+04    0.84883E-04   -0.54666E-04  3132   0.788E-02    0.961E-02
DAV:   8    -0.115768077746E+04   -0.27908E-04   -0.22145E-04  3168   0.813E-02    0.877E-02
DAV:   9    -0.115768078623E+04   -0.87677E-05   -0.18246E-04  3168   0.631E-02    0.948E-02
DAV:  10    -0.115768077067E+04    0.15561E-04   -0.10192E-04  2928   0.482E-02    0.450E-02
DAV:  11    -0.115768077798E+04   -0.73178E-05   -0.21270E-05  1956   0.280E-02    0.292E-02
DAV:  12    -0.115768078366E+04   -0.56753E-05   -0.94420E-06  2004   0.202E-02    0.156E-02
DAV:  13    -0.115768078992E+04   -0.62628E-05   -0.34775E-06  1740   0.125E-02    0.132E-02
DAV:  14    -0.115768079788E+04   -0.79594E-05   -0.17071E-06  1668   0.861E-03    0.666E-03
DAV:  15    -0.115768080555E+04   -0.76657E-05   -0.88478E-07  1596   0.546E-03    0.462E-03
DAV:  16    -0.115768081129E+04   -0.57392E-05   -0.55138E-07  1476   0.367E-03    0.392E-03
DAV:  17    -0.115768081413E+04   -0.28430E-05   -0.36461E-07  1476   0.319E-03    0.445E-03
DAV:  18    -0.115768081848E+04   -0.43550E-05   -0.23946E-07  1440   0.250E-03    0.280E-03
DAV:  19    -0.115768082516E+04   -0.66735E-05   -0.20659E-07  1488   0.185E-03    0.299E-03
DAV:  20    -0.115768082896E+04   -0.38041E-05   -0.25191E-07  1488   0.227E-03    0.212E-03
DAV:  21    -0.115768083547E+04   -0.65099E-05   -0.19597E-07  1428   0.139E-03    0.141E-03
DAV:  22    -0.115768083877E+04   -0.32968E-05   -0.15921E-07  1524   0.120E-03    0.180E-03
DAV:  23    -0.115768084134E+04   -0.25711E-05   -0.12361E-07  1452   0.130E-03    0.127E-03
DAV:  24    -0.115768084556E+04   -0.42220E-05   -0.12450E-07  1452   0.742E-04    0.974E-04
DAV:  25    -0.115768084902E+04   -0.34620E-05   -0.12739E-07  1452   0.617E-04    0.981E-04
DAV:  26    -0.115768085236E+04   -0.33354E-05   -0.11433E-07  1512   0.760E-04    0.925E-04
DAV:  27    -0.115768085388E+04   -0.15217E-05   -0.61093E-08  1500   0.741E-04    0.739E-04
DAV:  28    -0.115768085577E+04   -0.18927E-05   -0.67531E-08  1404   0.563E-04    0.583E-04
DAV:  29    -0.115768085655E+04   -0.77739E-06   -0.49629E-08  1512   0.515E-04
  95 F= -.11653786E+04 E0= -.11653751E+04  d E =-.117094E-02  mag=    13.0837
 curvature:  -1.89 expect dE=-0.145E-01 dE for cont linesearch -0.778E-07
 trial: gam= 1.03962 g(F)=  0.770E-02 g(S)=  0.000E+00 ort = 0.576E-04 (trialstep = 0.132E+00)
 search vector abs. value=  0.948E-01
 bond charge predicted
       N       E                     dE             d eps       ncg     rms          rms(c)
DAV:   1    -0.115768074215E+04    0.11363E-03   -0.36066E-01  1992   0.130E+00    0.155E-01
DAV:   2    -0.115768150669E+04   -0.76454E-03   -0.82195E-03  2640   0.192E-01    0.116E-01
DAV:   3    -0.115768187461E+04   -0.36793E-03   -0.10332E-03  3312   0.149E-01    0.373E-01
DAV:   4    -0.115768153393E+04    0.34068E-03   -0.35949E-04  2952   0.104E-01    0.994E-02
DAV:   5    -0.115768158976E+04   -0.55824E-04   -0.34679E-04  3024   0.560E-02    0.146E-01
DAV:   6    -0.115768157091E+04    0.18845E-04   -0.37886E-04  3000   0.491E-02    0.989E-02
DAV:   7    -0.115768157204E+04   -0.11329E-05   -0.13622E-04  2952   0.607E-02    0.594E-02
DAV:   8    -0.115768159061E+04   -0.18571E-04   -0.96652E-05  2940   0.565E-02    0.729E-02
DAV:   9    -0.115768158059E+04    0.10021E-04   -0.51171E-05  2664   0.417E-02    0.431E-02
DAV:  10    -0.115768158592E+04   -0.53267E-05   -0.14993E-05  2268   0.226E-02    0.318E-02
DAV:  11    -0.115768158644E+04   -0.52011E-06   -0.76672E-06  1932   0.176E-02
  96 F= -.11653794E+04 E0= -.11653759E+04  d E =-.853744E-03  mag=    13.0836
 trial-energy change:   -0.000854  1 .order   -0.000883   -0.001023   -0.000742
 step:   0.4801(harm=  0.4801)  dis= 0.00571  next Energy= -1165.380433 (dE=-0.186E-02)
 bond charge predicted
       N       E                     dE             d eps       ncg     rms          rms(c)
DAV:   1    -0.115767610434E+04    0.54816E-02   -0.25147E+00  1992   0.343E+00    0.410E-01
DAV:   2    -0.115768170014E+04   -0.55958E-02   -0.57377E-02  2664   0.506E-01    0.293E-01
DAV:   3    -0.115768362059E+04   -0.19204E-02   -0.70742E-03  3372   0.383E-01    0.850E-01
DAV:   4    -0.115768190545E+04    0.17151E-02   -0.26843E-03  2976   0.274E-01    0.255E-01
DAV:   5    -0.115768218583E+04   -0.28038E-03   -0.18584E-03  3204   0.156E-01    0.378E-01
DAV:   6    -0.115768207421E+04    0.11163E-03   -0.27560E-03  3108   0.132E-01    0.293E-01
DAV:   7    -0.115768202422E+04    0.49981E-04   -0.13708E-03  3060   0.154E-01    0.187E-01
DAV:   8    -0.115768209229E+04   -0.68062E-04   -0.11088E-03  3288   0.148E-01    0.196E-01
DAV:   9    -0.115768207450E+04    0.17783E-04   -0.58455E-04  3084   0.107E-01    0.147E-01
DAV:  10    -0.115768205316E+04    0.21340E-04   -0.16288E-04  3168   0.775E-02    0.888E-02
DAV:  11    -0.115768206731E+04   -0.14144E-04   -0.51241E-05  2448   0.418E-02    0.228E-02
DAV:  12    -0.115768208978E+04   -0.22478E-04   -0.23382E-05  2352   0.258E-02    0.328E-02
DAV:  13    -0.115768209934E+04   -0.95579E-05   -0.16089E-05  1884   0.211E-02    0.168E-02
DAV:  14    -0.115768211385E+04   -0.14509E-04   -0.82435E-06  1884   0.144E-02    0.177E-02
DAV:  15    -0.115768212588E+04   -0.12030E-04   -0.38979E-06  1824   0.117E-02    0.112E-02
DAV:  16    -0.115768213272E+04   -0.68384E-05   -0.12003E-06  1680   0.641E-03    0.780E-03
DAV:  17    -0.115768214075E+04   -0.80308E-05   -0.65567E-07  1488   0.484E-03    0.891E-03
DAV:  18    -0.115768214785E+04   -0.71018E-05   -0.58257E-07  1548   0.496E-03    0.808E-03
DAV:  19    -0.115768216015E+04   -0.12298E-04   -0.38416E-07  1440   0.381E-03    0.378E-03
DAV:  20    -0.115768217638E+04   -0.16229E-04   -0.54689E-07  1536   0.326E-03    0.557E-03
DAV:  21    -0.115768218336E+04   -0.69780E-05   -0.42607E-07  1512   0.372E-03    0.274E-03
DAV:  22    -0.115768219116E+04   -0.78027E-05   -0.30147E-07  1464   0.143E-03    0.275E-03
DAV:  23    -0.115768219715E+04   -0.59877E-05   -0.22299E-07  1476   0.164E-03    0.276E-03
DAV:  24    -0.115768220375E+04   -0.65988E-05   -0.18387E-07  1476   0.160E-03    0.195E-03
DAV:  25    -0.115768221125E+04   -0.75042E-05   -0.20457E-07  1452   0.102E-03    0.160E-03
DAV:  26    -0.115768221607E+04   -0.48243E-05   -0.17789E-07  1476   0.871E-04    0.162E-03
DAV:  27    -0.115768222144E+04   -0.53644E-05   -0.15514E-07  1440   0.120E-03    0.150E-03
DAV:  28    -0.115768222593E+04   -0.44875E-05   -0.14704E-07  1500   0.110E-03    0.110E-03
DAV:  29    -0.115768223053E+04   -0.45996E-05   -0.21511E-07  1476   0.848E-04    0.970E-04
DAV:  30    -0.115768223133E+04   -0.80047E-06   -0.13355E-07  1536   0.645E-04
  97 F= -.11653804E+04 E0= -.11653769E+04  d E =-.182386E-02  mag=    13.0836
 curvature:  -2.93 expect dE=-0.179E-01 dE for cont linesearch -0.815E-06
 trial: gam= 0.81247 g(F)=  0.610E-02 g(S)=  0.000E+00 ort =-0.162E-03 (trialstep = 0.202E+00)
 search vector abs. value=  0.684E-01
 bond charge predicted
       N       E                     dE             d eps       ncg     rms          rms(c)
DAV:   1    -0.115768154344E+04    0.68708E-03   -0.61740E-01  1992   0.169E+00    0.200E-01
DAV:   2    -0.115768284629E+04   -0.13028E-02   -0.13936E-02  2652   0.243E-01    0.153E-01
DAV:   3    -0.115768339665E+04   -0.55037E-03   -0.15284E-03  3324   0.174E-01    0.459E-01
DAV:   4    -0.115768288399E+04    0.51267E-03   -0.60490E-04  3036   0.128E-01    0.119E-01
DAV:   5    -0.115768305167E+04   -0.16769E-03   -0.92771E-04  3156   0.871E-02    0.280E-01
DAV:   6    -0.115768292938E+04    0.12230E-03   -0.10344E-03  3036   0.786E-02    0.144E-01
DAV:   7    -0.115768293705E+04   -0.76759E-05   -0.25041E-04  3072   0.913E-02    0.842E-02
DAV:   8    -0.115768296579E+04   -0.28733E-04   -0.17782E-04  3180   0.729E-02    0.103E-01
DAV:   9    -0.115768294667E+04    0.19113E-04   -0.12538E-04  2940   0.552E-02    0.676E-02
DAV:  10    -0.115768294715E+04   -0.47813E-06   -0.33561E-05  2196   0.298E-02    0.488E-02
DAV:  11    -0.115768295175E+04   -0.45973E-05   -0.12312E-05  2088   0.230E-02    0.168E-02
DAV:  12    -0.115768295591E+04   -0.41588E-05   -0.56211E-06  1896   0.147E-02    0.138E-02
DAV:  13    -0.115768296075E+04   -0.48408E-05   -0.23549E-06  1728   0.992E-03    0.907E-03
DAV:  14    -0.115768296448E+04   -0.37370E-05   -0.14578E-06  1644   0.736E-03    0.619E-03
DAV:  15    -0.115768296883E+04   -0.43426E-05   -0.71197E-07  1512   0.456E-03    0.543E-03
DAV:  16    -0.115768297088E+04   -0.20527E-05   -0.34436E-07  1476   0.339E-03    0.375E-03
DAV:  17    -0.115768297284E+04   -0.19637E-05   -0.21518E-07  1476   0.244E-03    0.374E-03
DAV:  18    -0.115768297566E+04   -0.28199E-05   -0.16274E-07  1440   0.230E-03    0.227E-03
DAV:  19    -0.115768297996E+04   -0.42944E-05   -0.12769E-07  1440   0.126E-03    0.157E-03
DAV:  20    -0.115768298316E+04   -0.31977E-05   -0.15444E-07  1512   0.151E-03    0.212E-03
DAV:  21    -0.115768298494E+04   -0.17891E-05   -0.12118E-07  1464   0.150E-03    0.134E-03
DAV:  22    -0.115768298737E+04   -0.24253E-05   -0.70928E-08  1428   0.790E-04    0.854E-04
DAV:  23    -0.115768298866E+04   -0.12863E-05   -0.59386E-08  1464   0.492E-04    0.821E-04
DAV:  24    -0.115768299074E+04   -0.20860E-05   -0.37596E-08  1404   0.520E-04    0.673E-04
DAV:  25    -0.115768299194E+04   -0.12012E-05   -0.23021E-08  1476   0.573E-04    0.620E-04
DAV:  26    -0.115768299416E+04   -0.22122E-05   -0.33486E-08  1464   0.471E-04    0.508E-04
DAV:  27    -0.115768299521E+04   -0.10551E-05   -0.27568E-08  1512   0.443E-04    0.554E-04
DAV:  28    -0.115768299649E+04   -0.12819E-05   -0.26049E-08  1404   0.384E-04    0.365E-04
DAV:  29    -0.115768299755E+04   -0.10588E-05   -0.24196E-08  1464   0.265E-04    0.344E-04
DAV:  30    -0.115768299819E+04   -0.64330E-06   -0.15436E-08  1452   0.211E-04
  98 F= -.11653812E+04 E0= -.11653778E+04  d E =-.837070E-03  mag=    13.0835
 trial-energy change:   -0.000837  1 .order   -0.000836   -0.001203   -0.000469
 step:   0.3302(harm=  0.3302)  dis= 0.00327  next Energy= -1165.381380 (dE=-0.986E-03)
 bond charge predicted
       N       E                     dE             d eps       ncg     rms          rms(c)
DAV:   1    -0.115768251077E+04    0.48678E-03   -0.25200E-01  1992   0.108E+00    0.128E-01
DAV:   2    -0.115768302579E+04   -0.51502E-03   -0.56737E-03  2616   0.155E-01    0.977E-02
DAV:   3    -0.115768325397E+04   -0.22818E-03   -0.64508E-04  3264   0.111E-01    0.291E-01
DAV:   4    -0.115768304304E+04    0.21092E-03   -0.26227E-04  3036   0.825E-02    0.738E-02
DAV:   5    -0.115768312090E+04   -0.77859E-04   -0.36105E-04  3036   0.570E-02    0.181E-01
DAV:   6    -0.115768306506E+04    0.55843E-04   -0.42993E-04  3012   0.496E-02    0.937E-02
DAV:   7    -0.115768307325E+04   -0.81917E-05   -0.10683E-04  2952   0.583E-02    0.538E-02
DAV:   8    -0.115768308631E+04   -0.13062E-04   -0.70128E-05  2748   0.463E-02    0.641E-02
DAV:   9    -0.115768307858E+04    0.77311E-05   -0.49051E-05  2532   0.354E-02    0.414E-02
DAV:  10    -0.115768307939E+04   -0.81101E-06   -0.13938E-05  2040   0.191E-02    0.301E-02
DAV:  11    -0.115768308218E+04   -0.27915E-05   -0.49728E-06  1920   0.149E-02    0.110E-02
DAV:  12    -0.115768308424E+04   -0.20616E-05   -0.22378E-06  1812   0.972E-03    0.931E-03
DAV:  13    -0.115768308662E+04   -0.23747E-05   -0.91794E-07  1536   0.656E-03    0.573E-03
DAV:  14    -0.115768308845E+04   -0.18357E-05   -0.57331E-07  1488   0.477E-03    0.396E-03
DAV:  15    -0.115768309052E+04   -0.20685E-05   -0.29028E-07  1440   0.296E-03    0.351E-03
DAV:  16    -0.115768309151E+04   -0.98888E-06   -0.14588E-07  1452   0.215E-03
  99 F= -.11653814E+04 E0= -.11653779E+04  d E =-.975036E-03  mag=    13.0834
 curvature:  -1.89 expect dE=-0.204E-01 dE for cont linesearch -0.174E-07
 trial: gam= 1.72484 g(F)=  0.108E-01 g(S)=  0.000E+00 ort =-0.251E-04 (trialstep = 0.726E-01)
 search vector abs. value=  0.214E+00
 bond charge predicted
       N       E                     dE             d eps       ncg     rms          rms(c)
DAV:   1    -0.115768312149E+04   -0.30970E-04   -0.24621E-01  1992   0.107E+00    0.128E-01
DAV:   2    -0.115768364209E+04   -0.52060E-03   -0.56893E-03  2652   0.157E-01    0.102E-01
DAV:   3    -0.115768385712E+04   -0.21502E-03   -0.10441E-03  3336   0.123E-01    0.287E-01
DAV:   4    -0.115768364069E+04    0.21643E-03   -0.56307E-04  2916   0.869E-02    0.659E-02
DAV:   5    -0.115768369944E+04   -0.58751E-04   -0.11759E-04  3108   0.564E-02    0.864E-02
DAV:   6    -0.115768368411E+04    0.15328E-04   -0.97791E-05  3132   0.515E-02    0.660E-02
DAV:   7    -0.115768370094E+04   -0.16826E-04   -0.14848E-04  3120   0.512E-02    0.104E-01
DAV:   8    -0.115768370359E+04   -0.26483E-05   -0.12757E-04  2796   0.416E-02    0.102E-01
DAV:   9    -0.115768368890E+04    0.14682E-04   -0.69590E-05  2364   0.398E-02    0.461E-02
DAV:  10    -0.115768368918E+04   -0.27945E-06   -0.25176E-05  2244   0.226E-02    0.297E-02
DAV:  11    -0.115768369324E+04   -0.40597E-05   -0.83947E-06  1872   0.157E-02    0.134E-02
DAV:  12    -0.115768369655E+04   -0.33081E-05   -0.44042E-06  1836   0.107E-02    0.108E-02
DAV:  13    -0.115768370002E+04   -0.34725E-05   -0.13286E-06  1584   0.656E-03    0.800E-03
DAV:  14    -0.115768370241E+04   -0.23881E-05   -0.68459E-07  1488   0.469E-03    0.365E-03
DAV:  15    -0.115768370593E+04   -0.35222E-05   -0.31129E-07  1476   0.251E-03    0.269E-03
DAV:  16    -0.115768370744E+04   -0.15066E-05   -0.23193E-07  1488   0.238E-03    0.289E-03
DAV:  17    -0.115768370911E+04   -0.16698E-05   -0.13309E-07  1428   0.180E-03    0.175E-03
DAV:  18    -0.115768371229E+04   -0.31762E-05   -0.84966E-08  1464   0.872E-04    0.117E-03
DAV:  19    -0.115768371480E+04   -0.25135E-05   -0.71521E-08  1452   0.836E-04    0.109E-03
DAV:  20    -0.115768371645E+04   -0.16497E-05   -0.47647E-08  1440   0.103E-03    0.121E-03
DAV:  21    -0.115768371808E+04   -0.16287E-05   -0.32311E-08  1440   0.853E-04    0.620E-04
DAV:  22    -0.115768371968E+04   -0.16059E-05   -0.34959E-08  1452   0.464E-04    0.571E-04
DAV:  23    -0.115768372041E+04   -0.72709E-06   -0.19215E-08  1440   0.438E-04
 100 F= -.11653820E+04 E0= -.11653786E+04  d E =-.663142E-03  mag=    13.0833
 trial-energy change:   -0.000663  1 .order   -0.000654   -0.000779   -0.000529
 step:   0.1719(harm=  0.2260)  dis= 0.00281  next Energy= -1165.382419 (dE=-0.105E-02)
 bond charge predicted
       N       E                     dE             d eps       ncg     rms          rms(c)
DAV:   1    -0.115768305037E+04    0.66932E-03   -0.46094E-01  1992   0.147E+00    0.175E-01
DAV:   2    -0.115768404214E+04   -0.99178E-03   -0.10650E-02  2664   0.214E-01    0.139E-01
DAV:   3    -0.115768445742E+04   -0.41528E-03   -0.16009E-03  3336   0.168E-01    0.396E-01
DAV:   4    -0.115768405244E+04    0.40498E-03   -0.73668E-04  2940   0.119E-01    0.940E-02
DAV:   5    -0.115768415650E+04   -0.10406E-03   -0.27180E-04  3240   0.764E-02    0.167E-01
DAV:   6    -0.115768415118E+04    0.53149E-05   -0.54830E-04  3132   0.634E-02    0.173E-01
DAV:   7    -0.115768410166E+04    0.49521E-04   -0.34102E-04  3216   0.712E-02    0.814E-02
DAV:   8    -0.115768413134E+04   -0.29671E-04   -0.13432E-04  3084   0.654E-02    0.926E-02
DAV:   9    -0.115768411876E+04    0.12580E-04   -0.89112E-05  2964   0.531E-02    0.682E-02
DAV:  10    -0.115768411459E+04    0.41626E-05   -0.41339E-05  2256   0.311E-02    0.417E-02
DAV:  11    -0.115768411882E+04   -0.42257E-05   -0.14905E-05  1956   0.209E-02    0.181E-02
DAV:  12    -0.115768412281E+04   -0.39937E-05   -0.77310E-06  1884   0.144E-02    0.127E-02
DAV:  13    -0.115768412764E+04   -0.48327E-05   -0.25430E-06  1656   0.878E-03    0.101E-02
DAV:  14    -0.115768413108E+04   -0.34392E-05   -0.12441E-06  1536   0.658E-03    0.471E-03
DAV:  15    -0.115768413665E+04   -0.55619E-05   -0.49442E-07  1452   0.356E-03    0.410E-03
DAV:  16    -0.115768413883E+04   -0.21868E-05   -0.39525E-07  1500   0.336E-03    0.392E-03
DAV:  17    -0.115768414099E+04   -0.21588E-05   -0.21807E-07  1452   0.240E-03    0.258E-03
DAV:  18    -0.115768414428E+04   -0.32842E-05   -0.12355E-07  1476   0.146E-03    0.188E-03
DAV:  19    -0.115768414783E+04   -0.35589E-05   -0.11406E-07  1440   0.150E-03    0.168E-03
DAV:  20    -0.115768415036E+04   -0.25256E-05   -0.10891E-07  1464   0.156E-03    0.184E-03
DAV:  21    -0.115768415289E+04   -0.25287E-05   -0.75527E-08  1440   0.118E-03    0.850E-04
DAV:  22    -0.115768415502E+04   -0.21320E-05   -0.69564E-08  1476   0.565E-04    0.721E-04
DAV:  23    -0.115768415619E+04   -0.11739E-05   -0.39612E-08  1428   0.530E-04    0.556E-04
DAV:  24    -0.115768415762E+04   -0.14280E-05   -0.21421E-08  1428   0.484E-04    0.531E-04
DAV:  25    -0.115768415955E+04   -0.19221E-05   -0.22488E-08  1464   0.477E-04    0.450E-04
DAV:  26    -0.115768416198E+04   -0.24375E-05   -0.35832E-08  1428   0.414E-04    0.541E-04
DAV:  27    -0.115768416276E+04   -0.78088E-06   -0.22037E-08  1500   0.422E-04
 101 F= -.11653825E+04 E0= -.11653791E+04  d E =-.115207E-02  mag=    13.0833
 curvature:  -1.98 expect dE=-0.670E-02 dE for cont linesearch -0.573E-04
 ZBRENT: increasing intervall
 opt :   0.3705  next Energy= -1165.382065 (dE=-0.696E-03)
 bond charge predicted
       N       E                     dE             d eps       ncg     rms          rms(c)
DAV:   1    -0.115767916405E+04    0.49979E-02   -0.18436E+00  1992   0.293E+00    0.349E-01
DAV:   2    -0.115768327749E+04   -0.41134E-02   -0.42690E-02  2616   0.429E-01    0.279E-01
DAV:   3    -0.115768488988E+04   -0.16124E-02   -0.63159E-03  3360   0.336E-01    0.790E-01
DAV:   4    -0.115768332594E+04    0.15639E-02   -0.27598E-03  3000   0.238E-01    0.191E-01
DAV:   5    -0.115768368633E+04   -0.36038E-03   -0.12204E-03  3276   0.151E-01    0.351E-01
DAV:   6    -0.115768364350E+04    0.42824E-04   -0.23380E-03  3132   0.124E-01    0.330E-01
DAV:   7    -0.115768345741E+04    0.18610E-03   -0.12513E-03  3276   0.145E-01    0.159E-01
DAV:   8    -0.115768355814E+04   -0.10074E-03   -0.52803E-04  3180   0.131E-01    0.189E-01
DAV:   9    -0.115768349839E+04    0.59758E-04   -0.35478E-04  3180   0.107E-01    0.138E-01
DAV:  10    -0.115768347734E+04    0.21045E-04   -0.16856E-04  3036   0.633E-02    0.833E-02
DAV:  11    -0.115768348467E+04   -0.73275E-05   -0.58714E-05  2208   0.413E-02    0.366E-02
DAV:  12    -0.115768349389E+04   -0.92210E-05   -0.30997E-05  2268   0.279E-02    0.242E-02
DAV:  13    -0.115768350623E+04   -0.12340E-04   -0.10921E-05  1932   0.169E-02    0.202E-02
DAV:  14    -0.115768351493E+04   -0.86997E-05   -0.54300E-06  1800   0.131E-02    0.100E-02
DAV:  15    -0.115768352919E+04   -0.14265E-04   -0.19486E-06  1560   0.711E-03    0.813E-03
DAV:  16    -0.115768353526E+04   -0.60658E-05   -0.14870E-06  1668   0.672E-03    0.816E-03
DAV:  17    -0.115768354106E+04   -0.58014E-05   -0.83386E-07  1488   0.485E-03    0.513E-03
DAV:  18    -0.115768354983E+04   -0.87731E-05   -0.34282E-07  1488   0.271E-03    0.342E-03
DAV:  19    -0.115768355922E+04   -0.93856E-05   -0.34762E-07  1476   0.297E-03    0.344E-03
DAV:  20    -0.115768356594E+04   -0.67195E-05   -0.37400E-07  1464   0.303E-03    0.350E-03
DAV:  21    -0.115768357284E+04   -0.69002E-05   -0.24746E-07  1464   0.223E-03    0.161E-03
DAV:  22    -0.115768357840E+04   -0.55641E-05   -0.20732E-07  1512   0.121E-03    0.152E-03
DAV:  23    -0.115768358143E+04   -0.30263E-05   -0.14507E-07  1464   0.126E-03    0.116E-03
DAV:  24    -0.115768358549E+04   -0.40562E-05   -0.94739E-08  1452   0.855E-04    0.802E-04
DAV:  25    -0.115768359140E+04   -0.59107E-05   -0.12342E-07  1488   0.564E-04    0.805E-04
DAV:  26    -0.115768359477E+04   -0.33757E-05   -0.77865E-08  1464   0.503E-04    0.671E-04
DAV:  27    -0.115768359901E+04   -0.42378E-05   -0.64768E-08  1440   0.575E-04    0.747E-04
DAV:  28    -0.115768360260E+04   -0.35853E-05   -0.60512E-08  1512   0.640E-04    0.621E-04
DAV:  29    -0.115768360660E+04   -0.40001E-05   -0.87900E-08  1440   0.517E-04    0.541E-04
DAV:  30    -0.115768360768E+04   -0.10876E-05   -0.55533E-08  1536   0.411E-04    0.463E-04
DAV:  31    -0.115768360940E+04   -0.17125E-05   -0.47124E-08  1380   0.357E-04    0.368E-04
DAV:  32    -0.115768361061E+04   -0.12120E-05   -0.32056E-08  1476   0.347E-04    0.327E-04
DAV:  33    -0.115768361248E+04   -0.18672E-05   -0.48440E-08  1464   0.332E-04    0.327E-04
DAV:  34    -0.115768361337E+04   -0.89846E-06   -0.32187E-08  1476   0.368E-04
 102 F= -.11653821E+04 E0= -.11653786E+04  d E =-.694850E-03  mag=    13.0833
 curvature:  15.73 expect dE= 0.299E+00 dE for cont linesearch  0.376E-02
 ZBRENT: bracketing found
 ZBRENT: interpolating
 opt :   0.2232  next Energy= -1165.382585 (dE=-0.122E-02)
 bond charge predicted
       N       E                     dE             d eps       ncg     rms          rms(c)
DAV:   1    -0.115768176723E+04    0.18452E-02   -0.10141E+00  1992   0.218E+00    0.259E-01
DAV:   2    -0.115768400017E+04   -0.22329E-02   -0.23440E-02  2688   0.318E-01    0.206E-01
DAV:   3    -0.115768490079E+04   -0.90063E-03   -0.36359E-03  3324   0.250E-01    0.594E-01
DAV:   4    -0.115768401330E+04    0.88749E-03   -0.16311E-03  2952   0.176E-01    0.139E-01
DAV:   5    -0.115768423117E+04   -0.21787E-03   -0.54985E-04  3228   0.115E-01    0.231E-01
DAV:   6    -0.115768424001E+04   -0.88349E-05   -0.11034E-03  3168   0.974E-02    0.269E-01
DAV:   7    -0.115768411531E+04    0.12470E-03   -0.84863E-04  3336   0.103E-01    0.127E-01
DAV:   8    -0.115768417628E+04   -0.60968E-04   -0.31141E-04  3264   0.969E-02    0.132E-01
DAV:   9    -0.115768414486E+04    0.31418E-04   -0.19786E-04  3216   0.786E-02    0.100E-01
DAV:  10    -0.115768413398E+04    0.10883E-04   -0.95192E-05  2868   0.456E-02    0.618E-02
DAV:  11    -0.115768413980E+04   -0.58289E-05   -0.31180E-05  2052   0.305E-02    0.271E-02
DAV:  12    -0.115768414624E+04   -0.64349E-05   -0.15582E-05  2088   0.215E-02    0.198E-02
DAV:  13    -0.115768415277E+04   -0.65295E-05   -0.48499E-06  1812   0.130E-02    0.149E-02
DAV:  14    -0.115768415780E+04   -0.50336E-05   -0.23995E-06  1704   0.965E-03    0.683E-03
DAV:  15    -0.115768416511E+04   -0.73050E-05   -0.89471E-07  1500   0.538E-03    0.616E-03
DAV:  16    -0.115768416825E+04   -0.31448E-05   -0.72949E-07  1500   0.488E-03    0.550E-03
DAV:  17    -0.115768417087E+04   -0.26133E-05   -0.43588E-07  1476   0.348E-03    0.401E-03
DAV:  18    -0.115768417491E+04   -0.40481E-05   -0.23632E-07  1500   0.229E-03    0.302E-03
DAV:  19    -0.115768418059E+04   -0.56748E-05   -0.20670E-07  1428   0.183E-03    0.211E-03
DAV:  20    -0.115768418382E+04   -0.32276E-05   -0.23369E-07  1476   0.214E-03    0.274E-03
DAV:  21    -0.115768418742E+04   -0.36074E-05   -0.14054E-07  1440   0.166E-03    0.107E-03
DAV:  22    -0.115768419061E+04   -0.31821E-05   -0.11115E-07  1500   0.760E-04    0.996E-04
DAV:  23    -0.115768419192E+04   -0.13104E-05   -0.65211E-08  1464   0.832E-04    0.778E-04
DAV:  24    -0.115768419414E+04   -0.22203E-05   -0.42664E-08  1416   0.608E-04    0.619E-04
DAV:  25    -0.115768419730E+04   -0.31624E-05   -0.51903E-08  1464   0.539E-04    0.596E-04
DAV:  26    -0.115768419889E+04   -0.15941E-05   -0.38097E-08  1476   0.527E-04    0.614E-04
DAV:  27    -0.115768420156E+04   -0.26654E-05   -0.48348E-08  1428   0.470E-04    0.429E-04
DAV:  28    -0.115768420296E+04   -0.14007E-05   -0.38978E-08  1488   0.360E-04    0.369E-04
DAV:  29    -0.115768420396E+04   -0.99656E-06   -0.26328E-08  1428   0.288E-04
 103 F= -.11653826E+04 E0= -.11653791E+04  d E =-.121718E-02  mag=    13.0833
 curvature:  -0.27 expect dE=-0.132E-02 dE for cont linesearch -0.143E-13
 trial: gam= 0.48722 g(F)=  0.494E-02 g(S)=  0.000E+00 ort =-0.107E-06 (trialstep = 0.103E+00)
 search vector abs. value=  0.558E-01
 bond charge predicted
       N       E                     dE             d eps       ncg     rms          rms(c)
DAV:   1    -0.115768432073E+04   -0.11777E-03   -0.13146E-01  1992   0.782E-01    0.929E-02
DAV:   2    -0.115768459258E+04   -0.27186E-03   -0.29658E-03  2748   0.115E-01    0.825E-02
DAV:   3    -0.115768476124E+04   -0.16866E-03   -0.78306E-04  3432   0.109E-01    0.256E-01
DAV:   4    -0.115768458545E+04    0.17579E-03   -0.41146E-04  2964   0.727E-02    0.532E-02
DAV:   5    -0.115768462046E+04   -0.35011E-04   -0.57682E-05  2868   0.433E-02    0.496E-02
DAV:   6    -0.115768462605E+04   -0.55969E-05   -0.30057E-05  2904   0.326E-02    0.522E-02
DAV:   7    -0.115768462936E+04   -0.33057E-05   -0.64616E-05  2472   0.296E-02    0.718E-02
DAV:   8    -0.115768462550E+04    0.38629E-05   -0.67418E-05  2424   0.273E-02    0.448E-02
DAV:   9    -0.115768462750E+04   -0.20016E-05   -0.19721E-05  2256   0.273E-02    0.366E-02
DAV:  10    -0.115768462588E+04    0.16153E-05   -0.13149E-05  2028   0.167E-02    0.229E-02
DAV:  11    -0.115768462626E+04   -0.38167E-06   -0.53724E-06  1764   0.117E-02
 104 F= -.11653830E+04 E0= -.11653796E+04  d E =-.453283E-03  mag=    13.0832
 ZBRENT: can't locate minimum, use default step
 trial-energy change:   -0.000453  1 .order   -0.000460   -0.000507   -0.000413
 step:   0.4108(harm=  0.5517)  dis= 0.00384  next Energy= -1165.383949 (dE=-0.136E-02)
 bond charge predicted
       N       E                     dE             d eps       ncg     rms          rms(c)
DAV:   1    -0.115768249963E+04    0.21263E-02   -0.11827E+00  1992   0.234E+00    0.279E-01
DAV:   2    -0.115768507630E+04   -0.25767E-02   -0.26702E-02  2676   0.345E-01    0.228E-01
DAV:   3    -0.115768628334E+04   -0.12070E-02   -0.66397E-03  3420   0.321E-01    0.691E-01
DAV:   4    -0.115768505862E+04    0.12247E-02   -0.38441E-03  2928   0.219E-01    0.174E-01
DAV:   5    -0.115768522448E+04   -0.16586E-03   -0.79323E-04  3144   0.131E-01    0.175E-01
DAV:   6    -0.115768530453E+04   -0.80050E-04   -0.79588E-04  3072   0.989E-02    0.268E-01
DAV:   7    -0.115768517746E+04    0.12707E-03   -0.44642E-04  3120   0.889E-02    0.136E-01
DAV:   8    -0.115768521789E+04   -0.40429E-04   -0.23473E-04  3276   0.935E-02    0.108E-01
DAV:   9    -0.115768519672E+04    0.21170E-04   -0.17268E-04  3120   0.724E-02    0.756E-02
DAV:  10    -0.115768519532E+04    0.13942E-05   -0.66683E-05  2832   0.442E-02    0.585E-02
DAV:  11    -0.115768520094E+04   -0.56121E-05   -0.32629E-05  1980   0.281E-02    0.290E-02
DAV:  12    -0.115768520944E+04   -0.85037E-05   -0.15584E-05  1992   0.205E-02    0.246E-02
DAV:  13    -0.115768521719E+04   -0.77529E-05   -0.98416E-06  1908   0.147E-02    0.164E-02
DAV:  14    -0.115768522466E+04   -0.74655E-05   -0.43245E-06  1752   0.100E-02    0.720E-03
DAV:  15    -0.115768523230E+04   -0.76404E-05   -0.17880E-06  1584   0.676E-03    0.822E-03
DAV:  16    -0.115768523668E+04   -0.43836E-05   -0.11977E-06  1536   0.560E-03    0.539E-03
DAV:  17    -0.115768524137E+04   -0.46914E-05   -0.44529E-07  1452   0.346E-03    0.360E-03
DAV:  18    -0.115768524894E+04   -0.75641E-05   -0.31646E-07  1464   0.251E-03    0.264E-03
DAV:  19    -0.115768525627E+04   -0.73296E-05   -0.31327E-07  1488   0.244E-03    0.333E-03
DAV:  20    -0.115768526055E+04   -0.42873E-05   -0.23341E-07  1464   0.241E-03    0.196E-03
DAV:  21    -0.115768526703E+04   -0.64776E-05   -0.17192E-07  1452   0.138E-03    0.125E-03
DAV:  22    -0.115768527009E+04   -0.30585E-05   -0.12652E-07  1500   0.114E-03    0.144E-03
DAV:  23    -0.115768527296E+04   -0.28694E-05   -0.82017E-08  1440   0.109E-03    0.888E-04
DAV:  24    -0.115768527684E+04   -0.38812E-05   -0.76224E-08  1440   0.605E-04    0.740E-04
DAV:  25    -0.115768527924E+04   -0.24013E-05   -0.57538E-08  1476   0.482E-04    0.753E-04
DAV:  26    -0.115768528184E+04   -0.25940E-05   -0.40640E-08  1464   0.548E-04    0.622E-04
DAV:  27    -0.115768528495E+04   -0.31095E-05   -0.39113E-08  1476   0.521E-04    0.527E-04
DAV:  28    -0.115768529006E+04   -0.51134E-05   -0.80759E-08  1404   0.517E-04    0.538E-04
DAV:  29    -0.115768529157E+04   -0.15138E-05   -0.54125E-08  1536   0.467E-04    0.550E-04
DAV:  30    -0.115768529328E+04   -0.17099E-05   -0.47150E-08  1416   0.399E-04    0.345E-04
DAV:  31    -0.115768529423E+04   -0.94369E-06   -0.29406E-08  1488   0.329E-04
 105 F= -.11653838E+04 E0= -.11653804E+04  d E =-.121532E-02  mag=    13.0826
 curvature:  -2.81 expect dE=-0.133E-01 dE for cont linesearch -0.475E-04
 ZBRENT: extrapolating
 opt :   0.5090  next Energy= -1165.383850 (dE=-0.126E-02)
 bond charge predicted
       N       E                     dE             d eps       ncg     rms          rms(c)
DAV:   1    -0.115768503151E+04    0.26177E-03   -0.11998E-01  1998   0.747E-01    0.887E-02
DAV:   2    -0.115768527555E+04   -0.24404E-03   -0.27021E-03  2712   0.110E-01    0.799E-02
DAV:   3    -0.115768542832E+04   -0.15277E-03   -0.69455E-04  3360   0.105E-01    0.247E-01
DAV:   4    -0.115768526574E+04    0.16258E-03   -0.35047E-04  2916   0.694E-02    0.508E-02
DAV:   5    -0.115768529603E+04   -0.30292E-04   -0.51405E-05  2940   0.416E-02    0.473E-02
DAV:   6    -0.115768530083E+04   -0.47997E-05   -0.30186E-05  2796   0.319E-02    0.595E-02
DAV:   7    -0.115768529929E+04    0.15445E-05   -0.65507E-05  2400   0.267E-02    0.633E-02
DAV:   8    -0.115768529760E+04    0.16897E-05   -0.50552E-05  2304   0.271E-02    0.386E-02
DAV:   9    -0.115768530036E+04   -0.27598E-05   -0.16811E-05  2220   0.258E-02    0.354E-02
DAV:  10    -0.115768529891E+04    0.14540E-05   -0.11761E-05  1908   0.161E-02    0.218E-02
DAV:  11    -0.115768530021E+04   -0.13004E-05   -0.44225E-06  1680   0.111E-02    0.909E-03
DAV:  12    -0.115768530213E+04   -0.19225E-05   -0.20985E-06  1668   0.790E-03    0.824E-03
DAV:  13    -0.115768530353E+04   -0.13975E-05   -0.85960E-07  1488   0.511E-03    0.582E-03
DAV:  14    -0.115768530502E+04   -0.14976E-05   -0.30781E-07  1440   0.324E-03    0.228E-03
DAV:  15    -0.115768530635E+04   -0.13246E-05   -0.17124E-07  1440   0.207E-03    0.209E-03
DAV:  16    -0.115768530727E+04   -0.92096E-06   -0.12279E-07  1416   0.170E-03
 106 F= -.11653838E+04 E0= -.11653804E+04  d E =-.125858E-02  mag=    13.0824
 curvature:  -2.82 expect dE=-0.195E-01 dE for cont linesearch -0.519E-08
 trial: gam= 1.39076 g(F)=  0.693E-02 g(S)=  0.000E+00 ort = 0.101E-04 (trialstep = 0.893E-01)
 search vector abs. value=  0.115E+00
 bond charge predicted
       N       E                     dE             d eps       ncg     rms          rms(c)
DAV:   1    -0.115768532775E+04   -0.21400E-04   -0.20203E-01  1992   0.964E-01    0.115E-01
DAV:   2    -0.115768574507E+04   -0.41732E-03   -0.45735E-03  2676   0.142E-01    0.101E-01
DAV:   3    -0.115768599576E+04   -0.25069E-03   -0.68435E-04  3288   0.130E-01    0.313E-01
DAV:   4    -0.115768575098E+04    0.24477E-03   -0.26250E-04  2976   0.878E-02    0.829E-02
DAV:   5    -0.115768578241E+04   -0.31424E-04   -0.18105E-04  3036   0.463E-02    0.103E-01
DAV:   6    -0.115768578763E+04   -0.52237E-05   -0.22618E-04  2916   0.418E-02    0.898E-02
DAV:   7    -0.115768577683E+04    0.10805E-04   -0.94028E-05  2808   0.451E-02    0.495E-02
DAV:   8    -0.115768578940E+04   -0.12572E-04   -0.74666E-05  2844   0.423E-02    0.611E-02
DAV:   9    -0.115768578776E+04    0.16360E-05   -0.48800E-05  2376   0.313E-02    0.439E-02
DAV:  10    -0.115768578661E+04    0.11551E-05   -0.15195E-05  1908   0.227E-02    0.287E-02
DAV:  11    -0.115768578947E+04   -0.28658E-05   -0.44008E-06  1860   0.133E-02    0.901E-03
DAV:  12    -0.115768579212E+04   -0.26487E-05   -0.22803E-06  1788   0.845E-03    0.780E-03
DAV:  13    -0.115768579504E+04   -0.29142E-05   -0.85341E-07  1488   0.555E-03    0.575E-03
DAV:  14    -0.115768579645E+04   -0.14093E-05   -0.48170E-07  1452   0.406E-03    0.358E-03
DAV:  15    -0.115768579875E+04   -0.23089E-05   -0.27791E-07  1440   0.227E-03    0.241E-03
DAV:  16    -0.115768579990E+04   -0.11415E-05   -0.17245E-07  1464   0.184E-03    0.253E-03
DAV:  17    -0.115768580171E+04   -0.18173E-05   -0.12381E-07  1416   0.162E-03    0.192E-03
DAV:  18    -0.115768580394E+04   -0.22302E-05   -0.84265E-08  1476   0.124E-03    0.159E-03
DAV:  19    -0.115768580568E+04   -0.17412E-05   -0.69874E-08  1464   0.125E-03    0.126E-03
DAV:  20    -0.115768580679E+04   -0.11096E-05   -0.51267E-08  1428   0.107E-03    0.993E-04
DAV:  21    -0.115768580819E+04   -0.13975E-05   -0.37413E-08  1440   0.764E-04    0.593E-04
DAV:  22    -0.115768580925E+04   -0.10631E-05   -0.34853E-08  1440   0.448E-04    0.689E-04
DAV:  23    -0.115768580999E+04   -0.73660E-06   -0.17803E-08  1428   0.531E-04
 107 F= -.11653844E+04 E0= -.11653810E+04  d E =-.537816E-03  mag=    13.0825
 trial-energy change:   -0.000538  1 .order   -0.000533   -0.000620   -0.000445
 step:   0.2424(harm=  0.3156)  dis= 0.00300  next Energy= -1165.384790 (dE=-0.945E-03)
 bond charge predicted
       N       E                     dE             d eps       ncg     rms          rms(c)
DAV:   1    -0.115768484949E+04    0.95977E-03   -0.59272E-01  1992   0.165E+00    0.197E-01
DAV:   2    -0.115768612106E+04   -0.12716E-02   -0.13440E-02  2676   0.243E-01    0.178E-01
DAV:   3    -0.115768687580E+04   -0.75474E-03   -0.18466E-03  3312   0.225E-01    0.552E-01
DAV:   4    -0.115768614747E+04    0.72833E-03   -0.71697E-04  3000   0.151E-01    0.160E-01
DAV:   5    -0.115768619835E+04   -0.50883E-04   -0.60932E-04  3216   0.772E-02    0.167E-01
DAV:   6    -0.115768622123E+04   -0.22880E-04   -0.62718E-04  3204   0.735E-02    0.146E-01
DAV:   7    -0.115768618857E+04    0.32661E-04   -0.24880E-04  2964   0.766E-02    0.882E-02
DAV:   8    -0.115768621662E+04   -0.28049E-04   -0.21070E-04  3264   0.713E-02    0.103E-01
DAV:   9    -0.115768620950E+04    0.71224E-05   -0.14103E-04  2928   0.529E-02    0.745E-02
DAV:  10    -0.115768620452E+04    0.49801E-05   -0.49259E-05  2460   0.382E-02    0.497E-02
DAV:  11    -0.115768620803E+04   -0.35118E-05   -0.13644E-05  2088   0.226E-02    0.154E-02
DAV:  12    -0.115768621313E+04   -0.50977E-05   -0.66153E-06  1968   0.141E-02    0.136E-02
DAV:  13    -0.115768621820E+04   -0.50701E-05   -0.28148E-06  1680   0.936E-03    0.105E-02
DAV:  14    -0.115768622114E+04   -0.29425E-05   -0.17687E-06  1584   0.696E-03    0.607E-03
DAV:  15    -0.115768622532E+04   -0.41834E-05   -0.71193E-07  1476   0.393E-03    0.420E-03
DAV:  16    -0.115768622763E+04   -0.23069E-05   -0.33078E-07  1476   0.314E-03    0.386E-03
DAV:  17    -0.115768623030E+04   -0.26747E-05   -0.25992E-07  1428   0.276E-03    0.365E-03
DAV:  18    -0.115768623460E+04   -0.42916E-05   -0.19152E-07  1476   0.231E-03    0.280E-03
DAV:  19    -0.115768623873E+04   -0.41322E-05   -0.17596E-07  1464   0.174E-03    0.201E-03
DAV:  20    -0.115768624064E+04   -0.19067E-05   -0.13704E-07  1488   0.174E-03    0.177E-03
DAV:  21    -0.115768624358E+04   -0.29467E-05   -0.89697E-08  1404   0.122E-03    0.817E-04
DAV:  22    -0.115768624577E+04   -0.21840E-05   -0.76122E-08  1476   0.765E-04    0.115E-03
DAV:  23    -0.115768624705E+04   -0.12888E-05   -0.48664E-08  1428   0.820E-04    0.851E-04
DAV:  24    -0.115768624906E+04   -0.20056E-05   -0.39838E-08  1428   0.512E-04    0.704E-04
DAV:  25    -0.115768625059E+04   -0.15253E-05   -0.36930E-08  1452   0.371E-04    0.550E-04
DAV:  26    -0.115768625185E+04   -0.12666E-05   -0.20064E-08  1428   0.381E-04    0.507E-04
DAV:  27    -0.115768625340E+04   -0.15496E-05   -0.17728E-08  1464   0.421E-04    0.528E-04
DAV:  28    -0.115768625477E+04   -0.13725E-05   -0.19706E-08  1440   0.375E-04    0.409E-04
DAV:  29    -0.115768625596E+04   -0.11829E-05   -0.22313E-08  1452   0.287E-04    0.356E-04
DAV:  30    -0.115768625642E+04   -0.46102E-06   -0.11030E-08  1440   0.250E-04
 108 F= -.11653849E+04 E0= -.11653815E+04  d E =-.104478E-02  mag=    13.0828
 curvature:  -2.34 expect dE=-0.103E-01 dE for cont linesearch -0.524E-04
 ZBRENT: extrapolating
 opt :   0.3152  next Energy= -1165.384948 (dE=-0.110E-02)
 bond charge predicted
       N       E                     dE             d eps       ncg     rms          rms(c)
DAV:   1    -0.115768596874E+04    0.28722E-03   -0.13418E-01  1992   0.786E-01    0.939E-02
DAV:   2    -0.115768624208E+04   -0.27334E-03   -0.30442E-03  2688   0.116E-01    0.854E-02
DAV:   3    -0.115768642299E+04   -0.18092E-03   -0.40899E-04  3300   0.107E-01    0.267E-01
DAV:   4    -0.115768624811E+04    0.17489E-03   -0.16129E-04  2976   0.725E-02    0.769E-02
DAV:   5    -0.115768626500E+04   -0.16897E-04   -0.14067E-04  2856   0.366E-02    0.785E-02
DAV:   6    -0.115768627234E+04   -0.73321E-05   -0.13964E-04  2784   0.352E-02    0.690E-02
DAV:   7    -0.115768626637E+04    0.59663E-05   -0.55576E-05  2724   0.367E-02    0.413E-02
DAV:   8    -0.115768627464E+04   -0.82736E-05   -0.47153E-05  2568   0.342E-02    0.497E-02
DAV:   9    -0.115768627350E+04    0.11412E-05   -0.30984E-05  2256   0.257E-02    0.358E-02
DAV:  10    -0.115768627269E+04    0.81149E-06   -0.10857E-05  1848   0.186E-02    0.239E-02
DAV:  11    -0.115768627418E+04   -0.14903E-05   -0.30769E-06  1776   0.110E-02    0.734E-03
DAV:  12    -0.115768627576E+04   -0.15831E-05   -0.15928E-06  1728   0.698E-03    0.647E-03
DAV:  13    -0.115768627739E+04   -0.16223E-05   -0.70553E-07  1452   0.463E-03    0.510E-03
DAV:  14    -0.115768627827E+04   -0.88511E-06   -0.41201E-07  1428   0.336E-03
 109 F= -.11653849E+04 E0= -.11653815E+04  d E =-.109565E-02  mag=    13.0829
 curvature:  -2.61 expect dE=-0.179E-01 dE for cont linesearch -0.757E-08
 trial: gam= 1.00872 g(F)=  0.688E-02 g(S)=  0.000E+00 ort =-0.183E-04 (trialstep = 0.125E+00)
 search vector abs. value=  0.124E+00
 bond charge predicted
       N       E                     dE             d eps       ncg     rms          rms(c)
DAV:   1    -0.115768592958E+04    0.34780E-03   -0.43439E-01  1992   0.141E+00    0.167E-01
DAV:   2    -0.115768683840E+04   -0.90881E-03   -0.94922E-03  2688   0.209E-01    0.165E-01
DAV:   3    -0.115768751581E+04   -0.67741E-03   -0.14151E-03  3396   0.216E-01    0.542E-01
DAV:   4    -0.115768688076E+04    0.63504E-03   -0.11344E-03  3012   0.141E-01    0.194E-01
DAV:   5    -0.115768685876E+04    0.22006E-04   -0.51439E-04  3168   0.810E-02    0.103E-01
DAV:   6    -0.115768691612E+04   -0.57360E-04   -0.38216E-04  3180   0.649E-02    0.137E-01
DAV:   7    -0.115768687011E+04    0.46008E-04   -0.18817E-04  3096   0.629E-02    0.662E-02
DAV:   8    -0.115768689349E+04   -0.23379E-04   -0.11135E-04  3072   0.564E-02    0.866E-02
DAV:   9    -0.115768689059E+04    0.28990E-05   -0.10639E-04  2832   0.416E-02    0.601E-02
DAV:  10    -0.115768688831E+04    0.22807E-05   -0.43661E-05  2424   0.339E-02    0.399E-02
DAV:  11    -0.115768689275E+04   -0.44362E-05   -0.13658E-05  2016   0.194E-02    0.226E-02
DAV:  12    -0.115768689602E+04   -0.32713E-05   -0.72121E-06  1968   0.140E-02    0.934E-03
DAV:  13    -0.115768690265E+04   -0.66333E-05   -0.15070E-06  1560   0.633E-03    0.690E-03
DAV:  14    -0.115768690654E+04   -0.38939E-05   -0.93369E-07  1656   0.536E-03    0.554E-03
DAV:  15    -0.115768691035E+04   -0.38067E-05   -0.67244E-07  1464   0.418E-03    0.426E-03
DAV:  16    -0.115768691292E+04   -0.25687E-05   -0.28760E-07  1476   0.295E-03    0.299E-03
DAV:  17    -0.115768691626E+04   -0.33453E-05   -0.15486E-07  1428   0.184E-03    0.276E-03
DAV:  18    -0.115768692076E+04   -0.44975E-05   -0.13840E-07  1440   0.147E-03    0.249E-03
DAV:  19    -0.115768692342E+04   -0.26568E-05   -0.11568E-07  1464   0.183E-03    0.215E-03
DAV:  20    -0.115768692642E+04   -0.29987E-05   -0.77916E-08  1464   0.123E-03    0.116E-03
DAV:  21    -0.115768692915E+04   -0.27357E-05   -0.66957E-08  1464   0.881E-04    0.112E-03
DAV:  22    -0.115768693128E+04   -0.21279E-05   -0.53396E-08  1452   0.853E-04    0.944E-04
DAV:  23    -0.115768693290E+04   -0.16223E-05   -0.37671E-08  1440   0.644E-04    0.736E-04
DAV:  24    -0.115768693575E+04   -0.28434E-05   -0.43555E-08  1428   0.497E-04    0.666E-04
DAV:  25    -0.115768693701E+04   -0.12658E-05   -0.29431E-08  1512   0.392E-04    0.591E-04
DAV:  26    -0.115768693824E+04   -0.12249E-05   -0.19237E-08  1416   0.379E-04    0.474E-04
DAV:  27    -0.115768694060E+04   -0.23593E-05   -0.28457E-08  1404   0.336E-04    0.399E-04
DAV:  28    -0.115768694262E+04   -0.20181E-05   -0.34572E-08  1476   0.325E-04    0.373E-04
DAV:  29    -0.115768694337E+04   -0.75599E-06   -0.20818E-08  1488   0.285E-04
 110 F= -.11653857E+04 E0= -.11653822E+04  d E =-.738505E-03  mag=    13.0827
 trial-energy change:   -0.000739  1 .order   -0.000729   -0.000857   -0.000601
 step:   0.3127(harm=  0.4178)  dis= 0.00440  next Energy= -1165.386164 (dE=-0.122E-02)
 bond charge predicted
       N       E                     dE             d eps       ncg     rms          rms(c)
DAV:   1    -0.115768517110E+04    0.17715E-02   -0.98241E-01  1992   0.212E+00    0.251E-01
DAV:   2    -0.115768727476E+04   -0.21037E-02   -0.21476E-02  2688   0.313E-01    0.249E-01
DAV:   3    -0.115768884073E+04   -0.15660E-02   -0.34897E-03  3420   0.325E-01    0.839E-01
DAV:   4    -0.115768737133E+04    0.14694E-02   -0.30901E-03  3084   0.211E-01    0.294E-01
DAV:   5    -0.115768730814E+04    0.63188E-04   -0.11269E-03  3168   0.126E-01    0.148E-01
DAV:   6    -0.115768743517E+04   -0.12703E-03   -0.82801E-04  3192   0.974E-02    0.209E-01
DAV:   7    -0.115768732919E+04    0.10598E-03   -0.42040E-04  3108   0.941E-02    0.101E-01
DAV:   8    -0.115768737719E+04   -0.48000E-04   -0.25917E-04  3252   0.849E-02    0.131E-01
DAV:   9    -0.115768736494E+04    0.12248E-04   -0.25147E-04  3024   0.629E-02    0.899E-02
DAV:  10    -0.115768735758E+04    0.73687E-05   -0.10211E-04  2940   0.506E-02    0.621E-02
DAV:  11    -0.115768736201E+04   -0.44373E-05   -0.32663E-05  2268   0.289E-02    0.353E-02
DAV:  12    -0.115768736626E+04   -0.42440E-05   -0.15787E-05  2088   0.204E-02    0.136E-02
DAV:  13    -0.115768737634E+04   -0.10087E-04   -0.31264E-06  1788   0.943E-03    0.982E-03
DAV:  14    -0.115768738259E+04   -0.62478E-05   -0.22326E-06  1776   0.839E-03    0.831E-03
DAV:  15    -0.115768738949E+04   -0.68965E-05   -0.16088E-06  1488   0.649E-03    0.702E-03
DAV:  16    -0.115768739350E+04   -0.40113E-05   -0.66885E-07  1548   0.464E-03    0.426E-03
DAV:  17    -0.115768739838E+04   -0.48851E-05   -0.27224E-07  1452   0.262E-03    0.389E-03
DAV:  18    -0.115768740483E+04   -0.64480E-05   -0.24371E-07  1476   0.227E-03    0.388E-03
DAV:  19    -0.115768740968E+04   -0.48488E-05   -0.22359E-07  1488   0.248E-03    0.311E-03
DAV:  20    -0.115768741397E+04   -0.42904E-05   -0.17216E-07  1452   0.191E-03    0.184E-03
DAV:  21    -0.115768741849E+04   -0.45153E-05   -0.12721E-07  1452   0.139E-03    0.143E-03
DAV:  22    -0.115768742197E+04   -0.34816E-05   -0.10286E-07  1464   0.933E-04    0.134E-03
DAV:  23    -0.115768742447E+04   -0.25041E-05   -0.77125E-08  1440   0.917E-04    0.109E-03
DAV:  24    -0.115768742854E+04   -0.40716E-05   -0.68145E-08  1428   0.694E-04    0.859E-04
DAV:  25    -0.115768743188E+04   -0.33333E-05   -0.71735E-08  1476   0.523E-04    0.870E-04
DAV:  26    -0.115768743392E+04   -0.20395E-05   -0.44910E-08  1464   0.573E-04    0.645E-04
DAV:  27    -0.115768743657E+04   -0.26538E-05   -0.41199E-08  1428   0.476E-04    0.633E-04
DAV:  28    -0.115768743947E+04   -0.29020E-05   -0.52308E-08  1464   0.474E-04    0.553E-04
DAV:  29    -0.115768744115E+04   -0.16720E-05   -0.44243E-08  1464   0.439E-04    0.630E-04
DAV:  30    -0.115768744243E+04   -0.12882E-05   -0.36906E-08  1452   0.452E-04    0.406E-04
DAV:  31    -0.115768744360E+04   -0.11630E-05   -0.34900E-08  1464   0.314E-04    0.379E-04
DAV:  32    -0.115768744452E+04   -0.92779E-06   -0.30220E-08  1452   0.286E-04
 111 F= -.11653863E+04 E0= -.11653829E+04  d E =-.135086E-02  mag=    13.0823
 curvature:  -3.28 expect dE=-0.151E-01 dE for cont linesearch -0.757E-04
 ZBRENT: increasing intervall
 opt :   0.6884  next Energy= -1165.385753 (dE=-0.813E-03)
 bond charge predicted
       N       E                     dE             d eps       ncg     rms          rms(c)
DAV:   1    -0.115767757017E+04    0.98734E-02   -0.39289E+00  1992   0.424E+00    0.504E-01
DAV:   2    -0.115768626669E+04   -0.86965E-02   -0.86108E-02  2736   0.627E-01    0.492E-01
DAV:   3    -0.115769235815E+04   -0.60915E-02   -0.14030E-02  3444   0.650E-01    0.167E+00
DAV:   4    -0.115768674147E+04    0.56167E-02   -0.13561E-02  3108   0.418E-01    0.615E-01
DAV:   5    -0.115768630281E+04    0.43866E-03   -0.46773E-03  3216   0.254E-01    0.290E-01
DAV:   6    -0.115768678126E+04   -0.47845E-03   -0.33265E-03  3180   0.193E-01    0.424E-01
DAV:   7    -0.115768635841E+04    0.42285E-03   -0.16524E-03  3108   0.186E-01    0.196E-01
DAV:   8    -0.115768652979E+04   -0.17137E-03   -0.11113E-03  3216   0.170E-01    0.265E-01
DAV:   9    -0.115768646100E+04    0.68787E-04   -0.98768E-04  3060   0.124E-01    0.170E-01
DAV:  10    -0.115768643469E+04    0.26317E-04   -0.39491E-04  3288   0.100E-01    0.123E-01
DAV:  11    -0.115768643747E+04   -0.27838E-05   -0.13481E-04  2916   0.582E-02    0.700E-02
DAV:  12    -0.115768644744E+04   -0.99715E-05   -0.56196E-05  2268   0.403E-02    0.293E-02
DAV:  13    -0.115768647410E+04   -0.26663E-04   -0.13042E-05  2040   0.192E-02    0.199E-02
DAV:  14    -0.115768649305E+04   -0.18951E-04   -0.91146E-06  1956   0.169E-02    0.176E-02
DAV:  15    -0.115768651327E+04   -0.20214E-04   -0.72348E-06  1824   0.137E-02    0.147E-02
DAV:  16    -0.115768652415E+04   -0.10883E-04   -0.29205E-06  1776   0.962E-03    0.903E-03
DAV:  17    -0.115768653681E+04   -0.12654E-04   -0.97138E-07  1512   0.528E-03    0.796E-03
DAV:  18    -0.115768655629E+04   -0.19483E-04   -0.73115E-07  1512   0.388E-03    0.782E-03
DAV:  19    -0.115768656823E+04   -0.11946E-04   -0.76148E-07  1500   0.489E-03    0.670E-03
DAV:  20    -0.115768658416E+04   -0.15925E-04   -0.47285E-07  1512   0.346E-03    0.290E-03
DAV:  21    -0.115768659742E+04   -0.13262E-04   -0.36618E-07  1452   0.235E-03    0.319E-03
DAV:  22    -0.115768660553E+04   -0.81072E-05   -0.31743E-07  1464   0.232E-03    0.264E-03
DAV:  23    -0.115768661495E+04   -0.94176E-05   -0.24579E-07  1488   0.159E-03    0.189E-03
DAV:  24    -0.115768662469E+04   -0.97427E-05   -0.24052E-07  1512   0.127E-03    0.167E-03
DAV:  25    -0.115768663387E+04   -0.91827E-05   -0.20801E-07  1476   0.907E-04    0.148E-03
DAV:  26    -0.115768664080E+04   -0.69280E-05   -0.13894E-07  1488   0.108E-03    0.127E-03
DAV:  27    -0.115768665139E+04   -0.10586E-04   -0.17580E-07  1440   0.949E-04    0.115E-03
DAV:  28    -0.115768665953E+04   -0.81477E-05   -0.19094E-07  1464   0.103E-03    0.141E-03
DAV:  29    -0.115768666453E+04   -0.49977E-05   -0.16990E-07  1476   0.981E-04    0.855E-04
DAV:  30    -0.115768666888E+04   -0.43512E-05   -0.17539E-07  1500   0.595E-04    0.820E-04
DAV:  31    -0.115768667241E+04   -0.35280E-05   -0.12017E-07  1452   0.520E-04    0.649E-04
DAV:  32    -0.115768667482E+04   -0.24112E-05   -0.87963E-08  1464   0.558E-04    0.684E-04
DAV:  33    -0.115768667716E+04   -0.23346E-05   -0.85753E-08  1452   0.600E-04    0.702E-04
DAV:  34    -0.115768667893E+04   -0.17707E-05   -0.82969E-08  1488   0.527E-04    0.580E-04
DAV:  35    -0.115768667958E+04   -0.65728E-06   -0.61119E-08  1488   0.354E-04
 112 F= -.11653858E+04 E0= -.11653823E+04  d E =-.810919E-03  mag=    13.0815
 curvature:  23.35 expect dE= 0.543E+00 dE for cont linesearch  0.395E-02
 ZBRENT: bracketing found
 ZBRENT: interpolating
 opt :   0.4140  next Energy= -1165.386377 (dE=-0.144E-02)
 bond charge predicted
       N       E                     dE             d eps       ncg     rms          rms(c)
DAV:   1    -0.115768263202E+04    0.40469E-02   -0.20961E+00  1992   0.310E+00    0.366E-01
DAV:   2    -0.115768723254E+04   -0.46005E-02   -0.45802E-02  2772   0.459E-01    0.377E-01
DAV:   3    -0.115769063888E+04   -0.34063E-02   -0.87536E-03  3420   0.475E-01    0.125E+00
DAV:   4    -0.115768731159E+04    0.33273E-02   -0.54246E-03  3084   0.311E-01    0.389E-01
DAV:   5    -0.115768727944E+04    0.32151E-04   -0.23606E-03  3240   0.180E-01    0.234E-01
DAV:   6    -0.115768750035E+04   -0.22091E-03   -0.18052E-03  3240   0.144E-01    0.295E-01
DAV:   7    -0.115768729391E+04    0.20645E-03   -0.89242E-04  3156   0.141E-01    0.156E-01
DAV:   8    -0.115768737634E+04   -0.82431E-04   -0.46534E-04  3192   0.123E-01    0.177E-01
DAV:   9    -0.115768736643E+04    0.99020E-05   -0.57493E-04  3120   0.933E-02    0.150E-01
DAV:  10    -0.115768733025E+04    0.36180E-04   -0.26559E-04  3228   0.769E-02    0.917E-02
DAV:  11    -0.115768734136E+04   -0.11107E-04   -0.76393E-05  2592   0.417E-02    0.544E-02
DAV:  12    -0.115768734740E+04   -0.60413E-05   -0.42927E-05  2256   0.293E-02    0.182E-02
DAV:  13    -0.115768736393E+04   -0.16525E-04   -0.72510E-06  1944   0.136E-02    0.139E-02
DAV:  14    -0.115768737384E+04   -0.99113E-05   -0.42220E-06  1860   0.118E-02    0.105E-02
DAV:  15    -0.115768738294E+04   -0.91013E-05   -0.25388E-06  1644   0.871E-03    0.997E-03
DAV:  16    -0.115768739048E+04   -0.75404E-05   -0.11239E-06  1560   0.633E-03    0.623E-03
DAV:  17    -0.115768739851E+04   -0.80344E-05   -0.52583E-07  1488   0.399E-03    0.606E-03
DAV:  18    -0.115768740873E+04   -0.10220E-04   -0.49250E-07  1488   0.375E-03    0.547E-03
DAV:  19    -0.115768741842E+04   -0.96835E-05   -0.43564E-07  1524   0.303E-03    0.373E-03
DAV:  20    -0.115768742276E+04   -0.43451E-05   -0.31409E-07  1500   0.274E-03    0.269E-03
DAV:  21    -0.115768743015E+04   -0.73873E-05   -0.20435E-07  1440   0.166E-03    0.181E-03
DAV:  22    -0.115768743607E+04   -0.59173E-05   -0.18274E-07  1500   0.115E-03    0.196E-03
DAV:  23    -0.115768744013E+04   -0.40632E-05   -0.13049E-07  1440   0.129E-03    0.158E-03
DAV:  24    -0.115768744568E+04   -0.55529E-05   -0.10425E-07  1476   0.933E-04    0.116E-03
DAV:  25    -0.115768745111E+04   -0.54262E-05   -0.12333E-07  1476   0.740E-04    0.120E-03
DAV:  26    -0.115768745446E+04   -0.33481E-05   -0.82894E-08  1476   0.871E-04    0.841E-04
DAV:  27    -0.115768745960E+04   -0.51466E-05   -0.10054E-07  1440   0.596E-04    0.832E-04
DAV:  28    -0.115768746321E+04   -0.36070E-05   -0.97812E-08  1464   0.559E-04    0.759E-04
DAV:  29    -0.115768746515E+04   -0.19428E-05   -0.66913E-08  1464   0.530E-04    0.684E-04
DAV:  30    -0.115768746688E+04   -0.17234E-05   -0.53721E-08  1464   0.539E-04    0.626E-04
DAV:  31    -0.115768746857E+04   -0.16910E-05   -0.54082E-08  1452   0.448E-04    0.480E-04
DAV:  32    -0.115768747012E+04   -0.15522E-05   -0.57646E-08  1416   0.382E-04    0.556E-04
DAV:  33    -0.115768747082E+04   -0.69611E-06   -0.36846E-08  1476   0.424E-04
 113 F= -.11653864E+04 E0= -.11653830E+04  d E =-.143749E-02  mag=    13.0821
 curvature:  -0.51 expect dE=-0.371E-02 dE for cont linesearch -0.162E-10
 trial: gam= 1.06312 g(F)=  0.732E-02 g(S)=  0.000E+00 ort = 0.199E-05 (trialstep = 0.154E+00)
 search vector abs. value=  0.147E+00
 bond charge predicted
       N       E                     dE             d eps       ncg     rms          rms(c)
DAV:   1    -0.115768631653E+04    0.11536E-02   -0.76281E-01  1992   0.186E+00    0.229E-01
DAV:   2    -0.115768801745E+04   -0.17009E-02   -0.17595E-02  2760   0.280E-01    0.231E-01
DAV:   3    -0.115768898293E+04   -0.96548E-03   -0.23794E-03  3360   0.283E-01    0.634E-01
DAV:   4    -0.115768810849E+04    0.87444E-03   -0.16078E-03  3132   0.184E-01    0.263E-01
DAV:   5    -0.115768805345E+04    0.55041E-04   -0.90786E-04  3204   0.109E-01    0.157E-01
DAV:   6    -0.115768817590E+04   -0.12245E-03   -0.94391E-04  3216   0.924E-02    0.228E-01
DAV:   7    -0.115768804802E+04    0.12788E-03   -0.52393E-04  3156   0.983E-02    0.102E-01
DAV:   8    -0.115768810434E+04   -0.56319E-04   -0.26279E-04  3240   0.927E-02    0.133E-01
DAV:   9    -0.115768808681E+04    0.17527E-04   -0.22935E-04  3048   0.683E-02    0.987E-02
DAV:  10    -0.115768806790E+04    0.18908E-04   -0.11427E-04  2976   0.519E-02    0.465E-02
DAV:  11    -0.115768807474E+04   -0.68402E-05   -0.31755E-05  2172   0.262E-02    0.329E-02
DAV:  12    -0.115768807779E+04   -0.30459E-05   -0.14949E-05  1944   0.192E-02    0.132E-02
DAV:  13    -0.115768808436E+04   -0.65669E-05   -0.35776E-06  1836   0.984E-03    0.997E-03
DAV:  14    -0.115768809044E+04   -0.60785E-05   -0.17235E-06  1728   0.752E-03    0.687E-03
DAV:  15    -0.115768809584E+04   -0.54059E-05   -0.12638E-06  1500   0.599E-03    0.654E-03
DAV:  16    -0.115768810041E+04   -0.45704E-05   -0.69717E-07  1488   0.451E-03    0.364E-03
DAV:  17    -0.115768810425E+04   -0.38399E-05   -0.32267E-07  1452   0.260E-03    0.322E-03
DAV:  18    -0.115768810857E+04   -0.43148E-05   -0.19159E-07  1524   0.184E-03    0.282E-03
DAV:  19    -0.115768811378E+04   -0.52144E-05   -0.19323E-07  1452   0.183E-03    0.258E-03
DAV:  20    -0.115768811618E+04   -0.23935E-05   -0.14269E-07  1488   0.183E-03    0.164E-03
DAV:  21    -0.115768812001E+04   -0.38346E-05   -0.97380E-08  1452   0.103E-03    0.960E-04
DAV:  22    -0.115768812225E+04   -0.22354E-05   -0.74096E-08  1476   0.870E-04    0.121E-03
DAV:  23    -0.115768812435E+04   -0.21098E-05   -0.59287E-08  1440   0.938E-04    0.838E-04
DAV:  24    -0.115768812744E+04   -0.30806E-05   -0.56420E-08  1452   0.613E-04    0.681E-04
DAV:  25    -0.115768812934E+04   -0.19043E-05   -0.46789E-08  1440   0.545E-04    0.821E-04
DAV:  26    -0.115768813173E+04   -0.23910E-05   -0.44794E-08  1464   0.596E-04    0.545E-04
DAV:  27    -0.115768813363E+04   -0.19015E-05   -0.41007E-08  1452   0.413E-04    0.513E-04
DAV:  28    -0.115768813488E+04   -0.12526E-05   -0.33708E-08  1452   0.342E-04    0.500E-04
DAV:  29    -0.115768813608E+04   -0.11913E-05   -0.21190E-08  1452   0.367E-04    0.425E-04
DAV:  30    -0.115768813705E+04   -0.96997E-06   -0.17666E-08  1452   0.338E-04
 114 F= -.11653871E+04 E0= -.11653837E+04  d E =-.721422E-03  mag=    13.0821
 trial-energy change:   -0.000721  1 .order   -0.000722   -0.001125   -0.000319
 step:   0.2146(harm=  0.2146)  dis= 0.00357  next Energy= -1165.387164 (dE=-0.786E-03)
 bond charge predicted
       N       E                     dE             d eps       ncg     rms          rms(c)
DAV:   1    -0.115768789263E+04    0.24344E-03   -0.12004E-01  1992   0.740E-01    0.907E-02
DAV:   2    -0.115768814171E+04   -0.24908E-03   -0.27680E-03  2700   0.111E-01    0.924E-02
DAV:   3    -0.115768830110E+04   -0.15939E-03   -0.37046E-04  3324   0.113E-01    0.253E-01
DAV:   4    -0.115768815585E+04    0.14525E-03   -0.24092E-04  3024   0.736E-02    0.103E-01
DAV:   5    -0.115768815323E+04    0.26231E-05   -0.14444E-04  2772   0.430E-02    0.639E-02
DAV:   6    -0.115768817385E+04   -0.20626E-04   -0.14927E-04  2868   0.369E-02    0.894E-02
DAV:   7    -0.115768815359E+04    0.20264E-04   -0.82071E-05  2868   0.393E-02    0.415E-02
DAV:   8    -0.115768816395E+04   -0.10355E-04   -0.39357E-05  2628   0.367E-02    0.508E-02
DAV:   9    -0.115768816308E+04    0.86836E-06   -0.35585E-05  2280   0.273E-02    0.404E-02
DAV:  10    -0.115768816037E+04    0.27121E-05   -0.18362E-05  2016   0.211E-02    0.183E-02
DAV:  11    -0.115768816272E+04   -0.23545E-05   -0.50907E-06  1728   0.107E-02    0.133E-02
DAV:  12    -0.115768816406E+04   -0.13355E-05   -0.26133E-06  1680   0.796E-03    0.517E-03
DAV:  13    -0.115768816616E+04   -0.21074E-05   -0.61373E-07  1452   0.409E-03    0.425E-03
DAV:  14    -0.115768816795E+04   -0.17859E-05   -0.30366E-07  1464   0.308E-03    0.275E-03
DAV:  15    -0.115768816954E+04   -0.15914E-05   -0.20897E-07  1428   0.235E-03    0.262E-03
DAV:  16    -0.115768817084E+04   -0.13026E-05   -0.12494E-07  1440   0.183E-03    0.145E-03
DAV:  17    -0.115768817224E+04   -0.13923E-05   -0.80058E-08  1428   0.108E-03    0.136E-03
DAV:  18    -0.115768817349E+04   -0.12556E-05   -0.47365E-08  1452   0.848E-04    0.109E-03
DAV:  19    -0.115768817492E+04   -0.14271E-05   -0.38624E-08  1428   0.826E-04    0.119E-03
DAV:  20    -0.115768817583E+04   -0.91629E-06   -0.27566E-08  1428   0.834E-04
 115 F= -.11653872E+04 E0= -.11653837E+04  d E =-.782178E-03  mag=    13.0821
 curvature:  -2.16 expect dE=-0.162E-01 dE for cont linesearch -0.242E-08
 trial: gam= 1.02366 g(F)=  0.751E-02 g(S)=  0.000E+00 ort =-0.129E-04 (trialstep = 0.151E+00)
 search vector abs. value=  0.162E+00
 bond charge predicted
       N       E                     dE             d eps       ncg     rms          rms(c)
DAV:   1    -0.115768716565E+04    0.10093E-02   -0.81697E-01  1992   0.193E+00    0.233E-01
DAV:   2    -0.115768888884E+04   -0.17232E-02   -0.18170E-02  2604   0.282E-01    0.188E-01
DAV:   3    -0.115768978600E+04   -0.89716E-03   -0.25188E-03  3444   0.265E-01    0.581E-01
DAV:   4    -0.115768895570E+04    0.83030E-03   -0.96889E-04  3048   0.185E-01    0.191E-01
DAV:   5    -0.115768901889E+04   -0.63187E-04   -0.61966E-04  3144   0.967E-02    0.184E-01
DAV:   6    -0.115768905853E+04   -0.39642E-04   -0.97935E-04  3108   0.741E-02    0.208E-01
DAV:   7    -0.115768896730E+04    0.91225E-04   -0.43278E-04  3012   0.854E-02    0.643E-02
DAV:   8    -0.115768904753E+04   -0.80224E-04   -0.19557E-04  3132   0.739E-02    0.145E-01
DAV:   9    -0.115768900727E+04    0.40257E-04   -0.14809E-04  3024   0.600E-02    0.727E-02
DAV:  10    -0.115768901278E+04   -0.55055E-05   -0.53381E-05  2268   0.368E-02    0.548E-02
DAV:  11    -0.115768901802E+04   -0.52401E-05   -0.40450E-05  2232   0.273E-02    0.211E-02
DAV:  12    -0.115768902685E+04   -0.88360E-05   -0.10764E-05  1944   0.165E-02    0.149E-02
DAV:  13    -0.115768903547E+04   -0.86165E-05   -0.37344E-06  1776   0.106E-02    0.112E-02
DAV:  14    -0.115768904137E+04   -0.59018E-05   -0.17852E-06  1644   0.736E-03    0.630E-03
DAV:  15    -0.115768904964E+04   -0.82672E-05   -0.92763E-07  1536   0.538E-03    0.546E-03
DAV:  16    -0.115768905706E+04   -0.74257E-05   -0.56842E-07  1500   0.416E-03    0.283E-03
DAV:  17    -0.115768906228E+04   -0.52211E-05   -0.32236E-07  1500   0.254E-03    0.292E-03
DAV:  18    -0.115768906706E+04   -0.47724E-05   -0.20706E-07  1488   0.224E-03    0.253E-03
DAV:  19    -0.115768907253E+04   -0.54710E-05   -0.16603E-07  1440   0.161E-03    0.219E-03
DAV:  20    -0.115768907564E+04   -0.31084E-05   -0.12658E-07  1488   0.159E-03    0.137E-03
DAV:  21    -0.115768908000E+04   -0.43677E-05   -0.99415E-08  1416   0.927E-04    0.874E-04
DAV:  22    -0.115768908286E+04   -0.28532E-05   -0.85302E-08  1488   0.521E-04    0.735E-04
DAV:  23    -0.115768908572E+04   -0.28630E-05   -0.48215E-08  1464   0.555E-04    0.707E-04
DAV:  24    -0.115768908828E+04   -0.25605E-05   -0.33250E-08  1452   0.606E-04    0.680E-04
DAV:  25    -0.115768909214E+04   -0.38593E-05   -0.43310E-08  1416   0.562E-04    0.586E-04
DAV:  26    -0.115768909548E+04   -0.33384E-05   -0.52318E-08  1464   0.475E-04    0.669E-04
DAV:  27    -0.115768909714E+04   -0.16580E-05   -0.38269E-08  1464   0.464E-04    0.375E-04
DAV:  28    -0.115768909926E+04   -0.21256E-05   -0.38792E-08  1428   0.296E-04    0.402E-04
DAV:  29    -0.115768910128E+04   -0.20165E-05   -0.33597E-08  1500   0.290E-04    0.364E-04
DAV:  30    -0.115768910237E+04   -0.10960E-05   -0.22914E-08  1464   0.300E-04    0.312E-04
DAV:  31    -0.115768910396E+04   -0.15878E-05   -0.26357E-08  1416   0.289E-04    0.317E-04
DAV:  32    -0.115768910508E+04   -0.11223E-05   -0.24151E-08  1488   0.306E-04    0.250E-04
DAV:  33    -0.115768910615E+04   -0.10660E-05   -0.29074E-08  1428   0.224E-04    0.276E-04
DAV:  34    -0.115768910698E+04   -0.83316E-06   -0.23301E-08  1416   0.264E-04
 116 F= -.11653881E+04 E0= -.11653847E+04  d E =-.917271E-03  mag=    13.0822
 trial-energy change:   -0.000917  1 .order   -0.000909   -0.001132   -0.000685
 step:   0.3352(harm=  0.3825)  dis= 0.00524  next Energy= -1165.388512 (dE=-0.135E-02)
 bond charge predicted
       N       E                     dE             d eps       ncg     rms          rms(c)
DAV:   1    -0.115768673512E+04    0.23710E-02   -0.12180E+00  1992   0.235E+00    0.284E-01
DAV:   2    -0.115768933690E+04   -0.26018E-02   -0.27114E-02  2640   0.344E-01    0.230E-01
DAV:   3    -0.115769066582E+04   -0.13289E-02   -0.39708E-03  3396   0.325E-01    0.710E-01
DAV:   4    -0.115768943681E+04    0.12290E-02   -0.14576E-03  3012   0.227E-01    0.234E-01
DAV:   5    -0.115768952061E+04   -0.83802E-04   -0.93489E-04  3180   0.118E-01    0.225E-01
DAV:   6    -0.115768958043E+04   -0.59827E-04   -0.14591E-03  3108   0.909E-02    0.254E-01
DAV:   7    -0.115768944694E+04    0.13349E-03   -0.64036E-04  3024   0.104E-01    0.792E-02
DAV:   8    -0.115768956133E+04   -0.11439E-03   -0.29473E-04  3144   0.902E-02    0.178E-01
DAV:   9    -0.115768950031E+04    0.61017E-04   -0.22864E-04  3096   0.732E-02    0.880E-02
DAV:  10    -0.115768950710E+04   -0.67915E-05   -0.83857E-05  2688   0.456E-02    0.672E-02
DAV:  11    -0.115768951226E+04   -0.51616E-05   -0.60196E-05  2220   0.329E-02    0.263E-02
DAV:  12    -0.115768952304E+04   -0.10775E-04   -0.16052E-05  2112   0.201E-02    0.173E-02
DAV:  13    -0.115768953386E+04   -0.10823E-04   -0.56770E-06  1824   0.129E-02    0.133E-02
DAV:  14    -0.115768954133E+04   -0.74667E-05   -0.28415E-06  1740   0.908E-03    0.801E-03
DAV:  15    -0.115768955139E+04   -0.10060E-04   -0.14451E-06  1608   0.668E-03    0.689E-03
DAV:  16    -0.115768956040E+04   -0.90093E-05   -0.87119E-07  1620   0.510E-03    0.351E-03
DAV:  17    -0.115768956683E+04   -0.64318E-05   -0.44096E-07  1488   0.314E-03    0.354E-03
DAV:  18    -0.115768957282E+04   -0.59873E-05   -0.27378E-07  1488   0.274E-03    0.303E-03
DAV:  19    -0.115768957972E+04   -0.69082E-05   -0.22223E-07  1440   0.199E-03    0.272E-03
DAV:  20    -0.115768958359E+04   -0.38665E-05   -0.17267E-07  1512   0.193E-03    0.165E-03
DAV:  21    -0.115768958894E+04   -0.53456E-05   -0.13092E-07  1452   0.112E-03    0.105E-03
DAV:  22    -0.115768959252E+04   -0.35788E-05   -0.10684E-07  1488   0.694E-04    0.103E-03
DAV:  23    -0.115768959531E+04   -0.27937E-05   -0.65707E-08  1452   0.825E-04    0.929E-04
DAV:  24    -0.115768959917E+04   -0.38572E-05   -0.52309E-08  1428   0.705E-04    0.704E-04
DAV:  25    -0.115768960471E+04   -0.55396E-05   -0.79450E-08  1464   0.583E-04    0.751E-04
DAV:  26    -0.115768960686E+04   -0.21511E-05   -0.54700E-08  1524   0.548E-04    0.657E-04
DAV:  27    -0.115768961016E+04   -0.33021E-05   -0.55443E-08  1428   0.448E-04    0.526E-04
DAV:  28    -0.115768961251E+04   -0.23552E-05   -0.46004E-08  1476   0.374E-04    0.419E-04
DAV:  29    -0.115768961457E+04   -0.20577E-05   -0.39587E-08  1428   0.285E-04    0.454E-04
DAV:  30    -0.115768961672E+04   -0.21465E-05   -0.33614E-08  1452   0.372E-04    0.391E-04
DAV:  31    -0.115768961840E+04   -0.16835E-05   -0.32779E-08  1464   0.352E-04    0.350E-04
DAV:  32    -0.115768962047E+04   -0.20647E-05   -0.43119E-08  1464   0.326E-04    0.307E-04
DAV:  33    -0.115768962126E+04   -0.78993E-06   -0.30580E-08  1512   0.277E-04
 117 F= -.11653886E+04 E0= -.11653851E+04  d E =-.141323E-02  mag=    13.0822
 curvature:  -3.95 expect dE=-0.162E-01 dE for cont linesearch -0.190E-04
 ZBRENT: extrapolating
 opt :   0.3796  next Energy= -1165.388593 (dE=-0.143E-02)
 bond charge predicted
       N       E                     dE             d eps       ncg     rms          rms(c)
DAV:   1    -0.115768947939E+04    0.14108E-03   -0.70847E-02  2010   0.568E-01    0.685E-02
DAV:   2    -0.115768961357E+04   -0.13418E-03   -0.15743E-03  2616   0.831E-02    0.561E-02
DAV:   3    -0.115768970144E+04   -0.87867E-04   -0.23591E-04  3354   0.787E-02    0.176E-01
DAV:   4    -0.115768961962E+04    0.81817E-04   -0.84839E-05  2976   0.548E-02    0.557E-02
DAV:   5    -0.115768963152E+04   -0.11899E-04   -0.55755E-05  2184   0.285E-02    0.549E-02
DAV:   6    -0.115768963577E+04   -0.42520E-05   -0.83430E-05  2400   0.223E-02    0.604E-02
DAV:   7    -0.115768962826E+04    0.75112E-05   -0.37222E-05  2220   0.257E-02    0.192E-02
DAV:   8    -0.115768963728E+04   -0.90219E-05   -0.16134E-05  2184   0.216E-02    0.413E-02
DAV:   9    -0.115768963414E+04    0.31442E-05   -0.11919E-05  1872   0.184E-02    0.217E-02
DAV:  10    -0.115768963525E+04   -0.11175E-05   -0.48156E-06  1728   0.112E-02    0.169E-02
DAV:  11    -0.115768963622E+04   -0.96259E-06   -0.36915E-06  1632   0.866E-03
 118 F= -.11653886E+04 E0= -.11653851E+04  d E =-.142354E-02  mag=    13.0822
 curvature:  -4.07 expect dE=-0.209E-01 dE for cont linesearch -0.369E-06
 trial: gam= 0.68376 g(F)=  0.514E-02 g(S)=  0.000E+00 ort = 0.121E-03 (trialstep = 0.197E+00)
 search vector abs. value=  0.809E-01
 bond charge predicted
       N       E                     dE             d eps       ncg     rms          rms(c)
DAV:   1    -0.115768882632E+04    0.80893E-03   -0.68973E-01  1992   0.177E+00    0.215E-01
DAV:   2    -0.115769027412E+04   -0.14478E-02   -0.15572E-02  2568   0.255E-01    0.154E-01
DAV:   3    -0.115769079136E+04   -0.51724E-03   -0.30022E-03  3336   0.210E-01    0.436E-01
DAV:   4    -0.115769032020E+04    0.47117E-03   -0.20344E-03  2940   0.150E-01    0.136E-01
DAV:   5    -0.115769042589E+04   -0.10569E-03   -0.46952E-04  3024   0.882E-02    0.152E-01
DAV:   6    -0.115769044837E+04   -0.22477E-04   -0.35987E-04  3072   0.675E-02    0.189E-01
DAV:   7    -0.115769039137E+04    0.56997E-04   -0.15802E-04  3120   0.683E-02    0.882E-02
DAV:   8    -0.115769043628E+04   -0.44907E-04   -0.14631E-04  3108   0.735E-02    0.110E-01
DAV:   9    -0.115769041429E+04    0.21989E-04   -0.13174E-04  3036   0.593E-02    0.702E-02
DAV:  10    -0.115769041216E+04    0.21316E-05   -0.56018E-05  2472   0.364E-02    0.470E-02
DAV:  11    -0.115769042139E+04   -0.92375E-05   -0.33769E-05  2112   0.242E-02    0.237E-02
DAV:  12    -0.115769043048E+04   -0.90840E-05   -0.12340E-05  1932   0.173E-02    0.155E-02
DAV:  13    -0.115769043919E+04   -0.87089E-05   -0.47449E-06  1836   0.113E-02    0.105E-02
DAV:  14    -0.115769044526E+04   -0.60727E-05   -0.18460E-06  1680   0.729E-03    0.520E-03
DAV:  15    -0.115769045309E+04   -0.78365E-05   -0.81502E-07  1476   0.483E-03    0.499E-03
DAV:  16    -0.115769045950E+04   -0.64007E-05   -0.54660E-07  1560   0.417E-03    0.350E-03
DAV:  17    -0.115769046463E+04   -0.51337E-05   -0.26362E-07  1452   0.267E-03    0.261E-03
DAV:  18    -0.115769047055E+04   -0.59168E-05   -0.20930E-07  1488   0.195E-03    0.226E-03
DAV:  19    -0.115769047692E+04   -0.63714E-05   -0.20571E-07  1476   0.166E-03    0.234E-03
DAV:  20    -0.115769047975E+04   -0.28369E-05   -0.13483E-07  1512   0.166E-03    0.140E-03
DAV:  21    -0.115769048376E+04   -0.40069E-05   -0.93228E-08  1428   0.902E-04    0.874E-04
DAV:  22    -0.115769048613E+04   -0.23715E-05   -0.71633E-08  1476   0.710E-04    0.103E-03
DAV:  23    -0.115769048846E+04   -0.23242E-05   -0.48920E-08  1416   0.768E-04    0.773E-04
DAV:  24    -0.115769049135E+04   -0.28931E-05   -0.40583E-08  1464   0.554E-04    0.580E-04
DAV:  25    -0.115769049518E+04   -0.38333E-05   -0.61428E-08  1476   0.385E-04    0.611E-04
DAV:  26    -0.115769049711E+04   -0.19219E-05   -0.33057E-08  1488   0.450E-04    0.468E-04
DAV:  27    -0.115769049908E+04   -0.19768E-05   -0.27388E-08  1440   0.394E-04    0.487E-04
DAV:  28    -0.115769050177E+04   -0.26836E-05   -0.34647E-08  1416   0.377E-04    0.409E-04
DAV:  29    -0.115769050321E+04   -0.14413E-05   -0.31427E-08  1476   0.308E-04    0.428E-04
DAV:  30    -0.115769050431E+04   -0.11001E-05   -0.21210E-08  1440   0.294E-04    0.261E-04
DAV:  31    -0.115769050571E+04   -0.14008E-05   -0.22122E-08  1428   0.246E-04    0.286E-04
DAV:  32    -0.115769050704E+04   -0.13341E-05   -0.24098E-08  1488   0.246E-04    0.194E-04
DAV:  33    -0.115769050775E+04   -0.71232E-06   -0.18081E-08  1452   0.221E-04
 119 F= -.11653895E+04 E0= -.11653860E+04  d E =-.873503E-03  mag=    13.0823
 trial-energy change:   -0.000874  1 .order   -0.000873   -0.001026   -0.000719
 step:   0.6576(harm=  0.6576)  dis= 0.00720  next Energy= -1165.390300 (dE=-0.172E-02)
 bond charge predicted
       N       E                     dE             d eps       ncg     rms          rms(c)
DAV:   1    -0.115768220342E+04    0.83036E-02   -0.37896E+00  1992   0.415E+00    0.505E-01
DAV:   2    -0.115769058737E+04   -0.83840E-02   -0.85850E-02  2604   0.604E-01    0.385E-01
DAV:   3    -0.115769359019E+04   -0.30028E-02   -0.16783E-02  3384   0.534E-01    0.107E+00
DAV:   4    -0.115769077869E+04    0.28115E-02   -0.10073E-02  2988   0.378E-01    0.323E-01
DAV:   5    -0.115769114441E+04   -0.36572E-03   -0.21392E-03  3108   0.208E-01    0.296E-01
DAV:   6    -0.115769124808E+04   -0.10367E-03   -0.20683E-03  3024   0.162E-01    0.398E-01
DAV:   7    -0.115769108159E+04    0.16649E-03   -0.14334E-03  3168   0.140E-01    0.266E-01
DAV:   8    -0.115769127950E+04   -0.19791E-03   -0.84494E-04  3204   0.174E-01    0.305E-01
DAV:   9    -0.115769109877E+04    0.18073E-03   -0.93221E-04  3180   0.137E-01    0.168E-01
DAV:  10    -0.115769108816E+04    0.10619E-04   -0.33266E-04  3204   0.895E-02    0.117E-01
DAV:  11    -0.115769110773E+04   -0.19574E-04   -0.18456E-04  2964   0.578E-02    0.509E-02
DAV:  12    -0.115769113638E+04   -0.28645E-04   -0.68604E-05  2556   0.398E-02    0.358E-02
DAV:  13    -0.115769116430E+04   -0.27929E-04   -0.24446E-05  2244   0.243E-02    0.225E-02
DAV:  14    -0.115769118291E+04   -0.18604E-04   -0.93905E-06  1896   0.160E-02    0.133E-02
DAV:  15    -0.115769120725E+04   -0.24343E-04   -0.48995E-06  1788   0.115E-02    0.130E-02
DAV:  16    -0.115769122475E+04   -0.17496E-04   -0.26083E-06  1728   0.939E-03    0.825E-03
DAV:  17    -0.115769124119E+04   -0.16441E-04   -0.10725E-06  1632   0.568E-03    0.730E-03
DAV:  18    -0.115769126169E+04   -0.20504E-04   -0.81531E-07  1500   0.468E-03    0.530E-03
DAV:  19    -0.115769128072E+04   -0.19029E-04   -0.83350E-07  1536   0.427E-03    0.587E-03
DAV:  20    -0.115769129056E+04   -0.98343E-05   -0.54083E-07  1488   0.389E-03    0.306E-03
DAV:  21    -0.115769130355E+04   -0.12990E-04   -0.37718E-07  1488   0.200E-03    0.199E-03
DAV:  22    -0.115769131038E+04   -0.68383E-05   -0.27569E-07  1500   0.155E-03    0.214E-03
DAV:  23    -0.115769131809E+04   -0.77066E-05   -0.19679E-07  1464   0.167E-03    0.177E-03
DAV:  24    -0.115769132899E+04   -0.10901E-04   -0.17803E-07  1488   0.115E-03    0.123E-03
DAV:  25    -0.115769134016E+04   -0.11172E-04   -0.23547E-07  1464   0.708E-04    0.119E-03
DAV:  26    -0.115769134665E+04   -0.64860E-05   -0.13299E-07  1476   0.772E-04    0.879E-04
DAV:  27    -0.115769135315E+04   -0.65038E-05   -0.10680E-07  1476   0.774E-04    0.992E-04
DAV:  28    -0.115769136243E+04   -0.92790E-05   -0.13716E-07  1476   0.805E-04    0.867E-04
DAV:  29    -0.115769137118E+04   -0.87515E-05   -0.18534E-07  1476   0.703E-04    0.752E-04
DAV:  30    -0.115769137315E+04   -0.19662E-05   -0.11322E-07  1536   0.574E-04    0.543E-04
DAV:  31    -0.115769137757E+04   -0.44242E-05   -0.11117E-07  1404   0.456E-04    0.513E-04
DAV:  32    -0.115769138229E+04   -0.47206E-05   -0.10983E-07  1488   0.521E-04    0.461E-04
DAV:  33    -0.115769138599E+04   -0.36987E-05   -0.12236E-07  1452   0.515E-04    0.492E-04
DAV:  34    -0.115769138795E+04   -0.19608E-05   -0.95770E-08  1476   0.525E-04    0.445E-04
DAV:  35    -0.115769138924E+04   -0.12858E-05   -0.81531E-08  1464   0.410E-04    0.347E-04
DAV:  36    -0.115769139007E+04   -0.83252E-06   -0.59119E-08  1476   0.339E-04
 120 F= -.11653903E+04 E0= -.11653869E+04  d E =-.176089E-02  mag=    13.0823
 curvature:  -5.10 expect dE=-0.490E-01 dE for cont linesearch -0.267E-05
 trial: gam= 1.84208 g(F)=  0.962E-02 g(S)=  0.000E+00 ort = 0.206E-03 (trialstep = 0.820E-01)
 search vector abs. value=  0.285E+00
 bond charge predicted
       N       E                     dE             d eps       ncg     rms          rms(c)
DAV:   1    -0.115769105134E+04    0.33790E-03   -0.43347E-01  1998   0.140E+00    0.167E-01
DAV:   2    -0.115769194418E+04   -0.89283E-03   -0.95989E-03  2664   0.207E-01    0.138E-01
DAV:   3    -0.115769236609E+04   -0.42192E-03   -0.13542E-03  3432   0.207E-01    0.354E-01
DAV:   4    -0.115769203263E+04    0.33347E-03   -0.56232E-04  3012   0.148E-01    0.187E-01
DAV:   5    -0.115769200596E+04    0.26669E-04   -0.34249E-04  3192   0.741E-02    0.112E-01
DAV:   6    -0.115769204422E+04   -0.38267E-04   -0.48102E-04  3120   0.554E-02    0.152E-01
DAV:   7    -0.115769199222E+04    0.52000E-04   -0.28786E-04  3012   0.571E-02    0.632E-02
DAV:   8    -0.115769201469E+04   -0.22467E-04   -0.10137E-04  3108   0.542E-02    0.603E-02
DAV:   9    -0.115769201592E+04   -0.12270E-05   -0.56500E-05  2844   0.433E-02    0.558E-02
DAV:  10    -0.115769201108E+04    0.48361E-05   -0.30761E-05  2412   0.297E-02    0.293E-02
DAV:  11    -0.115769201639E+04   -0.53045E-05   -0.16741E-05  1860   0.178E-02    0.209E-02
DAV:  12    -0.115769202058E+04   -0.41904E-05   -0.88329E-06  1884   0.136E-02    0.138E-02
DAV:  13    -0.115769202497E+04   -0.43913E-05   -0.28811E-06  1644   0.818E-03    0.530E-03
DAV:  14    -0.115769203098E+04   -0.60177E-05   -0.66230E-07  1512   0.417E-03    0.474E-03
DAV:  15    -0.115769203486E+04   -0.38793E-05   -0.55938E-07  1476   0.422E-03    0.407E-03
DAV:  16    -0.115769203931E+04   -0.44443E-05   -0.29718E-07  1488   0.283E-03    0.260E-03
DAV:  17    -0.115769204275E+04   -0.34420E-05   -0.20253E-07  1464   0.202E-03    0.150E-03
DAV:  18    -0.115769204650E+04   -0.37539E-05   -0.14227E-07  1464   0.106E-03    0.133E-03
DAV:  19    -0.115769204980E+04   -0.33001E-05   -0.10017E-07  1464   0.111E-03    0.152E-03
DAV:  20    -0.115769205192E+04   -0.21171E-05   -0.71064E-08  1452   0.122E-03    0.108E-03
DAV:  21    -0.115769205431E+04   -0.23885E-05   -0.51689E-08  1464   0.761E-04    0.660E-04
DAV:  22    -0.115769205611E+04   -0.17977E-05   -0.45330E-08  1452   0.516E-04    0.785E-04
DAV:  23    -0.115769205749E+04   -0.13809E-05   -0.31303E-08  1428   0.567E-04    0.529E-04
DAV:  24    -0.115769205939E+04   -0.18983E-05   -0.23390E-08  1440   0.431E-04    0.463E-04
DAV:  25    -0.115769206267E+04   -0.32841E-05   -0.46497E-08  1464   0.422E-04    0.625E-04
DAV:  26    -0.115769206365E+04   -0.97755E-06   -0.25585E-08  1524   0.474E-04
 121 F= -.11653910E+04 E0= -.11653876E+04  d E =-.697567E-03  mag=    13.0816
 trial-energy change:   -0.000698  1 .order   -0.000704   -0.000820   -0.000588
 step:   0.2903(harm=  0.2903)  dis= 0.00700  next Energy= -1165.391796 (dE=-0.145E-02)
 bond charge predicted
       N       E                     dE             d eps       ncg     rms          rms(c)
DAV:   1    -0.115768617063E+04    0.58920E-02   -0.27929E+00  1992   0.355E+00    0.425E-01
DAV:   2    -0.115769228819E+04   -0.61176E-02   -0.62054E-02  2664   0.526E-01    0.348E-01
DAV:   3    -0.115769477529E+04   -0.24871E-02   -0.87191E-03  3444   0.524E-01    0.877E-01
DAV:   4    -0.115769272591E+04    0.20494E-02   -0.35181E-03  3048   0.379E-01    0.460E-01
DAV:   5    -0.115769253359E+04    0.19232E-03   -0.19994E-03  3180   0.184E-01    0.292E-01
DAV:   6    -0.115769275799E+04   -0.22440E-03   -0.33029E-03  3240   0.138E-01    0.395E-01
DAV:   7    -0.115769241580E+04    0.34219E-03   -0.18485E-03  3036   0.144E-01    0.152E-01
DAV:   8    -0.115769253961E+04   -0.12381E-03   -0.65534E-04  3156   0.138E-01    0.159E-01
DAV:   9    -0.115769251458E+04    0.25022E-04   -0.37757E-04  3024   0.112E-01    0.132E-01
DAV:  10    -0.115769249211E+04    0.22472E-04   -0.19197E-04  3168   0.734E-02    0.798E-02
DAV:  11    -0.115769251125E+04   -0.19137E-04   -0.11024E-04  2664   0.439E-02    0.528E-02
DAV:  12    -0.115769252804E+04   -0.16795E-04   -0.53783E-05  2208   0.336E-02    0.360E-02
DAV:  13    -0.115769254624E+04   -0.18194E-04   -0.19680E-05  1932   0.207E-02    0.147E-02
DAV:  14    -0.115769257385E+04   -0.27609E-04   -0.43232E-06  1824   0.106E-02    0.117E-02
DAV:  15    -0.115769259066E+04   -0.16808E-04   -0.37996E-06  1740   0.108E-02    0.114E-02
DAV:  16    -0.115769261310E+04   -0.22441E-04   -0.22036E-06  1644   0.757E-03    0.694E-03
DAV:  17    -0.115769262651E+04   -0.13416E-04   -0.11179E-06  1608   0.513E-03    0.388E-03
DAV:  18    -0.115769264260E+04   -0.16087E-04   -0.57277E-07  1488   0.267E-03    0.346E-03
DAV:  19    -0.115769265745E+04   -0.14853E-04   -0.46763E-07  1500   0.300E-03    0.442E-03
DAV:  20    -0.115769266771E+04   -0.10256E-04   -0.37084E-07  1464   0.304E-03    0.247E-03
DAV:  21    -0.115769268001E+04   -0.12299E-04   -0.30965E-07  1512   0.156E-03    0.153E-03
DAV:  22    -0.115769268763E+04   -0.76202E-05   -0.23422E-07  1488   0.115E-03    0.164E-03
DAV:  23    -0.115769269430E+04   -0.66711E-05   -0.17369E-07  1452   0.128E-03    0.145E-03
DAV:  24    -0.115769270237E+04   -0.80720E-05   -0.13415E-07  1464   0.108E-03    0.103E-03
DAV:  25    -0.115769271873E+04   -0.16356E-04   -0.29535E-07  1512   0.990E-04    0.145E-03
DAV:  26    -0.115769272396E+04   -0.52364E-05   -0.16466E-07  1536   0.112E-03    0.950E-04
DAV:  27    -0.115769273372E+04   -0.97582E-05   -0.24136E-07  1452   0.608E-04    0.865E-04
DAV:  28    -0.115769273914E+04   -0.54194E-05   -0.14032E-07  1488   0.709E-04    0.732E-04
DAV:  29    -0.115769274229E+04   -0.31536E-05   -0.10385E-07  1452   0.612E-04    0.706E-04
DAV:  30    -0.115769274661E+04   -0.43156E-05   -0.10013E-07  1464   0.635E-04    0.593E-04
DAV:  31    -0.115769274993E+04   -0.33242E-05   -0.11147E-07  1476   0.475E-04    0.458E-04
DAV:  32    -0.115769275189E+04   -0.19555E-05   -0.82578E-08  1464   0.441E-04    0.463E-04
DAV:  33    -0.115769275360E+04   -0.17149E-05   -0.69420E-08  1440   0.412E-04    0.463E-04
DAV:  34    -0.115769275474E+04   -0.11328E-05   -0.51317E-08  1464   0.417E-04    0.385E-04
DAV:  35    -0.115769275613E+04   -0.13908E-05   -0.58870E-08  1440   0.326E-04    0.339E-04
DAV:  36    -0.115769275658E+04   -0.44979E-06   -0.36993E-08  1512   0.302E-04
 122 F= -.11653918E+04 E0= -.11653884E+04  d E =-.144794E-02  mag=    13.0798
 curvature:  -4.14 expect dE=-0.431E-01 dE for cont linesearch -0.354E-09
 trial: gam= 1.15375 g(F)=  0.104E-01 g(S)=  0.000E+00 ort =-0.494E-05 (trialstep = 0.904E-01)
 search vector abs. value=  0.390E+00
 bond charge predicted
       N       E                     dE             d eps       ncg     rms          rms(c)
DAV:   1    -0.115769186712E+04    0.88901E-03   -0.70582E-01  1992   0.179E+00    0.215E-01
DAV:   2    -0.115769334707E+04   -0.14799E-02   -0.15958E-02  2604   0.260E-01    0.169E-01
DAV:   3    -0.115769405526E+04   -0.70820E-03   -0.20881E-03  3396   0.241E-01    0.518E-01
DAV:   4    -0.115769346684E+04    0.58842E-03   -0.13482E-03  3072   0.164E-01    0.213E-01
DAV:   5    -0.115769346223E+04    0.46098E-05   -0.61936E-04  3180   0.937E-02    0.127E-01
DAV:   6    -0.115769352767E+04   -0.65443E-04   -0.59468E-04  3072   0.627E-02    0.191E-01
DAV:   7    -0.115769344088E+04    0.86789E-04   -0.34767E-04  3156   0.764E-02    0.654E-02
DAV:   8    -0.115769351223E+04   -0.71348E-04   -0.16261E-04  3156   0.682E-02    0.103E-01
DAV:   9    -0.115769347782E+04    0.34408E-04   -0.17065E-04  3156   0.608E-02    0.508E-02
DAV:  10    -0.115769348412E+04   -0.62979E-05   -0.39311E-05  2400   0.295E-02    0.326E-02
DAV:  11    -0.115769349135E+04   -0.72250E-05   -0.14709E-05  2112   0.218E-02    0.215E-02
DAV:  12    -0.115769349741E+04   -0.60606E-05   -0.78855E-06  1872   0.138E-02    0.148E-02
DAV:  13    -0.115769350273E+04   -0.53254E-05   -0.34885E-06  1728   0.896E-03    0.106E-02
DAV:  14    -0.115769350878E+04   -0.60448E-05   -0.12197E-06  1680   0.675E-03    0.638E-03
DAV:  15    -0.115769351455E+04   -0.57678E-05   -0.70318E-07  1512   0.535E-03    0.650E-03
DAV:  16    -0.115769352068E+04   -0.61366E-05   -0.49596E-07  1476   0.401E-03    0.304E-03
DAV:  17    -0.115769352563E+04   -0.49530E-05   -0.33526E-07  1500   0.254E-03    0.328E-03
DAV:  18    -0.115769353052E+04   -0.48837E-05   -0.22159E-07  1476   0.218E-03    0.293E-03
DAV:  19    -0.115769353490E+04   -0.43832E-05   -0.15611E-07  1452   0.168E-03    0.246E-03
DAV:  20    -0.115769353712E+04   -0.22137E-05   -0.11003E-07  1428   0.155E-03    0.160E-03
DAV:  21    -0.115769354088E+04   -0.37633E-05   -0.90875E-08  1440   0.865E-04    0.970E-04
DAV:  22    -0.115769354369E+04   -0.28157E-05   -0.66927E-08  1464   0.727E-04    0.111E-03
DAV:  23    -0.115769354584E+04   -0.21449E-05   -0.48708E-08  1440   0.841E-04    0.839E-04
DAV:  24    -0.115769354894E+04   -0.31000E-05   -0.45820E-08  1464   0.538E-04    0.567E-04
DAV:  25    -0.115769355254E+04   -0.36055E-05   -0.63620E-08  1476   0.419E-04    0.727E-04
DAV:  26    -0.115769355451E+04   -0.19661E-05   -0.39220E-08  1476   0.541E-04    0.539E-04
DAV:  27    -0.115769355587E+04   -0.13598E-05   -0.25958E-08  1440   0.395E-04    0.499E-04
DAV:  28    -0.115769355794E+04   -0.20714E-05   -0.34076E-08  1440   0.354E-04    0.495E-04
DAV:  29    -0.115769355890E+04   -0.95449E-06   -0.21339E-08  1476   0.349E-04
 123 F= -.11653926E+04 E0= -.11653892E+04  d E =-.800902E-03  mag=    13.0792
 trial-energy change:   -0.000801  1 .order   -0.000805   -0.000942   -0.000667
 step:   0.3098(harm=  0.3098)  dis= 0.00823  next Energy= -1165.393407 (dE=-0.161E-02)
 bond charge predicted
       N       E                     dE             d eps       ncg     rms          rms(c)
DAV:   1    -0.115768436986E+04    0.91881E-02   -0.41528E+00  1992   0.435E+00    0.523E-01
DAV:   2    -0.115769354121E+04   -0.91713E-02   -0.94093E-02  2604   0.630E-01    0.407E-01
DAV:   3    -0.115769734703E+04   -0.38058E-02   -0.11960E-02  3444   0.583E-01    0.123E+00
DAV:   4    -0.115769418157E+04    0.31655E-02   -0.78396E-03  3084   0.398E-01    0.528E-01
DAV:   5    -0.115769401771E+04    0.16387E-03   -0.36955E-03  3228   0.225E-01    0.310E-01
DAV:   6    -0.115769436303E+04   -0.34532E-03   -0.35830E-03  3108   0.151E-01    0.464E-01
DAV:   7    -0.115769387988E+04    0.48315E-03   -0.20201E-03  3156   0.187E-01    0.156E-01
DAV:   8    -0.115769423183E+04   -0.35195E-03   -0.96665E-04  3180   0.165E-01    0.254E-01
DAV:   9    -0.115769402663E+04    0.20519E-03   -0.99688E-04  3252   0.148E-01    0.118E-01
DAV:  10    -0.115769405212E+04   -0.25490E-04   -0.22469E-04  3228   0.704E-02    0.762E-02
DAV:  11    -0.115769407949E+04   -0.27364E-04   -0.89910E-05  2880   0.513E-02    0.561E-02
DAV:  12    -0.115769409828E+04   -0.18796E-04   -0.47764E-05  2256   0.319E-02    0.336E-02
DAV:  13    -0.115769412025E+04   -0.21963E-04   -0.18582E-05  1992   0.210E-02    0.251E-02
DAV:  14    -0.115769414507E+04   -0.24828E-04   -0.69077E-06  2004   0.162E-02    0.159E-02
DAV:  15    -0.115769416934E+04   -0.24262E-04   -0.45812E-06  1824   0.132E-02    0.164E-02
DAV:  16    -0.115769419329E+04   -0.23951E-04   -0.30657E-06  1716   0.966E-03    0.715E-03
DAV:  17    -0.115769421208E+04   -0.18796E-04   -0.15895E-06  1584   0.591E-03    0.810E-03
DAV:  18    -0.115769422987E+04   -0.17791E-04   -0.89139E-07  1572   0.502E-03    0.712E-03
DAV:  19    -0.115769424784E+04   -0.17967E-04   -0.69477E-07  1488   0.416E-03    0.638E-03
DAV:  20    -0.115769425924E+04   -0.11401E-04   -0.50079E-07  1488   0.378E-03    0.384E-03
DAV:  21    -0.115769427606E+04   -0.16820E-04   -0.43847E-07  1536   0.201E-03    0.233E-03
DAV:  22    -0.115769428823E+04   -0.12164E-04   -0.31342E-07  1476   0.165E-03    0.251E-03
DAV:  23    -0.115769429792E+04   -0.96927E-05   -0.25301E-07  1452   0.189E-03    0.207E-03
DAV:  24    -0.115769430996E+04   -0.12038E-04   -0.21895E-07  1500   0.132E-03    0.139E-03
DAV:  25    -0.115769432418E+04   -0.14225E-04   -0.29527E-07  1452   0.108E-03    0.182E-03
DAV:  26    -0.115769433321E+04   -0.90272E-05   -0.21031E-07  1524   0.132E-03    0.116E-03
DAV:  27    -0.115769434173E+04   -0.85167E-05   -0.20900E-07  1488   0.801E-04    0.121E-03
DAV:  28    -0.115769434771E+04   -0.59798E-05   -0.16395E-07  1476   0.638E-04    0.109E-03
DAV:  29    -0.115769435442E+04   -0.67125E-05   -0.13941E-07  1488   0.653E-04    0.981E-04
DAV:  30    -0.115769435995E+04   -0.55351E-05   -0.12111E-07  1452   0.780E-04    0.922E-04
DAV:  31    -0.115769436593E+04   -0.59729E-05   -0.15234E-07  1488   0.695E-04    0.641E-04
DAV:  32    -0.115769437098E+04   -0.50569E-05   -0.16411E-07  1488   0.636E-04    0.784E-04
DAV:  33    -0.115769437303E+04   -0.20455E-05   -0.11993E-07  1476   0.593E-04    0.735E-04
DAV:  34    -0.115769437516E+04   -0.21328E-05   -0.10364E-07  1428   0.516E-04    0.742E-04
DAV:  35    -0.115769437664E+04   -0.14783E-05   -0.87342E-08  1500   0.440E-04    0.577E-04
DAV:  36    -0.115769437751E+04   -0.87180E-06   -0.68008E-08  1464   0.347E-04
 124 F= -.11653934E+04 E0= -.11653901E+04  d E =-.161613E-02  mag=    13.0778
 curvature:  -5.79 expect dE=-0.664E-01 dE for cont linesearch -0.604E-08
 trial: gam= 1.04181 g(F)=  0.115E-01 g(S)=  0.000E+00 ort = 0.202E-04 (trialstep = 0.120E+00)
 search vector abs. value=  0.434E+00
 bond charge predicted
       N       E                     dE             d eps       ncg     rms          rms(c)
DAV:   1    -0.115769211492E+04    0.22617E-02   -0.14165E+00  1992   0.253E+00    0.301E-01
DAV:   2    -0.115769509069E+04   -0.29758E-02   -0.31516E-02  2604   0.361E-01    0.221E-01
DAV:   3    -0.115769625278E+04   -0.11621E-02   -0.38994E-03  3360   0.321E-01    0.643E-01
DAV:   4    -0.115769532505E+04    0.92773E-03   -0.15774E-03  3120   0.226E-01    0.271E-01
DAV:   5    -0.115769535748E+04   -0.32428E-04   -0.13528E-03  3180   0.130E-01    0.251E-01
DAV:   6    -0.115769539296E+04   -0.35483E-04   -0.17155E-03  3144   0.989E-02    0.256E-01
DAV:   7    -0.115769526505E+04    0.12791E-03   -0.73003E-04  3000   0.113E-01    0.987E-02
DAV:   8    -0.115769536576E+04   -0.10071E-03   -0.38079E-04  3144   0.105E-01    0.141E-01
DAV:   9    -0.115769532362E+04    0.42135E-04   -0.32765E-04  3108   0.770E-02    0.922E-02
DAV:  10    -0.115769532206E+04    0.15600E-05   -0.10953E-04  2928   0.507E-02    0.578E-02
DAV:  11    -0.115769533694E+04   -0.14874E-04   -0.26458E-05  2304   0.323E-02    0.272E-02
DAV:  12    -0.115769534788E+04   -0.10943E-04   -0.13756E-05  2016   0.214E-02    0.220E-02
DAV:  13    -0.115769535797E+04   -0.10087E-04   -0.62868E-06  1908   0.138E-02    0.142E-02
DAV:  14    -0.115769536695E+04   -0.89782E-05   -0.30543E-06  1776   0.869E-03    0.617E-03
DAV:  15    -0.115769537815E+04   -0.11208E-04   -0.10053E-06  1572   0.534E-03    0.632E-03
DAV:  16    -0.115769538477E+04   -0.66170E-05   -0.84830E-07  1548   0.532E-03    0.499E-03
DAV:  17    -0.115769539250E+04   -0.77313E-05   -0.45598E-07  1464   0.371E-03    0.445E-03
DAV:  18    -0.115769540083E+04   -0.83235E-05   -0.33273E-07  1512   0.281E-03    0.377E-03
DAV:  19    -0.115769540801E+04   -0.71818E-05   -0.29914E-07  1452   0.258E-03    0.332E-03
DAV:  20    -0.115769541214E+04   -0.41300E-05   -0.22942E-07  1524   0.233E-03    0.216E-03
DAV:  21    -0.115769541855E+04   -0.64145E-05   -0.19203E-07  1476   0.121E-03    0.158E-03
DAV:  22    -0.115769542260E+04   -0.40440E-05   -0.13945E-07  1488   0.981E-04    0.152E-03
DAV:  23    -0.115769542614E+04   -0.35468E-05   -0.91257E-08  1440   0.113E-03    0.128E-03
DAV:  24    -0.115769543157E+04   -0.54242E-05   -0.89023E-08  1452   0.790E-04    0.950E-04
DAV:  25    -0.115769543683E+04   -0.52614E-05   -0.11112E-07  1500   0.656E-04    0.114E-03
DAV:  26    -0.115769543979E+04   -0.29593E-05   -0.71618E-08  1488   0.779E-04    0.741E-04
DAV:  27    -0.115769544334E+04   -0.35481E-05   -0.70973E-08  1428   0.493E-04    0.780E-04
DAV:  28    -0.115769544604E+04   -0.27047E-05   -0.64943E-08  1476   0.476E-04    0.738E-04
DAV:  29    -0.115769544815E+04   -0.21081E-05   -0.46629E-08  1452   0.501E-04    0.577E-04
DAV:  30    -0.115769545013E+04   -0.19794E-05   -0.45324E-08  1500   0.502E-04    0.551E-04
DAV:  31    -0.115769545198E+04   -0.18473E-05   -0.50334E-08  1452   0.432E-04    0.411E-04
DAV:  32    -0.115769545330E+04   -0.13286E-05   -0.47521E-08  1464   0.365E-04    0.542E-04
DAV:  33    -0.115769545423E+04   -0.92982E-06   -0.36938E-08  1452   0.410E-04
 125 F= -.11653944E+04 E0= -.11653911E+04  d E =-.102280E-02  mag=    13.0775
 trial-energy change:   -0.001023  1 .order   -0.001025   -0.001382   -0.000667
 step:   0.2327(harm=  0.2327)  dis= 0.00644  next Energy= -1165.394744 (dE=-0.133E-02)
 bond charge predicted
       N       E                     dE             d eps       ncg     rms          rms(c)
DAV:   1    -0.115769290872E+04    0.25446E-02   -0.12286E+00  1992   0.236E+00    0.280E-01
DAV:   2    -0.115769548349E+04   -0.25748E-02   -0.27382E-02  2580   0.336E-01    0.207E-01
DAV:   3    -0.115769650834E+04   -0.10249E-02   -0.34150E-03  3360   0.300E-01    0.604E-01
DAV:   4    -0.115769568647E+04    0.82187E-03   -0.13561E-03  3120   0.210E-01    0.252E-01
DAV:   5    -0.115769572124E+04   -0.34773E-04   -0.11870E-03  3168   0.121E-01    0.237E-01
DAV:   6    -0.115769574969E+04   -0.28446E-04   -0.15085E-03  3156   0.921E-02    0.238E-01
DAV:   7    -0.115769563916E+04    0.11053E-03   -0.63597E-04  2988   0.106E-01    0.918E-02
DAV:   8    -0.115769572884E+04   -0.89680E-04   -0.33377E-04  3168   0.979E-02    0.132E-01
DAV:   9    -0.115769569193E+04    0.36914E-04   -0.28568E-04  3096   0.719E-02    0.865E-02
DAV:  10    -0.115769569097E+04    0.95853E-06   -0.94833E-05  2868   0.473E-02    0.544E-02
DAV:  11    -0.115769570446E+04   -0.13492E-04   -0.23163E-05  2268   0.302E-02    0.251E-02
DAV:  12    -0.115769571447E+04   -0.10009E-04   -0.11843E-05  1992   0.199E-02    0.207E-02
DAV:  13    -0.115769572352E+04   -0.90427E-05   -0.55050E-06  1908   0.129E-02    0.133E-02
DAV:  14    -0.115769573159E+04   -0.80735E-05   -0.26714E-06  1788   0.814E-03    0.574E-03
DAV:  15    -0.115769574171E+04   -0.10117E-04   -0.86385E-07  1512   0.497E-03    0.583E-03
DAV:  16    -0.115769574778E+04   -0.60780E-05   -0.76407E-07  1524   0.499E-03    0.470E-03
DAV:  17    -0.115769575462E+04   -0.68319E-05   -0.40294E-07  1464   0.351E-03    0.418E-03
DAV:  18    -0.115769576201E+04   -0.73895E-05   -0.29640E-07  1512   0.264E-03    0.349E-03
DAV:  19    -0.115769576863E+04   -0.66261E-05   -0.26339E-07  1452   0.235E-03    0.307E-03
DAV:  20    -0.115769577228E+04   -0.36455E-05   -0.20501E-07  1524   0.218E-03    0.206E-03
DAV:  21    -0.115769577796E+04   -0.56863E-05   -0.16821E-07  1440   0.113E-03    0.148E-03
DAV:  22    -0.115769578177E+04   -0.38043E-05   -0.12671E-07  1476   0.877E-04    0.142E-03
DAV:  23    -0.115769578485E+04   -0.30820E-05   -0.79205E-08  1452   0.105E-03    0.123E-03
DAV:  24    -0.115769578942E+04   -0.45722E-05   -0.72195E-08  1476   0.757E-04    0.909E-04
DAV:  25    -0.115769579441E+04   -0.49872E-05   -0.10187E-07  1464   0.656E-04    0.108E-03
DAV:  26    -0.115769579700E+04   -0.25869E-05   -0.60668E-08  1500   0.727E-04    0.666E-04
DAV:  27    -0.115769580036E+04   -0.33617E-05   -0.65881E-08  1452   0.439E-04    0.746E-04
DAV:  28    -0.115769580265E+04   -0.22943E-05   -0.53592E-08  1488   0.446E-04    0.705E-04
DAV:  29    -0.115769580448E+04   -0.18286E-05   -0.40288E-08  1440   0.468E-04    0.546E-04
DAV:  30    -0.115769580630E+04   -0.18247E-05   -0.38442E-08  1476   0.471E-04    0.505E-04
DAV:  31    -0.115769580807E+04   -0.17614E-05   -0.46747E-08  1440   0.421E-04    0.411E-04
DAV:  32    -0.115769580913E+04   -0.10687E-05   -0.38784E-08  1476   0.363E-04    0.534E-04
DAV:  33    -0.115769580999E+04   -0.85974E-06   -0.32793E-08  1440   0.396E-04
 126 F= -.11653947E+04 E0= -.11653914E+04  d E =-.132864E-02  mag=    13.0772
 curvature:  -4.40 expect dE=-0.391E-01 dE for cont linesearch -0.759E-08
 trial: gam= 0.78264 g(F)=  0.889E-02 g(S)=  0.000E+00 ort =-0.274E-04 (trialstep = 0.143E+00)
 search vector abs. value=  0.275E+00
 bond charge predicted
       N       E                     dE             d eps       ncg     rms          rms(c)
DAV:   1    -0.115769392466E+04    0.18845E-02   -0.12545E+00  1992   0.239E+00    0.284E-01
DAV:   2    -0.115769657348E+04   -0.26488E-02   -0.28143E-02  2604   0.342E-01    0.211E-01
DAV:   3    -0.115769761706E+04   -0.10436E-02   -0.55250E-03  3264   0.305E-01    0.618E-01
DAV:   4    -0.115769664807E+04    0.96899E-03   -0.31167E-03  2976   0.216E-01    0.163E-01
DAV:   5    -0.115769681322E+04   -0.16515E-03   -0.72302E-04  3132   0.123E-01    0.177E-01
DAV:   6    -0.115769681445E+04   -0.12238E-05   -0.76659E-04  3024   0.910E-02    0.197E-01
DAV:   7    -0.115769679429E+04    0.20156E-04   -0.52167E-04  3108   0.811E-02    0.171E-01
DAV:   8    -0.115769686450E+04   -0.70214E-04   -0.34880E-04  3168   0.948E-02    0.175E-01
DAV:   9    -0.115769679301E+04    0.71495E-04   -0.39315E-04  3192   0.851E-02    0.954E-02
DAV:  10    -0.115769679028E+04    0.27303E-05   -0.83481E-05  2868   0.498E-02    0.579E-02
DAV:  11    -0.115769680092E+04   -0.10642E-04   -0.41952E-05  2256   0.347E-02    0.320E-02
DAV:  12    -0.115769681368E+04   -0.12761E-04   -0.17080E-05  2004   0.235E-02    0.225E-02
DAV:  13    -0.115769682440E+04   -0.10716E-04   -0.61159E-06  1956   0.139E-02    0.150E-02
DAV:  14    -0.115769683292E+04   -0.85215E-05   -0.24247E-06  1740   0.879E-03    0.769E-03
DAV:  15    -0.115769684217E+04   -0.92536E-05   -0.14420E-06  1620   0.660E-03    0.772E-03
DAV:  16    -0.115769685108E+04   -0.89078E-05   -0.10746E-06  1464   0.539E-03    0.471E-03
DAV:  17    -0.115769685680E+04   -0.57177E-05   -0.45302E-07  1512   0.340E-03    0.374E-03
DAV:  18    -0.115769686474E+04   -0.79399E-05   -0.30874E-07  1464   0.221E-03    0.270E-03
DAV:  19    -0.115769687293E+04   -0.81899E-05   -0.27994E-07  1500   0.190E-03    0.286E-03
DAV:  20    -0.115769687735E+04   -0.44226E-05   -0.20978E-07  1452   0.230E-03    0.221E-03
DAV:  21    -0.115769688368E+04   -0.63335E-05   -0.14670E-07  1440   0.142E-03    0.130E-03
DAV:  22    -0.115769688756E+04   -0.38723E-05   -0.12926E-07  1488   0.118E-03    0.179E-03
DAV:  23    -0.115769689094E+04   -0.33856E-05   -0.98381E-08  1476   0.114E-03    0.107E-03
DAV:  24    -0.115769689529E+04   -0.43503E-05   -0.96246E-08  1452   0.578E-04    0.108E-03
DAV:  25    -0.115769689782E+04   -0.25291E-05   -0.60694E-08  1464   0.585E-04    0.925E-04
DAV:  26    -0.115769690217E+04   -0.43475E-05   -0.59305E-08  1416   0.610E-04    0.821E-04
DAV:  27    -0.115769690586E+04   -0.36912E-05   -0.59743E-08  1476   0.649E-04    0.669E-04
DAV:  28    -0.115769690966E+04   -0.37998E-05   -0.82435E-08  1464   0.528E-04    0.776E-04
DAV:  29    -0.115769691101E+04   -0.13529E-05   -0.50376E-08  1536   0.546E-04    0.534E-04
DAV:  30    -0.115769691325E+04   -0.22345E-05   -0.57049E-08  1416   0.308E-04    0.443E-04
DAV:  31    -0.115769691517E+04   -0.19271E-05   -0.44300E-08  1476   0.345E-04    0.311E-04
DAV:  32    -0.115769691653E+04   -0.13533E-05   -0.41015E-08  1440   0.314E-04    0.433E-04
DAV:  33    -0.115769691745E+04   -0.92256E-06   -0.32258E-08  1452   0.382E-04
 127 F= -.11653958E+04 E0= -.11653925E+04  d E =-.108666E-02  mag=    13.0772
 trial-energy change:   -0.001087  1 .order   -0.001087   -0.001267   -0.000907
 step:   0.5029(harm=  0.5029)  dis= 0.01108  next Energy= -1165.396967 (dE=-0.223E-02)
 bond charge predicted
       N       E                     dE             d eps       ncg     rms          rms(c)
DAV:   1    -0.115767903796E+04    0.17879E-01   -0.79594E+00  1992   0.602E+00    0.717E-01
DAV:   2    -0.115769667017E+04   -0.17632E-01   -0.17945E-01  2616   0.862E-01    0.533E-01
DAV:   3    -0.115770297198E+04   -0.63018E-02   -0.37067E-02  3300   0.768E-01    0.155E+00
DAV:   4    -0.115769697655E+04    0.59954E-02   -0.20317E-02  2976   0.550E-01    0.406E-01
DAV:   5    -0.115769785620E+04   -0.87966E-03   -0.50813E-03  3144   0.306E-01    0.476E-01
DAV:   6    -0.115769799217E+04   -0.13597E-03   -0.53433E-03  2988   0.229E-01    0.596E-01
DAV:   7    -0.115769753881E+04    0.45336E-03   -0.27028E-03  3096   0.208E-01    0.347E-01
DAV:   8    -0.115769807252E+04   -0.53371E-03   -0.22192E-03  3168   0.240E-01    0.427E-01
DAV:   9    -0.115769759672E+04    0.47580E-03   -0.24332E-03  3132   0.210E-01    0.229E-01
DAV:  10    -0.115769758803E+04    0.86868E-05   -0.51801E-04  3252   0.118E-01    0.149E-01
DAV:  11    -0.115769761433E+04   -0.26298E-04   -0.23775E-04  3060   0.850E-02    0.767E-02
DAV:  12    -0.115769766324E+04   -0.48905E-04   -0.10376E-04  2760   0.571E-02    0.514E-02
DAV:  13    -0.115769771390E+04   -0.50665E-04   -0.37400E-05  2256   0.339E-02    0.349E-02
DAV:  14    -0.115769774461E+04   -0.30704E-04   -0.15349E-05  2184   0.228E-02    0.219E-02
DAV:  15    -0.115769778370E+04   -0.39091E-04   -0.90130E-06  1872   0.164E-02    0.213E-02
DAV:  16    -0.115769780951E+04   -0.25812E-04   -0.61217E-06  1776   0.133E-02    0.130E-02
DAV:  17    -0.115769783264E+04   -0.23127E-04   -0.25245E-06  1668   0.822E-03    0.100E-02
DAV:  18    -0.115769786943E+04   -0.36794E-04   -0.17845E-06  1644   0.613E-03    0.701E-03
DAV:  19    -0.115769790626E+04   -0.36835E-04   -0.15195E-06  1656   0.569E-03    0.849E-03
DAV:  20    -0.115769792437E+04   -0.18105E-04   -0.11041E-06  1548   0.599E-03    0.583E-03
DAV:  21    -0.115769795295E+04   -0.28582E-04   -0.66360E-07  1524   0.325E-03    0.359E-03
DAV:  22    -0.115769796869E+04   -0.15740E-04   -0.50109E-07  1524   0.284E-03    0.427E-03
DAV:  23    -0.115769798414E+04   -0.15445E-04   -0.44805E-07  1524   0.262E-03    0.262E-03
DAV:  24    -0.115769800380E+04   -0.19660E-04   -0.44178E-07  1488   0.133E-03    0.230E-03
DAV:  25    -0.115769801548E+04   -0.11683E-04   -0.29893E-07  1476   0.140E-03    0.202E-03
DAV:  26    -0.115769803269E+04   -0.17207E-04   -0.28889E-07  1500   0.148E-03    0.185E-03
DAV:  27    -0.115769805284E+04   -0.20149E-04   -0.37732E-07  1536   0.149E-03    0.163E-03
DAV:  28    -0.115769806998E+04   -0.17140E-04   -0.47033E-07  1536   0.126E-03    0.207E-03
DAV:  29    -0.115769807837E+04   -0.83917E-05   -0.27955E-07  1500   0.134E-03    0.119E-03
DAV:  30    -0.115769808489E+04   -0.65211E-05   -0.23634E-07  1512   0.718E-04    0.103E-03
DAV:  31    -0.115769809074E+04   -0.58525E-05   -0.18052E-07  1476   0.656E-04    0.949E-04
DAV:  32    -0.115769809695E+04   -0.62093E-05   -0.16873E-07  1476   0.707E-04    0.103E-03
DAV:  33    -0.115769810151E+04   -0.45562E-05   -0.15216E-07  1464   0.748E-04    0.124E-03
DAV:  34    -0.115769810555E+04   -0.40459E-05   -0.17102E-07  1512   0.692E-04    0.996E-04
DAV:  35    -0.115769810807E+04   -0.25147E-05   -0.14234E-07  1476   0.503E-04    0.838E-04
DAV:  36    -0.115769811028E+04   -0.22117E-05   -0.12888E-07  1476   0.484E-04    0.487E-04
DAV:  37    -0.115769811134E+04   -0.10628E-05   -0.10055E-07  1512   0.448E-04    0.420E-04
DAV:  38    -0.115769811201E+04   -0.66933E-06   -0.91739E-08  1416   0.425E-04
 128 F= -.11653970E+04 E0= -.11653936E+04  d E =-.223060E-02  mag=    13.0773
 curvature:  -7.80 expect dE=-0.492E-01 dE for cont linesearch -0.396E-07
 trial: gam= 0.69885 g(F)=  0.631E-02 g(S)=  0.000E+00 ort = 0.374E-04 (trialstep = 0.215E+00)
 search vector abs. value=  0.141E+00
 bond charge predicted
       N       E                     dE             d eps       ncg     rms          rms(c)
DAV:   1    -0.115769559247E+04    0.25189E-02   -0.14759E+00  1992   0.259E+00    0.303E-01
DAV:   2    -0.115769870587E+04   -0.31134E-02   -0.32705E-02  2628   0.371E-01    0.224E-01
DAV:   3    -0.115770004558E+04   -0.13397E-02   -0.47558E-03  3360   0.343E-01    0.697E-01
DAV:   4    -0.115769897791E+04    0.10677E-02   -0.34148E-03  3024   0.239E-01    0.332E-01
DAV:   5    -0.115769890048E+04    0.77426E-04   -0.14433E-03  3264   0.145E-01    0.179E-01
DAV:   6    -0.115769899951E+04   -0.99032E-04   -0.10620E-03  3072   0.103E-01    0.231E-01
DAV:   7    -0.115769888438E+04    0.11513E-03   -0.61078E-04  3132   0.102E-01    0.123E-01
DAV:   8    -0.115769895123E+04   -0.66841E-04   -0.44222E-04  3240   0.102E-01    0.141E-01
DAV:   9    -0.115769893071E+04    0.20516E-04   -0.45793E-04  3192   0.866E-02    0.120E-01
DAV:  10    -0.115769890784E+04    0.22868E-04   -0.13664E-04  2988   0.602E-02    0.548E-02
DAV:  11    -0.115769892151E+04   -0.13667E-04   -0.33039E-05  2196   0.348E-02    0.382E-02
DAV:  12    -0.115769893287E+04   -0.11362E-04   -0.19129E-05  2016   0.255E-02    0.234E-02
DAV:  13    -0.115769894235E+04   -0.94818E-05   -0.82665E-06  1992   0.154E-02    0.122E-02
DAV:  14    -0.115769895572E+04   -0.13364E-04   -0.24510E-06  1788   0.856E-03    0.803E-03
DAV:  15    -0.115769896781E+04   -0.12091E-04   -0.14798E-06  1620   0.716E-03    0.695E-03
DAV:  16    -0.115769897809E+04   -0.10281E-04   -0.11357E-06  1500   0.592E-03    0.626E-03
DAV:  17    -0.115769898507E+04   -0.69776E-05   -0.62741E-07  1488   0.428E-03    0.426E-03
DAV:  18    -0.115769899417E+04   -0.91028E-05   -0.33050E-07  1476   0.216E-03    0.381E-03
DAV:  19    -0.115769900266E+04   -0.84919E-05   -0.26913E-07  1452   0.194E-03    0.305E-03
DAV:  20    -0.115769900753E+04   -0.48700E-05   -0.21755E-07  1512   0.227E-03    0.229E-03
DAV:  21    -0.115769901445E+04   -0.69192E-05   -0.15433E-07  1440   0.137E-03    0.142E-03
DAV:  22    -0.115769901894E+04   -0.44869E-05   -0.13682E-07  1488   0.112E-03    0.177E-03
DAV:  23    -0.115769902284E+04   -0.39034E-05   -0.97462E-08  1464   0.116E-03    0.102E-03
DAV:  24    -0.115769902813E+04   -0.52897E-05   -0.99381E-08  1464   0.570E-04    0.885E-04
DAV:  25    -0.115769903219E+04   -0.40589E-05   -0.71432E-08  1452   0.520E-04    0.805E-04
DAV:  26    -0.115769903805E+04   -0.58631E-05   -0.73484E-08  1416   0.645E-04    0.861E-04
DAV:  27    -0.115769904240E+04   -0.43462E-05   -0.69916E-08  1512   0.726E-04    0.714E-04
DAV:  28    -0.115769904674E+04   -0.43467E-05   -0.94558E-08  1428   0.519E-04    0.644E-04
DAV:  29    -0.115769904835E+04   -0.16018E-05   -0.64282E-08  1536   0.421E-04    0.567E-04
DAV:  30    -0.115769905115E+04   -0.28081E-05   -0.62985E-08  1404   0.408E-04    0.519E-04
DAV:  31    -0.115769905266E+04   -0.15027E-05   -0.42342E-08  1500   0.464E-04    0.397E-04
DAV:  32    -0.115769905491E+04   -0.22554E-05   -0.66007E-08  1476   0.361E-04    0.467E-04
DAV:  33    -0.115769905561E+04   -0.69290E-06   -0.37982E-08  1512   0.342E-04
 129 F= -.11653980E+04 E0= -.11653946E+04  d E =-.105941E-02  mag=    13.0769
 trial-energy change:   -0.001059  1 .order   -0.001062   -0.001361   -0.000762
 step:   0.4886(harm=  0.4886)  dis= 0.00779  next Energy= -1165.398515 (dE=-0.155E-02)
 bond charge predicted
       N       E                     dE             d eps       ncg     rms          rms(c)
DAV:   1    -0.115769377694E+04    0.52780E-02   -0.23941E+00  1992   0.330E+00    0.387E-01
DAV:   2    -0.115769888296E+04   -0.51060E-02   -0.52964E-02  2604   0.473E-01    0.284E-01
DAV:   3    -0.115770098521E+04   -0.21023E-02   -0.74853E-03  3336   0.436E-01    0.875E-01
DAV:   4    -0.115769931474E+04    0.16705E-02   -0.52819E-03  3024   0.307E-01    0.423E-01
DAV:   5    -0.115769916979E+04    0.14495E-03   -0.23549E-03  3252   0.183E-01    0.233E-01
DAV:   6    -0.115769932216E+04   -0.15236E-03   -0.17845E-03  3084   0.131E-01    0.297E-01
DAV:   7    -0.115769913285E+04    0.18931E-03   -0.99784E-04  3108   0.130E-01    0.156E-01
DAV:   8    -0.115769923620E+04   -0.10335E-03   -0.71801E-04  3192   0.130E-01    0.176E-01
DAV:   9    -0.115769920607E+04    0.30130E-04   -0.72064E-04  3228   0.110E-01    0.154E-01
DAV:  10    -0.115769916776E+04    0.38312E-04   -0.22409E-04  3072   0.770E-02    0.696E-02
DAV:  11    -0.115769918823E+04   -0.20473E-04   -0.55690E-05  2592   0.444E-02    0.483E-02
DAV:  12    -0.115769920565E+04   -0.17414E-04   -0.30067E-05  2136   0.321E-02    0.303E-02
DAV:  13    -0.115769921984E+04   -0.14197E-04   -0.12856E-05  2028   0.197E-02    0.155E-02
DAV:  14    -0.115769924030E+04   -0.20456E-04   -0.38555E-06  1824   0.108E-02    0.102E-02
DAV:  15    -0.115769925872E+04   -0.18418E-04   -0.24430E-06  1692   0.911E-03    0.893E-03
DAV:  16    -0.115769927464E+04   -0.15926E-04   -0.18759E-06  1560   0.757E-03    0.790E-03
DAV:  17    -0.115769928498E+04   -0.10331E-04   -0.99068E-07  1500   0.541E-03    0.531E-03
DAV:  18    -0.115769929831E+04   -0.13331E-04   -0.47825E-07  1500   0.272E-03    0.477E-03
DAV:  19    -0.115769931145E+04   -0.13139E-04   -0.40482E-07  1464   0.257E-03    0.402E-03
DAV:  20    -0.115769931904E+04   -0.75955E-05   -0.34831E-07  1500   0.296E-03    0.276E-03
DAV:  21    -0.115769933038E+04   -0.11341E-04   -0.26209E-07  1488   0.163E-03    0.189E-03
DAV:  22    -0.115769933630E+04   -0.59160E-05   -0.20462E-07  1524   0.142E-03    0.209E-03
DAV:  23    -0.115769934297E+04   -0.66679E-05   -0.15444E-07  1440   0.138E-03    0.132E-03
DAV:  24    -0.115769935134E+04   -0.83753E-05   -0.15847E-07  1512   0.755E-04    0.113E-03
DAV:  25    -0.115769935729E+04   -0.59495E-05   -0.12039E-07  1464   0.670E-04    0.106E-03
DAV:  26    -0.115769936685E+04   -0.95602E-05   -0.13896E-07  1488   0.868E-04    0.112E-03
DAV:  27    -0.115769937413E+04   -0.72777E-05   -0.12200E-07  1464   0.942E-04    0.908E-04
DAV:  28    -0.115769938098E+04   -0.68532E-05   -0.16300E-07  1512   0.669E-04    0.891E-04
DAV:  29    -0.115769938274E+04   -0.17569E-05   -0.10085E-07  1536   0.544E-04    0.734E-04
DAV:  30    -0.115769938666E+04   -0.39226E-05   -0.91543E-08  1428   0.488E-04    0.649E-04
DAV:  31    -0.115769938928E+04   -0.26157E-05   -0.68339E-08  1476   0.578E-04    0.528E-04
DAV:  32    -0.115769939313E+04   -0.38559E-05   -0.11550E-07  1476   0.457E-04    0.589E-04
DAV:  33    -0.115769939406E+04   -0.92336E-06   -0.62746E-08  1536   0.459E-04
 130 F= -.11653985E+04 E0= -.11653951E+04  d E =-.154374E-02  mag=    13.0763
 curvature:  -5.43 expect dE=-0.549E-01 dE for cont linesearch -0.750E-08
 trial: gam= 1.60964 g(F)=  0.101E-01 g(S)=  0.000E+00 ort =-0.139E-04 (trialstep = 0.101E+00)
 search vector abs. value=  0.375E+00
 bond charge predicted
       N       E                     dE             d eps       ncg     rms          rms(c)
DAV:   1    -0.115769804564E+04    0.13475E-02   -0.85269E-01  1992   0.197E+00    0.236E-01
DAV:   2    -0.115769983373E+04   -0.17881E-02   -0.19430E-02  2532   0.278E-01    0.171E-01
DAV:   3    -0.115770036752E+04   -0.53379E-03   -0.20145E-03  3192   0.209E-01    0.419E-01
DAV:   4    -0.115769999257E+04    0.37495E-03   -0.83492E-04  3072   0.156E-01    0.185E-01
DAV:   5    -0.115770005560E+04   -0.63033E-04   -0.77743E-04  3144   0.914E-02    0.222E-01
DAV:   6    -0.115770003195E+04    0.23655E-04   -0.10259E-03  2988   0.751E-02    0.194E-01
DAV:   7    -0.115769998077E+04    0.51179E-04   -0.49187E-04  3024   0.952E-02    0.975E-02
DAV:   8    -0.115770006109E+04   -0.80321E-04   -0.30968E-04  3144   0.862E-02    0.153E-01
DAV:   9    -0.115770000426E+04    0.56828E-04   -0.24301E-04  3072   0.752E-02    0.691E-02
DAV:  10    -0.115770001091E+04   -0.66483E-05   -0.53009E-05  2532   0.426E-02    0.395E-02
DAV:  11    -0.115770002297E+04   -0.12056E-04   -0.17954E-05  2232   0.261E-02    0.247E-02
DAV:  12    -0.115770003013E+04   -0.71686E-05   -0.81703E-06  1944   0.191E-02    0.177E-02
DAV:  13    -0.115770003725E+04   -0.71185E-05   -0.32586E-06  1752   0.112E-02    0.106E-02
DAV:  14    -0.115770004338E+04   -0.61302E-05   -0.16278E-06  1668   0.711E-03    0.591E-03
DAV:  15    -0.115770005131E+04   -0.79291E-05   -0.89166E-07  1548   0.532E-03    0.658E-03
DAV:  16    -0.115770005814E+04   -0.68251E-05   -0.76327E-07  1488   0.478E-03    0.398E-03
DAV:  17    -0.115770006370E+04   -0.55608E-05   -0.43007E-07  1488   0.350E-03    0.383E-03
DAV:  18    -0.115770006964E+04   -0.59386E-05   -0.27975E-07  1476   0.276E-03    0.280E-03
DAV:  19    -0.115770007479E+04   -0.51526E-05   -0.22048E-07  1488   0.200E-03    0.285E-03
DAV:  20    -0.115770007815E+04   -0.33640E-05   -0.17597E-07  1488   0.202E-03    0.172E-03
DAV:  21    -0.115770008276E+04   -0.46024E-05   -0.14013E-07  1452   0.109E-03    0.125E-03
DAV:  22    -0.115770008522E+04   -0.24648E-05   -0.98609E-08  1488   0.875E-04    0.125E-03
DAV:  23    -0.115770008787E+04   -0.26533E-05   -0.69136E-08  1428   0.958E-04    0.982E-04
DAV:  24    -0.115770009172E+04   -0.38456E-05   -0.63777E-08  1440   0.637E-04    0.703E-04
DAV:  25    -0.115770009459E+04   -0.28661E-05   -0.56452E-08  1464   0.598E-04    0.899E-04
DAV:  26    -0.115770009798E+04   -0.33961E-05   -0.56371E-08  1476   0.640E-04    0.576E-04
DAV:  27    -0.115770010038E+04   -0.24015E-05   -0.50150E-08  1476   0.454E-04    0.615E-04
DAV:  28    -0.115770010214E+04   -0.17556E-05   -0.41638E-08  1452   0.341E-04    0.462E-04
DAV:  29    -0.115770010363E+04   -0.14890E-05   -0.26741E-08  1464   0.345E-04    0.443E-04
DAV:  30    -0.115770010515E+04   -0.15243E-05   -0.23353E-08  1452   0.351E-04    0.405E-04
DAV:  31    -0.115770010677E+04   -0.16196E-05   -0.26096E-08  1440   0.356E-04    0.368E-04
DAV:  32    -0.115770010821E+04   -0.14337E-05   -0.32951E-08  1476   0.286E-04    0.299E-04
DAV:  33    -0.115770010901E+04   -0.80930E-06   -0.23915E-08  1464   0.262E-04
 131 F= -.11653993E+04 E0= -.11653959E+04  d E =-.795184E-03  mag=    13.0763
 trial-energy change:   -0.000795  1 .order   -0.000794   -0.001023   -0.000565
 step:   0.2262(harm=  0.2262)  dis= 0.00566  next Energy= -1165.399654 (dE=-0.114E-02)
 bond charge predicted
       N       E                     dE             d eps       ncg     rms          rms(c)
DAV:   1    -0.115769721760E+04    0.28906E-02   -0.12967E+00  1992   0.243E+00    0.291E-01
DAV:   2    -0.115769997917E+04   -0.27616E-02   -0.29601E-02  2544   0.343E-01    0.211E-01
DAV:   3    -0.115770078592E+04   -0.80675E-03   -0.30564E-03  3228   0.259E-01    0.524E-01
DAV:   4    -0.115770021062E+04    0.57529E-03   -0.13161E-03  3072   0.192E-01    0.233E-01
DAV:   5    -0.115770029260E+04   -0.81983E-04   -0.12145E-03  3156   0.113E-01    0.269E-01
DAV:   6    -0.115770026545E+04    0.27150E-04   -0.15194E-03  3012   0.926E-02    0.238E-01
DAV:   7    -0.115770018603E+04    0.79425E-04   -0.72667E-04  3012   0.118E-01    0.120E-01
DAV:   8    -0.115770030394E+04   -0.11791E-03   -0.46697E-04  3168   0.106E-01    0.189E-01
DAV:   9    -0.115770021738E+04    0.86556E-04   -0.37310E-04  3120   0.928E-02    0.847E-02
DAV:  10    -0.115770022536E+04   -0.79765E-05   -0.82592E-05  2808   0.523E-02    0.487E-02
DAV:  11    -0.115770024131E+04   -0.15955E-04   -0.26091E-05  2388   0.317E-02    0.302E-02
DAV:  12    -0.115770025071E+04   -0.93952E-05   -0.11947E-05  1992   0.232E-02    0.217E-02
DAV:  13    -0.115770026026E+04   -0.95483E-05   -0.48111E-06  1836   0.136E-02    0.130E-02
DAV:  14    -0.115770026853E+04   -0.82743E-05   -0.24180E-06  1764   0.873E-03    0.722E-03
DAV:  15    -0.115770027942E+04   -0.10885E-04   -0.13690E-06  1656   0.654E-03    0.822E-03
DAV:  16    -0.115770028852E+04   -0.91036E-05   -0.11394E-06  1536   0.589E-03    0.484E-03
DAV:  17    -0.115770029586E+04   -0.73367E-05   -0.62741E-07  1512   0.427E-03    0.466E-03
DAV:  18    -0.115770030376E+04   -0.79077E-05   -0.37982E-07  1500   0.334E-03    0.343E-03
DAV:  19    -0.115770031096E+04   -0.71957E-05   -0.29524E-07  1488   0.241E-03    0.348E-03
DAV:  20    -0.115770031542E+04   -0.44551E-05   -0.23999E-07  1476   0.244E-03    0.208E-03
DAV:  21    -0.115770032191E+04   -0.64929E-05   -0.19172E-07  1464   0.129E-03    0.146E-03
DAV:  22    -0.115770032533E+04   -0.34192E-05   -0.13371E-07  1488   0.109E-03    0.150E-03
DAV:  23    -0.115770032886E+04   -0.35300E-05   -0.97521E-08  1428   0.116E-03    0.114E-03
DAV:  24    -0.115770033423E+04   -0.53729E-05   -0.94685E-08  1464   0.733E-04    0.843E-04
DAV:  25    -0.115770033785E+04   -0.36156E-05   -0.79135E-08  1464   0.695E-04    0.103E-03
DAV:  26    -0.115770034274E+04   -0.48989E-05   -0.83146E-08  1476   0.758E-04    0.725E-04
DAV:  27    -0.115770034607E+04   -0.33283E-05   -0.73501E-08  1488   0.571E-04    0.711E-04
DAV:  28    -0.115770034849E+04   -0.24159E-05   -0.66290E-08  1452   0.386E-04    0.547E-04
DAV:  29    -0.115770035073E+04   -0.22441E-05   -0.44072E-08  1452   0.359E-04    0.471E-04
DAV:  30    -0.115770035328E+04   -0.25481E-05   -0.43554E-08  1476   0.369E-04    0.461E-04
DAV:  31    -0.115770035478E+04   -0.14989E-05   -0.33727E-08  1488   0.419E-04    0.413E-04
DAV:  32    -0.115770035692E+04   -0.21424E-05   -0.49601E-08  1428   0.341E-04    0.371E-04
DAV:  33    -0.115770035794E+04   -0.10213E-05   -0.36958E-08  1488   0.295E-04    0.357E-04
DAV:  34    -0.115770035910E+04   -0.11523E-05   -0.37098E-08  1440   0.269E-04    0.378E-04
DAV:  35    -0.115770035944E+04   -0.34339E-06   -0.20193E-08  1500   0.297E-04
 132 F= -.11653997E+04 E0= -.11653963E+04  d E =-.114502E-02  mag=    13.0763
 curvature:  -4.19 expect dE=-0.414E-01 dE for cont linesearch -0.538E-08
 trial: gam= 0.96375 g(F)=  0.986E-02 g(S)=  0.000E+00 ort = 0.219E-04 (trialstep = 0.126E+00)
 search vector abs. value=  0.358E+00
 bond charge predicted
       N       E                     dE             d eps       ncg     rms          rms(c)
DAV:   1    -0.115769827996E+04    0.20791E-02   -0.12888E+00  1992   0.242E+00    0.284E-01
DAV:   2    -0.115770096543E+04   -0.26855E-02   -0.28599E-02  2532   0.340E-01    0.208E-01
DAV:   3    -0.115770204836E+04   -0.10829E-02   -0.74232E-03  3372   0.278E-01    0.680E-01
DAV:   4    -0.115770100751E+04    0.10409E-02   -0.49827E-03  2952   0.202E-01    0.190E-01
DAV:   5    -0.115770129475E+04   -0.28724E-03   -0.10005E-03  3024   0.124E-01    0.263E-01
DAV:   6    -0.115770125925E+04    0.35504E-04   -0.42519E-04  3024   0.920E-02    0.213E-01
DAV:   7    -0.115770119346E+04    0.65791E-04   -0.27249E-04  3072   0.102E-01    0.114E-01
DAV:   8    -0.115770126867E+04   -0.75216E-04   -0.30400E-04  3156   0.928E-02    0.161E-01
DAV:   9    -0.115770120695E+04    0.61725E-04   -0.25717E-04  3084   0.844E-02    0.826E-02
DAV:  10    -0.115770121181E+04   -0.48639E-05   -0.73443E-05  2844   0.502E-02    0.567E-02
DAV:  11    -0.115770122514E+04   -0.13329E-04   -0.27368E-05  2208   0.301E-02    0.252E-02
DAV:  12    -0.115770123796E+04   -0.12817E-04   -0.13156E-05  2016   0.206E-02    0.232E-02
DAV:  13    -0.115770124718E+04   -0.92248E-05   -0.44318E-06  1752   0.138E-02    0.110E-02
DAV:  14    -0.115770125518E+04   -0.79987E-05   -0.18328E-06  1704   0.810E-03    0.762E-03
DAV:  15    -0.115770126412E+04   -0.89332E-05   -0.12061E-06  1608   0.633E-03    0.543E-03
DAV:  16    -0.115770127318E+04   -0.90696E-05   -0.64066E-07  1524   0.473E-03    0.544E-03
DAV:  17    -0.115770127924E+04   -0.60593E-05   -0.50041E-07  1500   0.410E-03    0.282E-03
DAV:  18    -0.115770128843E+04   -0.91822E-05   -0.31452E-07  1464   0.239E-03    0.275E-03
DAV:  19    -0.115770129357E+04   -0.51436E-05   -0.27109E-07  1476   0.263E-03    0.264E-03
DAV:  20    -0.115770129913E+04   -0.55600E-05   -0.20890E-07  1476   0.208E-03    0.189E-03
DAV:  21    -0.115770130422E+04   -0.50871E-05   -0.17244E-07  1464   0.156E-03    0.125E-03
DAV:  22    -0.115770130846E+04   -0.42421E-05   -0.13504E-07  1488   0.967E-04    0.136E-03
DAV:  23    -0.115770131093E+04   -0.24739E-05   -0.93560E-08  1488   0.106E-03    0.964E-04
DAV:  24    -0.115770131537E+04   -0.44356E-05   -0.78031E-08  1416   0.643E-04    0.706E-04
DAV:  25    -0.115770131974E+04   -0.43726E-05   -0.80843E-08  1488   0.536E-04    0.863E-04
DAV:  26    -0.115770132324E+04   -0.34969E-05   -0.57019E-08  1488   0.648E-04    0.629E-04
DAV:  27    -0.115770132624E+04   -0.29994E-05   -0.45674E-08  1464   0.522E-04    0.636E-04
DAV:  28    -0.115770132978E+04   -0.35449E-05   -0.58976E-08  1428   0.430E-04    0.453E-04
DAV:  29    -0.115770133197E+04   -0.21914E-05   -0.44757E-08  1488   0.372E-04    0.496E-04
DAV:  30    -0.115770133392E+04   -0.19489E-05   -0.35810E-08  1488   0.401E-04    0.387E-04
DAV:  31    -0.115770133583E+04   -0.19082E-05   -0.34428E-08  1464   0.340E-04    0.382E-04
DAV:  32    -0.115770133768E+04   -0.18518E-05   -0.39565E-08  1440   0.299E-04    0.289E-04
DAV:  33    -0.115770133894E+04   -0.12551E-05   -0.32376E-08  1476   0.259E-04    0.315E-04
DAV:  34    -0.115770134000E+04   -0.10626E-05   -0.28496E-08  1464   0.296E-04    0.270E-04
DAV:  35    -0.115770134069E+04   -0.68696E-06   -0.21996E-08  1476   0.275E-04
 133 F= -.11654007E+04 E0= -.11653973E+04  d E =-.103628E-02  mag=    13.0757
 trial-energy change:   -0.001036  1 .order   -0.001037   -0.001248   -0.000826
 step:   0.3735(harm=  0.3735)  dis= 0.00936  next Energy= -1165.401503 (dE=-0.185E-02)
 bond charge predicted
       N       E                     dE             d eps       ncg     rms          rms(c)
DAV:   1    -0.115769029266E+04    0.11047E-01   -0.49428E+00  1992   0.474E+00    0.558E-01
DAV:   2    -0.115770097467E+04   -0.10682E-01   -0.10997E-01  2544   0.666E-01    0.404E-01
DAV:   3    -0.115770483398E+04   -0.38593E-02   -0.27082E-02  3360   0.543E-01    0.129E+00
DAV:   4    -0.115770113912E+04    0.36949E-02   -0.17298E-02  3000   0.398E-01    0.356E-01
DAV:   5    -0.115770206537E+04   -0.92626E-03   -0.39928E-03  3084   0.241E-01    0.524E-01
DAV:   6    -0.115770189222E+04    0.17315E-03   -0.18029E-03  3048   0.179E-01    0.414E-01
DAV:   7    -0.115770163758E+04    0.25464E-03   -0.99164E-04  3060   0.199E-01    0.222E-01
DAV:   8    -0.115770191306E+04   -0.27548E-03   -0.12052E-03  3180   0.181E-01    0.317E-01
DAV:   9    -0.115770167908E+04    0.23398E-03   -0.10076E-03  3072   0.164E-01    0.165E-01
DAV:  10    -0.115770168014E+04   -0.10514E-05   -0.29828E-04  3156   0.971E-02    0.114E-01
DAV:  11    -0.115770171324E+04   -0.33107E-04   -0.11289E-04  3024   0.583E-02    0.501E-02
DAV:  12    -0.115770174968E+04   -0.36433E-04   -0.62369E-05  2496   0.398E-02    0.461E-02
DAV:  13    -0.115770177473E+04   -0.25051E-04   -0.18949E-05  2136   0.267E-02    0.251E-02
DAV:  14    -0.115770179689E+04   -0.22162E-04   -0.77569E-06  1872   0.166E-02    0.181E-02
DAV:  15    -0.115770182029E+04   -0.23397E-04   -0.59018E-06  1788   0.121E-02    0.114E-02
DAV:  16    -0.115770184302E+04   -0.22736E-04   -0.33519E-06  1812   0.937E-03    0.116E-02
DAV:  17    -0.115770186051E+04   -0.17485E-04   -0.16813E-06  1716   0.744E-03    0.648E-03
DAV:  18    -0.115770188885E+04   -0.28346E-04   -0.10304E-06  1488   0.464E-03    0.658E-03
DAV:  19    -0.115770190249E+04   -0.13639E-04   -0.96660E-07  1632   0.559E-03    0.528E-03
DAV:  20    -0.115770192596E+04   -0.23467E-04   -0.64773E-07  1488   0.340E-03    0.234E-03
DAV:  21    -0.115770194134E+04   -0.15379E-04   -0.42323E-07  1488   0.263E-03    0.364E-03
DAV:  22    -0.115770194973E+04   -0.83896E-05   -0.32132E-07  1464   0.248E-03    0.159E-03
DAV:  23    -0.115770196481E+04   -0.15082E-04   -0.30102E-07  1500   0.114E-03    0.149E-03
DAV:  24    -0.115770197433E+04   -0.95161E-05   -0.21755E-07  1476   0.115E-03    0.138E-03
DAV:  25    -0.115770198525E+04   -0.10919E-04   -0.18097E-07  1488   0.116E-03    0.136E-03
DAV:  26    -0.115770199647E+04   -0.11225E-04   -0.18841E-07  1476   0.106E-03    0.106E-03
DAV:  27    -0.115770200985E+04   -0.13377E-04   -0.25486E-07  1488   0.816E-04    0.128E-03
DAV:  28    -0.115770201696E+04   -0.71084E-05   -0.16925E-07  1512   0.957E-04    0.880E-04
DAV:  29    -0.115770202444E+04   -0.74778E-05   -0.17196E-07  1476   0.629E-04    0.820E-04
DAV:  30    -0.115770203224E+04   -0.78070E-05   -0.17728E-07  1464   0.613E-04    0.615E-04
DAV:  31    -0.115770203544E+04   -0.31939E-05   -0.12152E-07  1476   0.476E-04    0.509E-04
DAV:  32    -0.115770204090E+04   -0.54652E-05   -0.13561E-07  1488   0.495E-04    0.477E-04
DAV:  33    -0.115770204390E+04   -0.29948E-05   -0.10689E-07  1500   0.491E-04    0.568E-04
DAV:  34    -0.115770204611E+04   -0.22145E-05   -0.94991E-08  1452   0.486E-04    0.509E-04
DAV:  35    -0.115770204828E+04   -0.21652E-05   -0.88853E-08  1476   0.444E-04    0.423E-04
DAV:  36    -0.115770204949E+04   -0.12171E-05   -0.73223E-08  1452   0.366E-04    0.304E-04
DAV:  37    -0.115770205063E+04   -0.11398E-05   -0.63326E-08  1452   0.329E-04    0.222E-04
DAV:  38    -0.115770205159E+04   -0.95970E-06   -0.62115E-08  1416   0.317E-04
 134 F= -.11654015E+04 E0= -.11653982E+04  d E =-.185409E-02  mag=    13.0745
 curvature:  -6.76 expect dE=-0.700E-01 dE for cont linesearch -0.342E-07
 trial: gam= 1.07493 g(F)=  0.104E-01 g(S)=  0.000E+00 ort = 0.426E-04 (trialstep = 0.148E+00)
 search vector abs. value=  0.424E+00
 bond charge predicted
       N       E                     dE             d eps       ncg     rms          rms(c)
DAV:   1    -0.115769807048E+04    0.39802E-02   -0.20921E+00  1992   0.309E+00    0.368E-01
DAV:   2    -0.115770267710E+04   -0.46066E-02   -0.48005E-02  2652   0.447E-01    0.317E-01
DAV:   3    -0.115770532019E+04   -0.26431E-02   -0.20154E-02  3348   0.428E-01    0.116E+00
DAV:   4    -0.115770255784E+04    0.27624E-02   -0.12212E-02  2952   0.279E-01    0.304E-01
DAV:   5    -0.115770292386E+04   -0.36603E-03   -0.10077E-03  3024   0.182E-01    0.244E-01
DAV:   6    -0.115770304315E+04   -0.11929E-03   -0.55506E-04  3144   0.125E-01    0.263E-01
DAV:   7    -0.115770290123E+04    0.14192E-03   -0.57966E-04  3108   0.129E-01    0.163E-01
DAV:   8    -0.115770295823E+04   -0.56996E-04   -0.71368E-04  3144   0.128E-01    0.165E-01
DAV:   9    -0.115770295759E+04    0.63897E-06   -0.59793E-04  3180   0.112E-01    0.170E-01
DAV:  10    -0.115770289811E+04    0.59480E-04   -0.19314E-04  3108   0.794E-02    0.893E-02
DAV:  11    -0.115770290975E+04   -0.11639E-04   -0.61046E-05  2604   0.426E-02    0.482E-02
DAV:  12    -0.115770292807E+04   -0.18321E-04   -0.29690E-05  2088   0.292E-02    0.272E-02
DAV:  13    -0.115770294439E+04   -0.16324E-04   -0.13867E-05  1944   0.198E-02    0.214E-02
DAV:  14    -0.115770295967E+04   -0.15280E-04   -0.49175E-06  1788   0.129E-02    0.105E-02
DAV:  15    -0.115770297658E+04   -0.16907E-04   -0.21953E-06  1728   0.823E-03    0.860E-03
DAV:  16    -0.115770299032E+04   -0.13741E-04   -0.17114E-06  1656   0.750E-03    0.866E-03
DAV:  17    -0.115770300072E+04   -0.10396E-04   -0.99612E-07  1536   0.568E-03    0.525E-03
DAV:  18    -0.115770301317E+04   -0.12447E-04   -0.49049E-07  1464   0.325E-03    0.441E-03
DAV:  19    -0.115770302612E+04   -0.12953E-04   -0.48440E-07  1524   0.268E-03    0.372E-03
DAV:  20    -0.115770303218E+04   -0.60576E-05   -0.36660E-07  1512   0.289E-03    0.234E-03
DAV:  21    -0.115770304034E+04   -0.81608E-05   -0.25253E-07  1476   0.158E-03    0.159E-03
DAV:  22    -0.115770304507E+04   -0.47327E-05   -0.19109E-07  1488   0.112E-03    0.181E-03
DAV:  23    -0.115770304963E+04   -0.45646E-05   -0.13610E-07  1476   0.126E-03    0.146E-03
DAV:  24    -0.115770305628E+04   -0.66450E-05   -0.10838E-07  1440   0.911E-04    0.123E-03
DAV:  25    -0.115770306749E+04   -0.11212E-04   -0.21339E-07  1524   0.732E-04    0.126E-03
DAV:  26    -0.115770307116E+04   -0.36733E-05   -0.10003E-07  1536   0.863E-04    0.925E-04
DAV:  27    -0.115770307662E+04   -0.54525E-05   -0.99098E-08  1428   0.666E-04    0.890E-04
DAV:  28    -0.115770308189E+04   -0.52774E-05   -0.99568E-08  1524   0.714E-04    0.692E-04
DAV:  29    -0.115770308537E+04   -0.34715E-05   -0.96829E-08  1464   0.586E-04    0.844E-04
DAV:  30    -0.115770308854E+04   -0.31726E-05   -0.80930E-08  1440   0.636E-04    0.536E-04
DAV:  31    -0.115770309071E+04   -0.21718E-05   -0.75667E-08  1464   0.370E-04    0.529E-04
DAV:  32    -0.115770309259E+04   -0.18750E-05   -0.55313E-08  1464   0.379E-04    0.424E-04
DAV:  33    -0.115770309434E+04   -0.17546E-05   -0.48436E-08  1488   0.381E-04    0.405E-04
DAV:  34    -0.115770309618E+04   -0.18445E-05   -0.54083E-08  1440   0.429E-04    0.470E-04
DAV:  35    -0.115770309746E+04   -0.12754E-05   -0.53863E-08  1488   0.399E-04    0.273E-04
DAV:  36    -0.115770309804E+04   -0.57715E-06   -0.42193E-08  1464   0.294E-04
 135 F= -.11654026E+04 E0= -.11653993E+04  d E =-.107257E-02  mag=    13.0738
 trial-energy change:   -0.001073  1 .order   -0.001073   -0.001543   -0.000602
 step:   0.2432(harm=  0.2432)  dis= 0.00697  next Energy= -1165.402776 (dE=-0.126E-02)
 bond charge predicted
       N       E                     dE             d eps       ncg     rms          rms(c)
DAV:   1    -0.115770121988E+04    0.18776E-02   -0.85553E-01  1992   0.198E+00    0.235E-01
DAV:   2    -0.115770305590E+04   -0.18360E-02   -0.19628E-02  2628   0.286E-01    0.203E-01
DAV:   3    -0.115770417038E+04   -0.11145E-02   -0.82612E-03  3360   0.274E-01    0.753E-01
DAV:   4    -0.115770299102E+04    0.11794E-02   -0.51413E-03  2916   0.178E-01    0.196E-01
DAV:   5    -0.115770317650E+04   -0.18547E-03   -0.41803E-04  3024   0.118E-01    0.155E-01
DAV:   6    -0.115770323165E+04   -0.55156E-04   -0.22666E-04  3144   0.798E-02    0.168E-01
DAV:   7    -0.115770317564E+04    0.56010E-04   -0.23925E-04  3096   0.817E-02    0.106E-01
DAV:   8    -0.115770319879E+04   -0.23145E-04   -0.28690E-04  3132   0.817E-02    0.104E-01
DAV:   9    -0.115770320182E+04   -0.30337E-05   -0.24513E-04  3192   0.716E-02    0.109E-01
DAV:  10    -0.115770317651E+04    0.25306E-04   -0.79055E-05  2964   0.512E-02    0.565E-02
DAV:  11    -0.115770318306E+04   -0.65409E-05   -0.24276E-05  2136   0.275E-02    0.306E-02
DAV:  12    -0.115770319260E+04   -0.95476E-05   -0.11992E-05  1944   0.191E-02    0.174E-02
DAV:  13    -0.115770320074E+04   -0.81389E-05   -0.52835E-06  1716   0.128E-02    0.134E-02
DAV:  14    -0.115770320844E+04   -0.76946E-05   -0.19490E-06  1680   0.826E-03    0.610E-03
DAV:  15    -0.115770321691E+04   -0.84770E-05   -0.85930E-07  1548   0.522E-03    0.525E-03
DAV:  16    -0.115770322426E+04   -0.73479E-05   -0.73020E-07  1512   0.486E-03    0.545E-03
DAV:  17    -0.115770323007E+04   -0.58067E-05   -0.44657E-07  1464   0.368E-03    0.305E-03
DAV:  18    -0.115770323642E+04   -0.63488E-05   -0.26880E-07  1500   0.209E-03    0.270E-03
DAV:  19    -0.115770324186E+04   -0.54431E-05   -0.22488E-07  1476   0.158E-03    0.235E-03
DAV:  20    -0.115770324490E+04   -0.30374E-05   -0.15573E-07  1488   0.168E-03    0.166E-03
DAV:  21    -0.115770324889E+04   -0.39882E-05   -0.10632E-07  1428   0.108E-03    0.112E-03
DAV:  22    -0.115770325182E+04   -0.29374E-05   -0.92612E-08  1488   0.760E-04    0.133E-03
DAV:  23    -0.115770325385E+04   -0.20232E-05   -0.61603E-08  1428   0.846E-04    0.869E-04
DAV:  24    -0.115770325686E+04   -0.30177E-05   -0.47924E-08  1440   0.526E-04    0.791E-04
DAV:  25    -0.115770326186E+04   -0.49934E-05   -0.78070E-08  1476   0.441E-04    0.763E-04
DAV:  26    -0.115770326431E+04   -0.24574E-05   -0.46744E-08  1512   0.526E-04    0.571E-04
DAV:  27    -0.115770326714E+04   -0.28241E-05   -0.44635E-08  1440   0.510E-04    0.647E-04
DAV:  28    -0.115770326900E+04   -0.18627E-05   -0.38309E-08  1476   0.516E-04    0.403E-04
DAV:  29    -0.115770327101E+04   -0.20133E-05   -0.49434E-08  1488   0.331E-04    0.502E-04
DAV:  30    -0.115770327209E+04   -0.10782E-05   -0.27986E-08  1500   0.415E-04    0.348E-04
DAV:  31    -0.115770327345E+04   -0.13580E-05   -0.30029E-08  1404   0.290E-04    0.323E-04
DAV:  32    -0.115770327467E+04   -0.12195E-05   -0.29399E-08  1452   0.285E-04    0.265E-04
DAV:  33    -0.115770327527E+04   -0.59957E-06   -0.20566E-08  1452   0.234E-04
 136 F= -.11654028E+04 E0= -.11653995E+04  d E =-.126523E-02  mag=    13.0733
 curvature:  -4.95 expect dE=-0.324E-01 dE for cont linesearch -0.620E-10
 trial: gam= 0.61737 g(F)=  0.655E-02 g(S)=  0.000E+00 ort =-0.230E-05 (trialstep = 0.167E+00)
 search vector abs. value=  0.168E+00
 bond charge predicted
       N       E                     dE             d eps       ncg     rms          rms(c)
DAV:   1    -0.115770170377E+04    0.15709E-02   -0.10596E+00  1992   0.220E+00    0.261E-01
DAV:   2    -0.115770394458E+04   -0.22408E-02   -0.23823E-02  2568   0.311E-01    0.232E-01
DAV:   3    -0.115770593191E+04   -0.19873E-02   -0.10595E-02  3348   0.288E-01    0.103E+00
DAV:   4    -0.115770375251E+04    0.21794E-02   -0.60500E-03  3048   0.205E-01    0.145E-01
DAV:   5    -0.115770411028E+04   -0.35778E-03   -0.59721E-04  2988   0.128E-01    0.158E-01
DAV:   6    -0.115770412555E+04   -0.15269E-04   -0.35176E-04  3168   0.835E-02    0.137E-01
DAV:   7    -0.115770413715E+04   -0.11603E-04   -0.25548E-04  3108   0.874E-02    0.150E-01
DAV:   8    -0.115770416176E+04   -0.24610E-04   -0.55887E-04  3072   0.678E-02    0.166E-01
DAV:   9    -0.115770413114E+04    0.30626E-04   -0.18353E-04  3120   0.735E-02    0.137E-01
DAV:  10    -0.115770411962E+04    0.11516E-04   -0.65674E-05  2712   0.483E-02    0.752E-02
DAV:  11    -0.115770413042E+04   -0.10799E-04   -0.53467E-05  2280   0.336E-02    0.263E-02
DAV:  12    -0.115770414346E+04   -0.13040E-04   -0.11729E-05  2028   0.209E-02    0.322E-02
DAV:  13    -0.115770415057E+04   -0.71052E-05   -0.39703E-06  1812   0.126E-02    0.170E-02
DAV:  14    -0.115770415757E+04   -0.70096E-05   -0.17583E-06  1716   0.704E-03    0.104E-02
DAV:  15    -0.115770416698E+04   -0.94030E-05   -0.12831E-06  1548   0.607E-03    0.648E-03
DAV:  16    -0.115770417488E+04   -0.79032E-05   -0.86591E-07  1512   0.488E-03    0.442E-03
DAV:  17    -0.115770418143E+04   -0.65497E-05   -0.46528E-07  1512   0.374E-03    0.316E-03
DAV:  18    -0.115770418702E+04   -0.55943E-05   -0.26672E-07  1488   0.264E-03    0.239E-03
DAV:  19    -0.115770419204E+04   -0.50185E-05   -0.22243E-07  1452   0.193E-03    0.269E-03
DAV:  20    -0.115770419545E+04   -0.34115E-05   -0.16489E-07  1488   0.183E-03    0.201E-03
DAV:  21    -0.115770420065E+04   -0.51906E-05   -0.13859E-07  1464   0.102E-03    0.175E-03
DAV:  22    -0.115770420323E+04   -0.25867E-05   -0.92595E-08  1500   0.826E-04    0.182E-03
DAV:  23    -0.115770420614E+04   -0.29047E-05   -0.65484E-08  1416   0.882E-04    0.163E-03
DAV:  24    -0.115770421009E+04   -0.39520E-05   -0.61678E-08  1440   0.657E-04    0.138E-03
DAV:  25    -0.115770421540E+04   -0.53081E-05   -0.84554E-08  1476   0.723E-04    0.156E-03
DAV:  26    -0.115770421913E+04   -0.37349E-05   -0.82659E-08  1476   0.985E-04    0.104E-03
DAV:  27    -0.115770422343E+04   -0.42993E-05   -0.11646E-07  1500   0.669E-04    0.104E-03
DAV:  28    -0.115770422606E+04   -0.26250E-05   -0.10226E-07  1488   0.640E-04    0.781E-04
DAV:  29    -0.115770422740E+04   -0.13426E-05   -0.70643E-08  1440   0.553E-04    0.653E-04
DAV:  30    -0.115770422857E+04   -0.11665E-05   -0.53713E-08  1488   0.589E-04    0.594E-04
DAV:  31    -0.115770422954E+04   -0.97147E-06   -0.54512E-08  1428   0.473E-04
 137 F= -.11654037E+04 E0= -.11654004E+04  d E =-.913054E-03  mag=    13.0734
 trial-energy change:   -0.000913  1 .order   -0.000913   -0.001095   -0.000731
 step:   0.5026(harm=  0.5026)  dis= 0.00808  next Energy= -1165.404422 (dE=-0.165E-02)
 bond charge predicted
       N       E                     dE             d eps       ncg     rms          rms(c)
DAV:   1    -0.115769489513E+04    0.93334E-02   -0.42568E+00  1992   0.440E+00    0.525E-01
DAV:   2    -0.115770423354E+04   -0.93384E-02   -0.95863E-02  2580   0.624E-01    0.459E-01
DAV:   3    -0.115771181708E+04   -0.75835E-02   -0.41704E-02  3372   0.574E-01    0.200E+00
DAV:   4    -0.115770369746E+04    0.81196E-02   -0.21983E-02  3072   0.412E-01    0.285E-01
DAV:   5    -0.115770478892E+04   -0.10915E-02   -0.23711E-03  3036   0.252E-01    0.321E-01
DAV:   6    -0.115770479314E+04   -0.42264E-05   -0.13986E-03  3156   0.170E-01    0.277E-01
DAV:   7    -0.115770483324E+04   -0.40099E-04   -0.10712E-03  3144   0.170E-01    0.310E-01
DAV:   8    -0.115770491466E+04   -0.81417E-04   -0.22549E-03  3192   0.136E-01    0.327E-01
DAV:   9    -0.115770480238E+04    0.11227E-03   -0.81271E-04  3156   0.151E-01    0.264E-01
DAV:  10    -0.115770474478E+04    0.57605E-04   -0.27167E-04  3336   0.949E-02    0.137E-01
DAV:  11    -0.115770476944E+04   -0.24665E-04   -0.18410E-04  3072   0.652E-02    0.538E-02
DAV:  12    -0.115770480441E+04   -0.34970E-04   -0.41973E-05  2484   0.400E-02    0.630E-02
DAV:  13    -0.115770482283E+04   -0.18418E-04   -0.14226E-05  2016   0.243E-02    0.324E-02
DAV:  14    -0.115770484536E+04   -0.22527E-04   -0.70008E-06  1920   0.142E-02    0.212E-02
DAV:  15    -0.115770487148E+04   -0.26115E-04   -0.52047E-06  1800   0.124E-02    0.138E-02
DAV:  16    -0.115770489019E+04   -0.18720E-04   -0.27934E-06  1668   0.946E-03    0.970E-03
DAV:  17    -0.115770490685E+04   -0.16658E-04   -0.15254E-06  1704   0.703E-03    0.803E-03
DAV:  18    -0.115770492403E+04   -0.17175E-04   -0.81877E-07  1524   0.535E-03    0.580E-03
DAV:  19    -0.115770494242E+04   -0.18393E-04   -0.68844E-07  1500   0.398E-03    0.554E-03
DAV:  20    -0.115770495289E+04   -0.10468E-04   -0.57810E-07  1512   0.393E-03    0.369E-03
DAV:  21    -0.115770496798E+04   -0.15094E-04   -0.43053E-07  1464   0.204E-03    0.285E-03
DAV:  22    -0.115770497457E+04   -0.65893E-05   -0.29136E-07  1536   0.172E-03    0.304E-03
DAV:  23    -0.115770498437E+04   -0.97959E-05   -0.23671E-07  1416   0.166E-03    0.260E-03
DAV:  24    -0.115770499925E+04   -0.14879E-04   -0.27296E-07  1512   0.115E-03    0.241E-03
DAV:  25    -0.115770501214E+04   -0.12893E-04   -0.29505E-07  1548   0.139E-03    0.289E-03
DAV:  26    -0.115770502538E+04   -0.13239E-04   -0.26843E-07  1464   0.184E-03    0.236E-03
DAV:  27    -0.115770503778E+04   -0.12398E-04   -0.36162E-07  1536   0.146E-03    0.212E-03
DAV:  28    -0.115770504566E+04   -0.78851E-05   -0.34648E-07  1500   0.114E-03    0.199E-03
DAV:  29    -0.115770504985E+04   -0.41879E-05   -0.23605E-07  1476   0.120E-03    0.149E-03
DAV:  30    -0.115770505434E+04   -0.44912E-05   -0.20206E-07  1464   0.102E-03    0.117E-03
DAV:  31    -0.115770505775E+04   -0.34137E-05   -0.21725E-07  1500   0.873E-04    0.101E-03
DAV:  32    -0.115770505889E+04   -0.11309E-05   -0.14483E-07  1488   0.742E-04    0.925E-04
DAV:  33    -0.115770506050E+04   -0.16128E-05   -0.14912E-07  1416   0.748E-04    0.816E-04
DAV:  34    -0.115770506087E+04   -0.37631E-06   -0.11144E-07  1476   0.647E-04
 138 F= -.11654044E+04 E0= -.11654011E+04  d E =-.164956E-02  mag=    13.0736
 curvature:  -6.45 expect dE=-0.425E-01 dE for cont linesearch -0.250E-07
 trial: gam= 1.00055 g(F)=  0.658E-02 g(S)=  0.000E+00 ort = 0.255E-04 (trialstep = 0.225E+00)
 search vector abs. value=  0.175E+00
 bond charge predicted
       N       E                     dE             d eps       ncg     rms          rms(c)
DAV:   1    -0.115770122585E+04    0.38346E-02   -0.20102E+00  1992   0.303E+00    0.362E-01
DAV:   2    -0.115770557183E+04   -0.43460E-02   -0.45153E-02  2580   0.431E-01    0.300E-01
DAV:   3    -0.115770834979E+04   -0.27780E-02   -0.91787E-03  3300   0.390E-01    0.114E+00
DAV:   4    -0.115770566502E+04    0.26848E-02   -0.56344E-03  3084   0.271E-01    0.279E-01
DAV:   5    -0.115770588674E+04   -0.22172E-03   -0.17017E-03  3048   0.154E-01    0.232E-01
DAV:   6    -0.115770594376E+04   -0.57027E-04   -0.12156E-03  2916   0.111E-01    0.251E-01
DAV:   7    -0.115770585964E+04    0.84121E-04   -0.83440E-04  3060   0.130E-01    0.163E-01
DAV:   8    -0.115770598691E+04   -0.12727E-03   -0.55944E-04  3096   0.128E-01    0.217E-01
DAV:   9    -0.115770591224E+04    0.74673E-04   -0.53341E-04  3180   0.112E-01    0.154E-01
DAV:  10    -0.115770588835E+04    0.23894E-04   -0.12962E-04  2940   0.688E-02    0.982E-02
DAV:  11    -0.115770590105E+04   -0.12697E-04   -0.64916E-05  2448   0.375E-02    0.323E-02
DAV:  12    -0.115770591551E+04   -0.14470E-04   -0.19750E-05  2280   0.270E-02    0.291E-02
DAV:  13    -0.115770592920E+04   -0.13682E-04   -0.55659E-06  1800   0.151E-02    0.109E-02
DAV:  14    -0.115770594322E+04   -0.14022E-04   -0.29005E-06  1764   0.932E-03    0.116E-02
DAV:  15    -0.115770595641E+04   -0.13194E-04   -0.24558E-06  1572   0.888E-03    0.953E-03
DAV:  16    -0.115770596958E+04   -0.13172E-04   -0.12561E-06  1560   0.649E-03    0.464E-03
DAV:  17    -0.115770598263E+04   -0.13045E-04   -0.59210E-07  1476   0.321E-03    0.537E-03
DAV:  18    -0.115770598911E+04   -0.64833E-05   -0.45625E-07  1524   0.336E-03    0.478E-03
DAV:  19    -0.115770599592E+04   -0.68031E-05   -0.28990E-07  1440   0.251E-03    0.260E-03
DAV:  20    -0.115770600362E+04   -0.77077E-05   -0.24514E-07  1488   0.151E-03    0.234E-03
DAV:  21    -0.115770600779E+04   -0.41628E-05   -0.17205E-07  1464   0.165E-03    0.204E-03
DAV:  22    -0.115770601378E+04   -0.59947E-05   -0.12708E-07  1452   0.117E-03    0.159E-03
DAV:  23    -0.115770601957E+04   -0.57864E-05   -0.12524E-07  1452   0.918E-04    0.141E-03
DAV:  24    -0.115770602427E+04   -0.46983E-05   -0.10362E-07  1464   0.903E-04    0.111E-03
DAV:  25    -0.115770603166E+04   -0.73964E-05   -0.11472E-07  1488   0.763E-04    0.114E-03
DAV:  26    -0.115770603673E+04   -0.50693E-05   -0.96363E-08  1476   0.835E-04    0.918E-04
DAV:  27    -0.115770604235E+04   -0.56189E-05   -0.10782E-07  1464   0.782E-04    0.841E-04
DAV:  28    -0.115770604632E+04   -0.39648E-05   -0.10767E-07  1512   0.577E-04    0.815E-04
DAV:  29    -0.115770604993E+04   -0.36096E-05   -0.91594E-08  1440   0.618E-04    0.721E-04
DAV:  30    -0.115770605242E+04   -0.24908E-05   -0.74844E-08  1512   0.574E-04    0.511E-04
DAV:  31    -0.115770605531E+04   -0.28950E-05   -0.95907E-08  1476   0.417E-04    0.500E-04
DAV:  32    -0.115770605629E+04   -0.97494E-06   -0.54947E-08  1524   0.391E-04
 139 F= -.11654056E+04 E0= -.11654023E+04  d E =-.114277E-02  mag=    13.0735
 trial-energy change:   -0.001143  1 .order   -0.001149   -0.001488   -0.000809
 step:   0.5296(harm=  0.4933)  dis= 0.00863  next Energy= -1165.406101 (dE=-0.168E-02)
 bond charge predicted
       N       E                     dE             d eps       ncg     rms          rms(c)
DAV:   1    -0.115769746686E+04    0.85884E-02   -0.36701E+00  1992   0.409E+00    0.490E-01
DAV:   2    -0.115770553278E+04   -0.80659E-02   -0.82751E-02  2568   0.582E-01    0.400E-01
DAV:   3    -0.115771032101E+04   -0.47882E-02   -0.15801E-02  3300   0.523E-01    0.149E+00
DAV:   4    -0.115770573005E+04    0.45910E-02   -0.92574E-03  3108   0.366E-01    0.375E-01
DAV:   5    -0.115770605960E+04   -0.32954E-03   -0.31320E-03  3108   0.205E-01    0.318E-01
DAV:   6    -0.115770614421E+04   -0.84610E-04   -0.22559E-03  2928   0.149E-01    0.340E-01
DAV:   7    -0.115770599194E+04    0.15226E-03   -0.15310E-03  3060   0.175E-01    0.219E-01
DAV:   8    -0.115770621653E+04   -0.22459E-03   -0.10207E-03  3096   0.174E-01    0.294E-01
DAV:   9    -0.115770607804E+04    0.13849E-03   -0.96868E-04  3192   0.151E-01    0.207E-01
DAV:  10    -0.115770603425E+04    0.43798E-04   -0.23581E-04  3084   0.921E-02    0.132E-01
DAV:  11    -0.115770605258E+04   -0.18337E-04   -0.11473E-04  2964   0.497E-02    0.423E-02
DAV:  12    -0.115770607624E+04   -0.23651E-04   -0.34096E-05  2412   0.351E-02    0.390E-02
DAV:  13    -0.115770609870E+04   -0.22467E-04   -0.96726E-06  1884   0.199E-02    0.142E-02
DAV:  14    -0.115770612348E+04   -0.24773E-04   -0.53741E-06  1824   0.124E-02    0.161E-02
DAV:  15    -0.115770614531E+04   -0.21835E-04   -0.47573E-06  1764   0.121E-02    0.125E-02
DAV:  16    -0.115770616729E+04   -0.21981E-04   -0.21989E-06  1620   0.854E-03    0.642E-03
DAV:  17    -0.115770618795E+04   -0.20653E-04   -0.94863E-07  1536   0.460E-03    0.729E-03
DAV:  18    -0.115770619919E+04   -0.11240E-04   -0.74086E-07  1488   0.445E-03    0.614E-03
DAV:  19    -0.115770621168E+04   -0.12498E-04   -0.48462E-07  1476   0.315E-03    0.343E-03
DAV:  20    -0.115770622341E+04   -0.11723E-04   -0.39919E-07  1488   0.264E-03    0.345E-03
DAV:  21    -0.115770623305E+04   -0.96450E-05   -0.31277E-07  1488   0.235E-03    0.234E-03
DAV:  22    -0.115770624220E+04   -0.91457E-05   -0.23974E-07  1488   0.154E-03    0.242E-03
DAV:  23    -0.115770624943E+04   -0.72278E-05   -0.21073E-07  1464   0.160E-03    0.182E-03
DAV:  24    -0.115770626335E+04   -0.13922E-04   -0.26291E-07  1488   0.966E-04    0.152E-03
DAV:  25    -0.115770627323E+04   -0.98834E-05   -0.19872E-07  1476   0.862E-04    0.140E-03
DAV:  26    -0.115770628285E+04   -0.96166E-05   -0.17120E-07  1488   0.109E-03    0.135E-03
DAV:  27    -0.115770629112E+04   -0.82718E-05   -0.15737E-07  1488   0.103E-03    0.100E-03
DAV:  28    -0.115770630044E+04   -0.93237E-05   -0.22259E-07  1476   0.746E-04    0.108E-03
DAV:  29    -0.115770630476E+04   -0.43159E-05   -0.14934E-07  1512   0.765E-04    0.915E-04
DAV:  30    -0.115770630966E+04   -0.48974E-05   -0.14424E-07  1464   0.693E-04    0.811E-04
DAV:  31    -0.115770631390E+04   -0.42439E-05   -0.13525E-07  1500   0.637E-04    0.566E-04
DAV:  32    -0.115770631678E+04   -0.28808E-05   -0.13059E-07  1464   0.483E-04    0.534E-04
DAV:  33    -0.115770631900E+04   -0.22167E-05   -0.97001E-08  1464   0.520E-04    0.507E-04
DAV:  34    -0.115770632055E+04   -0.15491E-05   -0.88874E-08  1464   0.509E-04    0.565E-04
DAV:  35    -0.115770632170E+04   -0.11493E-05   -0.80903E-08  1440   0.472E-04    0.312E-04
DAV:  36    -0.115770632234E+04   -0.64290E-06   -0.78537E-08  1440   0.370E-04
 140 F= -.11654060E+04 E0= -.11654028E+04  d E =-.160702E-02  mag=    13.0732
 curvature:  -6.41 expect dE=-0.106E+00 dE for cont linesearch -0.102E-04
 trial: gam= 2.61772 g(F)=  0.166E-01 g(S)=  0.000E+00 ort =-0.528E-03 (trialstep = 0.413E-01)
 search vector abs. value=  0.121E+01
 bond charge predicted
       N       E                     dE             d eps       ncg     rms          rms(c)
DAV:   1    -0.115770566220E+04    0.65949E-03   -0.48013E-01  1998   0.147E+00    0.174E-01
DAV:   2    -0.115770662933E+04   -0.96712E-03   -0.10469E-02  2616   0.210E-01    0.143E-01
DAV:   3    -0.115770732626E+04   -0.69694E-03   -0.21677E-03  3372   0.198E-01    0.559E-01
DAV:   4    -0.115770666554E+04    0.66072E-03   -0.15207E-03  3108   0.134E-01    0.154E-01
DAV:   5    -0.115770672275E+04   -0.57213E-04   -0.49418E-04  3012   0.846E-02    0.115E-01
DAV:   6    -0.115770674729E+04   -0.24539E-04   -0.32184E-04  2988   0.613E-02    0.123E-01
DAV:   7    -0.115770671862E+04    0.28670E-04   -0.19739E-04  3060   0.638E-02    0.762E-02
DAV:   8    -0.115770673984E+04   -0.21217E-04   -0.13184E-04  3048   0.576E-02    0.768E-02
DAV:   9    -0.115770673713E+04    0.27134E-05   -0.10454E-04  2940   0.494E-02    0.741E-02
DAV:  10    -0.115770672843E+04    0.86976E-05   -0.29656E-05  2364   0.353E-02    0.459E-02
DAV:  11    -0.115770673280E+04   -0.43696E-05   -0.14331E-05  2004   0.204E-02    0.216E-02
DAV:  12    -0.115770673754E+04   -0.47459E-05   -0.61479E-06  1908   0.146E-02    0.120E-02
DAV:  13    -0.115770674190E+04   -0.43582E-05   -0.20615E-06  1656   0.816E-03    0.102E-02
DAV:  14    -0.115770674587E+04   -0.39658E-05   -0.93212E-07  1560   0.576E-03    0.323E-03
DAV:  15    -0.115770675197E+04   -0.61062E-05   -0.35269E-07  1440   0.320E-03    0.361E-03
DAV:  16    -0.115770675583E+04   -0.38520E-05   -0.35665E-07  1512   0.341E-03    0.306E-03
DAV:  17    -0.115770675933E+04   -0.35081E-05   -0.19237E-07  1476   0.227E-03    0.200E-03
DAV:  18    -0.115770676268E+04   -0.33404E-05   -0.15062E-07  1488   0.145E-03    0.139E-03
DAV:  19    -0.115770676486E+04   -0.21858E-05   -0.10370E-07  1452   0.104E-03    0.136E-03
DAV:  20    -0.115770676657E+04   -0.17102E-05   -0.61529E-08  1452   0.104E-03    0.109E-03
DAV:  21    -0.115770676907E+04   -0.24969E-05   -0.41939E-08  1428   0.689E-04    0.718E-04
DAV:  22    -0.115770677105E+04   -0.19782E-05   -0.40605E-08  1476   0.475E-04    0.793E-04
DAV:  23    -0.115770677231E+04   -0.12677E-05   -0.22982E-08  1428   0.540E-04    0.541E-04
DAV:  24    -0.115770677395E+04   -0.16359E-05   -0.16188E-08  1464   0.414E-04    0.481E-04
DAV:  25    -0.115770677664E+04   -0.26900E-05   -0.30534E-08  1452   0.331E-04    0.411E-04
DAV:  26    -0.115770677778E+04   -0.11440E-05   -0.17336E-08  1512   0.349E-04    0.410E-04
DAV:  27    -0.115770677934E+04   -0.15574E-05   -0.17199E-08  1452   0.313E-04    0.320E-04
DAV:  28    -0.115770678113E+04   -0.17888E-05   -0.20592E-08  1464   0.314E-04    0.331E-04
DAV:  29    -0.115770678234E+04   -0.12072E-05   -0.21687E-08  1452   0.278E-04    0.299E-04
DAV:  30    -0.115770678299E+04   -0.65659E-06   -0.13088E-08  1464   0.262E-04
 141 F= -.11654066E+04 E0= -.11654034E+04  d E =-.550279E-03  mag=    13.0728
 ZBRENT: can't locate minimum, use default step
 trial-energy change:   -0.000550  1 .order   -0.000553   -0.000627   -0.000480
 step:   0.1651(harm=  0.1755)  dis= 0.00711  next Energy= -1165.407366 (dE=-0.133E-02)
 bond charge predicted
       N       E                     dE             d eps       ncg     rms          rms(c)
DAV:   1    -0.115769714273E+04    0.96396E-02   -0.43195E+00  1992   0.442E+00    0.523E-01
DAV:   2    -0.115770644293E+04   -0.93002E-02   -0.94427E-02  2580   0.628E-01    0.421E-01
DAV:   3    -0.115771215647E+04   -0.57135E-02   -0.18858E-02  3360   0.590E-01    0.161E+00
DAV:   4    -0.115770675940E+04    0.53971E-02   -0.11367E-02  3144   0.407E-01    0.450E-01
DAV:   5    -0.115770702096E+04   -0.26156E-03   -0.44467E-03  3216   0.251E-01    0.350E-01
DAV:   6    -0.115770717098E+04   -0.15002E-03   -0.29842E-03  3060   0.182E-01    0.370E-01
DAV:   7    -0.115770690988E+04    0.26110E-03   -0.17937E-03  3144   0.187E-01    0.224E-01
DAV:   8    -0.115770706843E+04   -0.15855E-03   -0.12017E-03  3216   0.173E-01    0.237E-01
DAV:   9    -0.115770701828E+04    0.50149E-04   -0.94345E-04  3192   0.148E-01    0.219E-01
DAV:  10    -0.115770694772E+04    0.70564E-04   -0.26700E-04  3192   0.103E-01    0.138E-01
DAV:  11    -0.115770696477E+04   -0.17047E-04   -0.13040E-04  2952   0.602E-02    0.648E-02
DAV:  12    -0.115770698796E+04   -0.23196E-04   -0.55242E-05  2484   0.416E-02    0.347E-02
DAV:  13    -0.115770701364E+04   -0.25680E-04   -0.18276E-05  2244   0.235E-02    0.300E-02
DAV:  14    -0.115770703680E+04   -0.23159E-04   -0.81658E-06  1932   0.167E-02    0.971E-03
DAV:  15    -0.115770707450E+04   -0.37702E-04   -0.28342E-06  1716   0.939E-03    0.110E-02
DAV:  16    -0.115770709537E+04   -0.20866E-04   -0.26087E-06  1728   0.964E-03    0.929E-03
DAV:  17    -0.115770711367E+04   -0.18294E-04   -0.12021E-06  1500   0.629E-03    0.631E-03
DAV:  18    -0.115770713280E+04   -0.19133E-04   -0.71388E-07  1560   0.377E-03    0.406E-03
DAV:  19    -0.115770714835E+04   -0.15551E-04   -0.53836E-07  1476   0.307E-03    0.434E-03
DAV:  20    -0.115770716055E+04   -0.12198E-04   -0.44256E-07  1488   0.308E-03    0.271E-03
DAV:  21    -0.115770717762E+04   -0.17073E-04   -0.37371E-07  1512   0.175E-03    0.201E-03
DAV:  22    -0.115770718713E+04   -0.95045E-05   -0.27335E-07  1536   0.132E-03    0.211E-03
DAV:  23    -0.115770719531E+04   -0.81834E-05   -0.18384E-07  1452   0.138E-03    0.158E-03
DAV:  24    -0.115770720515E+04   -0.98401E-05   -0.14801E-07  1512   0.102E-03    0.129E-03
DAV:  25    -0.115770721938E+04   -0.14236E-04   -0.20844E-07  1452   0.842E-04    0.155E-03
DAV:  26    -0.115770722967E+04   -0.10281E-04   -0.17032E-07  1512   0.116E-03    0.990E-04
DAV:  27    -0.115770724118E+04   -0.11519E-04   -0.21016E-07  1500   0.826E-04    0.116E-03
DAV:  28    -0.115770725211E+04   -0.10923E-04   -0.21652E-07  1524   0.848E-04    0.865E-04
DAV:  29    -0.115770725873E+04   -0.66224E-05   -0.17463E-07  1452   0.703E-04    0.930E-04
DAV:  30    -0.115770726446E+04   -0.57328E-05   -0.15000E-07  1488   0.748E-04    0.713E-04
DAV:  31    -0.115770727016E+04   -0.57006E-05   -0.15977E-07  1476   0.584E-04    0.609E-04
DAV:  32    -0.115770727441E+04   -0.42496E-05   -0.14726E-07  1464   0.576E-04    0.515E-04
DAV:  33    -0.115770727714E+04   -0.27313E-05   -0.11761E-07  1476   0.498E-04    0.510E-04
DAV:  34    -0.115770727889E+04   -0.17466E-05   -0.89481E-08  1512   0.501E-04    0.466E-04
DAV:  35    -0.115770728140E+04   -0.25062E-05   -0.10654E-07  1452   0.434E-04    0.318E-04
DAV:  36    -0.115770728278E+04   -0.13832E-05   -0.88259E-08  1488   0.417E-04    0.312E-04
DAV:  37    -0.115770728358E+04   -0.79636E-06   -0.74595E-08  1476   0.356E-04
 142 F= -.11654073E+04 E0= -.11654042E+04  d E =-.131434E-02  mag=    13.0716
 curvature:  -6.96 expect dE=-0.507E-01 dE for cont linesearch -0.268E-05
 trial: gam= 0.23756 g(F)=  0.728E-02 g(S)=  0.000E+00 ort = 0.684E-03 (trialstep = 0.660E-01)
 search vector abs. value=  0.760E-01
 bond charge predicted
       N       E                     dE             d eps       ncg     rms          rms(c)
DAV:   1    -0.115770753142E+04   -0.24864E-03   -0.75973E-02  2028   0.587E-01    0.742E-02
DAV:   2    -0.115770768001E+04   -0.14860E-03   -0.17637E-03  2676   0.873E-02    0.657E-02
DAV:   3    -0.115770783611E+04   -0.15609E-03   -0.65769E-04  3348   0.858E-02    0.277E-01
DAV:   4    -0.115770766688E+04    0.16922E-03   -0.43580E-04  3000   0.568E-02    0.508E-02
DAV:   5    -0.115770769865E+04   -0.31768E-04   -0.58263E-05  2688   0.379E-02    0.391E-02
DAV:   6    -0.115770770401E+04   -0.53593E-05   -0.44671E-05  2388   0.258E-02    0.447E-02
DAV:   7    -0.115770770138E+04    0.26298E-05   -0.30913E-05  2412   0.247E-02    0.358E-02
DAV:   8    -0.115770770503E+04   -0.36445E-05   -0.24253E-05  2088   0.235E-02    0.384E-02
DAV:   9    -0.115770770371E+04    0.13183E-05   -0.24780E-05  2148   0.204E-02    0.296E-02
DAV:  10    -0.115770770261E+04    0.10994E-05   -0.59310E-06  1848   0.145E-02    0.197E-02
DAV:  11    -0.115770770356E+04   -0.95317E-06   -0.22856E-06  1752   0.900E-03
 143 F= -.11654078E+04 E0= -.11654046E+04  d E =-.434091E-03  mag=    13.0715
 ZBRENT: can't locate minimum, use default step
 trial-energy change:   -0.000434  1 .order   -0.000451   -0.000491   -0.000410
 step:   0.2642(harm=  0.4011)  dis= 0.00293  next Energy= -1165.408839 (dE=-0.149E-02)
 bond charge predicted
       N       E                     dE             d eps       ncg     rms          rms(c)
DAV:   1    -0.115770681153E+04    0.89108E-03   -0.68346E-01  1992   0.176E+00    0.223E-01
DAV:   2    -0.115770828047E+04   -0.14689E-02   -0.15821E-02  2652   0.260E-01    0.172E-01
DAV:   3    -0.115770928944E+04   -0.10090E-02   -0.42457E-03  3384   0.245E-01    0.688E-01
DAV:   4    -0.115770829198E+04    0.99745E-03   -0.28411E-03  3060   0.162E-01    0.168E-01
DAV:   5    -0.115770838622E+04   -0.94235E-04   -0.52851E-04  3012   0.110E-01    0.116E-01
DAV:   6    -0.115770840786E+04   -0.21648E-04   -0.39008E-04  3108   0.767E-02    0.129E-01
DAV:   7    -0.115770838596E+04    0.21900E-04   -0.29590E-04  3096   0.718E-02    0.112E-01
DAV:   8    -0.115770840457E+04   -0.18604E-04   -0.21710E-04  3120   0.692E-02    0.110E-01
DAV:   9    -0.115770838980E+04    0.14767E-04   -0.20213E-04  3000   0.577E-02    0.777E-02
DAV:  10    -0.115770838809E+04    0.17061E-05   -0.54693E-05  2508   0.375E-02    0.564E-02
DAV:  11    -0.115770839201E+04   -0.39184E-05   -0.18168E-05  2124   0.259E-02    0.271E-02
DAV:  12    -0.115770839984E+04   -0.78281E-05   -0.10014E-05  2028   0.167E-02    0.141E-02
DAV:  13    -0.115770840784E+04   -0.79989E-05   -0.27230E-06  1812   0.960E-03    0.129E-02
DAV:  14    -0.115770841404E+04   -0.62014E-05   -0.13912E-06  1572   0.712E-03    0.407E-03
DAV:  15    -0.115770842730E+04   -0.13263E-04   -0.70428E-07  1464   0.323E-03    0.538E-03
DAV:  16    -0.115770843380E+04   -0.64960E-05   -0.48758E-07  1524   0.402E-03    0.494E-03
DAV:  17    -0.115770844026E+04   -0.64576E-05   -0.30821E-07  1452   0.288E-03    0.243E-03
DAV:  18    -0.115770844466E+04   -0.44036E-05   -0.20385E-07  1524   0.158E-03    0.203E-03
DAV:  19    -0.115770844822E+04   -0.35602E-05   -0.14763E-07  1452   0.127E-03    0.170E-03
DAV:  20    -0.115770845169E+04   -0.34693E-05   -0.11190E-07  1500   0.135E-03    0.191E-03
DAV:  21    -0.115770845745E+04   -0.57635E-05   -0.97403E-08  1428   0.131E-03    0.107E-03
DAV:  22    -0.115770846346E+04   -0.60064E-05   -0.11797E-07  1512   0.818E-04    0.129E-03
DAV:  23    -0.115770846548E+04   -0.20214E-05   -0.78788E-08  1524   0.922E-04    0.932E-04
DAV:  24    -0.115770846962E+04   -0.41347E-05   -0.74791E-08  1392   0.594E-04    0.755E-04
DAV:  25    -0.115770847284E+04   -0.32279E-05   -0.72619E-08  1476   0.481E-04    0.677E-04
DAV:  26    -0.115770847512E+04   -0.22760E-05   -0.45392E-08  1452   0.512E-04    0.671E-04
DAV:  27    -0.115770847806E+04   -0.29411E-05   -0.45403E-08  1488   0.567E-04    0.669E-04
DAV:  28    -0.115770848106E+04   -0.29944E-05   -0.60459E-08  1440   0.535E-04    0.556E-04
DAV:  29    -0.115770848315E+04   -0.20958E-05   -0.61899E-08  1440   0.419E-04    0.560E-04
DAV:  30    -0.115770848426E+04   -0.11084E-05   -0.43963E-08  1464   0.400E-04    0.421E-04
DAV:  31    -0.115770848511E+04   -0.85415E-06   -0.30686E-08  1464   0.335E-04
 144 F= -.11654086E+04 E0= -.11654054E+04  d E =-.125791E-02  mag=    13.0714
 curvature:  -1.71 expect dE=-0.603E-02 dE for cont linesearch -0.101E-03
 ZBRENT: increasing intervall
 opt :   0.6604  next Energy= -1165.407823 (dE=-0.476E-03)
 bond charge predicted
       N       E                     dE             d eps       ncg     rms          rms(c)
DAV:   1    -0.115770101749E+04    0.74668E-02   -0.27341E+00  1992   0.352E+00    0.446E-01
DAV:   2    -0.115770719170E+04   -0.61742E-02   -0.63498E-02  2700   0.523E-01    0.387E-01
DAV:   3    -0.115771226820E+04   -0.50765E-02   -0.23628E-02  3384   0.513E-01    0.161E+00
DAV:   4    -0.115770699317E+04    0.52750E-02   -0.13635E-02  3072   0.346E-01    0.294E-01
DAV:   5    -0.115770744700E+04   -0.45383E-03   -0.19666E-03  3084   0.220E-01    0.229E-01
DAV:   6    -0.115770751648E+04   -0.69474E-04   -0.15723E-03  3072   0.151E-01    0.251E-01
DAV:   7    -0.115770743979E+04    0.76682E-04   -0.11391E-03  3132   0.149E-01    0.205E-01
DAV:   8    -0.115770754643E+04   -0.10663E-03   -0.85328E-04  3180   0.134E-01    0.264E-01
DAV:   9    -0.115770744646E+04    0.99973E-04   -0.97774E-04  3084   0.119E-01    0.178E-01
DAV:  10    -0.115770742027E+04    0.26181E-04   -0.21283E-04  3120   0.832E-02    0.125E-01
DAV:  11    -0.115770742403E+04   -0.37505E-05   -0.81349E-05  2760   0.530E-02    0.554E-02
DAV:  12    -0.115770744072E+04   -0.16693E-04   -0.43759E-05  2412   0.340E-02    0.282E-02
DAV:  13    -0.115770746018E+04   -0.19461E-04   -0.13266E-05  2064   0.198E-02    0.273E-02
DAV:  14    -0.115770747596E+04   -0.15780E-04   -0.59881E-06  1824   0.143E-02    0.959E-03
DAV:  15    -0.115770750614E+04   -0.30179E-04   -0.33170E-06  1740   0.718E-03    0.106E-02
DAV:  16    -0.115770752650E+04   -0.20360E-04   -0.20068E-06  1716   0.837E-03    0.106E-02
DAV:  17    -0.115770753946E+04   -0.12962E-04   -0.10978E-06  1476   0.612E-03    0.526E-03
DAV:  18    -0.115770754864E+04   -0.91803E-05   -0.49297E-07  1536   0.322E-03    0.407E-03
DAV:  19    -0.115770755895E+04   -0.10309E-04   -0.37822E-07  1476   0.228E-03    0.359E-03
DAV:  20    -0.115770756792E+04   -0.89737E-05   -0.37074E-07  1476   0.288E-03    0.394E-03
DAV:  21    -0.115770758557E+04   -0.17641E-04   -0.37438E-07  1524   0.254E-03    0.194E-03
DAV:  22    -0.115770760097E+04   -0.15402E-04   -0.42624E-07  1512   0.139E-03    0.198E-03
DAV:  23    -0.115770760526E+04   -0.42937E-05   -0.22415E-07  1536   0.140E-03    0.147E-03
DAV:  24    -0.115770761370E+04   -0.84403E-05   -0.15523E-07  1404   0.111E-03    0.136E-03
DAV:  25    -0.115770762396E+04   -0.10264E-04   -0.17700E-07  1488   0.101E-03    0.112E-03
DAV:  26    -0.115770763168E+04   -0.77144E-05   -0.16739E-07  1476   0.916E-04    0.142E-03
DAV:  27    -0.115770763858E+04   -0.68966E-05   -0.15676E-07  1500   0.999E-04    0.961E-04
DAV:  28    -0.115770764648E+04   -0.79046E-05   -0.21190E-07  1464   0.681E-04    0.103E-03
DAV:  29    -0.115770765050E+04   -0.40209E-05   -0.13512E-07  1500   0.640E-04    0.792E-04
DAV:  30    -0.115770765438E+04   -0.38802E-05   -0.11374E-07  1452   0.602E-04    0.886E-04
DAV:  31    -0.115770765757E+04   -0.31863E-05   -0.10104E-07  1500   0.648E-04    0.807E-04
DAV:  32    -0.115770766055E+04   -0.29854E-05   -0.11250E-07  1476   0.540E-04    0.671E-04
DAV:  33    -0.115770766258E+04   -0.20275E-05   -0.99542E-08  1464   0.492E-04    0.632E-04
DAV:  34    -0.115770766334E+04   -0.75917E-06   -0.67646E-08  1488   0.469E-04
 145 F= -.11654079E+04 E0= -.11654047E+04  d E =-.520175E-03  mag=    13.0713
 curvature:  13.22 expect dE= 0.325E+00 dE for cont linesearch  0.590E-02
 ZBRENT: bracketing found
 ZBRENT: interpolating
 opt :   0.3699  next Energy= -1165.408717 (dE=-0.137E-02)
 bond charge predicted
       N       E                     dE             d eps       ncg     rms          rms(c)
DAV:   1    -0.115770501652E+04    0.26461E-02   -0.14702E+00  1992   0.258E+00    0.326E-01
DAV:   2    -0.115770827794E+04   -0.32614E-02   -0.33951E-02  2736   0.385E-01    0.295E-01
DAV:   3    -0.115771127762E+04   -0.29997E-02   -0.12759E-02  3456   0.385E-01    0.128E+00
DAV:   4    -0.115770810870E+04    0.31689E-02   -0.95137E-03  2988   0.250E-01    0.233E-01
DAV:   5    -0.115770842997E+04   -0.32126E-03   -0.12387E-03  3144   0.170E-01    0.175E-01
DAV:   6    -0.115770850809E+04   -0.78124E-04   -0.92269E-04  3108   0.114E-01    0.210E-01
DAV:   7    -0.115770843947E+04    0.68625E-04   -0.60709E-04  3156   0.105E-01    0.159E-01
DAV:   8    -0.115770847644E+04   -0.36971E-04   -0.47770E-04  3216   0.105E-01    0.152E-01
DAV:   9    -0.115770846399E+04    0.12448E-04   -0.47193E-04  3036   0.853E-02    0.136E-01
DAV:  10    -0.115770843595E+04    0.28039E-04   -0.11795E-04  3036   0.617E-02    0.957E-02
DAV:  11    -0.115770844021E+04   -0.42555E-05   -0.46032E-05  2388   0.395E-02    0.445E-02
DAV:  12    -0.115770845265E+04   -0.12442E-04   -0.25102E-05  2328   0.267E-02    0.197E-02
DAV:  13    -0.115770846474E+04   -0.12095E-04   -0.76439E-06  1992   0.155E-02    0.194E-02
DAV:  14    -0.115770847397E+04   -0.92258E-05   -0.32652E-06  1776   0.105E-02    0.572E-03
DAV:  15    -0.115770848972E+04   -0.15749E-04   -0.11349E-06  1488   0.483E-03    0.777E-03
DAV:  16    -0.115770849890E+04   -0.91805E-05   -0.88194E-07  1560   0.577E-03    0.734E-03
DAV:  17    -0.115770850850E+04   -0.96030E-05   -0.59720E-07  1452   0.436E-03    0.358E-03
DAV:  18    -0.115770851808E+04   -0.95751E-05   -0.41841E-07  1524   0.273E-03    0.297E-03
DAV:  19    -0.115770852494E+04   -0.68621E-05   -0.33601E-07  1512   0.226E-03    0.260E-03
DAV:  20    -0.115770852874E+04   -0.38049E-05   -0.24684E-07  1488   0.216E-03    0.219E-03
DAV:  21    -0.115770853592E+04   -0.71787E-05   -0.17429E-07  1440   0.149E-03    0.134E-03
DAV:  22    -0.115770854275E+04   -0.68270E-05   -0.21254E-07  1500   0.872E-04    0.143E-03
DAV:  23    -0.115770854707E+04   -0.43242E-05   -0.12609E-07  1440   0.107E-03    0.142E-03
DAV:  24    -0.115770855035E+04   -0.32720E-05   -0.78935E-08  1500   0.907E-04    0.114E-03
DAV:  25    -0.115770855584E+04   -0.54954E-05   -0.96505E-08  1452   0.669E-04    0.869E-04
DAV:  26    -0.115770855852E+04   -0.26771E-05   -0.73860E-08  1476   0.647E-04    0.966E-04
DAV:  27    -0.115770856311E+04   -0.45934E-05   -0.82764E-08  1464   0.675E-04    0.731E-04
DAV:  28    -0.115770856711E+04   -0.39954E-05   -0.85520E-08  1464   0.597E-04    0.626E-04
DAV:  29    -0.115770857006E+04   -0.29485E-05   -0.94662E-08  1464   0.505E-04    0.709E-04
DAV:  30    -0.115770857161E+04   -0.15534E-05   -0.61911E-08  1488   0.568E-04    0.534E-04
DAV:  31    -0.115770857324E+04   -0.16287E-05   -0.61012E-08  1416   0.400E-04    0.475E-04
DAV:  32    -0.115770857452E+04   -0.12780E-05   -0.52168E-08  1452   0.392E-04    0.494E-04
DAV:  33    -0.115770857502E+04   -0.50619E-06   -0.35191E-08  1464   0.356E-04
 146 F= -.11654087E+04 E0= -.11654056E+04  d E =-.137030E-02  mag=    13.0714
 curvature:  -0.25 expect dE=-0.152E-02 dE for cont linesearch -0.213E-09
 trial: gam= 0.88635 g(F)=  0.605E-02 g(S)=  0.000E+00 ort =-0.803E-05 (trialstep = 0.127E+00)
 search vector abs. value=  0.658E-01
 bond charge predicted
       N       E                     dE             d eps       ncg     rms          rms(c)
DAV:   1    -0.115770859164E+04   -0.17125E-04   -0.23874E-01  1992   0.104E+00    0.134E-01
DAV:   2    -0.115770912856E+04   -0.53692E-03   -0.57094E-03  2892   0.163E-01    0.135E-01
DAV:   3    -0.115770952090E+04   -0.39234E-03   -0.11302E-03  3288   0.176E-01    0.401E-01
DAV:   4    -0.115770918569E+04    0.33520E-03   -0.77492E-04  3108   0.108E-01    0.175E-01
DAV:   5    -0.115770914226E+04    0.43432E-04   -0.37390E-04  3120   0.699E-02    0.845E-02
DAV:   6    -0.115770916546E+04   -0.23197E-04   -0.19761E-04  2976   0.437E-02    0.902E-02
DAV:   7    -0.115770915588E+04    0.95725E-05   -0.11328E-04  2904   0.436E-02    0.622E-02
DAV:   8    -0.115770916123E+04   -0.53441E-05   -0.64215E-05  2868   0.455E-02    0.553E-02
DAV:   9    -0.115770916668E+04   -0.54511E-05   -0.67656E-05  2664   0.340E-02    0.624E-02
DAV:  10    -0.115770915789E+04    0.87874E-05   -0.37433E-05  2124   0.274E-02    0.187E-02
DAV:  11    -0.115770916231E+04   -0.44134E-05   -0.43598E-06  1824   0.116E-02    0.981E-03
DAV:  12    -0.115770916427E+04   -0.19628E-05   -0.21951E-06  1668   0.832E-03    0.817E-03
DAV:  13    -0.115770916561E+04   -0.13445E-05   -0.10303E-06  1500   0.537E-03    0.493E-03
DAV:  14    -0.115770916817E+04   -0.25576E-05   -0.34615E-07  1428   0.312E-03    0.271E-03
DAV:  15    -0.115770917059E+04   -0.24162E-05   -0.22293E-07  1476   0.231E-03    0.340E-03
DAV:  16    -0.115770917209E+04   -0.15033E-05   -0.23369E-07  1440   0.268E-03    0.234E-03
DAV:  17    -0.115770917458E+04   -0.24861E-05   -0.11432E-07  1452   0.152E-03    0.147E-03
DAV:  18    -0.115770917604E+04   -0.14666E-05   -0.86165E-08  1476   0.123E-03    0.150E-03
DAV:  19    -0.115770917688E+04   -0.83365E-06   -0.63378E-08  1404   0.110E-03
 147 F= -.11654093E+04 E0= -.11654061E+04  d E =-.571618E-03  mag=    13.0720
 trial-energy change:   -0.000572  1 .order   -0.000580   -0.000767   -0.000393
 step:   0.3347(harm=  0.2606)  dis= 0.00326  next Energy= -1165.409575 (dE=-0.857E-03)
 bond charge predicted
       N       E                     dE             d eps       ncg     rms          rms(c)
DAV:   1    -0.115770777251E+04    0.14035E-02   -0.64161E-01  1992   0.170E+00    0.221E-01
DAV:   2    -0.115770927209E+04   -0.14996E-02   -0.15369E-02  2844   0.268E-01    0.223E-01
DAV:   3    -0.115771030866E+04   -0.10366E-02   -0.32221E-03  3252   0.290E-01    0.667E-01
DAV:   4    -0.115770940068E+04    0.90799E-03   -0.22239E-03  3060   0.177E-01    0.284E-01
DAV:   5    -0.115770926959E+04    0.13108E-03   -0.97783E-04  3228   0.116E-01    0.135E-01
DAV:   6    -0.115770932293E+04   -0.53332E-04   -0.52587E-04  3204   0.722E-02    0.153E-01
DAV:   7    -0.115770928357E+04    0.39362E-04   -0.31046E-04  3012   0.709E-02    0.101E-01
DAV:   8    -0.115770929702E+04   -0.13452E-04   -0.17278E-04  3060   0.744E-02    0.935E-02
DAV:   9    -0.115770930752E+04   -0.10499E-04   -0.18169E-04  2856   0.561E-02    0.101E-01
DAV:  10    -0.115770928714E+04    0.20381E-04   -0.10037E-04  2724   0.444E-02    0.311E-02
DAV:  11    -0.115770929973E+04   -0.12599E-04   -0.11695E-05  1968   0.183E-02    0.160E-02
DAV:  12    -0.115770930655E+04   -0.68174E-05   -0.58290E-06  1848   0.129E-02    0.128E-02
DAV:  13    -0.115770931110E+04   -0.45507E-05   -0.28389E-06  1692   0.829E-03    0.820E-03
DAV:  14    -0.115770931981E+04   -0.87098E-05   -0.91403E-07  1500   0.490E-03    0.454E-03
DAV:  15    -0.115770932802E+04   -0.82110E-05   -0.61483E-07  1512   0.370E-03    0.560E-03
DAV:  16    -0.115770933311E+04   -0.50867E-05   -0.78736E-07  1488   0.443E-03    0.400E-03
DAV:  17    -0.115770934127E+04   -0.81620E-05   -0.34769E-07  1488   0.248E-03    0.251E-03
DAV:  18    -0.115770934589E+04   -0.46161E-05   -0.25064E-07  1512   0.197E-03    0.236E-03
DAV:  19    -0.115770934865E+04   -0.27655E-05   -0.17977E-07  1452   0.173E-03    0.198E-03
DAV:  20    -0.115770935183E+04   -0.31781E-05   -0.11076E-07  1452   0.128E-03    0.172E-03
DAV:  21    -0.115770935507E+04   -0.32392E-05   -0.92851E-08  1452   0.109E-03    0.131E-03
DAV:  22    -0.115770935984E+04   -0.47697E-05   -0.10425E-07  1464   0.715E-04    0.120E-03
DAV:  23    -0.115770936308E+04   -0.32344E-05   -0.75213E-08  1464   0.947E-04    0.125E-03
DAV:  24    -0.115770936644E+04   -0.33655E-05   -0.61104E-08  1428   0.832E-04    0.858E-04
DAV:  25    -0.115770937063E+04   -0.41853E-05   -0.82058E-08  1488   0.624E-04    0.879E-04
DAV:  26    -0.115770937189E+04   -0.12644E-05   -0.53421E-08  1512   0.608E-04    0.748E-04
DAV:  27    -0.115770937460E+04   -0.27125E-05   -0.58279E-08  1404   0.512E-04    0.663E-04
DAV:  28    -0.115770937706E+04   -0.24542E-05   -0.59634E-08  1464   0.484E-04    0.496E-04
DAV:  29    -0.115770937861E+04   -0.15556E-05   -0.53065E-08  1464   0.415E-04    0.611E-04
DAV:  30    -0.115770937956E+04   -0.94902E-06   -0.37749E-08  1464   0.462E-04
 148 F= -.11654094E+04 E0= -.11654062E+04  d E =-.723398E-03  mag=    13.0733
 curvature:  -0.98 expect dE=-0.805E-02 dE for cont linesearch -0.438E-04
 ZBRENT: interpolating
 opt :   0.2608  next Energy= -1165.409504 (dE=-0.787E-03)
 bond charge predicted
       N       E                     dE             d eps       ncg     rms          rms(c)
DAV:   1    -0.115770922158E+04    0.15703E-03   -0.81144E-02  2016   0.604E-01    0.787E-02
DAV:   2    -0.115770939634E+04   -0.17475E-03   -0.19457E-03  2892   0.955E-02    0.800E-02
DAV:   3    -0.115770953750E+04   -0.14117E-03   -0.38871E-04  3216   0.103E-01    0.239E-01
DAV:   4    -0.115770941629E+04    0.12122E-03   -0.28796E-04  3000   0.633E-02    0.102E-01
DAV:   5    -0.115770940688E+04    0.94057E-05   -0.13069E-04  2844   0.411E-02    0.502E-02
DAV:   6    -0.115770941696E+04   -0.10072E-04   -0.68408E-05  2508   0.261E-02    0.532E-02
DAV:   7    -0.115770941506E+04    0.18992E-05   -0.37837E-05  2580   0.260E-02    0.351E-02
DAV:   8    -0.115770941870E+04   -0.36485E-05   -0.21894E-05  2268   0.267E-02    0.341E-02
DAV:   9    -0.115770942027E+04   -0.15648E-05   -0.22451E-05  2088   0.206E-02    0.359E-02
DAV:  10    -0.115770941785E+04    0.24175E-05   -0.12220E-05  1908   0.165E-02    0.116E-02
DAV:  11    -0.115770941939E+04   -0.15387E-05   -0.15726E-06  1608   0.729E-03    0.584E-03
DAV:  12    -0.115770942008E+04   -0.69354E-06   -0.84730E-07  1512   0.503E-03
 149 F= -.11654095E+04 E0= -.11654063E+04  d E =-.782232E-03  mag=    13.0731
 curvature:  -1.42 expect dE=-0.669E-02 dE for cont linesearch -0.325E-07
 trial: gam= 0.76243 g(F)=  0.472E-02 g(S)=  0.000E+00 ort =-0.388E-04 (trialstep = 0.154E+00)
 search vector abs. value=  0.429E-01
 bond charge predicted
       N       E                     dE             d eps       ncg     rms          rms(c)
DAV:   1    -0.115770941030E+04    0.90908E-05   -0.24208E-01  1998   0.104E+00    0.133E-01
DAV:   2    -0.115770991602E+04   -0.50572E-03   -0.53547E-03  2796   0.158E-01    0.149E-01
DAV:   3    -0.115771040314E+04   -0.48712E-03   -0.92450E-04  3288   0.161E-01    0.463E-01
DAV:   4    -0.115770994687E+04    0.45627E-03   -0.51589E-04  3072   0.107E-01    0.157E-01
DAV:   5    -0.115770994566E+04    0.12139E-05   -0.44601E-04  3180   0.532E-02    0.871E-02
DAV:   6    -0.115770998240E+04   -0.36743E-04   -0.20856E-04  2796   0.545E-02    0.962E-02
DAV:   7    -0.115770996712E+04    0.15284E-04   -0.13090E-04  2952   0.549E-02    0.536E-02
DAV:   8    -0.115770997663E+04   -0.95088E-05   -0.58877E-05  2676   0.409E-02    0.558E-02
DAV:   9    -0.115770997522E+04    0.14037E-05   -0.51699E-05  2436   0.359E-02    0.515E-02
DAV:  10    -0.115770997088E+04    0.43493E-05   -0.20943E-05  2124   0.272E-02    0.284E-02
DAV:  11    -0.115770997297E+04   -0.20916E-05   -0.48218E-06  1860   0.128E-02    0.106E-02
DAV:  12    -0.115770997539E+04   -0.24188E-05   -0.20885E-06  1776   0.973E-03    0.939E-03
DAV:  13    -0.115770997677E+04   -0.13837E-05   -0.97407E-07  1572   0.639E-03    0.584E-03
DAV:  14    -0.115770997864E+04   -0.18729E-05   -0.52699E-07  1476   0.383E-03    0.339E-03
DAV:  15    -0.115770998028E+04   -0.16389E-05   -0.27527E-07  1452   0.284E-03    0.318E-03
DAV:  16    -0.115770998203E+04   -0.17460E-05   -0.20889E-07  1452   0.233E-03    0.220E-03
DAV:  17    -0.115770998377E+04   -0.17451E-05   -0.11438E-07  1452   0.186E-03    0.190E-03
DAV:  18    -0.115770998555E+04   -0.17768E-05   -0.90783E-08  1476   0.156E-03    0.156E-03
DAV:  19    -0.115770998703E+04   -0.14778E-05   -0.62100E-08  1464   0.904E-04    0.111E-03
DAV:  20    -0.115770998767E+04   -0.64522E-06   -0.35383E-08  1452   0.870E-04
 150 F= -.11654101E+04 E0= -.11654069E+04  d E =-.587415E-03  mag=    13.0731
 trial-energy change:   -0.000587  1 .order   -0.000588   -0.000720   -0.000456
 step:   0.4189(harm=  0.4189)  dis= 0.00315  next Energy= -1165.410481 (dE=-0.981E-03)
 bond charge predicted
       N       E                     dE             d eps       ncg     rms          rms(c)
DAV:   1    -0.115770860750E+04    0.13795E-02   -0.72193E-01  1992   0.180E+00    0.231E-01
DAV:   2    -0.115771014973E+04   -0.15422E-02   -0.15980E-02  2712   0.270E-01    0.236E-01
DAV:   3    -0.115771148721E+04   -0.13375E-02   -0.28051E-03  3360   0.270E-01    0.766E-01
DAV:   4    -0.115771018740E+04    0.12998E-02   -0.93450E-04  3024   0.184E-01    0.228E-01
DAV:   5    -0.115771023123E+04   -0.43834E-04   -0.12477E-03  3276   0.865E-02    0.181E-01
DAV:   6    -0.115771028033E+04   -0.49099E-04   -0.74322E-04  2964   0.927E-02    0.169E-01
DAV:   7    -0.115771022895E+04    0.51380E-04   -0.42766E-04  3072   0.955E-02    0.938E-02
DAV:   8    -0.115771025027E+04   -0.21323E-04   -0.18448E-04  3036   0.706E-02    0.953E-02
DAV:   9    -0.115771024973E+04    0.54549E-06   -0.13786E-04  2964   0.612E-02    0.902E-02
DAV:  10    -0.115771023980E+04    0.99336E-05   -0.54732E-05  2460   0.452E-02    0.529E-02
DAV:  11    -0.115771024956E+04   -0.97668E-05   -0.15637E-05  2052   0.227E-02    0.188E-02
DAV:  12    -0.115771025831E+04   -0.87520E-05   -0.72972E-06  1896   0.171E-02    0.180E-02
DAV:  13    -0.115771026596E+04   -0.76446E-05   -0.30989E-06  1800   0.103E-02    0.101E-02
DAV:  14    -0.115771027376E+04   -0.78027E-05   -0.16268E-06  1632   0.620E-03    0.624E-03
DAV:  15    -0.115771028014E+04   -0.63741E-05   -0.86850E-07  1548   0.498E-03    0.629E-03
DAV:  16    -0.115771028775E+04   -0.76123E-05   -0.55365E-07  1464   0.376E-03    0.317E-03
DAV:  17    -0.115771029690E+04   -0.91504E-05   -0.32266E-07  1488   0.297E-03    0.372E-03
DAV:  18    -0.115771030327E+04   -0.63755E-05   -0.31397E-07  1488   0.286E-03    0.327E-03
DAV:  19    -0.115771030896E+04   -0.56860E-05   -0.18424E-07  1464   0.171E-03    0.193E-03
DAV:  20    -0.115771031172E+04   -0.27647E-05   -0.13609E-07  1500   0.141E-03    0.171E-03
DAV:  21    -0.115771031761E+04   -0.58882E-05   -0.11256E-07  1404   0.109E-03    0.109E-03
DAV:  22    -0.115771032246E+04   -0.48481E-05   -0.10826E-07  1512   0.687E-04    0.104E-03
DAV:  23    -0.115771032531E+04   -0.28492E-05   -0.61538E-08  1464   0.838E-04    0.871E-04
DAV:  24    -0.115771033027E+04   -0.49616E-05   -0.57271E-08  1428   0.635E-04    0.646E-04
DAV:  25    -0.115771033508E+04   -0.48124E-05   -0.70043E-08  1464   0.505E-04    0.669E-04
DAV:  26    -0.115771033692E+04   -0.18359E-05   -0.45622E-08  1512   0.371E-04    0.579E-04
DAV:  27    -0.115771034001E+04   -0.30924E-05   -0.37529E-08  1416   0.394E-04    0.571E-04
DAV:  28    -0.115771034326E+04   -0.32479E-05   -0.38053E-08  1500   0.430E-04    0.473E-04
DAV:  29    -0.115771034723E+04   -0.39654E-05   -0.61138E-08  1428   0.431E-04    0.475E-04
DAV:  30    -0.115771034942E+04   -0.21961E-05   -0.54012E-08  1476   0.425E-04    0.479E-04
DAV:  31    -0.115771035126E+04   -0.18349E-05   -0.50520E-08  1452   0.382E-04    0.324E-04
DAV:  32    -0.115771035233E+04   -0.10744E-05   -0.38777E-08  1512   0.302E-04    0.275E-04
DAV:  33    -0.115771035345E+04   -0.11205E-05   -0.35247E-08  1452   0.246E-04    0.227E-04
DAV:  34    -0.115771035405E+04   -0.59368E-06   -0.22311E-08  1476   0.281E-04
 151 F= -.11654105E+04 E0= -.11654072E+04  d E =-.988085E-03  mag=    13.0735
 curvature:  -1.92 expect dE=-0.140E-01 dE for cont linesearch -0.532E-08
 trial: gam= 1.55816 g(F)=  0.730E-02 g(S)=  0.000E+00 ort =-0.109E-04 (trialstep = 0.796E-01)
 search vector abs. value=  0.111E+00
 bond charge predicted
       N       E                     dE             d eps       ncg     rms          rms(c)
DAV:   1    -0.115771032839E+04    0.25064E-04   -0.16396E-01  2004   0.862E-01    0.114E-01
DAV:   2    -0.115771068694E+04   -0.35856E-03   -0.38988E-03  2784   0.137E-01    0.139E-01
DAV:   3    -0.115771100977E+04   -0.32282E-03   -0.78050E-04  3120   0.144E-01    0.391E-01
DAV:   4    -0.115771070440E+04    0.30536E-03   -0.58070E-04  3012   0.889E-02    0.130E-01
DAV:   5    -0.115771070133E+04    0.30691E-05   -0.30223E-04  3024   0.548E-02    0.840E-02
DAV:   6    -0.115771072262E+04   -0.21290E-04   -0.17860E-04  2976   0.467E-02    0.847E-02
DAV:   7    -0.115771070876E+04    0.13861E-04   -0.11045E-04  2904   0.517E-02    0.618E-02
DAV:   8    -0.115771071022E+04   -0.14583E-05   -0.88178E-05  2892   0.479E-02    0.463E-02
DAV:   9    -0.115771071274E+04   -0.25180E-05   -0.62278E-05  2496   0.325E-02    0.489E-02
DAV:  10    -0.115771070863E+04    0.41079E-05   -0.21608E-05  2028   0.243E-02    0.290E-02
DAV:  11    -0.115771070969E+04   -0.10551E-05   -0.41082E-06  1776   0.133E-02    0.165E-02
DAV:  12    -0.115771071280E+04   -0.31154E-05   -0.19750E-06  1704   0.869E-03    0.741E-03
DAV:  13    -0.115771071499E+04   -0.21926E-05   -0.13277E-06  1620   0.610E-03    0.646E-03
DAV:  14    -0.115771071741E+04   -0.24171E-05   -0.52692E-07  1464   0.377E-03    0.344E-03
DAV:  15    -0.115771071998E+04   -0.25663E-05   -0.23739E-07  1464   0.266E-03    0.212E-03
DAV:  16    -0.115771072235E+04   -0.23713E-05   -0.17111E-07  1488   0.224E-03    0.289E-03
DAV:  17    -0.115771072452E+04   -0.21693E-05   -0.12485E-07  1452   0.193E-03    0.110E-03
DAV:  18    -0.115771072755E+04   -0.30344E-05   -0.96860E-08  1452   0.868E-04    0.113E-03
DAV:  19    -0.115771072916E+04   -0.16088E-05   -0.69152E-08  1452   0.948E-04    0.121E-03
DAV:  20    -0.115771073026E+04   -0.10979E-05   -0.36895E-08  1440   0.864E-04    0.840E-04
DAV:  21    -0.115771073147E+04   -0.12104E-05   -0.23542E-08  1440   0.543E-04    0.562E-04
DAV:  22    -0.115771073256E+04   -0.10904E-05   -0.18675E-08  1440   0.442E-04    0.684E-04
DAV:  23    -0.115771073362E+04   -0.10561E-05   -0.14545E-08  1428   0.529E-04    0.440E-04
DAV:  24    -0.115771073509E+04   -0.14686E-05   -0.15343E-08  1428   0.360E-04    0.371E-04
DAV:  25    -0.115771073637E+04   -0.12861E-05   -0.18223E-08  1452   0.283E-04    0.417E-04
DAV:  26    -0.115771073715E+04   -0.78210E-06   -0.93935E-09  1440   0.334E-04
 152 F= -.11654109E+04 E0= -.11654077E+04  d E =-.446563E-03  mag=    13.0736
 trial-energy change:   -0.000447  1 .order   -0.000449   -0.000579   -0.000319
 step:   0.1772(harm=  0.1772)  dis= 0.00210  next Energy= -1165.411133 (dE=-0.645E-03)
 bond charge predicted
       N       E                     dE             d eps       ncg     rms          rms(c)
DAV:   1    -0.115771023723E+04    0.49914E-03   -0.24659E-01  1992   0.106E+00    0.140E-01
DAV:   2    -0.115771078789E+04   -0.55066E-03   -0.58638E-03  2748   0.168E-01    0.170E-01
DAV:   3    -0.115771126764E+04   -0.47975E-03   -0.11757E-03  3132   0.177E-01    0.479E-01
DAV:   4    -0.115771081095E+04    0.45668E-03   -0.82604E-04  3024   0.109E-01    0.159E-01
DAV:   5    -0.115771080359E+04    0.73674E-05   -0.45125E-04  3168   0.670E-02    0.103E-01
DAV:   6    -0.115771083312E+04   -0.29530E-04   -0.26820E-04  3144   0.570E-02    0.104E-01
DAV:   7    -0.115771081102E+04    0.22101E-04   -0.16622E-04  2988   0.632E-02    0.761E-02
DAV:   8    -0.115771081215E+04   -0.11349E-05   -0.13296E-04  3096   0.587E-02    0.564E-02
DAV:   9    -0.115771081599E+04   -0.38376E-05   -0.92932E-05  2568   0.396E-02    0.600E-02
DAV:  10    -0.115771081011E+04    0.58767E-05   -0.32775E-05  2220   0.297E-02    0.356E-02
DAV:  11    -0.115771081173E+04   -0.16185E-05   -0.62241E-06  1848   0.163E-02    0.202E-02
DAV:  12    -0.115771081650E+04   -0.47705E-05   -0.29355E-06  1752   0.105E-02    0.904E-03
DAV:  13    -0.115771081981E+04   -0.33074E-05   -0.18939E-06  1668   0.731E-03    0.771E-03
DAV:  14    -0.115771082353E+04   -0.37247E-05   -0.75619E-07  1512   0.454E-03    0.404E-03
DAV:  15    -0.115771082770E+04   -0.41678E-05   -0.34501E-07  1464   0.327E-03    0.266E-03
DAV:  16    -0.115771083140E+04   -0.36961E-05   -0.24783E-07  1512   0.277E-03    0.355E-03
DAV:  17    -0.115771083476E+04   -0.33613E-05   -0.18459E-07  1464   0.236E-03    0.136E-03
DAV:  18    -0.115771083940E+04   -0.46423E-05   -0.15147E-07  1452   0.105E-03    0.148E-03
DAV:  19    -0.115771084156E+04   -0.21629E-05   -0.10275E-07  1500   0.117E-03    0.146E-03
DAV:  20    -0.115771084315E+04   -0.15872E-05   -0.55129E-08  1416   0.995E-04    0.941E-04
DAV:  21    -0.115771084517E+04   -0.20181E-05   -0.40793E-08  1452   0.622E-04    0.671E-04
DAV:  22    -0.115771084685E+04   -0.16769E-05   -0.32770E-08  1452   0.556E-04    0.827E-04
DAV:  23    -0.115771084866E+04   -0.18091E-05   -0.27611E-08  1428   0.640E-04    0.538E-04
DAV:  24    -0.115771085096E+04   -0.23060E-05   -0.30936E-08  1476   0.446E-04    0.469E-04
DAV:  25    -0.115771085266E+04   -0.17032E-05   -0.30315E-08  1452   0.361E-04    0.525E-04
DAV:  26    -0.115771085398E+04   -0.13148E-05   -0.20896E-08  1476   0.420E-04    0.385E-04
DAV:  27    -0.115771085513E+04   -0.11500E-05   -0.15205E-08  1452   0.321E-04    0.349E-04
DAV:  28    -0.115771085629E+04   -0.11609E-05   -0.17433E-08  1452   0.274E-04    0.327E-04
DAV:  29    -0.115771085726E+04   -0.96737E-06   -0.13008E-08  1440   0.278E-04
 153 F= -.11654111E+04 E0= -.11654079E+04  d E =-.643411E-03  mag=    13.0738
 curvature:  -1.35 expect dE=-0.596E-02 dE for cont linesearch -0.287E-09
 trial: gam= 0.59799 g(F)=  0.440E-02 g(S)=  0.000E+00 ort = 0.486E-05 (trialstep = 0.991E-01)
 search vector abs. value=  0.442E-01
 bond charge predicted
       N       E                     dE             d eps       ncg     rms          rms(c)
DAV:   1    -0.115771093604E+04   -0.79755E-04   -0.10351E-01  1998   0.684E-01    0.863E-02
DAV:   2    -0.115771115061E+04   -0.21457E-03   -0.23375E-03  2766   0.107E-01    0.130E-01
DAV:   3    -0.115771137820E+04   -0.22759E-03   -0.11733E-03  3360   0.107E-01    0.361E-01
DAV:   4    -0.115771112257E+04    0.25564E-03   -0.71438E-04  2988   0.727E-02    0.722E-02
DAV:   5    -0.115771115935E+04   -0.36787E-04   -0.88015E-05  2808   0.469E-02    0.529E-02
DAV:   6    -0.115771116768E+04   -0.83292E-05   -0.64608E-05  2412   0.272E-02    0.547E-02
DAV:   7    -0.115771116369E+04    0.39937E-05   -0.32972E-05  2544   0.311E-02    0.377E-02
DAV:   8    -0.115771116674E+04   -0.30476E-05   -0.21454E-05  2268   0.283E-02    0.281E-02
DAV:   9    -0.115771116884E+04   -0.20981E-05   -0.18057E-05  2292   0.213E-02    0.334E-02
DAV:  10    -0.115771116743E+04    0.14072E-05   -0.59142E-06  1812   0.142E-02    0.234E-02
DAV:  11    -0.115771116910E+04   -0.16690E-05   -0.29384E-06  1668   0.959E-03    0.966E-03
DAV:  12    -0.115771117063E+04   -0.15373E-05   -0.12193E-06  1584   0.656E-03    0.404E-03
DAV:  13    -0.115771117297E+04   -0.23316E-05   -0.41336E-07  1452   0.328E-03    0.456E-03
DAV:  14    -0.115771117383E+04   -0.86235E-06   -0.29798E-07  1476   0.269E-03
 154 F= -.11654115E+04 E0= -.11654083E+04  d E =-.386459E-03  mag=    13.0738
 ZBRENT: can't locate minimum, use default step
 trial-energy change:   -0.000386  1 .order   -0.000397   -0.000436   -0.000358
 step:   0.3963(harm=  0.5534)  dis= 0.00287  next Energy= -1165.412350 (dE=-0.122E-02)
 bond charge predicted
       N       E                     dE             d eps       ncg     rms          rms(c)
DAV:   1    -0.115770944823E+04    0.17247E-02   -0.93150E-01  1992   0.205E+00    0.259E-01
DAV:   2    -0.115771159215E+04   -0.21439E-02   -0.21035E-02  2736   0.321E-01    0.391E-01
DAV:   3    -0.115771356833E+04   -0.19762E-02   -0.10745E-02  3408   0.321E-01    0.107E+00
DAV:   4    -0.115771138734E+04    0.21810E-02   -0.60302E-03  3036   0.219E-01    0.211E-01
DAV:   5    -0.115771156571E+04   -0.17837E-03   -0.77783E-04  3036   0.140E-01    0.158E-01
DAV:   6    -0.115771161675E+04   -0.51040E-04   -0.58457E-04  3120   0.805E-02    0.165E-01
DAV:   7    -0.115771157367E+04    0.43074E-04   -0.28481E-04  3084   0.912E-02    0.113E-01
DAV:   8    -0.115771158787E+04   -0.14192E-04   -0.18250E-04  3216   0.834E-02    0.850E-02
DAV:   9    -0.115771159780E+04   -0.99301E-05   -0.13724E-04  3108   0.616E-02    0.963E-02
DAV:  10    -0.115771158701E+04    0.10790E-04   -0.40183E-05  2676   0.401E-02    0.699E-02
DAV:  11    -0.115771159565E+04   -0.86462E-05   -0.27892E-05  2100   0.289E-02    0.366E-02
DAV:  12    -0.115771160238E+04   -0.67277E-05   -0.14962E-05  1980   0.196E-02    0.119E-02
DAV:  13    -0.115771161435E+04   -0.11973E-04   -0.61814E-06  1800   0.107E-02    0.159E-02
DAV:  14    -0.115771162181E+04   -0.74525E-05   -0.32316E-06  1584   0.842E-03    0.454E-03
DAV:  15    -0.115771163513E+04   -0.13325E-04   -0.67862E-07  1488   0.442E-03    0.548E-03
DAV:  16    -0.115771164561E+04   -0.10477E-04   -0.71685E-07  1464   0.484E-03    0.500E-03
DAV:  17    -0.115771165473E+04   -0.91199E-05   -0.45894E-07  1524   0.362E-03    0.277E-03
DAV:  18    -0.115771166197E+04   -0.72458E-05   -0.32571E-07  1476   0.208E-03    0.268E-03
DAV:  19    -0.115771166554E+04   -0.35657E-05   -0.20712E-07  1464   0.144E-03    0.247E-03
DAV:  20    -0.115771166830E+04   -0.27624E-05   -0.11686E-07  1404   0.124E-03    0.199E-03
DAV:  21    -0.115771167366E+04   -0.53539E-05   -0.92940E-08  1440   0.856E-04    0.138E-03
DAV:  22    -0.115771167892E+04   -0.52622E-05   -0.84023E-08  1512   0.803E-04    0.141E-03
DAV:  23    -0.115771168237E+04   -0.34484E-05   -0.66279E-08  1464   0.946E-04    0.859E-04
DAV:  24    -0.115771168657E+04   -0.42031E-05   -0.66454E-08  1428   0.523E-04    0.735E-04
DAV:  25    -0.115771168936E+04   -0.27931E-05   -0.51615E-08  1488   0.460E-04    0.709E-04
DAV:  26    -0.115771169267E+04   -0.33058E-05   -0.35429E-08  1428   0.474E-04    0.675E-04
DAV:  27    -0.115771169596E+04   -0.32879E-05   -0.35346E-08  1476   0.532E-04    0.642E-04
DAV:  28    -0.115771170086E+04   -0.49000E-05   -0.69349E-08  1428   0.436E-04    0.537E-04
DAV:  29    -0.115771170371E+04   -0.28506E-05   -0.57138E-08  1476   0.427E-04    0.543E-04
DAV:  30    -0.115771170608E+04   -0.23770E-05   -0.52054E-08  1452   0.450E-04    0.449E-04
DAV:  31    -0.115771170808E+04   -0.19981E-05   -0.48037E-08  1464   0.396E-04    0.347E-04
DAV:  32    -0.115771170987E+04   -0.17881E-05   -0.55973E-08  1464   0.297E-04    0.320E-04
DAV:  33    -0.115771171064E+04   -0.77075E-06   -0.32158E-08  1500   0.311E-04
 155 F= -.11654123E+04 E0= -.11654090E+04  d E =-.112776E-02  mag=    13.0737
 curvature:  -2.45 expect dE=-0.611E-02 dE for cont linesearch -0.883E-04
 ZBRENT: increasing intervall
 opt :   0.9909  next Energy= -1165.411611 (dE=-0.480E-03)
 bond charge predicted
       N       E                     dE             d eps       ncg     rms          rms(c)
DAV:   1    -0.115770166371E+04    0.10046E-01   -0.37246E+00  1992   0.410E+00    0.519E-01
DAV:   2    -0.115771058119E+04   -0.89175E-02   -0.84301E-02  2772   0.641E-01    0.780E-01
DAV:   3    -0.115771833833E+04   -0.77571E-02   -0.44053E-02  3432   0.639E-01    0.209E+00
DAV:   4    -0.115770981072E+04    0.85276E-02   -0.21529E-02  3060   0.437E-01    0.397E-01
DAV:   5    -0.115771034690E+04   -0.53618E-03   -0.29266E-03  3048   0.277E-01    0.311E-01
DAV:   6    -0.115771052936E+04   -0.18246E-03   -0.23896E-03  3108   0.158E-01    0.338E-01
DAV:   7    -0.115771035363E+04    0.17574E-03   -0.12066E-03  3108   0.179E-01    0.230E-01
DAV:   8    -0.115771039740E+04   -0.43772E-04   -0.78339E-04  3180   0.168E-01    0.173E-01
DAV:   9    -0.115771041038E+04   -0.12979E-04   -0.66666E-04  3120   0.127E-01    0.193E-01
DAV:  10    -0.115771036719E+04    0.43188E-04   -0.24063E-04  3024   0.817E-02    0.133E-01
DAV:  11    -0.115771037923E+04   -0.12037E-04   -0.13114E-04  2808   0.555E-02    0.567E-02
DAV:  12    -0.115771039863E+04   -0.19405E-04   -0.47804E-05  2496   0.367E-02    0.236E-02
DAV:  13    -0.115771043358E+04   -0.34944E-04   -0.10293E-05  1884   0.166E-02    0.173E-02
DAV:  14    -0.115771045220E+04   -0.18622E-04   -0.68935E-06  1848   0.139E-02    0.161E-02
DAV:  15    -0.115771047928E+04   -0.27077E-04   -0.42318E-06  1728   0.102E-02    0.121E-02
DAV:  16    -0.115771050814E+04   -0.28863E-04   -0.25127E-06  1740   0.929E-03    0.116E-02
DAV:  17    -0.115771052421E+04   -0.16071E-04   -0.14889E-06  1620   0.749E-03    0.545E-03
DAV:  18    -0.115771054187E+04   -0.17660E-04   -0.67628E-07  1500   0.347E-03    0.406E-03
DAV:  19    -0.115771055267E+04   -0.10800E-04   -0.44451E-07  1512   0.283E-03    0.430E-03
DAV:  20    -0.115771056194E+04   -0.92752E-05   -0.31037E-07  1464   0.266E-03    0.318E-03
DAV:  21    -0.115771057818E+04   -0.16232E-04   -0.32726E-07  1512   0.162E-03    0.259E-03
DAV:  22    -0.115771058677E+04   -0.85973E-05   -0.21560E-07  1476   0.161E-03    0.254E-03
DAV:  23    -0.115771059527E+04   -0.84951E-05   -0.18174E-07  1464   0.140E-03    0.157E-03
DAV:  24    -0.115771060522E+04   -0.99558E-05   -0.18293E-07  1464   0.760E-04    0.145E-03
DAV:  25    -0.115771061308E+04   -0.78588E-05   -0.13186E-07  1488   0.706E-04    0.143E-03
DAV:  26    -0.115771062331E+04   -0.10230E-04   -0.11929E-07  1476   0.896E-04    0.140E-03
DAV:  27    -0.115771063451E+04   -0.11199E-04   -0.15668E-07  1512   0.979E-04    0.113E-03
DAV:  28    -0.115771064907E+04   -0.14560E-04   -0.28201E-07  1524   0.815E-04    0.985E-04
DAV:  29    -0.115771065391E+04   -0.48345E-05   -0.16621E-07  1536   0.695E-04    0.777E-04
DAV:  30    -0.115771066112E+04   -0.72080E-05   -0.16675E-07  1464   0.660E-04    0.812E-04
DAV:  31    -0.115771066463E+04   -0.35125E-05   -0.11774E-07  1488   0.747E-04    0.632E-04
DAV:  32    -0.115771066938E+04   -0.47519E-05   -0.15076E-07  1464   0.543E-04    0.591E-04
DAV:  33    -0.115771067111E+04   -0.17258E-05   -0.93037E-08  1524   0.543E-04    0.449E-04
DAV:  34    -0.115771067380E+04   -0.26934E-05   -0.10179E-07  1404   0.422E-04    0.439E-04
DAV:  35    -0.115771067586E+04   -0.20606E-05   -0.82065E-08  1476   0.453E-04    0.318E-04
DAV:  36    -0.115771067731E+04   -0.14528E-05   -0.89301E-08  1428   0.347E-04    0.326E-04
DAV:  37    -0.115771067784E+04   -0.52877E-06   -0.59213E-08  1476   0.376E-04
 156 F= -.11654116E+04 E0= -.11654084E+04  d E =-.481570E-03  mag=    13.0735
 curvature:  17.96 expect dE= 0.289E+00 dE for cont linesearch  0.477E-02
 ZBRENT: bracketing found
 ZBRENT: interpolating
 opt :   0.5564  next Energy= -1165.412360 (dE=-0.123E-02)
 bond charge predicted
       N       E                     dE             d eps       ncg     rms          rms(c)
DAV:   1    -0.115770690926E+04    0.37681E-02   -0.19899E+00  1992   0.300E+00    0.378E-01
DAV:   2    -0.115771158210E+04   -0.46728E-02   -0.44789E-02  2784   0.469E-01    0.565E-01
DAV:   3    -0.115771587554E+04   -0.42934E-02   -0.21057E-02  3456   0.471E-01    0.163E+00
DAV:   4    -0.115771111955E+04    0.47560E-02   -0.15884E-02  3000   0.315E-01    0.335E-01
DAV:   5    -0.115771149312E+04   -0.37357E-03   -0.17753E-03  3012   0.211E-01    0.233E-01
DAV:   6    -0.115771160197E+04   -0.10885E-03   -0.12399E-03  3180   0.121E-01    0.239E-01
DAV:   7    -0.115771150755E+04    0.94414E-04   -0.62367E-04  3168   0.135E-01    0.161E-01
DAV:   8    -0.115771154021E+04   -0.32654E-04   -0.42428E-04  3228   0.122E-01    0.123E-01
DAV:   9    -0.115771155252E+04   -0.12310E-04   -0.33498E-04  3108   0.893E-02    0.142E-01
DAV:  10    -0.115771152784E+04    0.24680E-04   -0.11409E-04  2988   0.599E-02    0.101E-01
DAV:  11    -0.115771153667E+04   -0.88263E-05   -0.53237E-05  2208   0.413E-02    0.437E-02
DAV:  12    -0.115771154961E+04   -0.12946E-04   -0.22090E-05  2340   0.279E-02    0.170E-02
DAV:  13    -0.115771156992E+04   -0.20305E-04   -0.70336E-06  1896   0.137E-02    0.219E-02
DAV:  14    -0.115771157608E+04   -0.61643E-05   -0.53000E-06  1824   0.115E-02    0.894E-03
DAV:  15    -0.115771159307E+04   -0.16985E-04   -0.17040E-06  1536   0.620E-03    0.100E-02
DAV:  16    -0.115771160163E+04   -0.85660E-05   -0.16168E-06  1656   0.699E-03    0.644E-03
DAV:  17    -0.115771161475E+04   -0.13116E-04   -0.83259E-07  1464   0.440E-03    0.511E-03
DAV:  18    -0.115771162643E+04   -0.11684E-04   -0.51467E-07  1560   0.335E-03    0.528E-03
DAV:  19    -0.115771163542E+04   -0.89912E-05   -0.43333E-07  1464   0.304E-03    0.471E-03
DAV:  20    -0.115771164173E+04   -0.63075E-05   -0.29711E-07  1512   0.257E-03    0.275E-03
DAV:  21    -0.115771165031E+04   -0.85838E-05   -0.25680E-07  1500   0.149E-03    0.192E-03
DAV:  22    -0.115771165540E+04   -0.50894E-05   -0.16192E-07  1488   0.138E-03    0.190E-03
DAV:  23    -0.115771166002E+04   -0.46148E-05   -0.11744E-07  1440   0.124E-03    0.122E-03
DAV:  24    -0.115771166784E+04   -0.78248E-05   -0.13490E-07  1500   0.648E-04    0.929E-04
DAV:  25    -0.115771167222E+04   -0.43769E-05   -0.91276E-08  1464   0.575E-04    0.807E-04
DAV:  26    -0.115771167692E+04   -0.47015E-05   -0.65462E-08  1452   0.595E-04    0.781E-04
DAV:  27    -0.115771168123E+04   -0.43081E-05   -0.57786E-08  1464   0.654E-04    0.673E-04
DAV:  28    -0.115771168656E+04   -0.53275E-05   -0.79317E-08  1464   0.509E-04    0.602E-04
DAV:  29    -0.115771169046E+04   -0.39002E-05   -0.78229E-08  1500   0.411E-04    0.643E-04
DAV:  30    -0.115771169480E+04   -0.43390E-05   -0.76406E-08  1452   0.468E-04    0.565E-04
DAV:  31    -0.115771169718E+04   -0.23830E-05   -0.59064E-08  1488   0.475E-04    0.446E-04
DAV:  32    -0.115771170002E+04   -0.28370E-05   -0.71315E-08  1464   0.415E-04    0.385E-04
DAV:  33    -0.115771170179E+04   -0.17744E-05   -0.59964E-08  1476   0.365E-04    0.326E-04
DAV:  34    -0.115771170304E+04   -0.12441E-05   -0.47981E-08  1428   0.312E-04    0.298E-04
DAV:  35    -0.115771170402E+04   -0.98015E-06   -0.36660E-08  1452   0.349E-04
 157 F= -.11654124E+04 E0= -.11654091E+04  d E =-.122809E-02  mag=    13.0736
 curvature:  -0.38 expect dE=-0.160E-02 dE for cont linesearch -0.945E-11
 trial: gam= 0.96163 g(F)=  0.422E-02 g(S)=  0.000E+00 ort =-0.105E-05 (trialstep = 0.187E+00)
 search vector abs. value=  0.451E-01
 bond charge predicted
       N       E                     dE             d eps       ncg     rms          rms(c)
DAV:   1    -0.115771139926E+04    0.30378E-03   -0.37731E-01  1992   0.130E+00    0.162E-01
DAV:   2    -0.115771222736E+04   -0.82810E-03   -0.84449E-03  2844   0.201E-01    0.226E-01
DAV:   3    -0.115771299375E+04   -0.76639E-03   -0.24406E-03  3336   0.204E-01    0.634E-01
DAV:   4    -0.115771222360E+04    0.77015E-03   -0.19729E-03  3060   0.133E-01    0.189E-01
DAV:   5    -0.115771223183E+04   -0.82310E-05   -0.55837E-04  3072   0.820E-02    0.980E-02
DAV:   6    -0.115771226950E+04   -0.37672E-04   -0.23480E-04  3132   0.606E-02    0.967E-02
DAV:   7    -0.115771225236E+04    0.17141E-04   -0.10246E-04  3012   0.576E-02    0.605E-02
DAV:   8    -0.115771226857E+04   -0.16203E-04   -0.66222E-05  2940   0.520E-02    0.668E-02
DAV:   9    -0.115771226514E+04    0.34320E-05   -0.72209E-05  2844   0.411E-02    0.664E-02
DAV:  10    -0.115771226163E+04    0.35001E-05   -0.35381E-05  2028   0.265E-02    0.452E-02
DAV:  11    -0.115771226323E+04   -0.15965E-05   -0.87704E-06  1992   0.173E-02    0.125E-02
DAV:  12    -0.115771226659E+04   -0.33575E-05   -0.35622E-06  1896   0.113E-02    0.994E-03
DAV:  13    -0.115771226993E+04   -0.33450E-05   -0.12898E-06  1656   0.727E-03    0.875E-03
DAV:  14    -0.115771227216E+04   -0.22233E-05   -0.67003E-07  1524   0.501E-03    0.359E-03
DAV:  15    -0.115771227549E+04   -0.33289E-05   -0.30626E-07  1428   0.281E-03    0.324E-03
DAV:  16    -0.115771227810E+04   -0.26144E-05   -0.32644E-07  1476   0.268E-03    0.329E-03
DAV:  17    -0.115771228076E+04   -0.26595E-05   -0.20524E-07  1476   0.216E-03    0.190E-03
DAV:  18    -0.115771228337E+04   -0.26098E-05   -0.13422E-07  1440   0.152E-03    0.164E-03
DAV:  19    -0.115771228490E+04   -0.15320E-05   -0.80593E-08  1464   0.980E-04    0.141E-03
DAV:  20    -0.115771228581E+04   -0.91144E-06   -0.52051E-08  1392   0.939E-04
 158 F= -.11654130E+04 E0= -.11654097E+04  d E =-.599411E-03  mag=    13.0739
 trial-energy change:   -0.000599  1 .order   -0.000611   -0.000787   -0.000434
 step:   0.4159(harm=  0.4159)  dis= 0.00296  next Energy= -1165.413236 (dE=-0.876E-03)
 bond charge predicted
       N       E                     dE             d eps       ncg     rms          rms(c)
DAV:   1    -0.115771117990E+04    0.11050E-02   -0.56732E-01  1992   0.160E+00    0.199E-01
DAV:   2    -0.115771244161E+04   -0.12617E-02   -0.12712E-02  2772   0.247E-01    0.272E-01
DAV:   3    -0.115771358883E+04   -0.11472E-02   -0.35838E-03  3336   0.251E-01    0.775E-01
DAV:   4    -0.115771243180E+04    0.11570E-02   -0.28446E-03  3024   0.163E-01    0.230E-01
DAV:   5    -0.115771243203E+04   -0.23046E-06   -0.85119E-04  3108   0.997E-02    0.122E-01
DAV:   6    -0.115771248105E+04   -0.49020E-04   -0.35692E-04  3192   0.746E-02    0.120E-01
DAV:   7    -0.115771244807E+04    0.32986E-04   -0.15698E-04  3096   0.711E-02    0.736E-02
DAV:   8    -0.115771247230E+04   -0.24238E-04   -0.10157E-04  3024   0.638E-02    0.832E-02
DAV:   9    -0.115771246779E+04    0.45085E-05   -0.11097E-04  2964   0.507E-02    0.814E-02
DAV:  10    -0.115771246419E+04    0.36044E-05   -0.53638E-05  2232   0.326E-02    0.555E-02
DAV:  11    -0.115771246908E+04   -0.48930E-05   -0.13412E-05  2040   0.213E-02    0.154E-02
DAV:  12    -0.115771247545E+04   -0.63706E-05   -0.53767E-06  1920   0.138E-02    0.123E-02
DAV:  13    -0.115771248266E+04   -0.72051E-05   -0.19796E-06  1740   0.883E-03    0.109E-02
DAV:  14    -0.115771248765E+04   -0.49879E-05   -0.10369E-06  1584   0.619E-03    0.442E-03
DAV:  15    -0.115771249477E+04   -0.71209E-05   -0.48361E-07  1452   0.348E-03    0.414E-03
DAV:  16    -0.115771250022E+04   -0.54521E-05   -0.51803E-07  1464   0.331E-03    0.411E-03
DAV:  17    -0.115771250585E+04   -0.56349E-05   -0.32200E-07  1476   0.263E-03    0.240E-03
DAV:  18    -0.115771251153E+04   -0.56787E-05   -0.23014E-07  1476   0.184E-03    0.219E-03
DAV:  19    -0.115771251490E+04   -0.33714E-05   -0.15541E-07  1464   0.123E-03    0.184E-03
DAV:  20    -0.115771251694E+04   -0.20320E-05   -0.10070E-07  1428   0.116E-03    0.164E-03
DAV:  21    -0.115771252046E+04   -0.35246E-05   -0.70055E-08  1416   0.939E-04    0.122E-03
DAV:  22    -0.115771252520E+04   -0.47393E-05   -0.92521E-08  1488   0.710E-04    0.143E-03
DAV:  23    -0.115771252776E+04   -0.25607E-05   -0.62230E-08  1476   0.909E-04    0.113E-03
DAV:  24    -0.115771253184E+04   -0.40744E-05   -0.69838E-08  1428   0.687E-04    0.909E-04
DAV:  25    -0.115771253496E+04   -0.31208E-05   -0.76323E-08  1500   0.595E-04    0.828E-04
DAV:  26    -0.115771253687E+04   -0.19169E-05   -0.54551E-08  1476   0.523E-04    0.795E-04
DAV:  27    -0.115771253884E+04   -0.19678E-05   -0.47265E-08  1440   0.622E-04    0.699E-04
DAV:  28    -0.115771254117E+04   -0.23314E-05   -0.60822E-08  1488   0.507E-04    0.517E-04
DAV:  29    -0.115771254252E+04   -0.13514E-05   -0.54984E-08  1464   0.448E-04    0.564E-04
DAV:  30    -0.115771254308E+04   -0.55754E-06   -0.36736E-08  1440   0.383E-04
 159 F= -.11654132E+04 E0= -.11654100E+04  d E =-.878154E-03  mag=    13.0744
 curvature:  -2.23 expect dE=-0.154E-01 dE for cont linesearch -0.154E-07
 trial: gam= 1.63593 g(F)=  0.691E-02 g(S)=  0.000E+00 ort = 0.177E-04 (trialstep = 0.822E-01)
 search vector abs. value=  0.128E+00
 bond charge predicted
       N       E                     dE             d eps       ncg     rms          rms(c)
DAV:   1    -0.115771254266E+04   -0.13300E-06   -0.20265E-01  2004   0.960E-01    0.120E-01
DAV:   2    -0.115771298204E+04   -0.43938E-03   -0.46471E-03  2772   0.150E-01    0.165E-01
DAV:   3    -0.115771337913E+04   -0.39709E-03   -0.98964E-04  3240   0.153E-01    0.446E-01
DAV:   4    -0.115771299145E+04    0.38768E-03   -0.79898E-04  3072   0.964E-02    0.149E-01
DAV:   5    -0.115771298156E+04    0.98864E-05   -0.32436E-04  3012   0.542E-02    0.693E-02
DAV:   6    -0.115771300965E+04   -0.28087E-04   -0.12434E-04  2904   0.463E-02    0.747E-02
DAV:   7    -0.115771299911E+04    0.10546E-04   -0.68794E-05  2832   0.467E-02    0.518E-02
DAV:   8    -0.115771300591E+04   -0.68029E-05   -0.61054E-05  2832   0.437E-02    0.446E-02
DAV:   9    -0.115771300745E+04   -0.15401E-05   -0.57892E-05  2532   0.342E-02    0.480E-02
DAV:  10    -0.115771300431E+04    0.31393E-05   -0.24510E-05  1968   0.231E-02    0.307E-02
DAV:  11    -0.115771300564E+04   -0.13340E-05   -0.49348E-06  1812   0.141E-02    0.171E-02
DAV:  12    -0.115771300866E+04   -0.30129E-05   -0.22400E-06  1740   0.997E-03    0.838E-03
DAV:  13    -0.115771301094E+04   -0.22797E-05   -0.13671E-06  1644   0.656E-03    0.713E-03
DAV:  14    -0.115771301350E+04   -0.25667E-05   -0.57234E-07  1488   0.424E-03    0.399E-03
DAV:  15    -0.115771301603E+04   -0.25255E-05   -0.25849E-07  1452   0.295E-03    0.262E-03
DAV:  16    -0.115771301855E+04   -0.25173E-05   -0.16816E-07  1488   0.223E-03    0.307E-03
DAV:  17    -0.115771302079E+04   -0.22452E-05   -0.13494E-07  1452   0.203E-03    0.140E-03
DAV:  18    -0.115771302375E+04   -0.29631E-05   -0.11265E-07  1452   0.970E-04    0.137E-03
DAV:  19    -0.115771302506E+04   -0.13106E-05   -0.72133E-08  1464   0.966E-04    0.136E-03
DAV:  20    -0.115771302601E+04   -0.94713E-06   -0.40046E-08  1428   0.842E-04
 160 F= -.11654137E+04 E0= -.11654105E+04  d E =-.475601E-03  mag=    13.0744
 trial-energy change:   -0.000476  1 .order   -0.000486   -0.000570   -0.000402
 step:   0.2780(harm=  0.2780)  dis= 0.00327  next Energy= -1165.414202 (dE=-0.964E-03)
 bond charge predicted
       N       E                     dE             d eps       ncg     rms          rms(c)
DAV:   1    -0.115771071996E+04    0.23051E-02   -0.11508E+00  1992   0.229E+00    0.286E-01
DAV:   2    -0.115771340029E+04   -0.26803E-02   -0.26444E-02  2760   0.357E-01    0.390E-01
DAV:   3    -0.115771560013E+04   -0.21998E-02   -0.57250E-03  3336   0.365E-01    0.106E+00
DAV:   4    -0.115771341582E+04    0.21843E-02   -0.41343E-03  3072   0.230E-01    0.343E-01
DAV:   5    -0.115771333288E+04    0.82935E-04   -0.18007E-03  3096   0.128E-01    0.170E-01
DAV:   6    -0.115771344645E+04   -0.11356E-03   -0.73335E-04  3180   0.110E-01    0.179E-01
DAV:   7    -0.115771337928E+04    0.67168E-04   -0.39532E-04  3048   0.111E-01    0.124E-01
DAV:   8    -0.115771340454E+04   -0.25262E-04   -0.35524E-04  3156   0.104E-01    0.106E-01
DAV:   9    -0.115771340961E+04   -0.50692E-05   -0.33910E-04  3120   0.814E-02    0.116E-01
DAV:  10    -0.115771339133E+04    0.18278E-04   -0.14428E-04  2964   0.551E-02    0.735E-02
DAV:  11    -0.115771339508E+04   -0.37469E-05   -0.27500E-05  2064   0.337E-02    0.400E-02
DAV:  12    -0.115771340788E+04   -0.12801E-04   -0.12273E-05  1980   0.230E-02    0.205E-02
DAV:  13    -0.115771341777E+04   -0.98919E-05   -0.76750E-06  1944   0.150E-02    0.176E-02
DAV:  14    -0.115771342947E+04   -0.11699E-04   -0.30076E-06  1776   0.983E-03    0.946E-03
DAV:  15    -0.115771344165E+04   -0.12175E-04   -0.13755E-06  1668   0.702E-03    0.654E-03
DAV:  16    -0.115771345329E+04   -0.11647E-04   -0.78121E-07  1464   0.527E-03    0.729E-03
DAV:  17    -0.115771346311E+04   -0.98156E-05   -0.62271E-07  1512   0.465E-03    0.326E-03
DAV:  18    -0.115771347655E+04   -0.13442E-04   -0.52978E-07  1476   0.211E-03    0.368E-03
DAV:  19    -0.115771348283E+04   -0.62793E-05   -0.34562E-07  1536   0.235E-03    0.331E-03
DAV:  20    -0.115771348709E+04   -0.42612E-05   -0.20359E-07  1464   0.190E-03    0.219E-03
DAV:  21    -0.115771349167E+04   -0.45740E-05   -0.15046E-07  1476   0.106E-03    0.204E-03
DAV:  22    -0.115771349742E+04   -0.57569E-05   -0.13213E-07  1464   0.107E-03    0.234E-03
DAV:  23    -0.115771350367E+04   -0.62447E-05   -0.11893E-07  1464   0.144E-03    0.193E-03
DAV:  24    -0.115771351413E+04   -0.10463E-04   -0.19013E-07  1512   0.999E-04    0.152E-03
DAV:  25    -0.115771352219E+04   -0.80592E-05   -0.18619E-07  1500   0.104E-03    0.172E-03
DAV:  26    -0.115771352590E+04   -0.37081E-05   -0.14244E-07  1464   0.119E-03    0.107E-03
DAV:  27    -0.115771353045E+04   -0.45493E-05   -0.13059E-07  1476   0.823E-04    0.105E-03
DAV:  28    -0.115771353417E+04   -0.37222E-05   -0.14483E-07  1464   0.631E-04    0.863E-04
DAV:  29    -0.115771353649E+04   -0.23211E-05   -0.97445E-08  1440   0.645E-04    0.824E-04
DAV:  30    -0.115771353857E+04   -0.20827E-05   -0.82684E-08  1500   0.679E-04    0.765E-04
DAV:  31    -0.115771354076E+04   -0.21858E-05   -0.94151E-08  1440   0.613E-04    0.682E-04
DAV:  32    -0.115771354210E+04   -0.13385E-05   -0.94734E-08  1476   0.532E-04    0.650E-04
DAV:  33    -0.115771354243E+04   -0.33572E-06   -0.60418E-08  1512   0.474E-04
 161 F= -.11654142E+04 E0= -.11654110E+04  d E =-.973779E-03  mag=    13.0745
 curvature:  -2.56 expect dE=-0.149E-01 dE for cont linesearch -0.111E-06
 trial: gam= 0.83737 g(F)=  0.581E-02 g(S)=  0.000E+00 ort = 0.745E-04 (trialstep = 0.121E+00)
 search vector abs. value=  0.955E-01
 bond charge predicted
       N       E                     dE             d eps       ncg     rms          rms(c)
DAV:   1    -0.115771332458E+04    0.21752E-03   -0.34164E-01  2004   0.123E+00    0.151E-01
DAV:   2    -0.115771404992E+04   -0.72534E-03   -0.75136E-03  2772   0.191E-01    0.208E-01
DAV:   3    -0.115771463806E+04   -0.58814E-03   -0.17233E-03  3336   0.192E-01    0.549E-01
DAV:   4    -0.115771407225E+04    0.56581E-03   -0.14806E-03  3012   0.122E-01    0.199E-01
DAV:   5    -0.115771404766E+04    0.24589E-04   -0.62930E-04  3048   0.839E-02    0.101E-01
DAV:   6    -0.115771409713E+04   -0.49464E-04   -0.29979E-04  3132   0.681E-02    0.115E-01
DAV:   7    -0.115771406279E+04    0.34340E-04   -0.13851E-04  3012   0.661E-02    0.621E-02
DAV:   8    -0.115771407162E+04   -0.88344E-05   -0.85684E-05  2964   0.513E-02    0.480E-02
DAV:   9    -0.115771407423E+04   -0.26125E-05   -0.76739E-05  2688   0.390E-02    0.556E-02
DAV:  10    -0.115771407066E+04    0.35776E-05   -0.34483E-05  2184   0.268E-02    0.373E-02
DAV:  11    -0.115771407210E+04   -0.14408E-05   -0.77077E-06  1848   0.171E-02    0.208E-02
DAV:  12    -0.115771407659E+04   -0.44983E-05   -0.36446E-06  1788   0.122E-02    0.118E-02
DAV:  13    -0.115771407938E+04   -0.27818E-05   -0.18704E-06  1692   0.814E-03    0.840E-03
DAV:  14    -0.115771408311E+04   -0.37304E-05   -0.70696E-07  1488   0.500E-03    0.449E-03
DAV:  15    -0.115771408679E+04   -0.36819E-05   -0.34455E-07  1464   0.366E-03    0.352E-03
DAV:  16    -0.115771408999E+04   -0.32042E-05   -0.24451E-07  1488   0.296E-03    0.386E-03
DAV:  17    -0.115771409344E+04   -0.34471E-05   -0.19294E-07  1488   0.235E-03    0.189E-03
DAV:  18    -0.115771409680E+04   -0.33645E-05   -0.16553E-07  1464   0.106E-03    0.192E-03
DAV:  19    -0.115771409806E+04   -0.12547E-05   -0.88981E-08  1464   0.116E-03    0.172E-03
DAV:  20    -0.115771409951E+04   -0.14531E-05   -0.45428E-08  1428   0.860E-04    0.135E-03
DAV:  21    -0.115771410199E+04   -0.24775E-05   -0.44104E-08  1440   0.604E-04    0.118E-03
DAV:  22    -0.115771410455E+04   -0.25607E-05   -0.43863E-08  1452   0.638E-04    0.126E-03
DAV:  23    -0.115771410661E+04   -0.20551E-05   -0.40331E-08  1464   0.843E-04    0.976E-04
DAV:  24    -0.115771410935E+04   -0.27423E-05   -0.48123E-08  1464   0.585E-04    0.733E-04
DAV:  25    -0.115771411121E+04   -0.18583E-05   -0.45898E-08  1464   0.585E-04    0.877E-04
DAV:  26    -0.115771411231E+04   -0.10997E-05   -0.34625E-08  1476   0.646E-04    0.563E-04
DAV:  27    -0.115771411372E+04   -0.14176E-05   -0.34978E-08  1428   0.428E-04    0.555E-04
DAV:  28    -0.115771411468E+04   -0.96178E-06   -0.32279E-08  1476   0.365E-04
 162 F= -.11654148E+04 E0= -.11654116E+04  d E =-.543819E-03  mag=    13.0742
 trial-energy change:   -0.000544  1 .order   -0.000545   -0.000712   -0.000379
 step:   0.2591(harm=  0.2591)  dis= 0.00257  next Energy= -1165.414972 (dE=-0.760E-03)
 bond charge predicted
       N       E                     dE             d eps       ncg     rms          rms(c)
DAV:   1    -0.115771334181E+04    0.77191E-03   -0.43978E-01  1998   0.140E+00    0.171E-01
DAV:   2    -0.115771428418E+04   -0.94237E-03   -0.96645E-03  2754   0.217E-01    0.236E-01
DAV:   3    -0.115771503695E+04   -0.75277E-03   -0.22519E-03  3360   0.218E-01    0.623E-01
DAV:   4    -0.115771430862E+04    0.72833E-03   -0.19101E-03  3048   0.138E-01    0.224E-01
DAV:   5    -0.115771427588E+04    0.32745E-04   -0.79193E-04  3024   0.957E-02    0.115E-01
DAV:   6    -0.115771433637E+04   -0.60495E-04   -0.38187E-04  3168   0.771E-02    0.131E-01
DAV:   7    -0.115771429148E+04    0.44890E-04   -0.18026E-04  3048   0.750E-02    0.704E-02
DAV:   8    -0.115771430188E+04   -0.10395E-04   -0.10989E-04  3072   0.582E-02    0.544E-02
DAV:   9    -0.115771430559E+04   -0.37179E-05   -0.99670E-05  2868   0.442E-02    0.639E-02
DAV:  10    -0.115771430115E+04    0.44447E-05   -0.44725E-05  2184   0.304E-02    0.431E-02
DAV:  11    -0.115771430286E+04   -0.17107E-05   -0.99076E-06  1920   0.195E-02    0.228E-02
DAV:  12    -0.115771430891E+04   -0.60464E-05   -0.45441E-06  1812   0.139E-02    0.138E-02
DAV:  13    -0.115771431255E+04   -0.36441E-05   -0.23546E-06  1716   0.920E-03    0.101E-02
DAV:  14    -0.115771431745E+04   -0.49033E-05   -0.88615E-07  1512   0.569E-03    0.514E-03
DAV:  15    -0.115771432241E+04   -0.49528E-05   -0.42414E-07  1500   0.413E-03    0.399E-03
DAV:  16    -0.115771432664E+04   -0.42308E-05   -0.31263E-07  1488   0.333E-03    0.430E-03
DAV:  17    -0.115771433115E+04   -0.45076E-05   -0.24021E-07  1464   0.261E-03    0.209E-03
DAV:  18    -0.115771433546E+04   -0.43166E-05   -0.21014E-07  1488   0.118E-03    0.223E-03
DAV:  19    -0.115771433719E+04   -0.17260E-05   -0.11635E-07  1476   0.133E-03    0.198E-03
DAV:  20    -0.115771433916E+04   -0.19749E-05   -0.61037E-08  1440   0.970E-04    0.158E-03
DAV:  21    -0.115771434253E+04   -0.33658E-05   -0.59507E-08  1452   0.694E-04    0.136E-03
DAV:  22    -0.115771434602E+04   -0.34932E-05   -0.61272E-08  1476   0.703E-04    0.140E-03
DAV:  23    -0.115771434884E+04   -0.28214E-05   -0.57896E-08  1464   0.955E-04    0.111E-03
DAV:  24    -0.115771435259E+04   -0.37476E-05   -0.67424E-08  1440   0.697E-04    0.813E-04
DAV:  25    -0.115771435555E+04   -0.29625E-05   -0.78168E-08  1464   0.620E-04    0.875E-04
DAV:  26    -0.115771435681E+04   -0.12600E-05   -0.52275E-08  1500   0.707E-04    0.701E-04
DAV:  27    -0.115771435832E+04   -0.15069E-05   -0.43132E-08  1416   0.542E-04    0.624E-04
DAV:  28    -0.115771435989E+04   -0.15741E-05   -0.52794E-08  1464   0.438E-04    0.513E-04
DAV:  29    -0.115771436067E+04   -0.77908E-06   -0.36195E-08  1452   0.406E-04
 163 F= -.11654150E+04 E0= -.11654118E+04  d E =-.756906E-03  mag=    13.0739
 curvature:  -2.11 expect dE=-0.147E-01 dE for cont linesearch -0.207E-08
 trial: gam= 1.22332 g(F)=  0.698E-02 g(S)=  0.000E+00 ort =-0.969E-05 (trialstep = 0.949E-01)
 search vector abs. value=  0.150E+00
 bond charge predicted
       N       E                     dE             d eps       ncg     rms          rms(c)
DAV:   1    -0.115771417589E+04    0.18400E-03   -0.31445E-01  1998   0.119E+00    0.148E-01
DAV:   2    -0.115771485818E+04   -0.68229E-03   -0.71947E-03  2724   0.183E-01    0.192E-01
DAV:   3    -0.115771551965E+04   -0.66147E-03   -0.20956E-03  3324   0.186E-01    0.582E-01
DAV:   4    -0.115771484130E+04    0.67835E-03   -0.15720E-03  2964   0.120E-01    0.156E-01
DAV:   5    -0.115771487434E+04   -0.33041E-04   -0.36175E-04  3000   0.705E-02    0.844E-02
DAV:   6    -0.115771490644E+04   -0.32099E-04   -0.18924E-04  2940   0.517E-02    0.103E-01
DAV:   7    -0.115771488597E+04    0.20466E-04   -0.98289E-05  2844   0.543E-02    0.537E-02
DAV:   8    -0.115771491297E+04   -0.26996E-04   -0.75931E-05  3048   0.513E-02    0.719E-02
DAV:   9    -0.115771490161E+04    0.11355E-04   -0.78457E-05  2772   0.417E-02    0.617E-02
DAV:  10    -0.115771490038E+04    0.12344E-05   -0.31590E-05  2256   0.248E-02    0.439E-02
DAV:  11    -0.115771490212E+04   -0.17448E-05   -0.81770E-06  1932   0.179E-02    0.124E-02
DAV:  12    -0.115771490638E+04   -0.42585E-05   -0.28069E-06  1800   0.114E-02    0.112E-02
DAV:  13    -0.115771490967E+04   -0.32902E-05   -0.13338E-06  1572   0.740E-03    0.714E-03
DAV:  14    -0.115771491273E+04   -0.30589E-05   -0.68338E-07  1512   0.482E-03    0.314E-03
DAV:  15    -0.115771491654E+04   -0.38088E-05   -0.31690E-07  1500   0.334E-03    0.414E-03
DAV:  16    -0.115771491990E+04   -0.33589E-05   -0.30445E-07  1464   0.313E-03    0.313E-03
DAV:  17    -0.115771492252E+04   -0.26217E-05   -0.15698E-07  1452   0.207E-03    0.210E-03
DAV:  18    -0.115771492473E+04   -0.22127E-05   -0.12357E-07  1452   0.116E-03    0.195E-03
DAV:  19    -0.115771492607E+04   -0.13338E-05   -0.68803E-08  1428   0.816E-04    0.181E-03
DAV:  20    -0.115771492735E+04   -0.12872E-05   -0.38218E-08  1440   0.843E-04    0.161E-03
DAV:  21    -0.115771492981E+04   -0.24592E-05   -0.30567E-08  1428   0.749E-04    0.119E-03
DAV:  22    -0.115771493225E+04   -0.24341E-05   -0.42886E-08  1464   0.790E-04    0.140E-03
DAV:  23    -0.115771493396E+04   -0.17130E-05   -0.35798E-08  1476   0.826E-04    0.727E-04
DAV:  24    -0.115771493606E+04   -0.21005E-05   -0.48465E-08  1428   0.339E-04    0.636E-04
DAV:  25    -0.115771493738E+04   -0.13215E-05   -0.23541E-08  1464   0.496E-04    0.666E-04
DAV:  26    -0.115771493848E+04   -0.10994E-05   -0.16089E-08  1440   0.497E-04    0.564E-04
DAV:  27    -0.115771494032E+04   -0.18434E-05   -0.29336E-08  1404   0.451E-04    0.487E-04
DAV:  28    -0.115771494148E+04   -0.11519E-05   -0.37168E-08  1476   0.374E-04    0.574E-04
DAV:  29    -0.115771494206E+04   -0.58131E-06   -0.20926E-08  1440   0.416E-04
 164 F= -.11654155E+04 E0= -.11654123E+04  d E =-.554279E-03  mag=    13.0740
 trial-energy change:   -0.000554  1 .order   -0.000555   -0.000662   -0.000449
 step:   0.2956(harm=  0.2956)  dis= 0.00361  next Energy= -1165.415999 (dE=-0.103E-02)
 bond charge predicted
       N       E                     dE             d eps       ncg     rms          rms(c)
DAV:   1    -0.115771204079E+04    0.29007E-02   -0.14079E+00  1992   0.253E+00    0.313E-01
DAV:   2    -0.115771527345E+04   -0.32327E-02   -0.32268E-02  2748   0.387E-01    0.405E-01
DAV:   3    -0.115771816465E+04   -0.28912E-02   -0.96198E-03  3384   0.393E-01    0.122E+00
DAV:   4    -0.115771519994E+04    0.29647E-02   -0.65569E-03  3036   0.253E-01    0.318E-01
DAV:   5    -0.115771527762E+04   -0.77678E-04   -0.15612E-03  3036   0.149E-01    0.180E-01
DAV:   6    -0.115771539314E+04   -0.11552E-03   -0.87607E-04  3060   0.108E-01    0.220E-01
DAV:   7    -0.115771529838E+04    0.94763E-04   -0.45662E-04  3000   0.116E-01    0.115E-01
DAV:   8    -0.115771540035E+04   -0.10197E-03   -0.34114E-04  3180   0.109E-01    0.150E-01
DAV:   9    -0.115771535072E+04    0.49627E-04   -0.35962E-04  3204   0.884E-02    0.131E-01
DAV:  10    -0.115771534191E+04    0.88143E-05   -0.14568E-04  2952   0.512E-02    0.929E-02
DAV:  11    -0.115771534318E+04   -0.12780E-05   -0.39554E-05  2328   0.371E-02    0.267E-02
DAV:  12    -0.115771535650E+04   -0.13315E-04   -0.12731E-05  2088   0.236E-02    0.235E-02
DAV:  13    -0.115771536668E+04   -0.10176E-04   -0.61232E-06  1968   0.155E-02    0.152E-02
DAV:  14    -0.115771537665E+04   -0.99705E-05   -0.29370E-06  1752   0.101E-02    0.681E-03
DAV:  15    -0.115771538877E+04   -0.12125E-04   -0.14219E-06  1596   0.720E-03    0.899E-03
DAV:  16    -0.115771539957E+04   -0.10800E-04   -0.11939E-06  1536   0.647E-03    0.663E-03
DAV:  17    -0.115771540766E+04   -0.80893E-05   -0.57848E-07  1476   0.430E-03    0.463E-03
DAV:  18    -0.115771541565E+04   -0.79856E-05   -0.37022E-07  1512   0.220E-03    0.440E-03
DAV:  19    -0.115771542002E+04   -0.43723E-05   -0.22426E-07  1476   0.199E-03    0.393E-03
DAV:  20    -0.115771542450E+04   -0.44794E-05   -0.15223E-07  1476   0.184E-03    0.293E-03
DAV:  21    -0.115771543329E+04   -0.87960E-05   -0.16746E-07  1452   0.114E-03    0.225E-03
DAV:  22    -0.115771543868E+04   -0.53866E-05   -0.12592E-07  1464   0.141E-03    0.241E-03
DAV:  23    -0.115771544535E+04   -0.66733E-05   -0.12514E-07  1488   0.138E-03    0.162E-03
DAV:  24    -0.115771545205E+04   -0.66916E-05   -0.15828E-07  1476   0.762E-04    0.125E-03
DAV:  25    -0.115771545620E+04   -0.41552E-05   -0.11804E-07  1464   0.724E-04    0.119E-03
DAV:  26    -0.115771546124E+04   -0.50403E-05   -0.98035E-08  1476   0.859E-04    0.127E-03
DAV:  27    -0.115771546542E+04   -0.41755E-05   -0.94529E-08  1464   0.917E-04    0.878E-04
DAV:  28    -0.115771547126E+04   -0.58400E-05   -0.18810E-07  1512   0.644E-04    0.812E-04
DAV:  29    -0.115771547262E+04   -0.13665E-05   -0.95975E-08  1536   0.665E-04    0.729E-04
DAV:  30    -0.115771547413E+04   -0.15060E-05   -0.75536E-08  1404   0.585E-04    0.730E-04
DAV:  31    -0.115771547559E+04   -0.14592E-05   -0.67533E-08  1440   0.585E-04    0.619E-04
DAV:  32    -0.115771547646E+04   -0.87403E-06   -0.73588E-08  1476   0.429E-04
 165 F= -.11654160E+04 E0= -.11654128E+04  d E =-.102925E-02  mag=    13.0743
 curvature:  -3.18 expect dE=-0.135E-01 dE for cont linesearch -0.163E-09
 trial: gam= 0.59172 g(F)=  0.426E-02 g(S)=  0.000E+00 ort =-0.278E-05 (trialstep = 0.135E+00)
 search vector abs. value=  0.567E-01
 bond charge predicted
       N       E                     dE             d eps       ncg     rms          rms(c)
DAV:   1    -0.115771535528E+04    0.12031E-03   -0.24657E-01  2010   0.106E+00    0.129E-01
DAV:   2    -0.115771585444E+04   -0.49916E-03   -0.54823E-03  2712   0.156E-01    0.133E-01
DAV:   3    -0.115771634795E+04   -0.49351E-03   -0.14149E-03  3312   0.157E-01    0.482E-01
DAV:   4    -0.115771586023E+04    0.48772E-03   -0.99723E-04  2964   0.104E-01    0.124E-01
DAV:   5    -0.115771589652E+04   -0.36294E-04   -0.25887E-04  3048   0.577E-02    0.718E-02
DAV:   6    -0.115771591896E+04   -0.22439E-04   -0.13816E-04  2796   0.392E-02    0.911E-02
DAV:   7    -0.115771590248E+04    0.16486E-04   -0.91801E-05  2772   0.452E-02    0.448E-02
DAV:   8    -0.115771592873E+04   -0.26256E-04   -0.68853E-05  2532   0.444E-02    0.824E-02
DAV:   9    -0.115771591225E+04    0.16479E-04   -0.62915E-05  2604   0.387E-02    0.516E-02
DAV:  10    -0.115771591403E+04   -0.17717E-05   -0.12025E-05  2004   0.215E-02    0.337E-02
DAV:  11    -0.115771591658E+04   -0.25526E-05   -0.67479E-06  1896   0.152E-02    0.119E-02
DAV:  12    -0.115771592000E+04   -0.34210E-05   -0.26004E-06  1716   0.962E-03    0.932E-03
DAV:  13    -0.115771592317E+04   -0.31723E-05   -0.10802E-06  1560   0.596E-03    0.517E-03
DAV:  14    -0.115771592516E+04   -0.19862E-05   -0.42747E-07  1440   0.368E-03    0.306E-03
DAV:  15    -0.115771592867E+04   -0.35144E-05   -0.19654E-07  1428   0.253E-03    0.288E-03
DAV:  16    -0.115771593124E+04   -0.25718E-05   -0.19345E-07  1476   0.258E-03    0.230E-03
DAV:  17    -0.115771593376E+04   -0.25112E-05   -0.12529E-07  1464   0.167E-03    0.165E-03
DAV:  18    -0.115771593526E+04   -0.15028E-05   -0.77517E-08  1452   0.118E-03    0.153E-03
DAV:  19    -0.115771593667E+04   -0.14102E-05   -0.50452E-08  1428   0.960E-04    0.122E-03
DAV:  20    -0.115771593809E+04   -0.14203E-05   -0.34585E-08  1440   0.810E-04    0.914E-04
DAV:  21    -0.115771594012E+04   -0.20363E-05   -0.39463E-08  1452   0.479E-04    0.787E-04
DAV:  22    -0.115771594143E+04   -0.13072E-05   -0.26464E-08  1452   0.528E-04    0.688E-04
DAV:  23    -0.115771594239E+04   -0.96249E-06   -0.14192E-08  1416   0.511E-04
 166 F= -.11654165E+04 E0= -.11654133E+04  d E =-.506360E-03  mag=    13.0743
 ZBRENT: can't locate minimum, use default step
 trial-energy change:   -0.000506  1 .order   -0.000514   -0.000576   -0.000453
 step:   0.5401(harm=  0.6348)  dis= 0.00395  next Energy= -1165.417350 (dE=-0.135E-02)
 bond charge predicted
       N       E                     dE             d eps       ncg     rms          rms(c)
DAV:   1    -0.115771127777E+04    0.46637E-02   -0.22186E+00  1992   0.317E+00    0.387E-01
DAV:   2    -0.115771616255E+04   -0.48848E-02   -0.49368E-02  2640   0.468E-01    0.399E-01
DAV:   3    -0.115772040795E+04   -0.42454E-02   -0.13267E-02  3360   0.474E-01    0.143E+00
DAV:   4    -0.115771620981E+04    0.41981E-02   -0.82250E-03  2988   0.316E-01    0.357E-01
DAV:   5    -0.115771636103E+04   -0.15121E-03   -0.22116E-03  3060   0.173E-01    0.215E-01
DAV:   6    -0.115771650712E+04   -0.14609E-03   -0.12892E-03  2916   0.116E-01    0.278E-01
DAV:   7    -0.115771635399E+04    0.15313E-03   -0.83009E-04  3060   0.135E-01    0.135E-01
DAV:   8    -0.115771654737E+04   -0.19338E-03   -0.63714E-04  3072   0.134E-01    0.244E-01
DAV:   9    -0.115771641590E+04    0.13147E-03   -0.59759E-04  3036   0.115E-01    0.154E-01
DAV:  10    -0.115771641456E+04    0.13439E-05   -0.11383E-04  2976   0.625E-02    0.997E-02
DAV:  11    -0.115771642693E+04   -0.12374E-04   -0.59933E-05  2592   0.436E-02    0.344E-02
DAV:  12    -0.115771644786E+04   -0.20927E-04   -0.23023E-05  2184   0.277E-02    0.278E-02
DAV:  13    -0.115771646641E+04   -0.18554E-04   -0.88298E-06  1956   0.176E-02    0.145E-02
DAV:  14    -0.115771647939E+04   -0.12975E-04   -0.35049E-06  1848   0.109E-02    0.996E-03
DAV:  15    -0.115771650335E+04   -0.23966E-04   -0.17571E-06  1716   0.793E-03    0.928E-03
DAV:  16    -0.115771651926E+04   -0.15908E-04   -0.16897E-06  1716   0.817E-03    0.744E-03
DAV:  17    -0.115771653411E+04   -0.14853E-04   -0.85555E-07  1524   0.511E-03    0.630E-03
DAV:  18    -0.115771654311E+04   -0.89932E-05   -0.44438E-07  1524   0.350E-03    0.550E-03
DAV:  19    -0.115771655109E+04   -0.79801E-05   -0.32502E-07  1476   0.283E-03    0.382E-03
DAV:  20    -0.115771656138E+04   -0.10298E-04   -0.25681E-07  1464   0.213E-03    0.210E-03
DAV:  21    -0.115771657533E+04   -0.13945E-04   -0.30290E-07  1500   0.131E-03    0.212E-03
DAV:  22    -0.115771658186E+04   -0.65316E-05   -0.19612E-07  1524   0.159E-03    0.185E-03
DAV:  23    -0.115771658845E+04   -0.65949E-05   -0.13520E-07  1440   0.124E-03    0.121E-03
DAV:  24    -0.115771659569E+04   -0.72350E-05   -0.14950E-07  1476   0.777E-04    0.128E-03
DAV:  25    -0.115771660016E+04   -0.44682E-05   -0.10080E-07  1452   0.747E-04    0.112E-03
DAV:  26    -0.115771660779E+04   -0.76312E-05   -0.97570E-08  1440   0.724E-04    0.106E-03
DAV:  27    -0.115771661793E+04   -0.10144E-04   -0.14579E-07  1476   0.705E-04    0.926E-04
DAV:  28    -0.115771662395E+04   -0.60212E-05   -0.14567E-07  1488   0.736E-04    0.101E-03
DAV:  29    -0.115771662945E+04   -0.54928E-05   -0.12977E-07  1488   0.728E-04    0.655E-04
DAV:  30    -0.115771663287E+04   -0.34187E-05   -0.10943E-07  1464   0.564E-04    0.658E-04
DAV:  31    -0.115771663540E+04   -0.25317E-05   -0.93874E-08  1452   0.455E-04    0.493E-04
DAV:  32    -0.115771663692E+04   -0.15218E-05   -0.62369E-08  1476   0.428E-04    0.454E-04
DAV:  33    -0.115771664010E+04   -0.31757E-05   -0.91854E-08  1440   0.447E-04    0.503E-04
DAV:  34    -0.115771664174E+04   -0.16401E-05   -0.75064E-08  1476   0.514E-04    0.458E-04
DAV:  35    -0.115771664310E+04   -0.13622E-05   -0.92005E-08  1428   0.391E-04    0.310E-04
DAV:  36    -0.115771664352E+04   -0.41957E-06   -0.59563E-08  1500   0.393E-04
 167 F= -.11654173E+04 E0= -.11654142E+04  d E =-.132646E-02  mag=    13.0744
 curvature:  -4.07 expect dE=-0.183E-01 dE for cont linesearch -0.319E-04
 trial: gam= 0.89770 g(F)=  0.450E-02 g(S)=  0.000E+00 ort = 0.666E-03 (trialstep = 0.216E+00)
 search vector abs. value=  0.514E-01
 bond charge predicted
       N       E                     dE             d eps       ncg     rms          rms(c)
DAV:   1    -0.115771582914E+04    0.81395E-03   -0.59264E-01  1998   0.162E+00    0.205E-01
DAV:   2    -0.115771710881E+04   -0.12797E-02   -0.13159E-02  2748   0.256E-01    0.228E-01
DAV:   3    -0.115771794911E+04   -0.84030E-03   -0.27793E-03  3360   0.285E-01    0.605E-01
DAV:   4    -0.115771725692E+04    0.69219E-03   -0.17321E-03  2988   0.171E-01    0.299E-01
DAV:   5    -0.115771710986E+04    0.14706E-03   -0.11000E-03  3216   0.122E-01    0.138E-01
DAV:   6    -0.115771719483E+04   -0.84975E-04   -0.70099E-04  3156   0.832E-02    0.178E-01
DAV:   7    -0.115771712295E+04    0.71886E-04   -0.38843E-04  3060   0.804E-02    0.944E-02
DAV:   8    -0.115771713005E+04   -0.70980E-05   -0.22540E-04  3120   0.734E-02    0.701E-02
DAV:   9    -0.115771713861E+04   -0.85642E-05   -0.20161E-04  3060   0.540E-02    0.897E-02
DAV:  10    -0.115771712235E+04    0.16259E-04   -0.71067E-05  2724   0.432E-02    0.418E-02
DAV:  11    -0.115771712752E+04   -0.51653E-05   -0.14476E-05  2004   0.239E-02    0.267E-02
DAV:  12    -0.115771713364E+04   -0.61264E-05   -0.79599E-06  1908   0.173E-02    0.170E-02
DAV:  13    -0.115771713882E+04   -0.51787E-05   -0.33918E-06  1776   0.112E-02    0.835E-03
DAV:  14    -0.115771714662E+04   -0.77936E-05   -0.11415E-06  1716   0.589E-03    0.469E-03
DAV:  15    -0.115771715421E+04   -0.75908E-05   -0.55923E-07  1440   0.449E-03    0.465E-03
DAV:  16    -0.115771715979E+04   -0.55872E-05   -0.37544E-07  1476   0.380E-03    0.411E-03
DAV:  17    -0.115771716519E+04   -0.53962E-05   -0.23455E-07  1476   0.265E-03    0.175E-03
DAV:  18    -0.115771717220E+04   -0.70125E-05   -0.23117E-07  1500   0.130E-03    0.168E-03
DAV:  19    -0.115771717682E+04   -0.46143E-05   -0.16459E-07  1464   0.154E-03    0.193E-03
DAV:  20    -0.115771718019E+04   -0.33740E-05   -0.10767E-07  1464   0.145E-03    0.110E-03
DAV:  21    -0.115771718346E+04   -0.32686E-05   -0.82817E-08  1452   0.823E-04    0.938E-04
DAV:  22    -0.115771718515E+04   -0.16945E-05   -0.61028E-08  1452   0.691E-04    0.968E-04
DAV:  23    -0.115771718791E+04   -0.27596E-05   -0.45150E-08  1440   0.666E-04    0.656E-04
DAV:  24    -0.115771719158E+04   -0.36617E-05   -0.50670E-08  1464   0.447E-04    0.587E-04
DAV:  25    -0.115771719459E+04   -0.30146E-05   -0.50226E-08  1488   0.415E-04    0.645E-04
DAV:  26    -0.115771719820E+04   -0.36067E-05   -0.47209E-08  1452   0.543E-04    0.614E-04
DAV:  27    -0.115771720054E+04   -0.23395E-05   -0.42600E-08  1476   0.505E-04    0.522E-04
DAV:  28    -0.115771720257E+04   -0.20290E-05   -0.44968E-08  1476   0.379E-04    0.375E-04
DAV:  29    -0.115771720378E+04   -0.12121E-05   -0.33419E-08  1488   0.304E-04    0.366E-04
DAV:  30    -0.115771720512E+04   -0.13434E-05   -0.27815E-08  1416   0.339E-04    0.352E-04
DAV:  31    -0.115771720661E+04   -0.14845E-05   -0.29786E-08  1464   0.336E-04    0.270E-04
DAV:  32    -0.115771720788E+04   -0.12775E-05   -0.35997E-08  1416   0.308E-04    0.291E-04
DAV:  33    -0.115771720819E+04   -0.30563E-06   -0.19976E-08  1464   0.270E-04
 168 F= -.11654180E+04 E0= -.11654148E+04  d E =-.626448E-03  mag=    13.0739
 trial-energy change:   -0.000626  1 .order   -0.000630   -0.001100   -0.000160
 step:   0.2528(harm=  0.2528)  dis= 0.00168  next Energy= -1165.417968 (dE=-0.644E-03)
 bond charge predicted
       N       E                     dE             d eps       ncg     rms          rms(c)
DAV:   1    -0.115771717245E+04    0.35430E-04   -0.17174E-02  2052   0.277E-01    0.347E-02
DAV:   2    -0.115771720235E+04   -0.29899E-04   -0.38008E-04  2760   0.435E-02    0.388E-02
DAV:   3    -0.115771722952E+04   -0.27168E-04   -0.79802E-05  3252   0.484E-02    0.104E-01
DAV:   4    -0.115771720777E+04    0.21747E-04   -0.56397E-05  2400   0.287E-02    0.516E-02
DAV:   5    -0.115771720479E+04    0.29843E-05   -0.31985E-05  1968   0.211E-02    0.233E-02
DAV:   6    -0.115771720859E+04   -0.37964E-05   -0.19258E-05  2076   0.143E-02    0.291E-02
DAV:   7    -0.115771720671E+04    0.18766E-05   -0.10991E-05  1944   0.142E-02    0.169E-02
DAV:   8    -0.115771720733E+04   -0.62162E-06   -0.62360E-06  1812   0.129E-02
 169 F= -.11654180E+04 E0= -.11654148E+04  d E =-.635842E-03  mag=    13.0739
 curvature:  -1.28 expect dE=-0.625E-02 dE for cont linesearch -0.975E-06
 trial: gam= 1.26819 g(F)=  0.490E-02 g(S)=  0.000E+00 ort = 0.198E-03 (trialstep = 0.130E+00)
 search vector abs. value=  0.881E-01
 bond charge predicted
       N       E                     dE             d eps       ncg     rms          rms(c)
DAV:   1    -0.115771684438E+04    0.36232E-03   -0.34946E-01  1992   0.126E+00    0.165E-01
DAV:   2    -0.115771763113E+04   -0.78675E-03   -0.82019E-03  2736   0.207E-01    0.231E-01
DAV:   3    -0.115771826645E+04   -0.63532E-03   -0.31680E-03  3324   0.227E-01    0.581E-01
DAV:   4    -0.115771764706E+04    0.61940E-03   -0.19302E-03  2904   0.138E-01    0.234E-01
DAV:   5    -0.115771761284E+04    0.34216E-04   -0.66374E-04  3024   0.894E-02    0.753E-02
DAV:   6    -0.115771767258E+04   -0.59736E-04   -0.22475E-04  2964   0.601E-02    0.125E-01
DAV:   7    -0.115771764706E+04    0.25511E-04   -0.22021E-04  2964   0.565E-02    0.860E-02
DAV:   8    -0.115771765803E+04   -0.10967E-04   -0.10489E-04  3120   0.607E-02    0.750E-02
DAV:   9    -0.115771765978E+04   -0.17445E-05   -0.85182E-05  2844   0.555E-02    0.732E-02
DAV:  10    -0.115771765071E+04    0.90693E-05   -0.33640E-05  2364   0.374E-02    0.405E-02
DAV:  11    -0.115771765446E+04   -0.37542E-05   -0.14278E-05  1896   0.189E-02    0.244E-02
DAV:  12    -0.115771765997E+04   -0.55103E-05   -0.47892E-06  1848   0.140E-02    0.986E-03
DAV:  13    -0.115771766515E+04   -0.51752E-05   -0.20258E-06  1668   0.840E-03    0.897E-03
DAV:  14    -0.115771767016E+04   -0.50104E-05   -0.10008E-06  1596   0.585E-03    0.491E-03
DAV:  15    -0.115771767560E+04   -0.54431E-05   -0.44562E-07  1476   0.389E-03    0.385E-03
DAV:  16    -0.115771768083E+04   -0.52322E-05   -0.32825E-07  1500   0.326E-03    0.413E-03
DAV:  17    -0.115771768473E+04   -0.38958E-05   -0.21795E-07  1464   0.271E-03    0.171E-03
DAV:  18    -0.115771768967E+04   -0.49462E-05   -0.16054E-07  1464   0.133E-03    0.170E-03
DAV:  19    -0.115771769259E+04   -0.29150E-05   -0.12207E-07  1476   0.130E-03    0.178E-03
DAV:  20    -0.115771769548E+04   -0.28957E-05   -0.80554E-08  1440   0.111E-03    0.925E-04
DAV:  21    -0.115771769858E+04   -0.30971E-05   -0.69127E-08  1452   0.651E-04    0.912E-04
DAV:  22    -0.115771770020E+04   -0.16140E-05   -0.41493E-08  1416   0.677E-04    0.826E-04
DAV:  23    -0.115771770266E+04   -0.24659E-05   -0.32615E-08  1428   0.610E-04    0.625E-04
DAV:  24    -0.115771770487E+04   -0.22075E-05   -0.33836E-08  1476   0.408E-04    0.453E-04
DAV:  25    -0.115771770609E+04   -0.12249E-05   -0.22708E-08  1416   0.331E-04    0.498E-04
DAV:  26    -0.115771770795E+04   -0.18562E-05   -0.15936E-08  1452   0.390E-04    0.438E-04
DAV:  27    -0.115771771003E+04   -0.20754E-05   -0.17258E-08  1464   0.361E-04    0.355E-04
DAV:  28    -0.115771771241E+04   -0.23812E-05   -0.30440E-08  1428   0.324E-04    0.401E-04
DAV:  29    -0.115771771351E+04   -0.11077E-05   -0.19171E-08  1488   0.342E-04    0.292E-04
DAV:  30    -0.115771771487E+04   -0.13581E-05   -0.21787E-08  1440   0.241E-04    0.265E-04
DAV:  31    -0.115771771590E+04   -0.10291E-05   -0.16837E-08  1464   0.230E-04    0.195E-04
DAV:  32    -0.115771771651E+04   -0.60878E-06   -0.11177E-08  1464   0.184E-04
 170 F= -.11654185E+04 E0= -.11654153E+04  d E =-.505649E-03  mag=    13.0741
 trial-energy change:   -0.000506  1 .order   -0.000516   -0.000672   -0.000359
 step:   0.2804(harm=  0.2804)  dis= 0.00244  next Energy= -1165.418682 (dE=-0.722E-03)
 bond charge predicted
       N       E                     dE             d eps       ncg     rms          rms(c)
DAV:   1    -0.115771679082E+04    0.92508E-03   -0.46310E-01  1992   0.145E+00    0.188E-01
DAV:   2    -0.115771778150E+04   -0.99068E-03   -0.10571E-02  2724   0.221E-01    0.194E-01
DAV:   3    -0.115771866546E+04   -0.88396E-03   -0.23442E-03  3300   0.239E-01    0.629E-01
DAV:   4    -0.115771783928E+04    0.82617E-03   -0.14146E-03  2976   0.153E-01    0.198E-01
DAV:   5    -0.115771784482E+04   -0.55379E-05   -0.61234E-04  3072   0.846E-02    0.108E-01
DAV:   6    -0.115771790209E+04   -0.57268E-04   -0.36369E-04  2988   0.630E-02    0.146E-01
DAV:   7    -0.115771785454E+04    0.47552E-04   -0.24875E-04  3012   0.707E-02    0.673E-02
DAV:   8    -0.115771790495E+04   -0.50409E-04   -0.18179E-04  3156   0.702E-02    0.108E-01
DAV:   9    -0.115771787780E+04    0.27152E-04   -0.16925E-04  2940   0.598E-02    0.755E-02
DAV:  10    -0.115771787307E+04    0.47294E-05   -0.35717E-05  2352   0.346E-02    0.468E-02
DAV:  11    -0.115771787639E+04   -0.33270E-05   -0.15194E-05  2028   0.216E-02    0.261E-02
DAV:  12    -0.115771788193E+04   -0.55340E-05   -0.65950E-06  1860   0.160E-02    0.117E-02
DAV:  13    -0.115771788775E+04   -0.58207E-05   -0.24424E-06  1764   0.866E-03    0.972E-03
DAV:  14    -0.115771789217E+04   -0.44236E-05   -0.10816E-06  1668   0.611E-03    0.440E-03
DAV:  15    -0.115771789835E+04   -0.61800E-05   -0.44608E-07  1452   0.425E-03    0.526E-03
DAV:  16    -0.115771790348E+04   -0.51265E-05   -0.38572E-07  1524   0.393E-03    0.349E-03
DAV:  17    -0.115771790865E+04   -0.51762E-05   -0.22735E-07  1452   0.249E-03    0.206E-03
DAV:  18    -0.115771791298E+04   -0.43238E-05   -0.17056E-07  1476   0.156E-03    0.189E-03
DAV:  19    -0.115771791651E+04   -0.35362E-05   -0.13116E-07  1452   0.143E-03    0.185E-03
DAV:  20    -0.115771791963E+04   -0.31126E-05   -0.89358E-08  1476   0.133E-03    0.111E-03
DAV:  21    -0.115771792347E+04   -0.38388E-05   -0.82247E-08  1488   0.802E-04    0.833E-04
DAV:  22    -0.115771792541E+04   -0.19473E-05   -0.64950E-08  1476   0.640E-04    0.899E-04
DAV:  23    -0.115771792725E+04   -0.18358E-05   -0.37727E-08  1428   0.658E-04    0.620E-04
DAV:  24    -0.115771792942E+04   -0.21738E-05   -0.29465E-08  1452   0.416E-04    0.495E-04
DAV:  25    -0.115771793129E+04   -0.18630E-05   -0.28736E-08  1428   0.324E-04    0.509E-04
DAV:  26    -0.115771793354E+04   -0.22533E-05   -0.20576E-08  1452   0.384E-04    0.429E-04
DAV:  27    -0.115771793563E+04   -0.20933E-05   -0.20839E-08  1440   0.376E-04    0.433E-04
DAV:  28    -0.115771793795E+04   -0.23173E-05   -0.28526E-08  1500   0.336E-04    0.347E-04
DAV:  29    -0.115771793920E+04   -0.12549E-05   -0.22698E-08  1464   0.280E-04    0.358E-04
DAV:  30    -0.115771794004E+04   -0.83287E-06   -0.14171E-08  1416   0.263E-04
 171 F= -.11654187E+04 E0= -.11654155E+04  d E =-.724689E-03  mag=    13.0744
 curvature:  -2.40 expect dE=-0.137E-01 dE for cont linesearch -0.146E-05
 trial: gam= 0.91010 g(F)=  0.572E-02 g(S)=  0.000E+00 ort = 0.232E-03 (trialstep = 0.160E+00)
 search vector abs. value=  0.791E-01
 bond charge predicted
       N       E                     dE             d eps       ncg     rms          rms(c)
DAV:   1    -0.115771747600E+04    0.46320E-03   -0.48603E-01  1992   0.147E+00    0.192E-01
DAV:   2    -0.115771852954E+04   -0.10535E-02   -0.10925E-02  2796   0.234E-01    0.216E-01
DAV:   3    -0.115771948904E+04   -0.95950E-03   -0.33131E-03  3384   0.266E-01    0.673E-01
DAV:   4    -0.115771860642E+04    0.88262E-03   -0.22951E-03  2952   0.158E-01    0.235E-01
DAV:   5    -0.115771855987E+04    0.46548E-04   -0.79124E-04  3144   0.113E-01    0.113E-01
DAV:   6    -0.115771859892E+04   -0.39042E-04   -0.34715E-04  3036   0.664E-02    0.120E-01
DAV:   7    -0.115771858015E+04    0.18769E-04   -0.19828E-04  2964   0.615E-02    0.859E-02
DAV:   8    -0.115771858803E+04   -0.78812E-05   -0.13784E-04  2940   0.607E-02    0.713E-02
DAV:   9    -0.115771860040E+04   -0.12372E-04   -0.11587E-04  2832   0.457E-02    0.817E-02
DAV:  10    -0.115771858843E+04    0.11968E-04   -0.45881E-05  2412   0.425E-02    0.431E-02
DAV:  11    -0.115771859535E+04   -0.69160E-05   -0.10876E-05  1956   0.199E-02    0.195E-02
DAV:  12    -0.115771859887E+04   -0.35176E-05   -0.50566E-06  1908   0.136E-02    0.108E-02
DAV:  13    -0.115771860382E+04   -0.49533E-05   -0.23861E-06  1836   0.887E-03    0.928E-03
DAV:  14    -0.115771860857E+04   -0.47528E-05   -0.10801E-06  1596   0.601E-03    0.380E-03
DAV:  15    -0.115771861516E+04   -0.65879E-05   -0.48285E-07  1452   0.377E-03    0.546E-03
DAV:  16    -0.115771861893E+04   -0.37737E-05   -0.47831E-07  1476   0.385E-03    0.241E-03
DAV:  17    -0.115771862507E+04   -0.61380E-05   -0.25180E-07  1440   0.164E-03    0.222E-03
DAV:  18    -0.115771862760E+04   -0.25312E-05   -0.15898E-07  1548   0.163E-03    0.216E-03
DAV:  19    -0.115771862936E+04   -0.17602E-05   -0.10510E-07  1416   0.145E-03    0.124E-03
DAV:  20    -0.115771863186E+04   -0.25009E-05   -0.71833E-08  1440   0.805E-04    0.102E-03
DAV:  21    -0.115771863439E+04   -0.25227E-05   -0.58606E-08  1440   0.842E-04    0.131E-03
DAV:  22    -0.115771863703E+04   -0.26415E-05   -0.54260E-08  1452   0.101E-03    0.857E-04
DAV:  23    -0.115771863973E+04   -0.27019E-05   -0.55348E-08  1488   0.583E-04    0.663E-04
DAV:  24    -0.115771864120E+04   -0.14728E-05   -0.41081E-08  1452   0.469E-04    0.653E-04
DAV:  25    -0.115771864242E+04   -0.12205E-05   -0.24126E-08  1392   0.445E-04    0.522E-04
DAV:  26    -0.115771864391E+04   -0.14912E-05   -0.16874E-08  1464   0.416E-04    0.510E-04
DAV:  27    -0.115771864603E+04   -0.21118E-05   -0.25819E-08  1428   0.396E-04    0.431E-04
DAV:  28    -0.115771864732E+04   -0.12953E-05   -0.25013E-08  1476   0.352E-04    0.498E-04
DAV:  29    -0.115771864827E+04   -0.94678E-06   -0.16891E-08  1452   0.346E-04
 172 F= -.11654193E+04 E0= -.11654161E+04  d E =-.621468E-03  mag=    13.0749
 trial-energy change:   -0.000621  1 .order   -0.000621   -0.000951   -0.000292
 step:   0.2315(harm=  0.2315)  dis= 0.00191  next Energy= -1165.419371 (dE=-0.686E-03)
 bond charge predicted
       N       E                     dE             d eps       ncg     rms          rms(c)
DAV:   1    -0.115771851942E+04    0.12790E-03   -0.95444E-02  2004   0.652E-01    0.852E-02
DAV:   2    -0.115771871012E+04   -0.19070E-03   -0.21574E-03  2808   0.104E-01    0.975E-02
DAV:   3    -0.115771890527E+04   -0.19515E-03   -0.65139E-04  3336   0.118E-01    0.300E-01
DAV:   4    -0.115771872371E+04    0.18156E-03   -0.46449E-04  2892   0.697E-02    0.103E-01
DAV:   5    -0.115771872427E+04   -0.55663E-06   -0.15573E-04  2772   0.502E-02    0.512E-02
DAV:   6    -0.115771873468E+04   -0.10407E-04   -0.72024E-05  2472   0.303E-02    0.557E-02
DAV:   7    -0.115771873070E+04    0.39800E-05   -0.40774E-05  2544   0.285E-02    0.377E-02
DAV:   8    -0.115771873407E+04   -0.33743E-05   -0.27008E-05  2268   0.273E-02    0.324E-02
DAV:   9    -0.115771873712E+04   -0.30525E-05   -0.23425E-05  2196   0.208E-02    0.364E-02
DAV:  10    -0.115771873498E+04    0.21442E-05   -0.89759E-06  1896   0.194E-02    0.199E-02
DAV:  11    -0.115771873711E+04   -0.21293E-05   -0.22600E-06  1740   0.913E-03    0.863E-03
DAV:  12    -0.115771873830E+04   -0.11876E-05   -0.11195E-06  1704   0.630E-03    0.489E-03
DAV:  13    -0.115771873977E+04   -0.14757E-05   -0.51240E-07  1476   0.417E-03    0.418E-03
DAV:  14    -0.115771874118E+04   -0.14117E-05   -0.25001E-07  1428   0.285E-03    0.179E-03
DAV:  15    -0.115771874304E+04   -0.18586E-05   -0.12680E-07  1440   0.176E-03    0.243E-03
DAV:  16    -0.115771874409E+04   -0.10491E-05   -0.11846E-07  1452   0.184E-03    0.120E-03
DAV:  17    -0.115771874587E+04   -0.17796E-05   -0.69801E-08  1452   0.825E-04    0.102E-03
DAV:  18    -0.115771874666E+04   -0.79330E-06   -0.40625E-08  1464   0.761E-04
 173 F= -.11654194E+04 E0= -.11654162E+04  d E =-.681244E-03  mag=    13.0752
 curvature:  -1.54 expect dE=-0.601E-02 dE for cont linesearch -0.135E-07
 trial: gam= 0.73708 g(F)=  0.389E-02 g(S)=  0.000E+00 ort =-0.263E-04 (trialstep = 0.175E+00)
 search vector abs. value=  0.468E-01
 bond charge predicted
       N       E                     dE             d eps       ncg     rms          rms(c)
DAV:   1    -0.115771852408E+04    0.22179E-03   -0.34870E-01  1992   0.124E+00    0.161E-01
DAV:   2    -0.115771922428E+04   -0.70020E-03   -0.74730E-03  2688   0.187E-01    0.176E-01
DAV:   3    -0.115771999907E+04   -0.77479E-03   -0.26189E-03  3288   0.209E-01    0.607E-01
DAV:   4    -0.115771925352E+04    0.74556E-03   -0.17953E-03  2952   0.133E-01    0.170E-01
DAV:   5    -0.115771928621E+04   -0.32694E-04   -0.49329E-04  3066   0.871E-02    0.882E-02
DAV:   6    -0.115771932833E+04   -0.42125E-04   -0.24553E-04  3000   0.546E-02    0.118E-01
DAV:   7    -0.115771929596E+04    0.32376E-04   -0.15199E-04  2916   0.554E-02    0.596E-02
DAV:   8    -0.115771932367E+04   -0.27708E-04   -0.11018E-04  3012   0.520E-02    0.765E-02
DAV:   9    -0.115771931574E+04    0.79286E-05   -0.95611E-05  2784   0.451E-02    0.624E-02
DAV:  10    -0.115771931326E+04    0.24726E-05   -0.21738E-05  2292   0.297E-02    0.429E-02
DAV:  11    -0.115771931610E+04   -0.28335E-05   -0.12328E-05  1992   0.187E-02    0.178E-02
DAV:  12    -0.115771932154E+04   -0.54396E-05   -0.44755E-06  1848   0.128E-02    0.132E-02
DAV:  13    -0.115771932553E+04   -0.39949E-05   -0.19123E-06  1644   0.824E-03    0.717E-03
DAV:  14    -0.115771933034E+04   -0.48033E-05   -0.67693E-07  1524   0.417E-03    0.319E-03
DAV:  15    -0.115771933415E+04   -0.38106E-05   -0.41140E-07  1524   0.338E-03    0.435E-03
DAV:  16    -0.115771933869E+04   -0.45487E-05   -0.28102E-07  1428   0.289E-03    0.169E-03
DAV:  17    -0.115771934337E+04   -0.46736E-05   -0.15985E-07  1476   0.142E-03    0.192E-03
DAV:  18    -0.115771934536E+04   -0.19894E-05   -0.12520E-07  1440   0.157E-03    0.176E-03
DAV:  19    -0.115771934806E+04   -0.27025E-05   -0.74579E-08  1440   0.111E-03    0.110E-03
DAV:  20    -0.115771935009E+04   -0.20316E-05   -0.61266E-08  1440   0.838E-04    0.844E-04
DAV:  21    -0.115771935203E+04   -0.19410E-05   -0.47347E-08  1452   0.666E-04    0.775E-04
DAV:  22    -0.115771935340E+04   -0.13710E-05   -0.31985E-08  1428   0.606E-04    0.677E-04
DAV:  23    -0.115771935526E+04   -0.18559E-05   -0.25863E-08  1440   0.493E-04    0.503E-04
DAV:  24    -0.115771935684E+04   -0.15827E-05   -0.22921E-08  1452   0.336E-04    0.589E-04
DAV:  25    -0.115771935768E+04   -0.83389E-06   -0.12878E-08  1404   0.396E-04
 174 F= -.11654199E+04 E0= -.11654167E+04  d E =-.542720E-03  mag=    13.0752
 trial-energy change:   -0.000543  1 .order   -0.000545   -0.000676   -0.000414
 step:   0.4496(harm=  0.4496)  dis= 0.00283  next Energy= -1165.420237 (dE=-0.871E-03)
 bond charge predicted
       N       E                     dE             d eps       ncg     rms          rms(c)
DAV:   1    -0.115771771471E+04    0.16421E-02   -0.86493E-01  1992   0.195E+00    0.254E-01
DAV:   2    -0.115771953238E+04   -0.18177E-02   -0.18535E-02  2652   0.295E-01    0.280E-01
DAV:   3    -0.115772141990E+04   -0.18875E-02   -0.65906E-03  3324   0.330E-01    0.953E-01
DAV:   4    -0.115771959761E+04    0.18223E-02   -0.43425E-03  2988   0.211E-01    0.266E-01
DAV:   5    -0.115771964445E+04   -0.46838E-04   -0.12197E-03  3072   0.137E-01    0.138E-01
DAV:   6    -0.115771973916E+04   -0.94715E-04   -0.61013E-04  3084   0.861E-02    0.187E-01
DAV:   7    -0.115771966044E+04    0.78724E-04   -0.37766E-04  3036   0.871E-02    0.950E-02
DAV:   8    -0.115771971972E+04   -0.59283E-04   -0.26982E-04  3096   0.820E-02    0.120E-01
DAV:   9    -0.115771969916E+04    0.20564E-04   -0.24119E-04  3108   0.709E-02    0.100E-01
DAV:  10    -0.115771969148E+04    0.76796E-05   -0.54247E-05  2820   0.465E-02    0.706E-02
DAV:  11    -0.115771969465E+04   -0.31676E-05   -0.31029E-05  2208   0.291E-02    0.290E-02
DAV:  12    -0.115771970546E+04   -0.10815E-04   -0.11435E-05  2076   0.199E-02    0.205E-02
DAV:  13    -0.115771971345E+04   -0.79882E-05   -0.49972E-06  1944   0.128E-02    0.109E-02
DAV:  14    -0.115771972323E+04   -0.97800E-05   -0.16367E-06  1728   0.663E-03    0.500E-03
DAV:  15    -0.115771973129E+04   -0.80623E-05   -0.97135E-07  1560   0.543E-03    0.747E-03
DAV:  16    -0.115771974054E+04   -0.92432E-05   -0.65926E-07  1476   0.467E-03    0.253E-03
DAV:  17    -0.115771974960E+04   -0.90611E-05   -0.32146E-07  1488   0.222E-03    0.324E-03
DAV:  18    -0.115771975386E+04   -0.42616E-05   -0.25189E-07  1488   0.243E-03    0.303E-03
DAV:  19    -0.115771975884E+04   -0.49782E-05   -0.15640E-07  1476   0.169E-03    0.166E-03
DAV:  20    -0.115771976255E+04   -0.37170E-05   -0.13200E-07  1464   0.120E-03    0.118E-03
DAV:  21    -0.115771976665E+04   -0.40932E-05   -0.10704E-07  1464   0.932E-04    0.110E-03
DAV:  22    -0.115771976951E+04   -0.28650E-05   -0.69654E-08  1440   0.891E-04    0.107E-03
DAV:  23    -0.115771977346E+04   -0.39441E-05   -0.62157E-08  1440   0.767E-04    0.769E-04
DAV:  24    -0.115771977748E+04   -0.40235E-05   -0.69131E-08  1476   0.505E-04    0.871E-04
DAV:  25    -0.115771977925E+04   -0.17755E-05   -0.42077E-08  1452   0.603E-04    0.593E-04
DAV:  26    -0.115771978294E+04   -0.36878E-05   -0.45074E-08  1416   0.449E-04    0.628E-04
DAV:  27    -0.115771978680E+04   -0.38578E-05   -0.57709E-08  1464   0.442E-04    0.495E-04
DAV:  28    -0.115771978897E+04   -0.21746E-05   -0.48270E-08  1476   0.367E-04    0.612E-04
DAV:  29    -0.115771979081E+04   -0.18398E-05   -0.35808E-08  1488   0.420E-04    0.460E-04
DAV:  30    -0.115771979257E+04   -0.17546E-05   -0.34898E-08  1440   0.354E-04    0.463E-04
DAV:  31    -0.115771979436E+04   -0.17913E-05   -0.39534E-08  1452   0.362E-04    0.288E-04
DAV:  32    -0.115771979544E+04   -0.10839E-05   -0.37591E-08  1452   0.270E-04    0.291E-04
DAV:  33    -0.115771979607E+04   -0.62882E-06   -0.23437E-08  1476   0.283E-04
 175 F= -.11654202E+04 E0= -.11654171E+04  d E =-.873437E-03  mag=    13.0751
 curvature:  -2.72 expect dE=-0.158E-01 dE for cont linesearch -0.529E-08
 trial: gam= 1.44054 g(F)=  0.583E-02 g(S)=  0.000E+00 ort =-0.955E-05 (trialstep = 0.104E+00)
 search vector abs. value=  0.103E+00
 bond charge predicted
       N       E                     dE             d eps       ncg     rms          rms(c)
DAV:   1    -0.115771960573E+04    0.18971E-03   -0.26506E-01  1998   0.109E+00    0.147E-01
DAV:   2    -0.115772017166E+04   -0.56592E-03   -0.61419E-03  2742   0.171E-01    0.166E-01
DAV:   3    -0.115772062956E+04   -0.45791E-03   -0.14011E-03  3204   0.194E-01    0.442E-01
DAV:   4    -0.115772023126E+04    0.39830E-03   -0.80490E-04  3036   0.118E-01    0.175E-01
DAV:   5    -0.115772020957E+04    0.21684E-04   -0.42292E-04  3072   0.744E-02    0.932E-02
DAV:   6    -0.115772025709E+04   -0.47517E-04   -0.29618E-04  3096   0.549E-02    0.130E-01
DAV:   7    -0.115772021976E+04    0.37332E-04   -0.20905E-04  2904   0.601E-02    0.718E-02
DAV:   8    -0.115772023716E+04   -0.17399E-04   -0.15976E-04  3048   0.613E-02    0.693E-02
DAV:   9    -0.115772023394E+04    0.32197E-05   -0.12551E-04  2772   0.453E-02    0.661E-02
DAV:  10    -0.115772022633E+04    0.76112E-05   -0.29496E-05  2148   0.313E-02    0.335E-02
DAV:  11    -0.115772022959E+04   -0.32683E-05   -0.76416E-06  1908   0.163E-02    0.194E-02
DAV:  12    -0.115772023278E+04   -0.31902E-05   -0.38811E-06  1836   0.120E-02    0.109E-02
DAV:  13    -0.115772023631E+04   -0.35225E-05   -0.15578E-06  1584   0.729E-03    0.622E-03
DAV:  14    -0.115772024027E+04   -0.39650E-05   -0.64774E-07  1512   0.436E-03    0.361E-03
DAV:  15    -0.115772024431E+04   -0.40368E-05   -0.38940E-07  1464   0.361E-03    0.432E-03
DAV:  16    -0.115772024733E+04   -0.30170E-05   -0.31681E-07  1464   0.324E-03    0.264E-03
DAV:  17    -0.115772025106E+04   -0.37314E-05   -0.18614E-07  1452   0.207E-03    0.154E-03
DAV:  18    -0.115772025384E+04   -0.27831E-05   -0.13522E-07  1488   0.137E-03    0.142E-03
DAV:  19    -0.115772025584E+04   -0.19951E-05   -0.93876E-08  1428   0.125E-03    0.143E-03
DAV:  20    -0.115772025840E+04   -0.25680E-05   -0.67691E-08  1476   0.101E-03    0.725E-04
DAV:  21    -0.115772026047E+04   -0.20627E-05   -0.64871E-08  1452   0.636E-04    0.961E-04
DAV:  22    -0.115772026161E+04   -0.11448E-05   -0.38218E-08  1416   0.731E-04    0.699E-04
DAV:  23    -0.115772026305E+04   -0.14349E-05   -0.26914E-08  1440   0.442E-04    0.524E-04
DAV:  24    -0.115772026429E+04   -0.12425E-05   -0.25626E-08  1440   0.279E-04    0.500E-04
DAV:  25    -0.115772026569E+04   -0.14047E-05   -0.15900E-08  1428   0.279E-04    0.400E-04
DAV:  26    -0.115772026741E+04   -0.17120E-05   -0.15742E-08  1452   0.324E-04    0.487E-04
DAV:  27    -0.115772026842E+04   -0.10139E-05   -0.12192E-08  1464   0.368E-04    0.342E-04
DAV:  28    -0.115772026952E+04   -0.11024E-05   -0.15296E-08  1488   0.285E-04    0.327E-04
DAV:  29    -0.115772027020E+04   -0.67845E-06   -0.11874E-08  1464   0.228E-04
 176 F= -.11654207E+04 E0= -.11654175E+04  d E =-.441046E-03  mag=    13.0756
 trial-energy change:   -0.000441  1 .order   -0.000442   -0.000607   -0.000277
 step:   0.1922(harm=  0.1922)  dis= 0.00176  next Energy= -1165.420798 (dE=-0.559E-03)
 bond charge predicted
       N       E                     dE             d eps       ncg     rms          rms(c)
DAV:   1    -0.115771994500E+04    0.32452E-03   -0.18741E-01  1992   0.913E-01    0.124E-01
DAV:   2    -0.115772033665E+04   -0.39165E-03   -0.43417E-03  2748   0.144E-01    0.140E-01
DAV:   3    -0.115772066621E+04   -0.32956E-03   -0.99715E-04  3168   0.164E-01    0.374E-01
DAV:   4    -0.115772038021E+04    0.28600E-03   -0.62142E-04  2940   0.995E-02    0.147E-01
DAV:   5    -0.115772036706E+04    0.13149E-04   -0.30035E-04  2988   0.626E-02    0.782E-02
DAV:   6    -0.115772040146E+04   -0.34394E-04   -0.20733E-04  2952   0.462E-02    0.109E-01
DAV:   7    -0.115772037519E+04    0.26271E-04   -0.14636E-04  2832   0.505E-02    0.605E-02
DAV:   8    -0.115772038818E+04   -0.12990E-04   -0.11336E-04  2988   0.515E-02    0.582E-02
DAV:   9    -0.115772038627E+04    0.19030E-05   -0.88237E-05  2496   0.382E-02    0.557E-02
DAV:  10    -0.115772038101E+04    0.52691E-05   -0.21124E-05  2052   0.266E-02    0.283E-02
DAV:  11    -0.115772038368E+04   -0.26719E-05   -0.54231E-06  1860   0.139E-02    0.163E-02
DAV:  12    -0.115772038624E+04   -0.25637E-05   -0.27507E-06  1740   0.102E-02    0.914E-03
DAV:  13    -0.115772038908E+04   -0.28434E-05   -0.11245E-06  1608   0.620E-03    0.527E-03
DAV:  14    -0.115772039224E+04   -0.31522E-05   -0.46659E-07  1500   0.371E-03    0.312E-03
DAV:  15    -0.115772039527E+04   -0.30304E-05   -0.27384E-07  1476   0.298E-03    0.352E-03
DAV:  16    -0.115772039766E+04   -0.23922E-05   -0.22651E-07  1464   0.269E-03    0.222E-03
DAV:  17    -0.115772040083E+04   -0.31761E-05   -0.13724E-07  1428   0.176E-03    0.134E-03
DAV:  18    -0.115772040307E+04   -0.22310E-05   -0.10007E-07  1476   0.120E-03    0.117E-03
DAV:  19    -0.115772040476E+04   -0.16976E-05   -0.71002E-08  1440   0.107E-03    0.127E-03
DAV:  20    -0.115772040682E+04   -0.20530E-05   -0.51268E-08  1440   0.908E-04    0.637E-04
DAV:  21    -0.115772040842E+04   -0.16005E-05   -0.47652E-08  1452   0.539E-04    0.788E-04
DAV:  22    -0.115772040927E+04   -0.84938E-06   -0.26589E-08  1416   0.602E-04
 177 F= -.11654208E+04 E0= -.11654176E+04  d E =-.552207E-03  mag=    13.0760
 curvature:  -1.70 expect dE=-0.897E-02 dE for cont linesearch -0.211E-08
 trial: gam= 0.90135 g(F)=  0.527E-02 g(S)=  0.000E+00 ort =-0.113E-04 (trialstep = 0.122E+00)
 search vector abs. value=  0.889E-01
 bond charge predicted
       N       E                     dE             d eps       ncg     rms          rms(c)
DAV:   1    -0.115772018407E+04    0.22435E-03   -0.32285E-01  1992   0.120E+00    0.155E-01
DAV:   2    -0.115772081554E+04   -0.63147E-03   -0.69550E-03  2640   0.181E-01    0.149E-01
DAV:   3    -0.115772135015E+04   -0.53461E-03   -0.14455E-03  3264   0.204E-01    0.451E-01
DAV:   4    -0.115772089592E+04    0.45423E-03   -0.56590E-04  2952   0.133E-01    0.176E-01
DAV:   5    -0.115772088204E+04    0.13879E-04   -0.43684E-04  3096   0.686E-02    0.960E-02
DAV:   6    -0.115772091764E+04   -0.35602E-04   -0.29806E-04  2964   0.495E-02    0.116E-01
DAV:   7    -0.115772088744E+04    0.30207E-04   -0.16150E-04  2820   0.512E-02    0.430E-02
DAV:   8    -0.115772092174E+04   -0.34305E-04   -0.10057E-04  2964   0.513E-02    0.825E-02
DAV:   9    -0.115772090382E+04    0.17921E-04   -0.96229E-05  2748   0.425E-02    0.491E-02
DAV:  10    -0.115772090592E+04   -0.20942E-05   -0.19952E-05  2244   0.259E-02    0.353E-02
DAV:  11    -0.115772090742E+04   -0.15074E-05   -0.85167E-06  1944   0.173E-02    0.174E-02
DAV:  12    -0.115772091235E+04   -0.49269E-05   -0.37161E-06  1800   0.121E-02    0.904E-03
DAV:  13    -0.115772091847E+04   -0.61210E-05   -0.14923E-06  1728   0.725E-03    0.764E-03
DAV:  14    -0.115772092161E+04   -0.31415E-05   -0.65817E-07  1584   0.481E-03    0.409E-03
DAV:  15    -0.115772092644E+04   -0.48276E-05   -0.37417E-07  1440   0.323E-03    0.418E-03
DAV:  16    -0.115772093144E+04   -0.49975E-05   -0.31266E-07  1440   0.304E-03    0.230E-03
DAV:  17    -0.115772093734E+04   -0.59008E-05   -0.18351E-07  1512   0.165E-03    0.153E-03
DAV:  18    -0.115772094034E+04   -0.30043E-05   -0.13676E-07  1500   0.143E-03    0.176E-03
DAV:  19    -0.115772094331E+04   -0.29649E-05   -0.94210E-08  1440   0.128E-03    0.119E-03
DAV:  20    -0.115772094618E+04   -0.28766E-05   -0.71883E-08  1452   0.743E-04    0.866E-04
DAV:  21    -0.115772094738E+04   -0.11961E-05   -0.49315E-08  1416   0.556E-04    0.803E-04
DAV:  22    -0.115772094974E+04   -0.23547E-05   -0.34405E-08  1428   0.517E-04    0.695E-04
DAV:  23    -0.115772095238E+04   -0.26475E-05   -0.29561E-08  1452   0.476E-04    0.543E-04
DAV:  24    -0.115772095532E+04   -0.29369E-05   -0.38572E-08  1476   0.403E-04    0.519E-04
DAV:  25    -0.115772095648E+04   -0.11562E-05   -0.23712E-08  1488   0.329E-04    0.490E-04
DAV:  26    -0.115772095798E+04   -0.14996E-05   -0.17977E-08  1404   0.334E-04    0.404E-04
DAV:  27    -0.115772095965E+04   -0.16761E-05   -0.16435E-08  1452   0.307E-04    0.382E-04
DAV:  28    -0.115772096191E+04   -0.22554E-05   -0.30696E-08  1416   0.321E-04    0.367E-04
DAV:  29    -0.115772096309E+04   -0.11804E-05   -0.23502E-08  1500   0.310E-04    0.394E-04
DAV:  30    -0.115772096424E+04   -0.11528E-05   -0.25401E-08  1452   0.314E-04    0.259E-04
DAV:  31    -0.115772096482E+04   -0.57871E-06   -0.17856E-08  1476   0.244E-04
 178 F= -.11654213E+04 E0= -.11654181E+04  d E =-.533177E-03  mag=    13.0770
 trial-energy change:   -0.000533  1 .order   -0.000527   -0.000642   -0.000412
 step:   0.2789(harm=  0.3401)  dis= 0.00232  next Energy= -1165.421603 (dE=-0.812E-03)
 bond charge predicted
       N       E                     dE             d eps       ncg     rms          rms(c)
DAV:   1    -0.115772004897E+04    0.91527E-03   -0.53430E-01  1998   0.154E+00    0.199E-01
DAV:   2    -0.115772112352E+04   -0.10746E-02   -0.11523E-02  2682   0.232E-01    0.191E-01
DAV:   3    -0.115772198509E+04   -0.86157E-03   -0.23930E-03  3240   0.262E-01    0.575E-01
DAV:   4    -0.115772124901E+04    0.73608E-03   -0.90200E-04  2988   0.171E-01    0.223E-01
DAV:   5    -0.115772122582E+04    0.23190E-04   -0.70627E-04  3144   0.878E-02    0.125E-01
DAV:   6    -0.115772128072E+04   -0.54899E-04   -0.50454E-04  3036   0.635E-02    0.151E-01
DAV:   7    -0.115772123125E+04    0.49463E-04   -0.27356E-04  2928   0.661E-02    0.552E-02
DAV:   8    -0.115772128557E+04   -0.54316E-04   -0.16569E-04  3096   0.658E-02    0.106E-01
DAV:   9    -0.115772125555E+04    0.30017E-04   -0.16006E-04  2916   0.547E-02    0.634E-02
DAV:  10    -0.115772125717E+04   -0.16205E-05   -0.32860E-05  2388   0.331E-02    0.457E-02
DAV:  11    -0.115772125786E+04   -0.68903E-06   -0.14241E-05  2088   0.221E-02    0.223E-02
DAV:  12    -0.115772126393E+04   -0.60681E-05   -0.61309E-06  1908   0.154E-02    0.117E-02
DAV:  13    -0.115772127158E+04   -0.76473E-05   -0.24695E-06  1788   0.926E-03    0.958E-03
DAV:  14    -0.115772127547E+04   -0.38943E-05   -0.10660E-06  1656   0.615E-03    0.518E-03
DAV:  15    -0.115772128171E+04   -0.62403E-05   -0.59910E-07  1452   0.418E-03    0.549E-03
DAV:  16    -0.115772128806E+04   -0.63469E-05   -0.49594E-07  1476   0.392E-03    0.294E-03
DAV:  17    -0.115772129548E+04   -0.74213E-05   -0.26143E-07  1488   0.209E-03    0.180E-03
DAV:  18    -0.115772129960E+04   -0.41145E-05   -0.19143E-07  1488   0.180E-03    0.230E-03
DAV:  19    -0.115772130313E+04   -0.35347E-05   -0.13546E-07  1452   0.161E-03    0.144E-03
DAV:  20    -0.115772130651E+04   -0.33777E-05   -0.96774E-08  1452   0.872E-04    0.105E-03
DAV:  21    -0.115772130793E+04   -0.14180E-05   -0.66039E-08  1452   0.670E-04    0.964E-04
DAV:  22    -0.115772131098E+04   -0.30516E-05   -0.47236E-08  1416   0.606E-04    0.840E-04
DAV:  23    -0.115772131444E+04   -0.34571E-05   -0.42284E-08  1452   0.565E-04    0.643E-04
DAV:  24    -0.115772131779E+04   -0.33519E-05   -0.47835E-08  1488   0.475E-04    0.684E-04
DAV:  25    -0.115772131936E+04   -0.15692E-05   -0.31897E-08  1476   0.485E-04    0.541E-04
DAV:  26    -0.115772132158E+04   -0.22248E-05   -0.28067E-08  1428   0.363E-04    0.442E-04
DAV:  27    -0.115772132377E+04   -0.21845E-05   -0.29544E-08  1452   0.323E-04    0.456E-04
DAV:  28    -0.115772132590E+04   -0.21327E-05   -0.28510E-08  1440   0.382E-04    0.483E-04
DAV:  29    -0.115772132750E+04   -0.16063E-05   -0.26032E-08  1464   0.358E-04    0.335E-04
DAV:  30    -0.115772132951E+04   -0.20090E-05   -0.42524E-08  1440   0.271E-04    0.311E-04
DAV:  31    -0.115772133016E+04   -0.64774E-06   -0.22175E-08  1524   0.272E-04
 179 F= -.11654217E+04 E0= -.11654184E+04  d E =-.869460E-03  mag=    13.0781
 curvature:  -2.65 expect dE=-0.603E-02 dE for cont linesearch -0.257E-04
 ZBRENT: extrapolating
 opt :   0.3385  next Energy= -1165.421688 (dE=-0.897E-03)
 bond charge predicted
       N       E                     dE             d eps       ncg     rms          rms(c)
DAV:   1    -0.115772118482E+04    0.14469E-03   -0.77053E-02  2010   0.584E-01    0.755E-02
DAV:   2    -0.115772131999E+04   -0.13517E-03   -0.16575E-03  2646   0.883E-02    0.732E-02
DAV:   3    -0.115772145621E+04   -0.13622E-03   -0.34839E-04  3240   0.998E-02    0.221E-01
DAV:   4    -0.115772134422E+04    0.11199E-03   -0.14144E-04  2976   0.651E-02    0.874E-02
DAV:   5    -0.115772134360E+04    0.62104E-06   -0.10605E-04  2340   0.337E-02    0.467E-02
DAV:   6    -0.115772135446E+04   -0.10863E-04   -0.68997E-05  2388   0.243E-02    0.562E-02
DAV:   7    -0.115772134783E+04    0.66311E-05   -0.38274E-05  2196   0.255E-02    0.211E-02
DAV:   8    -0.115772135762E+04   -0.97894E-05   -0.24415E-05  2436   0.253E-02    0.405E-02
DAV:   9    -0.115772135306E+04    0.45664E-05   -0.22950E-05  2052   0.214E-02    0.234E-02
DAV:  10    -0.115772135396E+04   -0.90589E-06   -0.48705E-06  1872   0.129E-02
 180 F= -.11654217E+04 E0= -.11654184E+04  d E =-.882169E-03  mag=    13.0784
 curvature:  -2.85 expect dE=-0.887E-02 dE for cont linesearch -0.431E-06
 trial: gam= 0.58422 g(F)=  0.311E-02 g(S)=  0.000E+00 ort = 0.116E-03 (trialstep = 0.165E+00)
 search vector abs. value=  0.336E-01
 bond charge predicted
       N       E                     dE             d eps       ncg     rms          rms(c)
DAV:   1    -0.115772125048E+04    0.10258E-03   -0.22439E-01  1992   0.100E+00    0.127E-01
DAV:   2    -0.115772169692E+04   -0.44644E-03   -0.49265E-03  2676   0.155E-01    0.150E-01
DAV:   3    -0.115772211134E+04   -0.41442E-03   -0.11666E-03  3324   0.167E-01    0.435E-01
DAV:   4    -0.115772173901E+04    0.37232E-03   -0.81758E-04  3012   0.105E-01    0.168E-01
DAV:   5    -0.115772172298E+04    0.16037E-04   -0.39635E-04  2988   0.659E-02    0.751E-02
DAV:   6    -0.115772175211E+04   -0.29133E-04   -0.16926E-04  2808   0.470E-02    0.929E-02
DAV:   7    -0.115772173702E+04    0.15088E-04   -0.11476E-04  2808   0.453E-02    0.528E-02
DAV:   8    -0.115772174597E+04   -0.89496E-05   -0.60883E-05  2580   0.412E-02    0.544E-02
DAV:   9    -0.115772174998E+04   -0.40122E-05   -0.45368E-05  2532   0.353E-02    0.474E-02
DAV:  10    -0.115772174808E+04    0.19047E-05   -0.17426E-05  2244   0.266E-02    0.289E-02
DAV:  11    -0.115772175243E+04   -0.43468E-05   -0.58174E-06  1860   0.153E-02    0.183E-02
DAV:  12    -0.115772175678E+04   -0.43488E-05   -0.28205E-06  1752   0.111E-02    0.749E-03
DAV:  13    -0.115772176130E+04   -0.45212E-05   -0.11966E-06  1632   0.590E-03    0.757E-03
DAV:  14    -0.115772176489E+04   -0.35918E-05   -0.64844E-07  1536   0.449E-03    0.306E-03
DAV:  15    -0.115772176969E+04   -0.48053E-05   -0.23208E-07  1464   0.244E-03    0.313E-03
DAV:  16    -0.115772177348E+04   -0.37909E-05   -0.26176E-07  1464   0.266E-03    0.204E-03
DAV:  17    -0.115772177837E+04   -0.48897E-05   -0.15381E-07  1464   0.151E-03    0.134E-03
DAV:  18    -0.115772178105E+04   -0.26761E-05   -0.12394E-07  1464   0.118E-03    0.131E-03
DAV:  19    -0.115772178309E+04   -0.20399E-05   -0.75829E-08  1440   0.983E-04    0.102E-03
DAV:  20    -0.115772178506E+04   -0.19691E-05   -0.48812E-08  1440   0.739E-04    0.764E-04
DAV:  21    -0.115772178666E+04   -0.16036E-05   -0.43614E-08  1440   0.445E-04    0.717E-04
DAV:  22    -0.115772178831E+04   -0.16488E-05   -0.25908E-08  1440   0.497E-04    0.528E-04
DAV:  23    -0.115772179065E+04   -0.23364E-05   -0.22250E-08  1416   0.418E-04    0.503E-04
DAV:  24    -0.115772179298E+04   -0.23331E-05   -0.27865E-08  1488   0.401E-04    0.454E-04
DAV:  25    -0.115772179399E+04   -0.10052E-05   -0.19263E-08  1440   0.333E-04    0.457E-04
DAV:  26    -0.115772179524E+04   -0.12510E-05   -0.14856E-08  1440   0.308E-04    0.305E-04
DAV:  27    -0.115772179626E+04   -0.10232E-05   -0.12415E-08  1464   0.219E-04    0.281E-04
DAV:  28    -0.115772179764E+04   -0.13835E-05   -0.15833E-08  1404   0.210E-04    0.272E-04
DAV:  29    -0.115772179857E+04   -0.92854E-06   -0.10471E-08  1464   0.253E-04
 181 F= -.11654221E+04 E0= -.11654188E+04  d E =-.423066E-03  mag=    13.0788
 trial-energy change:   -0.000423  1 .order   -0.000415   -0.000525   -0.000305
 step:   0.3248(harm=  0.3942)  dis= 0.00164  next Energy= -1165.422251 (dE=-0.578E-03)
 bond charge predicted
       N       E                     dE             d eps       ncg     rms          rms(c)
DAV:   1    -0.115772151952E+04    0.27812E-03   -0.20916E-01  1998   0.967E-01    0.121E-01
DAV:   2    -0.115772190693E+04   -0.38740E-03   -0.45391E-03  2598   0.141E-01    0.105E-01
DAV:   3    -0.115772225057E+04   -0.34365E-03   -0.94165E-04  3276   0.143E-01    0.371E-01
DAV:   4    -0.115772195337E+04    0.29721E-03   -0.60549E-04  3012   0.979E-02    0.122E-01
DAV:   5    -0.115772197005E+04   -0.16688E-04   -0.27585E-04  2892   0.568E-02    0.767E-02
DAV:   6    -0.115772198892E+04   -0.18863E-04   -0.16187E-04  2724   0.392E-02    0.955E-02
DAV:   7    -0.115772196929E+04    0.19624E-04   -0.10585E-04  2724   0.446E-02    0.395E-02
DAV:   8    -0.115772199166E+04   -0.22370E-04   -0.58368E-05  2616   0.415E-02    0.689E-02
DAV:   9    -0.115772198153E+04    0.10131E-04   -0.50400E-05  2520   0.348E-02    0.417E-02
DAV:  10    -0.115772198231E+04   -0.77497E-06   -0.11658E-05  2004   0.205E-02    0.275E-02
DAV:  11    -0.115772198511E+04   -0.27985E-05   -0.57476E-06  1956   0.140E-02    0.147E-02
DAV:  12    -0.115772198798E+04   -0.28769E-05   -0.23205E-06  1716   0.996E-03    0.757E-03
DAV:  13    -0.115772199128E+04   -0.32917E-05   -0.83138E-07  1524   0.546E-03    0.616E-03
DAV:  14    -0.115772199314E+04   -0.18668E-05   -0.48648E-07  1440   0.396E-03    0.260E-03
DAV:  15    -0.115772199708E+04   -0.39404E-05   -0.19990E-07  1416   0.250E-03    0.340E-03
DAV:  16    -0.115772199944E+04   -0.23580E-05   -0.20259E-07  1464   0.268E-03    0.173E-03
DAV:  17    -0.115772200257E+04   -0.31275E-05   -0.12123E-07  1476   0.128E-03    0.126E-03
DAV:  18    -0.115772200381E+04   -0.12405E-05   -0.79104E-08  1476   0.112E-03    0.125E-03
DAV:  19    -0.115772200535E+04   -0.15461E-05   -0.53738E-08  1440   0.885E-04    0.698E-04
DAV:  20    -0.115772200659E+04   -0.12325E-05   -0.39596E-08  1428   0.533E-04    0.718E-04
DAV:  21    -0.115772200740E+04   -0.81602E-06   -0.21414E-08  1404   0.524E-04
 182 F= -.11654223E+04 E0= -.11654190E+04  d E =-.610978E-03  mag=    13.0789
 curvature:  -1.89 expect dE=-0.611E-02 dE for cont linesearch -0.213E-04
 trial: gam= 0.84366 g(F)=  0.323E-02 g(S)=  0.000E+00 ort = 0.615E-03 (trialstep = 0.197E+00)
 search vector abs. value=  0.282E-01
 bond charge predicted
       N       E                     dE             d eps       ncg     rms          rms(c)
DAV:   1    -0.115772177686E+04    0.22973E-03   -0.25714E-01  1992   0.109E+00    0.147E-01
DAV:   2    -0.115772234797E+04   -0.57111E-03   -0.65356E-03  2736   0.170E-01    0.154E-01
DAV:   3    -0.115772267683E+04   -0.32886E-03   -0.14229E-03  3264   0.171E-01    0.383E-01
DAV:   4    -0.115772236992E+04    0.30692E-03   -0.10351E-03  2964   0.109E-01    0.155E-01
DAV:   5    -0.115772238038E+04   -0.10467E-04   -0.30613E-04  3108   0.798E-02    0.973E-02
DAV:   6    -0.115772243145E+04   -0.51069E-04   -0.36517E-04  3096   0.747E-02    0.152E-01
DAV:   7    -0.115772237197E+04    0.59485E-04   -0.31892E-04  3156   0.725E-02    0.101E-01
DAV:   8    -0.115772238171E+04   -0.97417E-05   -0.16938E-04  3024   0.620E-02    0.798E-02
DAV:   9    -0.115772237645E+04    0.52612E-05   -0.12649E-04  2772   0.442E-02    0.549E-02
DAV:  10    -0.115772237490E+04    0.15501E-05   -0.28268E-05  1956   0.271E-02    0.307E-02
DAV:  11    -0.115772237923E+04   -0.43262E-05   -0.54787E-06  1860   0.150E-02    0.159E-02
DAV:  12    -0.115772238399E+04   -0.47639E-05   -0.38968E-06  1716   0.112E-02    0.126E-02
DAV:  13    -0.115772238860E+04   -0.46094E-05   -0.16835E-06  1632   0.764E-03    0.541E-03
DAV:  14    -0.115772239453E+04   -0.59346E-05   -0.67438E-07  1572   0.419E-03    0.425E-03
DAV:  15    -0.115772239869E+04   -0.41562E-05   -0.47036E-07  1488   0.392E-03    0.450E-03
DAV:  16    -0.115772240237E+04   -0.36818E-05   -0.28049E-07  1452   0.298E-03    0.199E-03
DAV:  17    -0.115772240694E+04   -0.45668E-05   -0.19236E-07  1488   0.183E-03    0.173E-03
DAV:  18    -0.115772241038E+04   -0.34402E-05   -0.15352E-07  1464   0.155E-03    0.163E-03
DAV:  19    -0.115772241320E+04   -0.28246E-05   -0.12250E-07  1488   0.136E-03    0.160E-03
DAV:  20    -0.115772241491E+04   -0.17091E-05   -0.78608E-08  1428   0.117E-03    0.906E-04
DAV:  21    -0.115772241679E+04   -0.18763E-05   -0.64121E-08  1452   0.616E-04    0.725E-04
DAV:  22    -0.115772241813E+04   -0.13419E-05   -0.47745E-08  1428   0.444E-04    0.617E-04
DAV:  23    -0.115772242017E+04   -0.20376E-05   -0.30992E-08  1428   0.582E-04    0.727E-04
DAV:  24    -0.115772242227E+04   -0.21031E-05   -0.29013E-08  1452   0.616E-04    0.564E-04
DAV:  25    -0.115772242448E+04   -0.22108E-05   -0.39423E-08  1476   0.495E-04    0.526E-04
DAV:  26    -0.115772242513E+04   -0.64420E-06   -0.24520E-08  1464   0.423E-04
 183 F= -.11654227E+04 E0= -.11654194E+04  d E =-.401610E-03  mag=    13.0784
 trial-energy change:   -0.000402  1 .order   -0.000398   -0.000739   -0.000057
 step:   0.2136(harm=  0.2136)  dis= 0.00094  next Energy= -1165.422685 (dE=-0.400E-03)
 bond charge predicted
       N       E                     dE             d eps       ncg     rms          rms(c)
DAV:   1    -0.115772242563E+04   -0.11450E-05   -0.17868E-03  2136   0.908E-02    0.122E-02
DAV:   2    -0.115772242909E+04   -0.34650E-05   -0.45289E-05  2760   0.142E-02    0.129E-02
DAV:   3    -0.115772243198E+04   -0.28854E-05   -0.91190E-06  2064   0.144E-02    0.325E-02
DAV:   4    -0.115772242939E+04    0.25860E-05   -0.71414E-06  1632   0.952E-03    0.129E-02
DAV:   5    -0.115772243016E+04   -0.76448E-06   -0.19307E-06  1464   0.671E-03
 184 F= -.11654227E+04 E0= -.11654194E+04  d E =-.405295E-03  mag=    13.0784
 curvature:  -0.80 expect dE=-0.229E-02 dE for cont linesearch -0.143E-08
 trial: gam= 1.12675 g(F)=  0.285E-02 g(S)=  0.000E+00 ort = 0.708E-05 (trialstep = 0.146E+00)
 search vector abs. value=  0.386E-01
 bond charge predicted
       N       E                     dE             d eps       ncg     rms          rms(c)
DAV:   1    -0.115772230554E+04    0.12385E-03   -0.20374E-01  1992   0.965E-01    0.116E-01
DAV:   2    -0.115772270360E+04   -0.39806E-03   -0.45158E-03  2676   0.147E-01    0.139E-01
DAV:   3    -0.115772298358E+04   -0.27999E-03   -0.12045E-03  3312   0.153E-01    0.343E-01
DAV:   4    -0.115772270951E+04    0.27408E-03   -0.40283E-04  2964   0.937E-02    0.980E-02
DAV:   5    -0.115772274018E+04   -0.30670E-04   -0.18481E-04  2976   0.534E-02    0.927E-02
DAV:   6    -0.115772275816E+04   -0.17985E-04   -0.22222E-04  2748   0.397E-02    0.109E-01
DAV:   7    -0.115772273361E+04    0.24552E-04   -0.13130E-04  2736   0.430E-02    0.348E-02
DAV:   8    -0.115772275985E+04   -0.26237E-04   -0.64425E-05  2748   0.421E-02    0.714E-02
DAV:   9    -0.115772274554E+04    0.14309E-04   -0.56133E-05  2508   0.359E-02    0.410E-02
DAV:  10    -0.115772274849E+04   -0.29509E-05   -0.11591E-05  2184   0.200E-02    0.292E-02
DAV:  11    -0.115772274971E+04   -0.12176E-05   -0.50718E-06  1860   0.137E-02    0.116E-02
DAV:  12    -0.115772275418E+04   -0.44726E-05   -0.21528E-06  1656   0.899E-03    0.874E-03
DAV:  13    -0.115772275842E+04   -0.42411E-05   -0.11559E-06  1632   0.615E-03    0.478E-03
DAV:  14    -0.115772276134E+04   -0.29212E-05   -0.42507E-07  1500   0.361E-03    0.364E-03
DAV:  15    -0.115772276460E+04   -0.32545E-05   -0.25984E-07  1464   0.294E-03    0.287E-03
DAV:  16    -0.115772276781E+04   -0.32146E-05   -0.18750E-07  1476   0.231E-03    0.169E-03
DAV:  17    -0.115772277044E+04   -0.26295E-05   -0.12301E-07  1452   0.132E-03    0.131E-03
DAV:  18    -0.115772277272E+04   -0.22798E-05   -0.90152E-08  1464   0.103E-03    0.132E-03
DAV:  19    -0.115772277510E+04   -0.23787E-05   -0.71759E-08  1452   0.112E-03    0.131E-03
DAV:  20    -0.115772277717E+04   -0.20684E-05   -0.50519E-08  1464   0.916E-04    0.802E-04
DAV:  21    -0.115772277866E+04   -0.14919E-05   -0.41322E-08  1476   0.666E-04    0.772E-04
DAV:  22    -0.115772277957E+04   -0.91449E-06   -0.26858E-08  1416   0.551E-04
 185 F= -.11654230E+04 E0= -.11654198E+04  d E =-.321448E-03  mag=    13.0777
 trial-energy change:   -0.000321  1 .order   -0.000326   -0.000418   -0.000234
 step:   0.3315(harm=  0.3315)  dis= 0.00166  next Energy= -1165.423164 (dE=-0.474E-03)
 bond charge predicted
       N       E                     dE             d eps       ncg     rms          rms(c)
DAV:   1    -0.115772218910E+04    0.58956E-03   -0.32744E-01  1992   0.122E+00    0.147E-01
DAV:   2    -0.115772283140E+04   -0.64230E-03   -0.71921E-03  2544   0.182E-01    0.131E-01
DAV:   3    -0.115772331784E+04   -0.48645E-03   -0.18235E-03  3372   0.190E-01    0.448E-01
DAV:   4    -0.115772289092E+04    0.42693E-03   -0.13613E-03  2976   0.122E-01    0.162E-01
DAV:   5    -0.115772289373E+04   -0.28088E-05   -0.29079E-04  3060   0.822E-02    0.696E-02
DAV:   6    -0.115772292051E+04   -0.26786E-04   -0.17627E-04  3048   0.526E-02    0.939E-02
DAV:   7    -0.115772290181E+04    0.18706E-04   -0.14333E-04  3024   0.479E-02    0.718E-02
DAV:   8    -0.115772291336E+04   -0.11550E-04   -0.93425E-05  2940   0.470E-02    0.699E-02
DAV:   9    -0.115772290736E+04    0.59998E-05   -0.10554E-04  2724   0.409E-02    0.536E-02
DAV:  10    -0.115772290772E+04   -0.36584E-06   -0.29821E-05  2100   0.256E-02    0.362E-02
DAV:  11    -0.115772291150E+04   -0.37761E-05   -0.69167E-06  1848   0.165E-02    0.148E-02
DAV:  12    -0.115772291728E+04   -0.57798E-05   -0.37817E-06  1716   0.110E-02    0.124E-02
DAV:  13    -0.115772292287E+04   -0.55958E-05   -0.14857E-06  1632   0.723E-03    0.592E-03
DAV:  14    -0.115772292942E+04   -0.65432E-05   -0.55897E-07  1500   0.415E-03    0.363E-03
DAV:  15    -0.115772293392E+04   -0.45048E-05   -0.38195E-07  1476   0.360E-03    0.408E-03
DAV:  16    -0.115772293837E+04   -0.44460E-05   -0.22452E-07  1476   0.269E-03    0.170E-03
DAV:  17    -0.115772294257E+04   -0.41981E-05   -0.16207E-07  1476   0.150E-03    0.193E-03
DAV:  18    -0.115772294602E+04   -0.34530E-05   -0.12897E-07  1452   0.142E-03    0.187E-03
DAV:  19    -0.115772294970E+04   -0.36834E-05   -0.10405E-07  1476   0.131E-03    0.158E-03
DAV:  20    -0.115772295234E+04   -0.26334E-05   -0.78165E-08  1452   0.115E-03    0.885E-04
DAV:  21    -0.115772295489E+04   -0.25552E-05   -0.70412E-08  1512   0.749E-04    0.894E-04
DAV:  22    -0.115772295642E+04   -0.15262E-05   -0.43588E-08  1440   0.678E-04    0.741E-04
DAV:  23    -0.115772295833E+04   -0.19106E-05   -0.33015E-08  1428   0.557E-04    0.537E-04
DAV:  24    -0.115772296108E+04   -0.27546E-05   -0.42856E-08  1452   0.351E-04    0.533E-04
DAV:  25    -0.115772296236E+04   -0.12747E-05   -0.22890E-08  1452   0.368E-04    0.429E-04
DAV:  26    -0.115772296477E+04   -0.24168E-05   -0.26432E-08  1404   0.371E-04    0.494E-04
DAV:  27    -0.115772296674E+04   -0.19706E-05   -0.26364E-08  1464   0.426E-04    0.365E-04
DAV:  28    -0.115772296917E+04   -0.24277E-05   -0.51081E-08  1476   0.334E-04    0.403E-04
DAV:  29    -0.115772296981E+04   -0.63283E-06   -0.24114E-08  1512   0.347E-04
 186 F= -.11654232E+04 E0= -.11654200E+04  d E =-.476104E-03  mag=    13.0767
 curvature:  -2.24 expect dE=-0.970E-02 dE for cont linesearch -0.641E-08
 trial: gam= 1.17571 g(F)=  0.434E-02 g(S)=  0.000E+00 ort =-0.105E-04 (trialstep = 0.123E+00)
 search vector abs. value=  0.577E-01
 bond charge predicted
       N       E                     dE             d eps       ncg     rms          rms(c)
DAV:   1    -0.115772291330E+04    0.55872E-04   -0.21036E-01  1992   0.978E-01    0.121E-01
DAV:   2    -0.115772332198E+04   -0.40868E-03   -0.47276E-03  2652   0.146E-01    0.102E-01
DAV:   3    -0.115772361559E+04   -0.29361E-03   -0.83861E-04  3300   0.153E-01    0.330E-01
DAV:   4    -0.115772337939E+04    0.23620E-03   -0.55222E-04  2988   0.989E-02    0.140E-01
DAV:   5    -0.115772336911E+04    0.10280E-04   -0.23785E-04  2940   0.617E-02    0.679E-02
DAV:   6    -0.115772339429E+04   -0.25181E-04   -0.17547E-04  2928   0.416E-02    0.964E-02
DAV:   7    -0.115772337233E+04    0.21961E-04   -0.10201E-04  2772   0.405E-02    0.454E-02
DAV:   8    -0.115772338651E+04   -0.14183E-04   -0.53241E-05  2700   0.427E-02    0.503E-02
DAV:   9    -0.115772338218E+04    0.43300E-05   -0.47919E-05  2544   0.307E-02    0.370E-02
DAV:  10    -0.115772338313E+04   -0.94658E-06   -0.18625E-05  1932   0.197E-02    0.288E-02
DAV:  11    -0.115772338489E+04   -0.17628E-05   -0.61339E-06  1836   0.139E-02    0.131E-02
DAV:  12    -0.115772338783E+04   -0.29409E-05   -0.22543E-06  1764   0.898E-03    0.742E-03
DAV:  13    -0.115772339066E+04   -0.28289E-05   -0.93512E-07  1560   0.620E-03    0.682E-03
DAV:  14    -0.115772339365E+04   -0.29879E-05   -0.50770E-07  1536   0.440E-03    0.273E-03
DAV:  15    -0.115772339781E+04   -0.41594E-05   -0.24947E-07  1428   0.284E-03    0.373E-03
DAV:  16    -0.115772340009E+04   -0.22773E-05   -0.25408E-07  1488   0.302E-03    0.228E-03
DAV:  17    -0.115772340231E+04   -0.22247E-05   -0.11979E-07  1488   0.157E-03    0.178E-03
DAV:  18    -0.115772340387E+04   -0.15609E-05   -0.95034E-08  1452   0.104E-03    0.155E-03
DAV:  19    -0.115772340563E+04   -0.17573E-05   -0.67137E-08  1428   0.898E-04    0.125E-03
DAV:  20    -0.115772340726E+04   -0.16309E-05   -0.47612E-08  1452   0.982E-04    0.980E-04
DAV:  21    -0.115772340954E+04   -0.22779E-05   -0.40313E-08  1428   0.718E-04    0.654E-04
DAV:  22    -0.115772341073E+04   -0.11866E-05   -0.32234E-08  1488   0.650E-04    0.909E-04
DAV:  23    -0.115772341166E+04   -0.93658E-06   -0.24076E-08  1416   0.585E-04
 187 F= -.11654236E+04 E0= -.11654204E+04  d E =-.400643E-03  mag=    13.0768
 trial-energy change:   -0.000401  1 .order   -0.000406   -0.000530   -0.000281
 step:   0.3224(harm=  0.2607)  dis= 0.00187  next Energy= -1165.423774 (dE=-0.608E-03)
 bond charge predicted
       N       E                     dE             d eps       ncg     rms          rms(c)
DAV:   1    -0.115772226787E+04    0.11429E-02   -0.55793E-01  1992   0.160E+00    0.198E-01
DAV:   2    -0.115772341317E+04   -0.11453E-02   -0.12553E-02  2640   0.238E-01    0.166E-01
DAV:   3    -0.115772413679E+04   -0.72362E-03   -0.21842E-03  3324   0.248E-01    0.526E-01
DAV:   4    -0.115772355017E+04    0.58662E-03   -0.13900E-03  3012   0.161E-01    0.228E-01
DAV:   5    -0.115772350561E+04    0.44560E-04   -0.62579E-04  3132   0.998E-02    0.111E-01
DAV:   6    -0.115772356524E+04   -0.59636E-04   -0.46951E-04  3120   0.681E-02    0.159E-01
DAV:   7    -0.115772350548E+04    0.59762E-04   -0.27706E-04  3024   0.657E-02    0.736E-02
DAV:   8    -0.115772353757E+04   -0.32093E-04   -0.14188E-04  3084   0.693E-02    0.822E-02
DAV:   9    -0.115772352515E+04    0.12420E-04   -0.12715E-04  2916   0.495E-02    0.584E-02
DAV:  10    -0.115772352756E+04   -0.24076E-05   -0.48781E-05  2292   0.311E-02    0.453E-02
DAV:  11    -0.115772353154E+04   -0.39834E-05   -0.16073E-05  1992   0.218E-02    0.211E-02
DAV:  12    -0.115772353821E+04   -0.66635E-05   -0.61924E-06  1932   0.142E-02    0.122E-02
DAV:  13    -0.115772354461E+04   -0.64017E-05   -0.24084E-06  1740   0.986E-03    0.111E-02
DAV:  14    -0.115772355117E+04   -0.65620E-05   -0.12776E-06  1656   0.701E-03    0.443E-03
DAV:  15    -0.115772356099E+04   -0.98153E-05   -0.60855E-07  1476   0.457E-03    0.613E-03
DAV:  16    -0.115772356629E+04   -0.53018E-05   -0.62081E-07  1500   0.488E-03    0.380E-03
DAV:  17    -0.115772357143E+04   -0.51398E-05   -0.28628E-07  1440   0.260E-03    0.293E-03
DAV:  18    -0.115772357517E+04   -0.37461E-05   -0.21736E-07  1500   0.167E-03    0.241E-03
DAV:  19    -0.115772357920E+04   -0.40262E-05   -0.17355E-07  1476   0.145E-03    0.201E-03
DAV:  20    -0.115772358308E+04   -0.38757E-05   -0.13372E-07  1476   0.151E-03    0.151E-03
DAV:  21    -0.115772358836E+04   -0.52863E-05   -0.11276E-07  1416   0.109E-03    0.104E-03
DAV:  22    -0.115772359083E+04   -0.24698E-05   -0.83117E-08  1524   0.962E-04    0.133E-03
DAV:  23    -0.115772359309E+04   -0.22536E-05   -0.68901E-08  1428   0.901E-04    0.707E-04
DAV:  24    -0.115772359597E+04   -0.28803E-05   -0.69338E-08  1476   0.466E-04    0.700E-04
DAV:  25    -0.115772359753E+04   -0.15634E-05   -0.37531E-08  1464   0.489E-04    0.625E-04
DAV:  26    -0.115772360053E+04   -0.30005E-05   -0.35713E-08  1428   0.570E-04    0.689E-04
DAV:  27    -0.115772360348E+04   -0.29507E-05   -0.44583E-08  1452   0.591E-04    0.500E-04
DAV:  28    -0.115772360651E+04   -0.30250E-05   -0.72540E-08  1464   0.445E-04    0.528E-04
DAV:  29    -0.115772360758E+04   -0.10766E-05   -0.42477E-08  1512   0.403E-04    0.401E-04
DAV:  30    -0.115772360845E+04   -0.86745E-06   -0.28408E-08  1416   0.354E-04
 188 F= -.11654237E+04 E0= -.11654205E+04  d E =-.529947E-03  mag=    13.0771
 curvature:  -1.39 expect dE=-0.808E-02 dE for cont linesearch -0.260E-04
 ZBRENT: interpolating
 opt :   0.2601  next Energy= -1165.423728 (dE=-0.562E-03)
 bond charge predicted
       N       E                     dE             d eps       ncg     rms          rms(c)
DAV:   1    -0.115772349049E+04    0.11709E-03   -0.54346E-02  2040   0.497E-01    0.615E-02
DAV:   2    -0.115772358834E+04   -0.97849E-04   -0.12202E-03  2688   0.741E-02    0.520E-02
DAV:   3    -0.115772367053E+04   -0.82189E-04   -0.21406E-04  3336   0.771E-02    0.167E-01
DAV:   4    -0.115772360779E+04    0.62741E-04   -0.14587E-04  2940   0.499E-02    0.708E-02
DAV:   5    -0.115772360903E+04   -0.12392E-05   -0.61489E-05  2292   0.314E-02    0.349E-02
DAV:   6    -0.115772361809E+04   -0.90577E-05   -0.45306E-05  2352   0.212E-02    0.487E-02
DAV:   7    -0.115772361318E+04    0.49055E-05   -0.25771E-05  1968   0.211E-02    0.227E-02
DAV:   8    -0.115772361895E+04   -0.57703E-05   -0.14401E-05  2340   0.218E-02    0.257E-02
DAV:   9    -0.115772361794E+04    0.10121E-05   -0.12617E-05  1944   0.163E-02    0.189E-02
DAV:  10    -0.115772361800E+04   -0.61606E-07   -0.52831E-06  1824   0.105E-02
 189 F= -.11654237E+04 E0= -.11654205E+04  d E =-.560628E-03  mag=    13.0770
 curvature:  -1.73 expect dE=-0.632E-02 dE for cont linesearch -0.441E-06
 trial: gam= 0.83284 g(F)=  0.365E-02 g(S)=  0.000E+00 ort =-0.121E-03 (trialstep = 0.150E+00)
 search vector abs. value=  0.435E-01
 bond charge predicted
       N       E                     dE             d eps       ncg     rms          rms(c)
DAV:   1    -0.115772341522E+04    0.20273E-03   -0.22560E-01  2004   0.101E+00    0.135E-01
DAV:   2    -0.115772388983E+04   -0.47462E-03   -0.54510E-03  2646   0.154E-01    0.119E-01
DAV:   3    -0.115772408922E+04   -0.19939E-03   -0.78651E-04  3276   0.143E-01    0.229E-01
DAV:   4    -0.115772393458E+04    0.15464E-03   -0.40411E-04  3024   0.107E-01    0.890E-02
DAV:   5    -0.115772398220E+04   -0.47619E-04   -0.18865E-04  3144   0.572E-02    0.117E-01
DAV:   6    -0.115772396300E+04    0.19198E-04   -0.13087E-04  2832   0.519E-02    0.664E-02
DAV:   7    -0.115772397952E+04   -0.16519E-04   -0.12068E-04  3060   0.584E-02    0.847E-02
DAV:   8    -0.115772398552E+04   -0.59938E-05   -0.14985E-04  2784   0.495E-02    0.100E-01
DAV:   9    -0.115772397065E+04    0.14871E-04   -0.98671E-05  2244   0.346E-02    0.615E-02
DAV:  10    -0.115772396804E+04    0.26114E-05   -0.29742E-05  1992   0.245E-02    0.256E-02
DAV:  11    -0.115772397100E+04   -0.29638E-05   -0.11226E-05  1872   0.155E-02    0.178E-02
DAV:  12    -0.115772397198E+04   -0.97915E-06   -0.41510E-06  1764   0.110E-02
 190 F= -.11654241E+04 E0= -.11654208E+04  d E =-.352166E-03  mag=    13.0774
 trial-energy change:   -0.000352  1 .order   -0.000362   -0.000533   -0.000191
 step:   0.2727(harm=  0.2343)  dis= 0.00125  next Energy= -1165.424151 (dE=-0.425E-03)
 bond charge predicted
       N       E                     dE             d eps       ncg     rms          rms(c)
DAV:   1    -0.115772362883E+04    0.34217E-03   -0.15034E-01  2004   0.827E-01    0.110E-01
DAV:   2    -0.115772393854E+04   -0.30971E-03   -0.36452E-03  2604   0.124E-01    0.100E-01
DAV:   3    -0.115772412008E+04   -0.18153E-03   -0.54955E-04  3192   0.120E-01    0.266E-01
DAV:   4    -0.115772397212E+04    0.14796E-03   -0.35068E-04  2964   0.805E-02    0.106E-01
DAV:   5    -0.115772398153E+04   -0.94086E-05   -0.15379E-04  2628   0.499E-02    0.765E-02
DAV:   6    -0.115772400213E+04   -0.20600E-04   -0.20221E-04  2748   0.404E-02    0.115E-01
DAV:   7    -0.115772397147E+04    0.30654E-04   -0.13809E-04  2952   0.478E-02    0.493E-02
DAV:   8    -0.115772399387E+04   -0.22403E-04   -0.61467E-05  2712   0.442E-02    0.639E-02
DAV:   9    -0.115772398590E+04    0.79719E-05   -0.58079E-05  2292   0.349E-02    0.418E-02
DAV:  10    -0.115772398644E+04   -0.54270E-06   -0.14529E-05  1872   0.200E-02    0.255E-02
DAV:  11    -0.115772399020E+04   -0.37528E-05   -0.48316E-06  1812   0.128E-02    0.138E-02
DAV:  12    -0.115772399406E+04   -0.38585E-05   -0.21582E-06  1668   0.887E-03    0.645E-03
DAV:  13    -0.115772399847E+04   -0.44117E-05   -0.89206E-07  1560   0.530E-03    0.570E-03
DAV:  14    -0.115772400147E+04   -0.30067E-05   -0.65125E-07  1512   0.452E-03    0.322E-03
DAV:  15    -0.115772400591E+04   -0.44322E-05   -0.27671E-07  1452   0.271E-03    0.310E-03
DAV:  16    -0.115772400891E+04   -0.30033E-05   -0.25562E-07  1476   0.274E-03    0.286E-03
DAV:  17    -0.115772401170E+04   -0.27898E-05   -0.14792E-07  1464   0.195E-03    0.165E-03
DAV:  18    -0.115772401437E+04   -0.26660E-05   -0.11166E-07  1488   0.123E-03    0.159E-03
DAV:  19    -0.115772401696E+04   -0.25979E-05   -0.76726E-08  1464   0.106E-03    0.144E-03
DAV:  20    -0.115772401927E+04   -0.23052E-05   -0.66886E-08  1464   0.114E-03    0.980E-04
DAV:  21    -0.115772402234E+04   -0.30664E-05   -0.65528E-08  1452   0.700E-04    0.773E-04
DAV:  22    -0.115772402370E+04   -0.13653E-05   -0.44571E-08  1476   0.667E-04    0.887E-04
DAV:  23    -0.115772402528E+04   -0.15755E-05   -0.32498E-08  1428   0.626E-04    0.540E-04
DAV:  24    -0.115772402703E+04   -0.17532E-05   -0.32151E-08  1440   0.348E-04    0.498E-04
DAV:  25    -0.115772402796E+04   -0.93244E-06   -0.18468E-08  1428   0.299E-04
 191 F= -.11654241E+04 E0= -.11654209E+04  d E =-.406522E-03  mag=    13.0782
 curvature:  -1.14 expect dE=-0.716E-02 dE for cont linesearch -0.103E-04
 trial: gam= 1.89347 g(F)=  0.629E-02 g(S)=  0.000E+00 ort =-0.628E-03 (trialstep = 0.475E-01)
 search vector abs. value=  0.160E+00
 bond charge predicted
       N       E                     dE             d eps       ncg     rms          rms(c)
DAV:   1    -0.115772403336E+04   -0.63291E-05   -0.86928E-02  2004   0.626E-01    0.775E-02
DAV:   2    -0.115772419741E+04   -0.16405E-03   -0.19185E-03  2628   0.966E-02    0.721E-02
DAV:   3    -0.115772432028E+04   -0.12288E-03   -0.37458E-04  3252   0.107E-01    0.204E-01
DAV:   4    -0.115772422726E+04    0.93020E-04   -0.23966E-04  2940   0.701E-02    0.107E-01
DAV:   5    -0.115772421370E+04    0.13564E-04   -0.10081E-04  2520   0.405E-02    0.374E-02
DAV:   6    -0.115772422715E+04   -0.13453E-04   -0.61589E-05  2664   0.254E-02    0.573E-02
DAV:   7    -0.115772421979E+04    0.73636E-05   -0.40484E-05  2304   0.229E-02    0.308E-02
DAV:   8    -0.115772422393E+04   -0.41394E-05   -0.20637E-05  2232   0.242E-02    0.264E-02
DAV:   9    -0.115772422496E+04   -0.10307E-05   -0.17798E-05  2136   0.196E-02    0.226E-02
DAV:  10    -0.115772422549E+04   -0.53084E-06   -0.76847E-06  1872   0.137E-02
 192 F= -.11654243E+04 E0= -.11654211E+04  d E =-.201380E-03  mag=    13.0784
 ZBRENT: can't locate minimum, use default step
 trial-energy change:   -0.000201  1 .order   -0.000221   -0.000242   -0.000200
 step:   0.1901(harm=  0.2701)  dis= 0.00160  next Energy= -1165.424822 (dE=-0.689E-03)
 bond charge predicted
       N       E                     dE             d eps       ncg     rms          rms(c)
DAV:   1    -0.115772265476E+04    0.15702E-02   -0.78188E-01  1992   0.188E+00    0.233E-01
DAV:   2    -0.115772434477E+04   -0.16900E-02   -0.17350E-02  2652   0.295E-01    0.239E-01
DAV:   3    -0.115772546235E+04   -0.11176E-02   -0.37735E-03  3360   0.336E-01    0.669E-01
DAV:   4    -0.115772455943E+04    0.90292E-03   -0.22989E-03  3012   0.209E-01    0.333E-01
DAV:   5    -0.115772437928E+04    0.18015E-03   -0.10355E-03  3144   0.128E-01    0.116E-01
DAV:   6    -0.115772447850E+04   -0.99220E-04   -0.59729E-04  3288   0.755E-02    0.176E-01
DAV:   7    -0.115772441167E+04    0.66825E-04   -0.35920E-04  3120   0.695E-02    0.870E-02
DAV:   8    -0.115772443619E+04   -0.24517E-04   -0.20741E-04  3072   0.733E-02    0.805E-02
DAV:   9    -0.115772443496E+04    0.12292E-05   -0.20612E-04  3048   0.558E-02    0.761E-02
DAV:  10    -0.115772443217E+04    0.27898E-05   -0.76394E-05  2508   0.400E-02    0.458E-02
DAV:  11    -0.115772444071E+04   -0.85390E-05   -0.14797E-05  1956   0.243E-02    0.261E-02
DAV:  12    -0.115772444814E+04   -0.74297E-05   -0.97307E-06  1836   0.161E-02    0.164E-02
DAV:  13    -0.115772446207E+04   -0.13931E-04   -0.26507E-06  1752   0.970E-03    0.819E-03
DAV:  14    -0.115772447179E+04   -0.97189E-05   -0.14208E-06  1704   0.688E-03    0.801E-03
DAV:  15    -0.115772448022E+04   -0.84299E-05   -0.90144E-07  1560   0.570E-03    0.534E-03
DAV:  16    -0.115772449024E+04   -0.10017E-04   -0.41582E-07  1464   0.356E-03    0.274E-03
DAV:  17    -0.115772449848E+04   -0.82475E-05   -0.28165E-07  1512   0.210E-03    0.274E-03
DAV:  18    -0.115772450504E+04   -0.65556E-05   -0.26647E-07  1464   0.231E-03    0.319E-03
DAV:  19    -0.115772451237E+04   -0.73329E-05   -0.19883E-07  1464   0.204E-03    0.166E-03
DAV:  20    -0.115772451916E+04   -0.67919E-05   -0.16845E-07  1476   0.126E-03    0.163E-03
DAV:  21    -0.115772452270E+04   -0.35347E-05   -0.12482E-07  1500   0.131E-03    0.134E-03
DAV:  22    -0.115772452862E+04   -0.59224E-05   -0.10496E-07  1440   0.998E-04    0.111E-03
DAV:  23    -0.115772453278E+04   -0.41636E-05   -0.90719E-08  1464   0.859E-04    0.812E-04
DAV:  24    -0.115772453732E+04   -0.45363E-05   -0.83109E-08  1464   0.579E-04    0.754E-04
DAV:  25    -0.115772454030E+04   -0.29837E-05   -0.55077E-08  1512   0.612E-04    0.719E-04
DAV:  26    -0.115772454560E+04   -0.52930E-05   -0.64697E-08  1404   0.578E-04    0.646E-04
DAV:  27    -0.115772455010E+04   -0.45006E-05   -0.69430E-08  1512   0.552E-04    0.601E-04
DAV:  28    -0.115772455269E+04   -0.25908E-05   -0.61360E-08  1464   0.428E-04    0.568E-04
DAV:  29    -0.115772455632E+04   -0.36305E-05   -0.60972E-08  1416   0.478E-04    0.504E-04
DAV:  30    -0.115772455863E+04   -0.23107E-05   -0.53640E-08  1452   0.423E-04    0.372E-04
DAV:  31    -0.115772456076E+04   -0.21297E-05   -0.56295E-08  1452   0.333E-04    0.335E-04
DAV:  32    -0.115772456209E+04   -0.13267E-05   -0.40223E-08  1500   0.299E-04    0.324E-04
DAV:  33    -0.115772456332E+04   -0.12334E-05   -0.35989E-08  1440   0.301E-04    0.289E-04
DAV:  34    -0.115772456426E+04   -0.94207E-06   -0.30774E-08  1452   0.309E-04
 193 F= -.11654247E+04 E0= -.11654214E+04  d E =-.550203E-03  mag=    13.0793
 curvature:  -3.68 expect dE=-0.162E-01 dE for cont linesearch -0.916E-05
 trial: gam= 0.16818 g(F)=  0.441E-02 g(S)=  0.000E+00 ort = 0.630E-03 (trialstep = 0.760E-01)
 search vector abs. value=  0.914E-02
 bond charge predicted
       N       E                     dE             d eps       ncg     rms          rms(c)
DAV:   1    -0.115772481077E+04   -0.24745E-03   -0.13678E-02  2136   0.228E-01    0.406E-02
DAV:   2    -0.115772483665E+04   -0.25873E-04   -0.38600E-04  2820   0.370E-02    0.474E-02
DAV:   3    -0.115772485075E+04   -0.14105E-04   -0.13424E-04  3156   0.302E-02    0.939E-02
DAV:   4    -0.115772482917E+04    0.21582E-04   -0.81393E-05  2076   0.213E-02    0.339E-02
DAV:   5    -0.115772485176E+04   -0.22591E-04   -0.21669E-05  2244   0.311E-02    0.834E-02
DAV:   6    -0.115772484120E+04    0.10558E-04   -0.25058E-05  2532   0.285E-02    0.638E-02
DAV:   7    -0.115772483388E+04    0.73198E-05   -0.22395E-05  2304   0.321E-02    0.305E-02
DAV:   8    -0.115772483656E+04   -0.26779E-05   -0.13017E-05  1800   0.180E-02    0.231E-02
DAV:   9    -0.115772483678E+04   -0.21695E-06   -0.65985E-06  1620   0.131E-02
 194 F= -.11654249E+04 E0= -.11654216E+04  d E =-.256902E-03  mag=    13.0792
 trial-energy change:   -0.000257  1 .order   -0.000260   -0.000343   -0.000176
 step:   0.1564(harm=  0.1564)  dis= 0.00075  next Energy= -1165.425036 (dE=-0.353E-03)
 bond charge predicted
       N       E                     dE             d eps       ncg     rms          rms(c)
DAV:   1    -0.115772491148E+04   -0.74915E-04   -0.15255E-02  2076   0.241E-01    0.442E-02
DAV:   2    -0.115772494777E+04   -0.36299E-04   -0.46687E-04  2964   0.472E-02    0.802E-02
DAV:   3    -0.115772495463E+04   -0.68527E-05   -0.23128E-04  3192   0.429E-02    0.107E-01
DAV:   4    -0.115772493551E+04    0.19121E-04   -0.77995E-05  2412   0.257E-02    0.454E-02
DAV:   5    -0.115772494338E+04   -0.78691E-05   -0.16203E-05  2040   0.300E-02    0.460E-02
DAV:   6    -0.115772496416E+04   -0.20787E-04   -0.46390E-05  2592   0.325E-02    0.104E-01
DAV:   7    -0.115772493390E+04    0.30265E-04   -0.54426E-05  2424   0.362E-02    0.277E-02
DAV:   8    -0.115772494140E+04   -0.75052E-05   -0.12462E-05  1860   0.198E-02    0.292E-02
DAV:   9    -0.115772493995E+04    0.14554E-05   -0.75634E-06  1908   0.147E-02    0.138E-02
DAV:  10    -0.115772494115E+04   -0.12029E-05   -0.20687E-06  1512   0.748E-03    0.824E-03
DAV:  11    -0.115772494161E+04   -0.45734E-06   -0.90998E-07  1452   0.511E-03
 195 F= -.11654250E+04 E0= -.11654217E+04  d E =-.345124E-03  mag=    13.0790
 curvature:  -0.16 expect dE=-0.437E-03 dE for cont linesearch -0.522E-07
 trial: gam= 0.67153 g(F)=  0.276E-02 g(S)=  0.000E+00 ort =-0.549E-04 (trialstep = 0.921E-01)
 search vector abs. value=  0.681E-02
 bond charge predicted
       N       E                     dE             d eps       ncg     rms          rms(c)
DAV:   1    -0.115772512274E+04   -0.18159E-03   -0.12399E-02  2016   0.240E-01    0.413E-02
DAV:   2    -0.115772515232E+04   -0.29581E-04   -0.38928E-04  2952   0.423E-02    0.429E-02
DAV:   3    -0.115772517891E+04   -0.26587E-04   -0.17992E-04  3204   0.423E-02    0.114E-01
DAV:   4    -0.115772514283E+04    0.36078E-04   -0.10203E-04  2520   0.285E-02    0.257E-02
DAV:   5    -0.115772516083E+04   -0.17997E-04   -0.27664E-05  2064   0.249E-02    0.613E-02
DAV:   6    -0.115772515885E+04    0.19759E-05   -0.39291E-05  2196   0.201E-02    0.543E-02
DAV:   7    -0.115772515478E+04    0.40660E-05   -0.14008E-05  2040   0.249E-02    0.249E-02
DAV:   8    -0.115772515806E+04   -0.32723E-05   -0.67143E-06  1716   0.155E-02    0.212E-02
DAV:   9    -0.115772515770E+04    0.35673E-06   -0.58200E-06  1800   0.125E-02
 196 F= -.11654252E+04 E0= -.11654219E+04  d E =-.194518E-03  mag=    13.0788
 trial-energy change:   -0.000195  1 .order   -0.000196   -0.000251   -0.000141
 step:   0.2100(harm=  0.2100)  dis= 0.00069  next Energy= -1165.425314 (dE=-0.286E-03)
 bond charge predicted
       N       E                     dE             d eps       ncg     rms          rms(c)
DAV:   1    -0.115772521165E+04   -0.53594E-04   -0.20267E-02  1998   0.308E-01    0.535E-02
DAV:   2    -0.115772526621E+04   -0.54561E-04   -0.65976E-04  3042   0.615E-02    0.750E-02
DAV:   3    -0.115772530090E+04   -0.34685E-04   -0.28701E-04  3180   0.654E-02    0.141E-01
DAV:   4    -0.115772525260E+04    0.48296E-04   -0.10419E-04  2784   0.374E-02    0.413E-02
DAV:   5    -0.115772526405E+04   -0.11449E-04   -0.36194E-05  2112   0.304E-02    0.419E-02
DAV:   6    -0.115772527692E+04   -0.12866E-04   -0.49682E-05  2628   0.279E-02    0.847E-02
DAV:   7    -0.115772526158E+04    0.15334E-04   -0.82348E-05  2220   0.238E-02    0.416E-02
DAV:   8    -0.115772526576E+04   -0.41793E-05   -0.20439E-05  2088   0.239E-02    0.249E-02
DAV:   9    -0.115772526653E+04   -0.76729E-06   -0.96680E-06  1872   0.166E-02
 197 F= -.11654253E+04 E0= -.11654220E+04  d E =-.275427E-03  mag=    13.0786
 curvature:  -0.26 expect dE=-0.289E-03 dE for cont linesearch -0.157E-06
 trial: gam= 0.38015 g(F)=  0.110E-02 g(S)=  0.000E+00 ort =-0.638E-04 (trialstep = 0.116E+00)
 search vector abs. value=  0.203E-02
 bond charge predicted
       N       E                     dE             d eps       ncg     rms          rms(c)
DAV:   1    -0.115772536354E+04   -0.97778E-04   -0.59667E-03  2040   0.169E-01    0.285E-02
DAV:   2    -0.115772540279E+04   -0.39256E-04   -0.21119E-04  3054   0.544E-02    0.118E-01
DAV:   3    -0.115772537232E+04    0.30472E-04   -0.10656E-04  2934   0.470E-02    0.585E-02
DAV:   4    -0.115772538044E+04   -0.81170E-05   -0.57709E-05  1938   0.276E-02    0.529E-02
DAV:   5    -0.115772537495E+04    0.54849E-05   -0.28048E-05  1896   0.214E-02    0.185E-02
DAV:   6    -0.115772537801E+04   -0.30525E-05   -0.67895E-06  1692   0.120E-02    0.192E-02
DAV:   7    -0.115772537925E+04   -0.12386E-05   -0.53979E-06  1812   0.115E-02    0.221E-02
DAV:   8    -0.115772537872E+04    0.52432E-06   -0.64324E-06  1680   0.134E-02
 198 F= -.11654254E+04 E0= -.11654222E+04  d E =-.107307E-03  mag=    13.0786
 ZBRENT: can't locate minimum, use default step
 trial-energy change:   -0.000107  1 .order   -0.000110   -0.000124   -0.000096
 step:   0.4628(harm=  0.5076)  dis= 0.00058  next Energy= -1165.425577 (dE=-0.273E-03)
 bond charge predicted
       N       E                     dE             d eps       ncg     rms          rms(c)
DAV:   1    -0.115772538412E+04   -0.48717E-05   -0.53588E-02  1992   0.505E-01    0.746E-02
DAV:   2    -0.115772550682E+04   -0.12270E-03   -0.14570E-03  2952   0.903E-02    0.816E-02
DAV:   3    -0.115772557032E+04   -0.63502E-04   -0.52014E-04  3108   0.978E-02    0.157E-01
DAV:   4    -0.115772550604E+04    0.64282E-04   -0.38290E-04  2976   0.605E-02    0.817E-02
DAV:   5    -0.115772551238E+04   -0.63427E-05   -0.12275E-04  2664   0.393E-02    0.598E-02
DAV:   6    -0.115772552209E+04   -0.97085E-05   -0.49662E-05  2388   0.325E-02    0.751E-02
DAV:   7    -0.115772551956E+04    0.25336E-05   -0.32583E-05  2772   0.336E-02    0.648E-02
DAV:   8    -0.115772551230E+04    0.72548E-05   -0.45987E-05  2424   0.343E-02    0.254E-02
DAV:   9    -0.115772551846E+04   -0.61620E-05   -0.31210E-05  2472   0.245E-02    0.349E-02
DAV:  10    -0.115772551565E+04    0.28136E-05   -0.11288E-05  1992   0.182E-02    0.143E-02
DAV:  11    -0.115772551645E+04   -0.80217E-06   -0.22781E-06  1752   0.905E-03
 199 F= -.11654255E+04 E0= -.11654222E+04  d E =-.230389E-03  mag=    13.0786
 curvature:  -0.47 expect dE=-0.942E-03 dE for cont linesearch -0.159E-06
 trial: gam= 1.77994 g(F)=  0.199E-02 g(S)=  0.000E+00 ort =-0.261E-04 (trialstep = 0.452E-01)
 search vector abs. value=  0.834E-02
 bond charge predicted
       N       E                     dE             d eps       ncg     rms          rms(c)
DAV:   1    -0.115772558670E+04   -0.71053E-04   -0.40966E-03  2148   0.134E-01    0.212E-02
DAV:   2    -0.115772559817E+04   -0.11463E-04   -0.11279E-04  3048   0.287E-02    0.446E-02
DAV:   3    -0.115772559841E+04   -0.23941E-06   -0.61313E-05  2712   0.274E-02    0.494E-02
DAV:   4    -0.115772559724E+04    0.11658E-05   -0.34617E-05  1812   0.154E-02    0.357E-02
DAV:   5    -0.115772559703E+04    0.20760E-06   -0.84186E-06  1764   0.148E-02
 200 F= -.11654256E+04 E0= -.11654223E+04  d E =-.771295E-04  mag=    13.0787
 trial-energy change:   -0.000077  1 .order   -0.000076   -0.000088   -0.000064
 step:   0.1692(harm=  0.1692)  dis= 0.00045  next Energy= -1165.425698 (dE=-0.164E-03)
 bond charge predicted
       N       E                     dE             d eps       ncg     rms          rms(c)
DAV:   1    -0.115772561949E+04   -0.22250E-04   -0.30867E-02  2022   0.367E-01    0.656E-02
DAV:   2    -0.115772581629E+04   -0.19680E-03   -0.10836E-03  3018   0.104E-01    0.269E-01
DAV:   3    -0.115772564171E+04    0.17458E-03   -0.40617E-04  3042   0.871E-02    0.748E-02
DAV:   4    -0.115772569790E+04   -0.56190E-04   -0.11711E-04  2868   0.444E-02    0.117E-01
DAV:   5    -0.115772566940E+04    0.28505E-04   -0.16443E-04  2580   0.344E-02    0.613E-02
DAV:   6    -0.115772568154E+04   -0.12143E-04   -0.70581E-05  2208   0.368E-02    0.559E-02
DAV:   7    -0.115772568318E+04   -0.16367E-05   -0.70536E-05  2664   0.364E-02    0.591E-02
DAV:   8    -0.115772567605E+04    0.71259E-05   -0.54769E-05  2376   0.315E-02    0.400E-02
DAV:   9    -0.115772567838E+04   -0.23334E-05   -0.14427E-05  1884   0.183E-02    0.221E-02
DAV:  10    -0.115772567990E+04   -0.15112E-05   -0.45413E-06  1860   0.133E-02    0.792E-03
DAV:  11    -0.115772568183E+04   -0.19388E-05   -0.14690E-06  1692   0.675E-03    0.762E-03
DAV:  12    -0.115772568299E+04   -0.11574E-05   -0.68705E-07  1536   0.459E-03    0.348E-03
DAV:  13    -0.115772568412E+04   -0.11258E-05   -0.35329E-07  1488   0.332E-03    0.316E-03
DAV:  14    -0.115772568551E+04   -0.13957E-05   -0.16261E-07  1440   0.215E-03    0.189E-03
DAV:  15    -0.115772568662E+04   -0.11079E-05   -0.89398E-08  1476   0.130E-03    0.147E-03
DAV:  16    -0.115772568746E+04   -0.83625E-06   -0.66200E-08  1428   0.141E-03
 201 F= -.11654257E+04 E0= -.11654224E+04  d E =-.158089E-03  mag=    13.0790
 curvature:  -0.36 expect dE=-0.432E-03 dE for cont linesearch -0.907E-06
 trial: gam= 0.63662 g(F)=  0.119E-02 g(S)=  0.000E+00 ort =-0.144E-03 (trialstep = 0.700E-01)
 search vector abs. value=  0.438E-02
 bond charge predicted
       N       E                     dE             d eps       ncg     rms          rms(c)
DAV:   1    -0.115772574219E+04   -0.55573E-04   -0.47946E-03  2088   0.149E-01    0.211E-02
DAV:   2    -0.115772575133E+04   -0.91395E-05   -0.11892E-04  2940   0.253E-02    0.241E-02
DAV:   3    -0.115772576251E+04   -0.11176E-04   -0.40926E-05  2748   0.295E-02    0.689E-02
DAV:   4    -0.115772575174E+04    0.10773E-04   -0.31700E-05  1800   0.179E-02    0.262E-02
DAV:   5    -0.115772575342E+04   -0.16883E-05   -0.65247E-06  1596   0.127E-02    0.111E-02
DAV:   6    -0.115772575466E+04   -0.12399E-05   -0.44723E-06  1872   0.894E-03    0.159E-02
DAV:   7    -0.115772575473E+04   -0.67215E-07   -0.34101E-06  1656   0.862E-03
 202 F= -.11654258E+04 E0= -.11654225E+04  d E =-.693690E-04  mag=    13.0791
 ZBRENT: can't locate minimum, use default step
 trial-energy change:   -0.000069  1 .order   -0.000070   -0.000077   -0.000062
 step:   0.2799(harm=  0.3749)  dis= 0.00057  next Energy= -1165.425898 (dE=-0.205E-03)
 bond charge predicted
       N       E                     dE             d eps       ncg     rms          rms(c)
DAV:   1    -0.115772574133E+04    0.13337E-04   -0.43020E-02  1992   0.447E-01    0.637E-02
DAV:   2    -0.115772584150E+04   -0.10018E-03   -0.10796E-03  2988   0.810E-02    0.985E-02
DAV:   3    -0.115772590409E+04   -0.62587E-04   -0.24962E-04  3204   0.870E-02    0.183E-01
DAV:   4    -0.115772584618E+04    0.57914E-04   -0.95768E-05  2928   0.505E-02    0.899E-02
DAV:   5    -0.115772583414E+04    0.12034E-04   -0.11720E-04  2376   0.342E-02    0.533E-02
DAV:   6    -0.115772583988E+04   -0.57407E-05   -0.61632E-05  2508   0.256E-02    0.386E-02
DAV:   7    -0.115772584391E+04   -0.40231E-05   -0.28624E-05  2472   0.229E-02    0.408E-02
DAV:   8    -0.115772584226E+04    0.16468E-05   -0.30590E-05  2352   0.240E-02    0.249E-02
DAV:   9    -0.115772584658E+04   -0.43221E-05   -0.11018E-05  2052   0.172E-02    0.259E-02
DAV:  10    -0.115772584507E+04    0.15166E-05   -0.41063E-06  1848   0.136E-02    0.117E-02
DAV:  11    -0.115772584673E+04   -0.16691E-05   -0.92965E-07  1548   0.636E-03    0.574E-03
DAV:  12    -0.115772584779E+04   -0.10562E-05   -0.54293E-07  1524   0.456E-03    0.393E-03
DAV:  13    -0.115772584860E+04   -0.81270E-06   -0.26134E-07  1440   0.285E-03
 203 F= -.11654259E+04 E0= -.11654225E+04  d E =-.169621E-03  mag=    13.0795
 curvature:  -0.68 expect dE=-0.777E-03 dE for cont linesearch -0.206E-05
 trial: gam= 0.74411 g(F)=  0.115E-02 g(S)=  0.000E+00 ort = 0.115E-03 (trialstep = 0.112E+00)
 search vector abs. value=  0.375E-02
 bond charge predicted
       N       E                     dE             d eps       ncg     rms          rms(c)
DAV:   1    -0.115772591104E+04   -0.63246E-04   -0.10511E-02  2004   0.220E-01    0.330E-02
DAV:   2    -0.115772593531E+04   -0.24269E-04   -0.28594E-04  2898   0.394E-02    0.411E-02
DAV:   3    -0.115772595068E+04   -0.15377E-04   -0.87825E-05  3024   0.448E-02    0.876E-02
DAV:   4    -0.115772593578E+04    0.14900E-04   -0.73172E-05  2232   0.264E-02    0.495E-02
DAV:   5    -0.115772593424E+04    0.15391E-05   -0.20112E-05  2052   0.201E-02    0.189E-02
DAV:   6    -0.115772593803E+04   -0.37904E-05   -0.16437E-05  2076   0.161E-02    0.311E-02
DAV:   7    -0.115772593648E+04    0.15543E-05   -0.12736E-05  1992   0.159E-02    0.218E-02
DAV:   8    -0.115772593729E+04   -0.81238E-06   -0.81637E-06  1800   0.132E-02
 204 F= -.11654260E+04 E0= -.11654227E+04  d E =-.110223E-03  mag=    13.0795
 trial-energy change:   -0.000110  1 .order   -0.000113   -0.000138   -0.000088
 step:   0.3066(harm=  0.3066)  dis= 0.00063  next Energy= -1165.426051 (dE=-0.189E-03)
 bond charge predicted
       N       E                     dE             d eps       ncg     rms          rms(c)
DAV:   1    -0.115772588175E+04    0.54731E-04   -0.31680E-02  1998   0.383E-01    0.594E-02
DAV:   2    -0.115772597779E+04   -0.96037E-04   -0.96435E-04  3030   0.862E-02    0.123E-01
DAV:   3    -0.115772597750E+04    0.28600E-06   -0.50817E-04  3120   0.885E-02    0.148E-01
DAV:   4    -0.115772596162E+04    0.15880E-04   -0.33855E-04  2892   0.511E-02    0.110E-01
DAV:   5    -0.115772594725E+04    0.14373E-04   -0.82307E-05  2532   0.405E-02    0.397E-02
DAV:   6    -0.115772595626E+04   -0.90107E-05   -0.28667E-05  2436   0.292E-02    0.422E-02
DAV:   7    -0.115772596284E+04   -0.65847E-05   -0.34870E-05  2436   0.250E-02    0.653E-02
DAV:   8    -0.115772595252E+04    0.10326E-04   -0.32514E-05  2304   0.270E-02    0.252E-02
DAV:   9    -0.115772595666E+04   -0.41441E-05   -0.13178E-05  2004   0.203E-02    0.201E-02
DAV:  10    -0.115772595747E+04   -0.80947E-06   -0.57864E-06  1872   0.148E-02
 205 F= -.11654260E+04 E0= -.11654227E+04  d E =-.167579E-03  mag=    13.0794
 curvature:  -0.47 expect dE=-0.688E-03 dE for cont linesearch -0.975E-06
 trial: gam= 1.55711 g(F)=  0.148E-02 g(S)=  0.000E+00 ort =-0.886E-04 (trialstep = 0.550E-01)
 search vector abs. value=  0.103E-01
 bond charge predicted
       N       E                     dE             d eps       ncg     rms          rms(c)
DAV:   1    -0.115772599011E+04   -0.33453E-04   -0.72900E-03  2028   0.182E-01    0.258E-02
DAV:   2    -0.115772601827E+04   -0.28153E-04   -0.24189E-04  2934   0.431E-02    0.925E-02
DAV:   3    -0.115772599832E+04    0.19949E-04   -0.15647E-04  2964   0.366E-02    0.480E-02
DAV:   4    -0.115772601043E+04   -0.12108E-04   -0.37799E-05  2124   0.254E-02    0.499E-02
DAV:   5    -0.115772600626E+04    0.41617E-05   -0.11599E-05  1884   0.201E-02    0.228E-02
DAV:   6    -0.115772600749E+04   -0.12306E-05   -0.43408E-06  1764   0.126E-02    0.168E-02
DAV:   7    -0.115772600942E+04   -0.19253E-05   -0.71948E-06  1932   0.124E-02    0.223E-02
DAV:   8    -0.115772600885E+04    0.57041E-06   -0.56326E-06  1752   0.124E-02
 206 F= -.11654261E+04 E0= -.11654228E+04  d E =-.645488E-04  mag=    13.0793
 ZBRENT: can't locate minimum, use default step
 trial-energy change:   -0.000065  1 .order   -0.000065   -0.000074   -0.000057
 step:   0.2198(harm=  0.2460)  dis= 0.00079  next Energy= -1165.426194 (dE=-0.165E-03)
 bond charge predicted
       N       E                     dE             d eps       ncg     rms          rms(c)
DAV:   1    -0.115772590163E+04    0.10779E-03   -0.65661E-02  1992   0.545E-01    0.712E-02
DAV:   2    -0.115772603128E+04   -0.12966E-03   -0.14742E-03  2808   0.909E-02    0.953E-02
DAV:   3    -0.115772610743E+04   -0.76148E-04   -0.32116E-04  3228   0.100E-01    0.187E-01
DAV:   4    -0.115772605011E+04    0.57321E-04   -0.19163E-04  2916   0.609E-02    0.116E-01
DAV:   5    -0.115772603164E+04    0.18470E-04   -0.13841E-04  2502   0.423E-02    0.512E-02
DAV:   6    -0.115772604989E+04   -0.18250E-04   -0.11005E-04  2628   0.359E-02    0.750E-02
DAV:   7    -0.115772604210E+04    0.77870E-05   -0.79217E-05  2616   0.334E-02    0.496E-02
DAV:   8    -0.115772604121E+04    0.89311E-06   -0.36802E-05  2388   0.309E-02    0.274E-02
DAV:   9    -0.115772604524E+04   -0.40278E-05   -0.17648E-05  2112   0.207E-02    0.299E-02
DAV:  10    -0.115772604443E+04    0.80876E-06   -0.56118E-06  1992   0.172E-02
 207 F= -.11654262E+04 E0= -.11654229E+04  d E =-.139613E-03  mag=    13.0789
 curvature:  -0.93 expect dE=-0.180E-02 dE for cont linesearch -0.140E-06
 trial: gam= 0.95699 g(F)=  0.194E-02 g(S)=  0.000E+00 ort = 0.394E-04 (trialstep = 0.791E-01)
 search vector abs. value=  0.114E-01
 bond charge predicted
       N       E                     dE             d eps       ncg     rms          rms(c)
DAV:   1    -0.115772613285E+04   -0.87609E-04   -0.15792E-02  1992   0.272E-01    0.373E-02
DAV:   2    -0.115772618662E+04   -0.53768E-04   -0.42729E-04  3012   0.580E-02    0.106E-01
DAV:   3    -0.115772617670E+04    0.99133E-05   -0.17784E-04  3132   0.547E-02    0.981E-02
DAV:   4    -0.115772617695E+04   -0.24655E-06   -0.11874E-04  2628   0.365E-02    0.682E-02
DAV:   5    -0.115772616687E+04    0.10079E-04   -0.50357E-05  2106   0.300E-02    0.238E-02
DAV:   6    -0.115772617059E+04   -0.37254E-05   -0.11318E-05  2004   0.153E-02    0.212E-02
DAV:   7    -0.115772617287E+04   -0.22773E-05   -0.83025E-06  1932   0.133E-02    0.255E-02
DAV:   8    -0.115772617293E+04   -0.61773E-07   -0.81169E-06  1860   0.146E-02
 208 F= -.11654263E+04 E0= -.11654231E+04  d E =-.136584E-03  mag=    13.0788
 ZBRENT: can't locate minimum, use default step
 trial-energy change:   -0.000137  1 .order   -0.000138   -0.000156   -0.000120
 step:   0.3164(harm=  0.3391)  dis= 0.00126  next Energy= -1165.426504 (dE=-0.335E-03)
 bond charge predicted
       N       E                     dE             d eps       ncg     rms          rms(c)
DAV:   1    -0.115772596104E+04    0.21183E-03   -0.14206E-01  1992   0.815E-01    0.108E-01
DAV:   2    -0.115772632391E+04   -0.36287E-03   -0.36529E-03  2904   0.152E-01    0.188E-01
DAV:   3    -0.115772646373E+04   -0.13982E-03   -0.20933E-03  3240   0.165E-01    0.347E-01
DAV:   4    -0.115772630578E+04    0.15795E-03   -0.12629E-03  3060   0.966E-02    0.170E-01
DAV:   5    -0.115772627294E+04    0.32841E-04   -0.25396E-04  2916   0.834E-02    0.702E-02
DAV:   6    -0.115772628003E+04   -0.70915E-05   -0.76185E-05  2988   0.440E-02    0.596E-02
DAV:   7    -0.115772629124E+04   -0.11210E-04   -0.73766E-05  2760   0.341E-02    0.891E-02
DAV:   8    -0.115772627429E+04    0.16954E-04   -0.59091E-05  2628   0.375E-02    0.330E-02
DAV:   9    -0.115772629042E+04   -0.16136E-04   -0.34041E-05  2544   0.333E-02    0.507E-02
DAV:  10    -0.115772628583E+04    0.45896E-05   -0.19676E-05  2136   0.288E-02    0.221E-02
DAV:  11    -0.115772628873E+04   -0.28952E-05   -0.49802E-06  1800   0.140E-02    0.126E-02
DAV:  12    -0.115772629256E+04   -0.38297E-05   -0.24014E-06  1752   0.833E-03    0.803E-03
DAV:  13    -0.115772629497E+04   -0.24167E-05   -0.99973E-07  1560   0.610E-03    0.543E-03
DAV:  14    -0.115772629795E+04   -0.29816E-05   -0.39935E-07  1452   0.365E-03    0.258E-03
DAV:  15    -0.115772630108E+04   -0.31235E-05   -0.22312E-07  1476   0.245E-03    0.266E-03
DAV:  16    -0.115772630364E+04   -0.25635E-05   -0.18284E-07  1488   0.239E-03    0.304E-03
DAV:  17    -0.115772630601E+04   -0.23661E-05   -0.14041E-07  1452   0.201E-03    0.125E-03
DAV:  18    -0.115772630873E+04   -0.27268E-05   -0.12581E-07  1452   0.110E-03    0.144E-03
DAV:  19    -0.115772630983E+04   -0.10930E-05   -0.90950E-08  1452   0.117E-03    0.134E-03
DAV:  20    -0.115772631092E+04   -0.10893E-05   -0.54956E-08  1416   0.915E-04    0.844E-04
DAV:  21    -0.115772631218E+04   -0.12636E-05   -0.46511E-08  1464   0.497E-04    0.755E-04
DAV:  22    -0.115772631285E+04   -0.67105E-06   -0.28770E-08  1404   0.538E-04
 209 F= -.11654265E+04 E0= -.11654232E+04  d E =-.300556E-03  mag=    13.0786
 curvature:  -0.97 expect dE=-0.194E-02 dE for cont linesearch -0.145E-05
 trial: gam= 1.22430 g(F)=  0.199E-02 g(S)=  0.000E+00 ort =-0.131E-03 (trialstep = 0.769E-01)
 search vector abs. value=  0.188E-01
 bond charge predicted
       N       E                     dE             d eps       ncg     rms          rms(c)
DAV:   1    -0.115772635849E+04   -0.46307E-04   -0.23907E-02  2022   0.336E-01    0.435E-02
DAV:   2    -0.115772640576E+04   -0.47275E-04   -0.60428E-04  2856   0.523E-02    0.634E-02
DAV:   3    -0.115772645709E+04   -0.51328E-04   -0.35187E-04  3264   0.513E-02    0.173E-01
DAV:   4    -0.115772639144E+04    0.65650E-04   -0.16997E-04  2604   0.340E-02    0.332E-02
DAV:   5    -0.115772640906E+04   -0.17616E-04   -0.22510E-05  1860   0.221E-02    0.293E-02
DAV:   6    -0.115772641414E+04   -0.50849E-05   -0.10948E-05  2148   0.169E-02    0.379E-02
DAV:   7    -0.115772641244E+04    0.17036E-05   -0.17665E-05  2016   0.185E-02    0.317E-02
DAV:   8    -0.115772641371E+04   -0.12762E-05   -0.13705E-05  1812   0.165E-02    0.249E-02
DAV:   9    -0.115772641447E+04   -0.75335E-06   -0.62936E-06  1728   0.159E-02
 210 F= -.11654266E+04 E0= -.11654233E+04  d E =-.119538E-03  mag=    13.0785
 ZBRENT: can't locate minimum, use default step
 trial-energy change:   -0.000120  1 .order   -0.000126   -0.000141   -0.000112
 step:   0.3077(harm=  0.3718)  dis= 0.00164  next Energy= -1165.426810 (dE=-0.340E-03)
 bond charge predicted
       N       E                     dE             d eps       ncg     rms          rms(c)
DAV:   1    -0.115772596193E+04    0.45179E-03   -0.21492E-01  1992   0.101E+00    0.132E-01
DAV:   2    -0.115772653719E+04   -0.57527E-03   -0.57632E-03  2892   0.171E-01    0.292E-01
DAV:   3    -0.115772674335E+04   -0.20616E-03   -0.30905E-03  3252   0.156E-01    0.445E-01
DAV:   4    -0.115772641533E+04    0.32802E-03   -0.11716E-03  2880   0.970E-02    0.122E-01
DAV:   5    -0.115772645148E+04   -0.36153E-04   -0.23633E-04  2844   0.712E-02    0.751E-02
DAV:   6    -0.115772647757E+04   -0.26088E-04   -0.12082E-04  3072   0.470E-02    0.973E-02
DAV:   7    -0.115772646303E+04    0.14544E-04   -0.10407E-04  3072   0.598E-02    0.729E-02
DAV:   8    -0.115772647539E+04   -0.12362E-04   -0.44653E-05  2676   0.414E-02    0.670E-02
DAV:   9    -0.115772647084E+04    0.45469E-05   -0.45353E-05  2232   0.241E-02    0.456E-02
DAV:  10    -0.115772647191E+04   -0.10655E-05   -0.12227E-05  1728   0.179E-02    0.315E-02
DAV:  11    -0.115772647639E+04   -0.44797E-05   -0.64572E-06  1836   0.146E-02    0.168E-02
DAV:  12    -0.115772648118E+04   -0.47861E-05   -0.34328E-06  1656   0.101E-02    0.842E-03
DAV:  13    -0.115772648616E+04   -0.49882E-05   -0.10992E-06  1584   0.578E-03    0.866E-03
DAV:  14    -0.115772648842E+04   -0.22572E-05   -0.62321E-07  1488   0.463E-03    0.456E-03
DAV:  15    -0.115772649189E+04   -0.34732E-05   -0.28398E-07  1452   0.245E-03    0.264E-03
DAV:  16    -0.115772649459E+04   -0.27008E-05   -0.24715E-07  1452   0.261E-03    0.261E-03
DAV:  17    -0.115772649863E+04   -0.40354E-05   -0.15601E-07  1488   0.186E-03    0.148E-03
DAV:  18    -0.115772650156E+04   -0.29289E-05   -0.13788E-07  1452   0.177E-03    0.244E-03
DAV:  19    -0.115772650351E+04   -0.19536E-05   -0.11164E-07  1452   0.175E-03    0.968E-04
DAV:  20    -0.115772650562E+04   -0.21075E-05   -0.88048E-08  1440   0.726E-04    0.963E-04
DAV:  21    -0.115772650648E+04   -0.86306E-06   -0.50590E-08  1440   0.783E-04
 211 F= -.11654267E+04 E0= -.11654235E+04  d E =-.265188E-03  mag=    13.0783
 curvature:  -1.82 expect dE=-0.624E-02 dE for cont linesearch -0.592E-06
 trial: gam= 1.56799 g(F)=  0.343E-02 g(S)=  0.000E+00 ort =-0.782E-04 (trialstep = 0.468E-01)
 search vector abs. value=  0.494E-01
 bond charge predicted
       N       E                     dE             d eps       ncg     rms          rms(c)
DAV:   1    -0.115772656682E+04   -0.61199E-04   -0.25066E-02  2022   0.341E-01    0.404E-02
DAV:   2    -0.115772661092E+04   -0.44101E-04   -0.56356E-04  2736   0.503E-02    0.486E-02
DAV:   3    -0.115772665849E+04   -0.47572E-04   -0.23457E-04  3264   0.500E-02    0.155E-01
DAV:   4    -0.115772660580E+04    0.52696E-04   -0.15014E-04  2640   0.331E-02    0.357E-02
DAV:   5    -0.115772661829E+04   -0.12491E-04   -0.25938E-05  1896   0.249E-02    0.271E-02
DAV:   6    -0.115772662159E+04   -0.32996E-05   -0.21010E-05  2388   0.185E-02    0.293E-02
DAV:   7    -0.115772661934E+04    0.22461E-05   -0.11460E-05  2088   0.188E-02    0.187E-02
DAV:   8    -0.115772662244E+04   -0.31038E-05   -0.86886E-06  1788   0.136E-02    0.296E-02
DAV:   9    -0.115772662194E+04    0.50630E-06   -0.91096E-06  1656   0.119E-02
 212 F= -.11654269E+04 E0= -.11654236E+04  d E =-.135323E-03  mag=    13.0781
 ZBRENT: can't locate minimum, use default step
 trial-energy change:   -0.000135  1 .order   -0.000139   -0.000155   -0.000124
 step:   0.1874(harm=  0.2329)  dis= 0.00163  next Energy= -1165.427119 (dE=-0.385E-03)
 bond charge predicted
       N       E                     dE             d eps       ncg     rms          rms(c)
DAV:   1    -0.115772622582E+04    0.39663E-03   -0.22534E-01  1992   0.102E+00    0.123E-01
DAV:   2    -0.115772675371E+04   -0.52789E-03   -0.53240E-03  2784   0.168E-01    0.254E-01
DAV:   3    -0.115772693203E+04   -0.17832E-03   -0.21787E-03  3324   0.149E-01    0.394E-01
DAV:   4    -0.115772670172E+04    0.23031E-03   -0.11702E-03  2976   0.101E-01    0.144E-01
DAV:   5    -0.115772669881E+04    0.29063E-05   -0.32757E-04  2994   0.824E-02    0.720E-02
DAV:   6    -0.115772673830E+04   -0.39489E-04   -0.19201E-04  3072   0.575E-02    0.114E-01
DAV:   7    -0.115772670621E+04    0.32098E-04   -0.13676E-04  2964   0.544E-02    0.752E-02
DAV:   8    -0.115772670972E+04   -0.35139E-05   -0.87959E-05  2880   0.468E-02    0.549E-02
DAV:   9    -0.115772671254E+04   -0.28170E-05   -0.58681E-05  2412   0.382E-02    0.475E-02
DAV:  10    -0.115772671163E+04    0.90747E-06   -0.18221E-05  2052   0.277E-02    0.310E-02
DAV:  11    -0.115772671470E+04   -0.30728E-05   -0.62282E-06  1836   0.145E-02    0.202E-02
DAV:  12    -0.115772671970E+04   -0.49986E-05   -0.28520E-06  1716   0.983E-03    0.103E-02
DAV:  13    -0.115772672360E+04   -0.38971E-05   -0.20392E-06  1560   0.694E-03    0.623E-03
DAV:  14    -0.115772672805E+04   -0.44520E-05   -0.61645E-07  1488   0.397E-03    0.401E-03
DAV:  15    -0.115772673134E+04   -0.32897E-05   -0.31005E-07  1452   0.305E-03    0.273E-03
DAV:  16    -0.115772673437E+04   -0.30318E-05   -0.22293E-07  1488   0.243E-03    0.266E-03
DAV:  17    -0.115772673771E+04   -0.33435E-05   -0.15422E-07  1452   0.196E-03    0.137E-03
DAV:  18    -0.115772674156E+04   -0.38432E-05   -0.13480E-07  1464   0.110E-03    0.119E-03
DAV:  19    -0.115772674411E+04   -0.25508E-05   -0.10385E-07  1464   0.121E-03    0.156E-03
DAV:  20    -0.115772674602E+04   -0.19163E-05   -0.71658E-08  1488   0.120E-03    0.925E-04
DAV:  21    -0.115772674793E+04   -0.19037E-05   -0.54183E-08  1440   0.681E-04    0.717E-04
DAV:  22    -0.115772674892E+04   -0.99587E-06   -0.46280E-08  1416   0.416E-04
 213 F= -.11654271E+04 E0= -.11654238E+04  d E =-.321922E-03  mag=    13.0775
 curvature:  -1.64 expect dE=-0.314E-02 dE for cont linesearch -0.498E-06
 trial: gam= 0.52810 g(F)=  0.192E-02 g(S)=  0.000E+00 ort = 0.123E-03 (trialstep = 0.750E-01)
 search vector abs. value=  0.158E-01
 bond charge predicted
       N       E                     dE             d eps       ncg     rms          rms(c)
DAV:   1    -0.115772682484E+04   -0.76912E-04   -0.19885E-02  2022   0.305E-01    0.375E-02
DAV:   2    -0.115772686052E+04   -0.35684E-04   -0.46079E-04  2712   0.453E-02    0.335E-02
DAV:   3    -0.115772689459E+04   -0.34066E-04   -0.73778E-05  3324   0.465E-02    0.108E-01
DAV:   4    -0.115772686570E+04    0.28885E-04   -0.29203E-05  2640   0.314E-02    0.369E-02
DAV:   5    -0.115772686813E+04   -0.24293E-05   -0.25234E-05  1776   0.161E-02    0.288E-02
DAV:   6    -0.115772687060E+04   -0.24680E-05   -0.21897E-05  2016   0.141E-02    0.280E-02
DAV:   7    -0.115772686954E+04    0.10578E-05   -0.97992E-06  1836   0.150E-02    0.166E-02
DAV:   8    -0.115772687163E+04   -0.20869E-05   -0.57454E-06  1824   0.133E-02    0.169E-02
DAV:   9    -0.115772687299E+04   -0.13564E-05   -0.47449E-06  1704   0.105E-02    0.143E-02
DAV:  10    -0.115772687350E+04   -0.50748E-06   -0.19332E-06  1548   0.839E-03
 214 F= -.11654272E+04 E0= -.11654239E+04  d E =-.136835E-03  mag=    13.0775
 ZBRENT: can't locate minimum, use default step
 trial-energy change:   -0.000137  1 .order   -0.000137   -0.000149   -0.000126
 step:   0.2998(harm=  0.4858)  dis= 0.00144  next Energy= -1165.427539 (dE=-0.482E-03)
 bond charge predicted
       N       E                     dE             d eps       ncg     rms          rms(c)
DAV:   1    -0.115772663948E+04    0.23351E-03   -0.17877E-01  1992   0.914E-01    0.113E-01
DAV:   2    -0.115772700159E+04   -0.36212E-03   -0.41658E-03  2712   0.138E-01    0.112E-01
DAV:   3    -0.115772731233E+04   -0.31074E-03   -0.71816E-04  3300   0.145E-01    0.352E-01
DAV:   4    -0.115772703303E+04    0.27931E-03   -0.33098E-04  2892   0.961E-02    0.125E-01
DAV:   5    -0.115772703192E+04    0.11040E-05   -0.26001E-04  2964   0.487E-02    0.785E-02
DAV:   6    -0.115772705493E+04   -0.23010E-04   -0.17774E-04  2892   0.432E-02    0.819E-02
DAV:   7    -0.115772704087E+04    0.14060E-04   -0.90166E-05  2856   0.435E-02    0.517E-02
DAV:   8    -0.115772704992E+04   -0.90530E-05   -0.51665E-05  2580   0.389E-02    0.506E-02
DAV:   9    -0.115772705161E+04   -0.16810E-05   -0.39833E-05  2520   0.300E-02    0.435E-02
DAV:  10    -0.115772705022E+04    0.13851E-05   -0.15200E-05  1956   0.235E-02    0.259E-02
DAV:  11    -0.115772705351E+04   -0.32923E-05   -0.27890E-06  1704   0.111E-02    0.575E-03
DAV:  12    -0.115772705688E+04   -0.33640E-05   -0.18291E-06  1608   0.695E-03    0.100E-02
DAV:  13    -0.115772705906E+04   -0.21811E-05   -0.10489E-06  1512   0.573E-03    0.424E-03
DAV:  14    -0.115772706217E+04   -0.31165E-05   -0.24397E-07  1464   0.229E-03    0.220E-03
DAV:  15    -0.115772706393E+04   -0.17596E-05   -0.16851E-07  1440   0.213E-03    0.243E-03
DAV:  16    -0.115772706567E+04   -0.17315E-05   -0.13099E-07  1452   0.186E-03    0.160E-03
DAV:  17    -0.115772706769E+04   -0.20212E-05   -0.86819E-08  1440   0.126E-03    0.132E-03
DAV:  18    -0.115772706965E+04   -0.19623E-05   -0.78278E-08  1440   0.109E-03    0.137E-03
DAV:  19    -0.115772707096E+04   -0.13138E-05   -0.60961E-08  1440   0.106E-03    0.102E-03
DAV:  20    -0.115772707201E+04   -0.10473E-05   -0.38119E-08  1404   0.713E-04    0.731E-04
DAV:  21    -0.115772707279E+04   -0.77784E-06   -0.31766E-08  1428   0.537E-04
 215 F= -.11654274E+04 E0= -.11654242E+04  d E =-.372792E-03  mag=    13.0774
 curvature:  -1.54 expect dE=-0.197E-02 dE for cont linesearch -0.215E-04
 ZBRENT: extrapolating
 opt :   0.3873  next Energy= -1165.427450 (dE=-0.393E-03)
 bond charge predicted
       N       E                     dE             d eps       ncg     rms          rms(c)
DAV:   1    -0.115772701622E+04    0.55790E-04   -0.27067E-02  2004   0.356E-01    0.436E-02
DAV:   2    -0.115772706445E+04   -0.48233E-04   -0.62846E-04  2688   0.528E-02    0.391E-02
DAV:   3    -0.115772711061E+04   -0.46156E-04   -0.95712E-05  3288   0.536E-02    0.128E-01
DAV:   4    -0.115772707078E+04    0.39826E-04   -0.41198E-05  2712   0.362E-02    0.433E-02
DAV:   5    -0.115772707356E+04   -0.27749E-05   -0.35386E-05  1908   0.186E-02    0.332E-02
DAV:   6    -0.115772707686E+04   -0.32999E-05   -0.28699E-05  2088   0.165E-02    0.321E-02
DAV:   7    -0.115772707517E+04    0.16857E-05   -0.12649E-05  1980   0.173E-02    0.194E-02
DAV:   8    -0.115772707763E+04   -0.24548E-05   -0.75266E-06  1920   0.155E-02    0.200E-02
DAV:   9    -0.115772707861E+04   -0.98256E-06   -0.67156E-06  1848   0.122E-02
 216 F= -.11654274E+04 E0= -.11654242E+04  d E =-.392848E-03  mag=    13.0774
 curvature:  -1.47 expect dE=-0.300E-02 dE for cont linesearch -0.126E-05
 trial: gam= 1.13487 g(F)=  0.203E-02 g(S)=  0.000E+00 ort = 0.116E-03 (trialstep = 0.959E-01)
 search vector abs. value=  0.227E-01
 bond charge predicted
       N       E                     dE             d eps       ncg     rms          rms(c)
DAV:   1    -0.115772709430E+04   -0.16668E-04   -0.44472E-02  1992   0.458E-01    0.612E-02
DAV:   2    -0.115772721628E+04   -0.12198E-03   -0.11962E-03  2952   0.827E-02    0.140E-01
DAV:   3    -0.115772724315E+04   -0.26870E-04   -0.31624E-04  3204   0.741E-02    0.182E-01
DAV:   4    -0.115772719629E+04    0.46852E-04   -0.24399E-04  2778   0.451E-02    0.845E-02
DAV:   5    -0.115772719083E+04    0.54632E-05   -0.83219E-05  2268   0.330E-02    0.405E-02
DAV:   6    -0.115772720650E+04   -0.15674E-04   -0.52923E-05  2232   0.330E-02    0.667E-02
DAV:   7    -0.115772719621E+04    0.10296E-04   -0.32804E-05  2604   0.338E-02    0.354E-02
DAV:   8    -0.115772720241E+04   -0.62008E-05   -0.24376E-05  2304   0.276E-02    0.369E-02
DAV:   9    -0.115772720116E+04    0.12487E-05   -0.15555E-05  1896   0.187E-02    0.219E-02
DAV:  10    -0.115772720204E+04   -0.87775E-06   -0.44025E-06  1692   0.124E-02
 217 F= -.11654276E+04 E0= -.11654244E+04  d E =-.149292E-03  mag=    13.0774
 trial-energy change:   -0.000149  1 .order   -0.000162   -0.000208   -0.000116
 step:   0.2180(harm=  0.2180)  dis= 0.00122  next Energy= -1165.427686 (dE=-0.236E-03)
 bond charge predicted
       N       E                     dE             d eps       ncg     rms          rms(c)
DAV:   1    -0.115772705709E+04    0.14407E-03   -0.72197E-02  1992   0.583E-01    0.772E-02
DAV:   2    -0.115772723712E+04   -0.18002E-03   -0.19236E-03  2892   0.979E-02    0.145E-01
DAV:   3    -0.115772732992E+04   -0.92801E-04   -0.57277E-04  3204   0.931E-02    0.255E-01
DAV:   4    -0.115772721503E+04    0.11489E-03   -0.39179E-04  2820   0.558E-02    0.917E-02
DAV:   5    -0.115772722139E+04   -0.63572E-05   -0.12650E-04  2400   0.410E-02    0.528E-02
DAV:   6    -0.115772724544E+04   -0.24050E-04   -0.11514E-04  2652   0.403E-02    0.989E-02
DAV:   7    -0.115772722112E+04    0.24316E-04   -0.93106E-05  2736   0.449E-02    0.451E-02
DAV:   8    -0.115772723391E+04   -0.12792E-04   -0.38298E-05  2220   0.342E-02    0.522E-02
DAV:   9    -0.115772723013E+04    0.37781E-05   -0.24869E-05  2016   0.263E-02    0.242E-02
DAV:  10    -0.115772723291E+04   -0.27732E-05   -0.45424E-06  1728   0.125E-02    0.207E-02
DAV:  11    -0.115772723443E+04   -0.15226E-05   -0.32376E-06  1740   0.900E-03    0.125E-02
DAV:  12    -0.115772723701E+04   -0.25762E-05   -0.97699E-07  1524   0.628E-03    0.593E-03
DAV:  13    -0.115772723916E+04   -0.21557E-05   -0.55295E-07  1512   0.447E-03    0.419E-03
DAV:  14    -0.115772724111E+04   -0.19467E-05   -0.30303E-07  1440   0.282E-03    0.224E-03
DAV:  15    -0.115772724311E+04   -0.20064E-05   -0.15535E-07  1452   0.209E-03    0.232E-03
DAV:  16    -0.115772724487E+04   -0.17596E-05   -0.12657E-07  1464   0.197E-03    0.158E-03
DAV:  17    -0.115772724684E+04   -0.19697E-05   -0.81420E-08  1440   0.130E-03    0.131E-03
DAV:  18    -0.115772724825E+04   -0.14083E-05   -0.62410E-08  1440   0.107E-03    0.113E-03
DAV:  19    -0.115772724956E+04   -0.13061E-05   -0.46804E-08  1440   0.943E-04    0.951E-04
DAV:  20    -0.115772725096E+04   -0.14021E-05   -0.38356E-08  1440   0.761E-04    0.605E-04
DAV:  21    -0.115772725229E+04   -0.13289E-05   -0.37305E-08  1464   0.479E-04    0.666E-04
DAV:  22    -0.115772725288E+04   -0.59362E-06   -0.18240E-08  1428   0.490E-04
 218 F= -.11654277E+04 E0= -.11654244E+04  d E =-.233120E-03  mag=    13.0774
 curvature:  -1.14 expect dE=-0.329E-02 dE for cont linesearch -0.301E-09
 trial: gam= 1.42670 g(F)=  0.288E-02 g(S)=  0.000E+00 ort =-0.245E-05 (trialstep = 0.556E-01)
 search vector abs. value=  0.491E-01
 bond charge predicted
       N       E                     dE             d eps       ncg     rms          rms(c)
DAV:   1    -0.115772729885E+04   -0.46561E-04   -0.34371E-02  2004   0.401E-01    0.472E-02
DAV:   2    -0.115772736068E+04   -0.61833E-04   -0.77892E-04  2676   0.602E-02    0.527E-02
DAV:   3    -0.115772742791E+04   -0.67226E-04   -0.30165E-04  3264   0.650E-02    0.180E-01
DAV:   4    -0.115772735747E+04    0.70442E-04   -0.20153E-04  2736   0.396E-02    0.480E-02
DAV:   5    -0.115772736886E+04   -0.11396E-04   -0.30110E-05  2010   0.285E-02    0.228E-02
DAV:   6    -0.115772737317E+04   -0.43052E-05   -0.19984E-05  2328   0.178E-02    0.294E-02
DAV:   7    -0.115772737139E+04    0.17834E-05   -0.12731E-05  2028   0.178E-02    0.220E-02
DAV:   8    -0.115772737360E+04   -0.22143E-05   -0.98883E-06  1980   0.155E-02    0.270E-02
DAV:   9    -0.115772737394E+04   -0.34436E-06   -0.13181E-05  1860   0.143E-02    0.229E-02
DAV:  10    -0.115772737359E+04    0.35689E-06   -0.33061E-06  1704   0.118E-02
 219 F= -.11654278E+04 E0= -.11654246E+04  d E =-.141500E-03  mag=    13.0773
 ZBRENT: can't locate minimum, use default step
 trial-energy change:   -0.000142  1 .order   -0.000152   -0.000160   -0.000145
 step:   0.2226(harm=  0.5809)  dis= 0.00180  next Energy= -1165.428519 (dE=-0.836E-03)
 bond charge predicted
       N       E                     dE             d eps       ncg     rms          rms(c)
DAV:   1    -0.115772688037E+04    0.49358E-03   -0.30904E-01  1992   0.120E+00    0.142E-01
DAV:   2    -0.115772754444E+04   -0.66408E-03   -0.71002E-03  2700   0.186E-01    0.195E-01
DAV:   3    -0.115772810333E+04   -0.55888E-03   -0.31019E-03  3300   0.198E-01    0.563E-01
DAV:   4    -0.115772752175E+04    0.58158E-03   -0.20197E-03  2916   0.121E-01    0.155E-01
DAV:   5    -0.115772754876E+04   -0.27015E-04   -0.29206E-04  2982   0.927E-02    0.666E-02
DAV:   6    -0.115772758550E+04   -0.36738E-04   -0.18765E-04  3096   0.535E-02    0.955E-02
DAV:   7    -0.115772756385E+04    0.21655E-04   -0.11638E-04  2976   0.519E-02    0.686E-02
DAV:   8    -0.115772757564E+04   -0.11791E-04   -0.88899E-05  2784   0.459E-02    0.775E-02
DAV:   9    -0.115772757554E+04    0.94093E-07   -0.10859E-04  2628   0.418E-02    0.691E-02
DAV:  10    -0.115772756792E+04    0.76206E-05   -0.26578E-05  2148   0.337E-02    0.403E-02
DAV:  11    -0.115772757512E+04   -0.71945E-05   -0.10957E-05  1836   0.167E-02    0.164E-02
DAV:  12    -0.115772757933E+04   -0.42151E-05   -0.47941E-06  1896   0.118E-02    0.964E-03
DAV:  13    -0.115772758572E+04   -0.63902E-05   -0.10426E-06  1536   0.590E-03    0.623E-03
DAV:  14    -0.115772759045E+04   -0.47286E-05   -0.67350E-07  1524   0.414E-03    0.397E-03
DAV:  15    -0.115772759517E+04   -0.47214E-05   -0.40179E-07  1500   0.343E-03    0.375E-03
DAV:  16    -0.115772760033E+04   -0.51619E-05   -0.28655E-07  1464   0.289E-03    0.213E-03
DAV:  17    -0.115772760518E+04   -0.48472E-05   -0.19363E-07  1488   0.182E-03    0.225E-03
DAV:  18    -0.115772760846E+04   -0.32742E-05   -0.14810E-07  1464   0.148E-03    0.193E-03
DAV:  19    -0.115772761136E+04   -0.29047E-05   -0.98929E-08  1452   0.120E-03    0.155E-03
DAV:  20    -0.115772761371E+04   -0.23541E-05   -0.66809E-08  1452   0.985E-04    0.898E-04
DAV:  21    -0.115772761621E+04   -0.24915E-05   -0.62769E-08  1452   0.598E-04    0.858E-04
DAV:  22    -0.115772761780E+04   -0.15916E-05   -0.35605E-08  1440   0.612E-04    0.714E-04
DAV:  23    -0.115772761941E+04   -0.16165E-05   -0.23227E-08  1452   0.501E-04    0.511E-04
DAV:  24    -0.115772762191E+04   -0.24934E-05   -0.28031E-08  1464   0.350E-04    0.487E-04
DAV:  25    -0.115772762320E+04   -0.12882E-05   -0.18552E-08  1452   0.353E-04    0.476E-04
DAV:  26    -0.115772762527E+04   -0.20748E-05   -0.19698E-08  1416   0.354E-04    0.436E-04
DAV:  27    -0.115772762703E+04   -0.17605E-05   -0.18559E-08  1464   0.337E-04    0.335E-04
DAV:  28    -0.115772762836E+04   -0.13281E-05   -0.21407E-08  1464   0.271E-04    0.373E-04
DAV:  29    -0.115772762927E+04   -0.91261E-06   -0.11327E-08  1440   0.290E-04
 220 F= -.11654281E+04 E0= -.11654249E+04  d E =-.459693E-03  mag=    13.0769
 curvature:  -2.65 expect dE=-0.415E-02 dE for cont linesearch -0.826E-04
 ZBRENT: increasing intervall
 opt :   0.5564  next Energy= -1165.428100 (dE=-0.417E-03)
 bond charge predicted
       N       E                     dE             d eps       ncg     rms          rms(c)
DAV:   1    -0.115772454917E+04    0.30792E-02   -0.12369E+00  1992   0.240E+00    0.283E-01
DAV:   2    -0.115772724000E+04   -0.26908E-02   -0.28029E-02  2664   0.361E-01    0.312E-01
DAV:   3    -0.115772951410E+04   -0.22741E-02   -0.10253E-02  3336   0.391E-01    0.109E+00
DAV:   4    -0.115772726878E+04    0.22453E-02   -0.74799E-03  2940   0.236E-01    0.295E-01
DAV:   5    -0.115772732534E+04   -0.56562E-04   -0.11776E-03  3042   0.171E-01    0.140E-01
DAV:   6    -0.115772743543E+04   -0.11009E-03   -0.73439E-04  3156   0.105E-01    0.188E-01
DAV:   7    -0.115772735854E+04    0.76890E-04   -0.47343E-04  3144   0.101E-01    0.137E-01
DAV:   8    -0.115772739488E+04   -0.36342E-04   -0.36684E-04  3204   0.926E-02    0.147E-01
DAV:   9    -0.115772738947E+04    0.54124E-05   -0.41753E-04  3084   0.842E-02    0.136E-01
DAV:  10    -0.115772735880E+04    0.30666E-04   -0.11448E-04  3048   0.664E-02    0.808E-02
DAV:  11    -0.115772736735E+04   -0.85478E-05   -0.41670E-05  2244   0.359E-02    0.382E-02
DAV:  12    -0.115772737941E+04   -0.12060E-04   -0.20984E-05  2124   0.249E-02    0.215E-02
DAV:  13    -0.115772738968E+04   -0.10275E-04   -0.74662E-06  1896   0.144E-02    0.164E-02
DAV:  14    -0.115772740189E+04   -0.12210E-04   -0.29281E-06  1788   0.889E-03    0.690E-03
DAV:  15    -0.115772741487E+04   -0.12975E-04   -0.13706E-06  1572   0.644E-03    0.718E-03
DAV:  16    -0.115772742622E+04   -0.11351E-04   -0.10810E-06  1524   0.611E-03    0.617E-03
DAV:  17    -0.115772743691E+04   -0.10691E-04   -0.63880E-07  1476   0.424E-03    0.395E-03
DAV:  18    -0.115772744795E+04   -0.11043E-04   -0.41639E-07  1500   0.224E-03    0.360E-03
DAV:  19    -0.115772745611E+04   -0.81589E-05   -0.30786E-07  1452   0.211E-03    0.296E-03
DAV:  20    -0.115772746088E+04   -0.47661E-05   -0.20783E-07  1500   0.200E-03    0.159E-03
DAV:  21    -0.115772746711E+04   -0.62282E-05   -0.15852E-07  1452   0.108E-03    0.130E-03
DAV:  22    -0.115772747022E+04   -0.31172E-05   -0.11625E-07  1476   0.928E-04    0.137E-03
DAV:  23    -0.115772747468E+04   -0.44597E-05   -0.79371E-08  1428   0.981E-04    0.101E-03
DAV:  24    -0.115772748001E+04   -0.53274E-05   -0.78950E-08  1476   0.666E-04    0.770E-04
DAV:  25    -0.115772748508E+04   -0.50696E-05   -0.78591E-08  1464   0.568E-04    0.931E-04
DAV:  26    -0.115772748937E+04   -0.42917E-05   -0.64536E-08  1464   0.710E-04    0.710E-04
DAV:  27    -0.115772749337E+04   -0.39959E-05   -0.61080E-08  1452   0.525E-04    0.641E-04
DAV:  28    -0.115772749777E+04   -0.44053E-05   -0.74029E-08  1500   0.445E-04    0.608E-04
DAV:  29    -0.115772750008E+04   -0.23054E-05   -0.53163E-08  1500   0.400E-04    0.509E-04
DAV:  30    -0.115772750255E+04   -0.24693E-05   -0.45455E-08  1428   0.397E-04    0.542E-04
DAV:  31    -0.115772750481E+04   -0.22584E-05   -0.42446E-08  1464   0.402E-04    0.369E-04
DAV:  32    -0.115772750745E+04   -0.26403E-05   -0.56878E-08  1464   0.324E-04    0.342E-04
DAV:  33    -0.115772750910E+04   -0.16568E-05   -0.46350E-08  1476   0.313E-04    0.274E-04
DAV:  34    -0.115772751035E+04   -0.12474E-05   -0.39882E-08  1428   0.317E-04    0.304E-04
DAV:  35    -0.115772751131E+04   -0.95868E-06   -0.34736E-08  1464   0.324E-04
 221 F= -.11654281E+04 E0= -.11654249E+04  d E =-.466854E-03  mag=    13.0761
 curvature:   1.37 expect dE= 0.850E-02 dE for cont linesearch  0.418E-04
 ZBRENT: bracketing found
 ZBRENT: interpolating
 opt :   0.3906  next Energy= -1165.428251 (dE=-0.568E-03)
 bond charge predicted
       N       E                     dE             d eps       ncg     rms          rms(c)
DAV:   1    -0.115772694641E+04    0.56394E-03   -0.30530E-01  2004   0.119E+00    0.140E-01
DAV:   2    -0.115772757409E+04   -0.62768E-03   -0.69006E-03  2712   0.179E-01    0.156E-01
DAV:   3    -0.115772813927E+04   -0.56518E-03   -0.26194E-03  3312   0.194E-01    0.527E-01
DAV:   4    -0.115772757541E+04    0.56386E-03   -0.16887E-03  2868   0.118E-01    0.143E-01
DAV:   5    -0.115772761646E+04   -0.41048E-04   -0.27489E-04  3060   0.842E-02    0.679E-02
DAV:   6    -0.115772765052E+04   -0.34065E-04   -0.18307E-04  3120   0.526E-02    0.905E-02
DAV:   7    -0.115772763380E+04    0.16721E-04   -0.11940E-04  2976   0.501E-02    0.693E-02
DAV:   8    -0.115772764465E+04   -0.10850E-04   -0.86466E-05  2856   0.448E-02    0.726E-02
DAV:   9    -0.115772764347E+04    0.11759E-05   -0.10824E-04  2592   0.408E-02    0.672E-02
DAV:  10    -0.115772763424E+04    0.92304E-05   -0.27773E-05  2160   0.330E-02    0.410E-02
DAV:  11    -0.115772763811E+04   -0.38638E-05   -0.98288E-06  1848   0.179E-02    0.171E-02
DAV:  12    -0.115772764230E+04   -0.41875E-05   -0.48555E-06  1896   0.123E-02    0.104E-02
DAV:  13    -0.115772764578E+04   -0.34870E-05   -0.16679E-06  1608   0.729E-03    0.872E-03
DAV:  14    -0.115772764873E+04   -0.29481E-05   -0.69276E-07  1500   0.455E-03    0.350E-03
DAV:  15    -0.115772765246E+04   -0.37335E-05   -0.30857E-07  1476   0.294E-03    0.367E-03
DAV:  16    -0.115772765532E+04   -0.28538E-05   -0.28654E-07  1488   0.308E-03    0.265E-03
DAV:  17    -0.115772765861E+04   -0.32910E-05   -0.16423E-07  1464   0.191E-03    0.172E-03
DAV:  18    -0.115772766082E+04   -0.22122E-05   -0.12465E-07  1476   0.131E-03    0.161E-03
DAV:  19    -0.115772766270E+04   -0.18761E-05   -0.90535E-08  1440   0.105E-03    0.135E-03
DAV:  20    -0.115772766396E+04   -0.12607E-05   -0.52298E-08  1440   0.927E-04    0.770E-04
DAV:  21    -0.115772766575E+04   -0.17917E-05   -0.42971E-08  1416   0.552E-04    0.700E-04
DAV:  22    -0.115772766661E+04   -0.86031E-06   -0.23805E-08  1488   0.551E-04
 222 F= -.11654282E+04 E0= -.11654250E+04  d E =-.559975E-03  mag=    13.0764
 curvature:  -3.33 expect dE=-0.968E-02 dE for cont linesearch -0.255E-08
 trial: gam= 0.94486 g(F)=  0.291E-02 g(S)=  0.000E+00 ort = 0.613E-05 (trialstep = 0.123E+00)
 search vector abs. value=  0.467E-01
 bond charge predicted
       N       E                     dE             d eps       ncg     rms          rms(c)
DAV:   1    -0.115772755805E+04    0.10770E-03   -0.16149E-01  1992   0.858E-01    0.102E-01
DAV:   2    -0.115772787565E+04   -0.31760E-03   -0.36121E-03  2748   0.127E-01    0.108E-01
DAV:   3    -0.115772816800E+04   -0.29235E-03   -0.10831E-03  3348   0.132E-01    0.369E-01
DAV:   4    -0.115772788594E+04    0.28206E-03   -0.79890E-04  3036   0.848E-02    0.104E-01
DAV:   5    -0.115772791924E+04   -0.33304E-04   -0.18680E-04  2892   0.611E-02    0.692E-02
DAV:   6    -0.115772794103E+04   -0.21787E-04   -0.13240E-04  2940   0.456E-02    0.825E-02
DAV:   7    -0.115772792604E+04    0.14989E-04   -0.85110E-05  2844   0.441E-02    0.574E-02
DAV:   8    -0.115772793318E+04   -0.71341E-05   -0.47769E-05  2544   0.353E-02    0.492E-02
DAV:   9    -0.115772793300E+04    0.17998E-06   -0.40602E-05  2280   0.295E-02    0.423E-02
DAV:  10    -0.115772793059E+04    0.24048E-05   -0.13237E-05  2004   0.232E-02    0.286E-02
DAV:  11    -0.115772793129E+04   -0.69866E-06   -0.41656E-06  1800   0.123E-02
 223 F= -.11654285E+04 E0= -.11654253E+04  d E =-.264371E-03  mag=    13.0764
 trial-energy change:   -0.000264  1 .order   -0.000273   -0.000357   -0.000189
 step:   0.2598(harm=  0.2598)  dis= 0.00201  next Energy= -1165.428621 (dE=-0.378E-03)
 bond charge predicted
       N       E                     dE             d eps       ncg     rms          rms(c)
DAV:   1    -0.115772754348E+04    0.38711E-03   -0.20194E-01  2004   0.960E-01    0.114E-01
DAV:   2    -0.115772792655E+04   -0.38307E-03   -0.44899E-03  2538   0.139E-01    0.928E-02
DAV:   3    -0.115772812078E+04   -0.19423E-03   -0.64427E-04  3300   0.135E-01    0.253E-01
DAV:   4    -0.115772798027E+04    0.14052E-03   -0.43286E-04  2976   0.984E-02    0.133E-01
DAV:   5    -0.115772798185E+04   -0.15788E-05   -0.22857E-04  2952   0.589E-02    0.887E-02
DAV:   6    -0.115772799491E+04   -0.13068E-04   -0.19045E-04  2832   0.494E-02    0.936E-02
DAV:   7    -0.115772797638E+04    0.18538E-04   -0.12157E-04  2928   0.484E-02    0.570E-02
DAV:   8    -0.115772798856E+04   -0.12187E-04   -0.64974E-05  2640   0.389E-02    0.605E-02
DAV:   9    -0.115772798637E+04    0.21919E-05   -0.52459E-05  2412   0.329E-02    0.437E-02
DAV:  10    -0.115772798481E+04    0.15621E-05   -0.22481E-05  2052   0.266E-02    0.215E-02
DAV:  11    -0.115772798973E+04   -0.49181E-05   -0.45873E-06  1884   0.133E-02    0.112E-02
DAV:  12    -0.115772799328E+04   -0.35537E-05   -0.22595E-06  1776   0.877E-03    0.640E-03
DAV:  13    -0.115772799646E+04   -0.31820E-05   -0.80023E-07  1452   0.536E-03    0.662E-03
DAV:  14    -0.115772799903E+04   -0.25664E-05   -0.36213E-07  1476   0.387E-03    0.181E-03
DAV:  15    -0.115772800401E+04   -0.49766E-05   -0.18261E-07  1452   0.143E-03    0.177E-03
DAV:  16    -0.115772800660E+04   -0.25936E-05   -0.15650E-07  1476   0.196E-03    0.226E-03
DAV:  17    -0.115772800903E+04   -0.24350E-05   -0.11309E-07  1440   0.168E-03    0.145E-03
DAV:  18    -0.115772801171E+04   -0.26779E-05   -0.78337E-08  1488   0.102E-03    0.119E-03
DAV:  19    -0.115772801306E+04   -0.13500E-05   -0.59263E-08  1416   0.950E-04    0.108E-03
DAV:  20    -0.115772801459E+04   -0.15266E-05   -0.44794E-08  1452   0.843E-04    0.841E-04
DAV:  21    -0.115772801640E+04   -0.18092E-05   -0.37549E-08  1428   0.647E-04    0.615E-04
DAV:  22    -0.115772801761E+04   -0.12094E-05   -0.31474E-08  1440   0.483E-04    0.653E-04
DAV:  23    -0.115772801896E+04   -0.13546E-05   -0.20731E-08  1416   0.520E-04    0.433E-04
DAV:  24    -0.115772802031E+04   -0.13499E-05   -0.19741E-08  1452   0.321E-04    0.406E-04
DAV:  25    -0.115772802154E+04   -0.12328E-05   -0.19106E-08  1452   0.268E-04    0.354E-04
DAV:  26    -0.115772802254E+04   -0.99117E-06   -0.10248E-08  1452   0.283E-04
 224 F= -.11654286E+04 E0= -.11654254E+04  d E =-.354989E-03  mag=    13.0764
 curvature:  -2.08 expect dE=-0.850E-02 dE for cont linesearch -0.203E-05
 trial: gam= 1.47691 g(F)=  0.408E-02 g(S)=  0.000E+00 ort =-0.214E-03 (trialstep = 0.665E-01)
 search vector abs. value=  0.105E+00
 bond charge predicted
       N       E                     dE             d eps       ncg     rms          rms(c)
DAV:   1    -0.115772798530E+04    0.36244E-04   -0.10218E-01  1992   0.691E-01    0.847E-02
DAV:   2    -0.115772818690E+04   -0.20160E-03   -0.24231E-03  2712   0.102E-01    0.839E-02
DAV:   3    -0.115772837131E+04   -0.18441E-03   -0.52367E-04  3240   0.101E-01    0.285E-01
DAV:   4    -0.115772819398E+04    0.17733E-03   -0.36698E-04  2916   0.689E-02    0.771E-02
DAV:   5    -0.115772821393E+04   -0.19956E-04   -0.10407E-04  2436   0.373E-02    0.547E-02
DAV:   6    -0.115772822438E+04   -0.10450E-04   -0.77938E-05  2532   0.304E-02    0.669E-02
DAV:   7    -0.115772821615E+04    0.82365E-05   -0.56756E-05  2424   0.360E-02    0.452E-02
DAV:   8    -0.115772822702E+04   -0.10874E-04   -0.36883E-05  2520   0.347E-02    0.490E-02
DAV:   9    -0.115772822259E+04    0.44262E-05   -0.28119E-05  2208   0.293E-02    0.354E-02
DAV:  10    -0.115772822247E+04    0.12731E-06   -0.76495E-06  1884   0.175E-02
 225 F= -.11654288E+04 E0= -.11654255E+04  d E =-.195028E-03  mag=    13.0764
 trial-energy change:   -0.000195  1 .order   -0.000218   -0.000250   -0.000185
 step:   0.2554(harm=  0.2554)  dis= 0.00296  next Energy= -1165.429078 (dE=-0.481E-03)
 bond charge predicted
       N       E                     dE             d eps       ncg     rms          rms(c)
DAV:   1    -0.115772636475E+04    0.18578E-02   -0.82263E-01  1992   0.196E+00    0.241E-01
DAV:   2    -0.115772820041E+04   -0.18357E-02   -0.19608E-02  2712   0.291E-01    0.258E-01
DAV:   3    -0.115772974345E+04   -0.15430E-02   -0.48037E-03  3312   0.295E-01    0.870E-01
DAV:   4    -0.115772821652E+04    0.15269E-02   -0.35947E-03  2964   0.197E-01    0.227E-01
DAV:   5    -0.115772830343E+04   -0.86911E-04   -0.89941E-04  3084   0.109E-01    0.153E-01
DAV:   6    -0.115772837208E+04   -0.68648E-04   -0.60069E-04  3060   0.873E-02    0.186E-01
DAV:   7    -0.115772831173E+04    0.60351E-04   -0.46631E-04  3180   0.102E-01    0.134E-01
DAV:   8    -0.115772836510E+04   -0.53370E-04   -0.29095E-04  3192   0.965E-02    0.133E-01
DAV:   9    -0.115772833330E+04    0.31799E-04   -0.20676E-04  3048   0.787E-02    0.101E-01
DAV:  10    -0.115772832861E+04    0.46866E-05   -0.56392E-05  2616   0.465E-02    0.720E-02
DAV:  11    -0.115772833619E+04   -0.75778E-05   -0.22549E-05  2124   0.273E-02    0.132E-02
DAV:  12    -0.115772834979E+04   -0.13601E-04   -0.80157E-06  2016   0.152E-02    0.204E-02
DAV:  13    -0.115772835714E+04   -0.73476E-05   -0.33212E-06  1740   0.112E-02    0.883E-03
DAV:  14    -0.115772836590E+04   -0.87598E-05   -0.99904E-07  1536   0.618E-03    0.566E-03
DAV:  15    -0.115772837809E+04   -0.12192E-04   -0.89129E-07  1476   0.481E-03    0.497E-03
DAV:  16    -0.115772838681E+04   -0.87211E-05   -0.87154E-07  1500   0.460E-03    0.569E-03
DAV:  17    -0.115772839469E+04   -0.78743E-05   -0.51988E-07  1500   0.374E-03    0.408E-03
DAV:  18    -0.115772840180E+04   -0.71122E-05   -0.30335E-07  1476   0.192E-03    0.316E-03
DAV:  19    -0.115772840485E+04   -0.30483E-05   -0.19427E-07  1464   0.163E-03    0.223E-03
DAV:  20    -0.115772840845E+04   -0.36050E-05   -0.12470E-07  1440   0.133E-03    0.194E-03
DAV:  21    -0.115772841335E+04   -0.48965E-05   -0.96273E-08  1428   0.119E-03    0.136E-03
DAV:  22    -0.115772841858E+04   -0.52312E-05   -0.10060E-07  1500   0.926E-04    0.152E-03
DAV:  23    -0.115772842177E+04   -0.31892E-05   -0.85728E-08  1464   0.106E-03    0.861E-04
DAV:  24    -0.115772842670E+04   -0.49313E-05   -0.93019E-08  1428   0.548E-04    0.793E-04
DAV:  25    -0.115772842940E+04   -0.27012E-05   -0.63355E-08  1488   0.495E-04    0.700E-04
DAV:  26    -0.115772843290E+04   -0.34946E-05   -0.48826E-08  1452   0.550E-04    0.678E-04
DAV:  27    -0.115772843580E+04   -0.29015E-05   -0.41885E-08  1464   0.575E-04    0.595E-04
DAV:  28    -0.115772843951E+04   -0.37089E-05   -0.65654E-08  1452   0.476E-04    0.510E-04
DAV:  29    -0.115772844115E+04   -0.16390E-05   -0.48314E-08  1500   0.430E-04    0.552E-04
DAV:  30    -0.115772844305E+04   -0.19046E-05   -0.42204E-08  1440   0.391E-04    0.386E-04
DAV:  31    -0.115772844436E+04   -0.13114E-05   -0.31235E-08  1476   0.329E-04    0.373E-04
DAV:  32    -0.115772844611E+04   -0.17432E-05   -0.44933E-08  1440   0.262E-04    0.333E-04
DAV:  33    -0.115772844709E+04   -0.98356E-06   -0.28730E-08  1464   0.301E-04
 226 F= -.11654290E+04 E0= -.11654258E+04  d E =-.404769E-03  mag=    13.0766
 curvature:  -3.57 expect dE=-0.182E-01 dE for cont linesearch -0.124E-04
 trial: gam= 1.20346 g(F)=  0.510E-02 g(S)=  0.000E+00 ort =-0.604E-03 (trialstep = 0.703E-01)
 search vector abs. value=  0.156E+00
 bond charge predicted
       N       E                     dE             d eps       ncg     rms          rms(c)
DAV:   1    -0.115772828010E+04    0.16600E-03   -0.17481E-01  2010   0.901E-01    0.107E-01
DAV:   2    -0.115772862656E+04   -0.34645E-03   -0.39617E-03  2694   0.133E-01    0.107E-01
DAV:   3    -0.115772892455E+04   -0.29799E-03   -0.78156E-04  3264   0.141E-01    0.354E-01
DAV:   4    -0.115772866022E+04    0.26433E-03   -0.54167E-04  2952   0.895E-02    0.120E-01
DAV:   5    -0.115772865948E+04    0.73396E-06   -0.20556E-04  2862   0.507E-02    0.627E-02
DAV:   6    -0.115772867885E+04   -0.19370E-04   -0.12128E-04  2832   0.368E-02    0.746E-02
DAV:   7    -0.115772866733E+04    0.11520E-04   -0.67640E-05  2616   0.373E-02    0.459E-02
DAV:   8    -0.115772867625E+04   -0.89142E-05   -0.58213E-05  2688   0.374E-02    0.488E-02
DAV:   9    -0.115772867629E+04   -0.46828E-07   -0.48948E-05  2532   0.315E-02    0.495E-02
DAV:  10    -0.115772867192E+04    0.43744E-05   -0.13689E-05  2052   0.235E-02    0.286E-02
DAV:  11    -0.115772867459E+04   -0.26717E-05   -0.47577E-06  1740   0.129E-02    0.119E-02
DAV:  12    -0.115772867696E+04   -0.23652E-05   -0.23122E-06  1680   0.905E-03    0.820E-03
DAV:  13    -0.115772867979E+04   -0.28352E-05   -0.99720E-07  1536   0.551E-03    0.607E-03
DAV:  14    -0.115772868207E+04   -0.22750E-05   -0.41536E-07  1440   0.352E-03    0.282E-03
DAV:  15    -0.115772868479E+04   -0.27266E-05   -0.19162E-07  1464   0.237E-03    0.286E-03
DAV:  16    -0.115772868713E+04   -0.23352E-05   -0.19058E-07  1476   0.245E-03    0.229E-03
DAV:  17    -0.115772868967E+04   -0.25435E-05   -0.11907E-07  1452   0.168E-03    0.163E-03
DAV:  18    -0.115772869143E+04   -0.17616E-05   -0.92139E-08  1452   0.110E-03    0.132E-03
DAV:  19    -0.115772869261E+04   -0.11729E-05   -0.62041E-08  1404   0.730E-04    0.108E-03
DAV:  20    -0.115772869328E+04   -0.67388E-06   -0.30777E-08  1464   0.663E-04
 227 F= -.11654293E+04 E0= -.11654260E+04  d E =-.258414E-03  mag=    13.0764
 trial-energy change:   -0.000258  1 .order   -0.000266   -0.000307   -0.000225
 step:   0.2625(harm=  0.2625)  dis= 0.00368  next Energy= -1165.429576 (dE=-0.573E-03)
 bond charge predicted
       N       E                     dE             d eps       ncg     rms          rms(c)
DAV:   1    -0.115772582030E+04    0.28723E-02   -0.13035E+00  1992   0.246E+00    0.292E-01
DAV:   2    -0.115772866114E+04   -0.28408E-02   -0.29592E-02  2664   0.363E-01    0.290E-01
DAV:   3    -0.115773077357E+04   -0.21124E-02   -0.57787E-03  3336   0.385E-01    0.972E-01
DAV:   4    -0.115772886348E+04    0.19101E-02   -0.42427E-03  3024   0.243E-01    0.331E-01
DAV:   5    -0.115772878103E+04    0.82444E-04   -0.15514E-03  3120   0.139E-01    0.171E-01
DAV:   6    -0.115772889171E+04   -0.11067E-03   -0.88297E-04  3120   0.998E-02    0.202E-01
DAV:   7    -0.115772880212E+04    0.89592E-04   -0.49436E-04  3108   0.102E-01    0.123E-01
DAV:   8    -0.115772885263E+04   -0.50512E-04   -0.43552E-04  3144   0.102E-01    0.136E-01
DAV:   9    -0.115772884368E+04    0.89465E-05   -0.36724E-04  3096   0.856E-02    0.135E-01
DAV:  10    -0.115772881300E+04    0.30681E-04   -0.10640E-04  3000   0.632E-02    0.774E-02
DAV:  11    -0.115772882398E+04   -0.10982E-04   -0.36770E-05  2232   0.347E-02    0.343E-02
DAV:  12    -0.115772883587E+04   -0.11887E-04   -0.17813E-05  2076   0.241E-02    0.226E-02
DAV:  13    -0.115772884946E+04   -0.13590E-04   -0.74249E-06  1872   0.144E-02    0.157E-02
DAV:  14    -0.115772886273E+04   -0.13265E-04   -0.26530E-06  1740   0.896E-03    0.723E-03
DAV:  15    -0.115772887725E+04   -0.14527E-04   -0.14084E-06  1644   0.651E-03    0.770E-03
DAV:  16    -0.115772889126E+04   -0.14003E-04   -0.12199E-06  1548   0.650E-03    0.657E-03
DAV:  17    -0.115772890392E+04   -0.12664E-04   -0.73893E-07  1500   0.465E-03    0.458E-03
DAV:  18    -0.115772891433E+04   -0.10410E-04   -0.47369E-07  1500   0.260E-03    0.373E-03
DAV:  19    -0.115772892041E+04   -0.60856E-05   -0.31431E-07  1536   0.179E-03    0.287E-03
DAV:  20    -0.115772892418E+04   -0.37619E-05   -0.18330E-07  1416   0.157E-03    0.215E-03
DAV:  21    -0.115772893221E+04   -0.80315E-05   -0.13953E-07  1452   0.117E-03    0.176E-03
DAV:  22    -0.115772894013E+04   -0.79218E-05   -0.15459E-07  1500   0.144E-03    0.228E-03
DAV:  23    -0.115772894661E+04   -0.64835E-05   -0.13660E-07  1476   0.145E-03    0.104E-03
DAV:  24    -0.115772895352E+04   -0.69023E-05   -0.15909E-07  1488   0.677E-04    0.104E-03
DAV:  25    -0.115772895669E+04   -0.31779E-05   -0.94115E-08  1524   0.672E-04    0.858E-04
DAV:  26    -0.115772896168E+04   -0.49882E-05   -0.74228E-08  1440   0.724E-04    0.974E-04
DAV:  27    -0.115772896635E+04   -0.46682E-05   -0.72485E-08  1476   0.764E-04    0.724E-04
DAV:  28    -0.115772897372E+04   -0.73714E-05   -0.16314E-07  1476   0.565E-04    0.739E-04
DAV:  29    -0.115772897545E+04   -0.17314E-05   -0.74382E-08  1536   0.543E-04    0.551E-04
DAV:  30    -0.115772897842E+04   -0.29709E-05   -0.70426E-08  1416   0.419E-04    0.590E-04
DAV:  31    -0.115772898107E+04   -0.26481E-05   -0.57197E-08  1452   0.487E-04    0.474E-04
DAV:  32    -0.115772898427E+04   -0.31997E-05   -0.98101E-08  1464   0.451E-04    0.562E-04
DAV:  33    -0.115772898521E+04   -0.94312E-06   -0.60553E-08  1524   0.452E-04
 228 F= -.11654296E+04 E0= -.11654264E+04  d E =-.584050E-03  mag=    13.0757
 curvature:  -4.69 expect dE=-0.202E-01 dE for cont linesearch -0.259E-06
 trial: gam= 0.60065 g(F)=  0.430E-02 g(S)=  0.000E+00 ort = 0.929E-04 (trialstep = 0.109E+00)
 search vector abs. value=  0.608E-01
 bond charge predicted
       N       E                     dE             d eps       ncg     rms          rms(c)
DAV:   1    -0.115772890650E+04    0.77771E-04   -0.17082E-01  2004   0.869E-01    0.107E-01
DAV:   2    -0.115772922624E+04   -0.31974E-03   -0.37617E-03  2664   0.126E-01    0.113E-01
DAV:   3    -0.115772953009E+04   -0.30385E-03   -0.91579E-04  3312   0.126E-01    0.377E-01
DAV:   4    -0.115772923467E+04    0.29543E-03   -0.71446E-04  3024   0.837E-02    0.104E-01
DAV:   5    -0.115772927204E+04   -0.37369E-04   -0.27565E-04  2952   0.615E-02    0.938E-02
DAV:   6    -0.115772928958E+04   -0.17547E-04   -0.24512E-04  2844   0.471E-02    0.121E-01
DAV:   7    -0.115772925224E+04    0.37338E-04   -0.12663E-04  2808   0.561E-02    0.437E-02
DAV:   8    -0.115772927660E+04   -0.24356E-04   -0.55993E-05  2652   0.396E-02    0.688E-02
DAV:   9    -0.115772926441E+04    0.12193E-04   -0.43229E-05  2388   0.324E-02    0.376E-02
DAV:  10    -0.115772926730E+04   -0.28906E-05   -0.71505E-06  1920   0.158E-02    0.257E-02
DAV:  11    -0.115772926927E+04   -0.19698E-05   -0.45342E-06  1836   0.125E-02    0.111E-02
DAV:  12    -0.115772927194E+04   -0.26770E-05   -0.16448E-06  1572   0.794E-03    0.675E-03
DAV:  13    -0.115772927506E+04   -0.31163E-05   -0.62317E-07  1512   0.458E-03    0.380E-03
DAV:  14    -0.115772927685E+04   -0.17859E-05   -0.31661E-07  1428   0.329E-03    0.329E-03
DAV:  15    -0.115772927962E+04   -0.27743E-05   -0.17222E-07  1440   0.250E-03    0.245E-03
DAV:  16    -0.115772928205E+04   -0.24256E-05   -0.15521E-07  1500   0.220E-03    0.193E-03
DAV:  17    -0.115772928444E+04   -0.23954E-05   -0.11469E-07  1476   0.156E-03    0.155E-03
DAV:  18    -0.115772928590E+04   -0.14577E-05   -0.74215E-08  1452   0.106E-03    0.155E-03
DAV:  19    -0.115772928684E+04   -0.94237E-06   -0.46172E-08  1404   0.839E-04
 229 F= -.11654299E+04 E0= -.11654267E+04  d E =-.325234E-03  mag=    13.0755
 trial-energy change:   -0.000325  1 .order   -0.000333   -0.000473   -0.000193
 step:   0.2241(harm=  0.1837)  dis= 0.00191  next Energy= -1165.430005 (dE=-0.418E-03)
 bond charge predicted
       N       E                     dE             d eps       ncg     rms          rms(c)
DAV:   1    -0.115772887413E+04    0.41177E-03   -0.19196E-01  1992   0.921E-01    0.114E-01
DAV:   2    -0.115772923577E+04   -0.36164E-03   -0.42228E-03  2640   0.133E-01    0.116E-01
DAV:   3    -0.115772956421E+04   -0.32844E-03   -0.97308E-04  3324   0.132E-01    0.391E-01
DAV:   4    -0.115772924575E+04    0.31846E-03   -0.75708E-04  3000   0.884E-02    0.110E-01
DAV:   5    -0.115772928426E+04   -0.38510E-04   -0.31597E-04  3006   0.648E-02    0.101E-01
DAV:   6    -0.115772930091E+04   -0.16643E-04   -0.28007E-04  2856   0.496E-02    0.127E-01
DAV:   7    -0.115772925994E+04    0.40967E-04   -0.14316E-04  2844   0.593E-02    0.460E-02
DAV:   8    -0.115772928700E+04   -0.27056E-04   -0.62153E-05  2676   0.418E-02    0.727E-02
DAV:   9    -0.115772927429E+04    0.12705E-04   -0.48248E-05  2400   0.342E-02    0.399E-02
DAV:  10    -0.115772927826E+04   -0.39686E-05   -0.80607E-06  1944   0.168E-02    0.270E-02
DAV:  11    -0.115772928139E+04   -0.31326E-05   -0.51160E-06  1836   0.133E-02    0.116E-02
DAV:  12    -0.115772928521E+04   -0.38139E-05   -0.18601E-06  1596   0.840E-03    0.726E-03
DAV:  13    -0.115772928961E+04   -0.44037E-05   -0.72474E-07  1524   0.489E-03    0.411E-03
DAV:  14    -0.115772929222E+04   -0.26118E-05   -0.37442E-07  1464   0.354E-03    0.354E-03
DAV:  15    -0.115772929619E+04   -0.39656E-05   -0.21224E-07  1500   0.272E-03    0.272E-03
DAV:  16    -0.115772929972E+04   -0.35314E-05   -0.19028E-07  1476   0.237E-03    0.205E-03
DAV:  17    -0.115772930303E+04   -0.33150E-05   -0.14631E-07  1464   0.168E-03    0.170E-03
DAV:  18    -0.115772930513E+04   -0.20934E-05   -0.97161E-08  1452   0.118E-03    0.163E-03
DAV:  19    -0.115772930655E+04   -0.14272E-05   -0.63933E-08  1452   0.900E-04    0.124E-03
DAV:  20    -0.115772930782E+04   -0.12671E-05   -0.39715E-08  1416   0.631E-04    0.970E-04
DAV:  21    -0.115772930924E+04   -0.14167E-05   -0.32520E-08  1452   0.408E-04    0.789E-04
DAV:  22    -0.115772931102E+04   -0.17772E-05   -0.22728E-08  1428   0.478E-04    0.691E-04
DAV:  23    -0.115772931321E+04   -0.21956E-05   -0.22135E-08  1440   0.537E-04    0.565E-04
DAV:  24    -0.115772931534E+04   -0.21332E-05   -0.31190E-08  1488   0.509E-04    0.574E-04
DAV:  25    -0.115772931611E+04   -0.76253E-06   -0.19801E-08  1476   0.424E-04
 230 F= -.11654300E+04 E0= -.11654268E+04  d E =-.379583E-03  mag=    13.0751
 curvature:  -0.91 expect dE=-0.468E-02 dE for cont linesearch -0.129E-04
 ZBRENT: interpolating
 opt :   0.1844  next Energy= -1165.429985 (dE=-0.398E-03)
 bond charge predicted
       N       E                     dE             d eps       ncg     rms          rms(c)
DAV:   1    -0.115772929272E+04    0.22628E-04   -0.22687E-02  2028   0.317E-01    0.391E-02
DAV:   2    -0.115772933228E+04   -0.39562E-04   -0.49889E-04  2700   0.460E-02    0.411E-02
DAV:   3    -0.115772937643E+04   -0.44152E-04   -0.12475E-04  3336   0.460E-02    0.136E-01
DAV:   4    -0.115772933548E+04    0.40954E-04   -0.91871E-05  2568   0.305E-02    0.373E-02
DAV:   5    -0.115772934452E+04   -0.90449E-05   -0.35414E-05  1848   0.227E-02    0.337E-02
DAV:   6    -0.115772934919E+04   -0.46682E-05   -0.32523E-05  2004   0.173E-02    0.443E-02
DAV:   7    -0.115772934440E+04    0.47907E-05   -0.16798E-05  1920   0.208E-02    0.166E-02
DAV:   8    -0.115772934972E+04   -0.53178E-05   -0.74447E-06  1992   0.150E-02    0.252E-02
DAV:   9    -0.115772934791E+04    0.18037E-05   -0.62272E-06  1860   0.126E-02    0.147E-02
DAV:  10    -0.115772934823E+04   -0.31441E-06   -0.97039E-07  1464   0.597E-03
 231 F= -.11654300E+04 E0= -.11654268E+04  d E =-.403078E-03  mag=    13.0751
 curvature:  -1.30 expect dE=-0.425E-02 dE for cont linesearch -0.173E-06
 trial: gam= 0.82606 g(F)=  0.328E-02 g(S)=  0.000E+00 ort =-0.902E-04 (trialstep = 0.124E+00)
 search vector abs. value=  0.446E-01
 bond charge predicted
       N       E                     dE             d eps       ncg     rms          rms(c)
DAV:   1    -0.115772921732E+04    0.13059E-03   -0.15195E-01  2004   0.835E-01    0.109E-01
DAV:   2    -0.115772952659E+04   -0.30927E-03   -0.36689E-03  2664   0.126E-01    0.991E-02
DAV:   3    -0.115772977450E+04   -0.24791E-03   -0.96012E-04  3294   0.130E-01    0.330E-01
DAV:   4    -0.115772954017E+04    0.23433E-03   -0.66638E-04  2988   0.827E-02    0.966E-02
DAV:   5    -0.115772957177E+04   -0.31600E-04   -0.14146E-04  2664   0.557E-02    0.626E-02
DAV:   6    -0.115772958742E+04   -0.15649E-04   -0.11643E-04  2856   0.411E-02    0.809E-02
DAV:   7    -0.115772957885E+04    0.85726E-05   -0.10620E-04  2916   0.411E-02    0.696E-02
DAV:   8    -0.115772958638E+04   -0.75349E-05   -0.67644E-05  2736   0.442E-02    0.547E-02
DAV:   9    -0.115772958085E+04    0.55263E-05   -0.53090E-05  2532   0.345E-02    0.408E-02
DAV:  10    -0.115772957984E+04    0.10106E-05   -0.16420E-05  1980   0.193E-02    0.295E-02
DAV:  11    -0.115772958031E+04   -0.46817E-06   -0.49344E-06  1764   0.129E-02
 232 F= -.11654303E+04 E0= -.11654271E+04  d E =-.262888E-03  mag=    13.0752
 trial-energy change:   -0.000263  1 .order   -0.000279   -0.000397   -0.000161
 step:   0.2083(harm=  0.2083)  dis= 0.00148  next Energy= -1165.430323 (dE=-0.334E-03)
 bond charge predicted
       N       E                     dE             d eps       ncg     rms          rms(c)
DAV:   1    -0.115772942863E+04    0.15121E-03   -0.70494E-02  1998   0.570E-01    0.755E-02
DAV:   2    -0.115772957262E+04   -0.14399E-03   -0.17211E-03  2706   0.875E-02    0.789E-02
DAV:   3    -0.115772971922E+04   -0.14660E-03   -0.49414E-04  3216   0.924E-02    0.264E-01
DAV:   4    -0.115772956839E+04    0.15083E-03   -0.36612E-04  2916   0.598E-02    0.708E-02
DAV:   5    -0.115772958710E+04   -0.18711E-04   -0.65866E-05  2256   0.370E-02    0.429E-02
DAV:   6    -0.115772959777E+04   -0.10668E-04   -0.66520E-05  2484   0.279E-02    0.680E-02
DAV:   7    -0.115772958889E+04    0.88766E-05   -0.50150E-05  2268   0.295E-02    0.387E-02
DAV:   8    -0.115772959657E+04   -0.76778E-05   -0.25737E-05  2208   0.308E-02    0.410E-02
DAV:   9    -0.115772959744E+04   -0.87550E-06   -0.25855E-05  2052   0.227E-02    0.318E-02
DAV:  10    -0.115772959711E+04    0.32953E-06   -0.11338E-05  1752   0.152E-02    0.205E-02
DAV:  11    -0.115772959954E+04   -0.24299E-05   -0.33715E-06  1776   0.883E-03    0.120E-02
DAV:  12    -0.115772960206E+04   -0.25132E-05   -0.12270E-06  1680   0.635E-03    0.390E-03
DAV:  13    -0.115772960480E+04   -0.27436E-05   -0.52679E-07  1488   0.383E-03    0.433E-03
DAV:  14    -0.115772960673E+04   -0.19322E-05   -0.26529E-07  1488   0.277E-03    0.210E-03
DAV:  15    -0.115772960958E+04   -0.28439E-05   -0.11912E-07  1464   0.147E-03    0.175E-03
DAV:  16    -0.115772961176E+04   -0.21777E-05   -0.10696E-07  1464   0.168E-03    0.188E-03
DAV:  17    -0.115772961433E+04   -0.25797E-05   -0.95366E-08  1452   0.146E-03    0.144E-03
DAV:  18    -0.115772961611E+04   -0.17735E-05   -0.65707E-08  1488   0.963E-04    0.118E-03
DAV:  19    -0.115772961729E+04   -0.11864E-05   -0.49005E-08  1416   0.615E-04    0.976E-04
DAV:  20    -0.115772961800E+04   -0.70268E-06   -0.27043E-08  1428   0.565E-04
 233 F= -.11654303E+04 E0= -.11654271E+04  d E =-.321591E-03  mag=    13.0752
 curvature:  -1.45 expect dE=-0.255E-02 dE for cont linesearch -0.507E-06
 trial: gam= 0.55669 g(F)=  0.176E-02 g(S)=  0.000E+00 ort =-0.125E-03 (trialstep = 0.141E+00)
 search vector abs. value=  0.154E-01
 bond charge predicted
       N       E                     dE             d eps       ncg     rms          rms(c)
DAV:   1    -0.115772962977E+04   -0.12472E-04   -0.69565E-02  1992   0.564E-01    0.725E-02
DAV:   2    -0.115772976481E+04   -0.13504E-03   -0.16184E-03  2736   0.867E-02    0.804E-02
DAV:   3    -0.115772991150E+04   -0.14669E-03   -0.67217E-04  3108   0.965E-02    0.269E-01
DAV:   4    -0.115772975831E+04    0.15319E-03   -0.45612E-04  2820   0.590E-02    0.685E-02
DAV:   5    -0.115772977920E+04   -0.20888E-04   -0.58441E-05  2496   0.399E-02    0.347E-02
DAV:   6    -0.115772978760E+04   -0.83958E-05   -0.43383E-05  2520   0.256E-02    0.472E-02
DAV:   7    -0.115772978392E+04    0.36703E-05   -0.36730E-05  2520   0.283E-02    0.373E-02
DAV:   8    -0.115772978961E+04   -0.56878E-05   -0.28201E-05  2172   0.257E-02    0.486E-02
DAV:   9    -0.115772978723E+04    0.23782E-05   -0.36023E-05  2112   0.232E-02    0.351E-02
DAV:  10    -0.115772978652E+04    0.71130E-06   -0.80869E-06  1848   0.170E-02
 234 F= -.11654305E+04 E0= -.11654273E+04  d E =-.184729E-03  mag=    13.0751
 trial-energy change:   -0.000185  1 .order   -0.000202   -0.000237   -0.000167
 step:   0.4780(harm=  0.4780)  dis= 0.00196  next Energy= -1165.430714 (dE=-0.403E-03)
 bond charge predicted
       N       E                     dE             d eps       ncg     rms          rms(c)
DAV:   1    -0.115772891853E+04    0.86871E-03   -0.39879E-01  1992   0.135E+00    0.175E-01
DAV:   2    -0.115772985461E+04   -0.93608E-03   -0.95490E-03  2700   0.219E-01    0.282E-01
DAV:   3    -0.115773059435E+04   -0.73974E-03   -0.53308E-03  3168   0.235E-01    0.687E-01
DAV:   4    -0.115772976664E+04    0.82771E-03   -0.30155E-03  2952   0.146E-01    0.176E-01
DAV:   5    -0.115772981021E+04   -0.43570E-04   -0.34287E-04  2910   0.108E-01    0.789E-02
DAV:   6    -0.115772986790E+04   -0.57687E-04   -0.26822E-04  3192   0.615E-02    0.118E-01
DAV:   7    -0.115772983442E+04    0.33479E-04   -0.20285E-04  3192   0.682E-02    0.829E-02
DAV:   8    -0.115772986506E+04   -0.30636E-04   -0.13699E-04  3000   0.632E-02    0.118E-01
DAV:   9    -0.115772984711E+04    0.17952E-04   -0.20454E-04  2880   0.505E-02    0.912E-02
DAV:  10    -0.115772983727E+04    0.98345E-05   -0.45170E-05  2148   0.385E-02    0.527E-02
DAV:  11    -0.115772984663E+04   -0.93542E-05   -0.14451E-05  1956   0.205E-02    0.199E-02
DAV:  12    -0.115772985338E+04   -0.67511E-05   -0.70569E-06  1908   0.139E-02    0.127E-02
DAV:  13    -0.115772986055E+04   -0.71729E-05   -0.24272E-06  1656   0.879E-03    0.109E-02
DAV:  14    -0.115772986814E+04   -0.75884E-05   -0.10939E-06  1584   0.516E-03    0.603E-03
DAV:  15    -0.115772987402E+04   -0.58803E-05   -0.57864E-07  1512   0.354E-03    0.495E-03
DAV:  16    -0.115772987959E+04   -0.55766E-05   -0.48994E-07  1476   0.347E-03    0.348E-03
DAV:  17    -0.115772988759E+04   -0.79988E-05   -0.27356E-07  1464   0.228E-03    0.313E-03
DAV:  18    -0.115772989277E+04   -0.51801E-05   -0.23122E-07  1500   0.207E-03    0.209E-03
DAV:  19    -0.115772989868E+04   -0.59064E-05   -0.20040E-07  1464   0.156E-03    0.204E-03
DAV:  20    -0.115772990162E+04   -0.29370E-05   -0.13728E-07  1512   0.159E-03    0.129E-03
DAV:  21    -0.115772990479E+04   -0.31736E-05   -0.10631E-07  1452   0.890E-04    0.987E-04
DAV:  22    -0.115772990663E+04   -0.18412E-05   -0.74797E-08  1452   0.643E-04    0.100E-03
DAV:  23    -0.115772990864E+04   -0.20058E-05   -0.51658E-08  1440   0.705E-04    0.761E-04
DAV:  24    -0.115772991181E+04   -0.31733E-05   -0.47026E-08  1440   0.539E-04    0.625E-04
DAV:  25    -0.115772991600E+04   -0.41908E-05   -0.74462E-08  1512   0.507E-04    0.717E-04
DAV:  26    -0.115772991708E+04   -0.10760E-05   -0.40842E-08  1512   0.519E-04    0.574E-04
DAV:  27    -0.115772991874E+04   -0.16664E-05   -0.35352E-08  1428   0.379E-04    0.500E-04
DAV:  28    -0.115772992006E+04   -0.13210E-05   -0.27936E-08  1464   0.352E-04    0.404E-04
DAV:  29    -0.115772992179E+04   -0.17227E-05   -0.32890E-08  1428   0.318E-04    0.532E-04
DAV:  30    -0.115772992257E+04   -0.78180E-06   -0.20707E-08  1500   0.388E-04
 235 F= -.11654307E+04 E0= -.11654275E+04  d E =-.359490E-03  mag=    13.0745
 curvature:  -2.19 expect dE=-0.871E-02 dE for cont linesearch -0.618E-05
 trial: gam= 2.30603 g(F)=  0.398E-02 g(S)=  0.000E+00 ort =-0.209E-03 (trialstep = 0.378E-01)
 search vector abs. value=  0.851E-01
 bond charge predicted
       N       E                     dE             d eps       ncg     rms          rms(c)
DAV:   1    -0.115772997722E+04   -0.55430E-04   -0.29048E-02  2100   0.356E-01    0.445E-02
DAV:   2    -0.115773002342E+04   -0.46203E-04   -0.61965E-04  2652   0.521E-02    0.459E-02
DAV:   3    -0.115773008260E+04   -0.59179E-04   -0.20657E-04  3228   0.544E-02    0.163E-01
DAV:   4    -0.115773002276E+04    0.59839E-04   -0.15455E-04  2676   0.356E-02    0.405E-02
DAV:   5    -0.115773003587E+04   -0.13109E-04   -0.31783E-05  1860   0.264E-02    0.309E-02
DAV:   6    -0.115773003943E+04   -0.35620E-05   -0.29935E-05  2124   0.188E-02    0.422E-02
DAV:   7    -0.115773003487E+04    0.45642E-05   -0.16122E-05  2028   0.192E-02    0.215E-02
DAV:   8    -0.115773003830E+04   -0.34309E-05   -0.98010E-06  1944   0.161E-02    0.236E-02
DAV:   9    -0.115773003790E+04    0.40232E-06   -0.95901E-06  1932   0.137E-02
 236 F= -.11654308E+04 E0= -.11654276E+04  d E =-.111024E-03  mag=    13.0744
 ZBRENT: can't locate minimum, use default step
 trial-energy change:   -0.000111  1 .order   -0.000119   -0.000132   -0.000106
 step:   0.1511(harm=  0.1923)  dis= 0.00144  next Energy= -1165.431007 (dE=-0.337E-03)
 bond charge predicted
       N       E                     dE             d eps       ncg     rms          rms(c)
DAV:   1    -0.115772960324E+04    0.43506E-03   -0.26116E-01  1992   0.107E+00    0.136E-01
DAV:   2    -0.115773019318E+04   -0.58995E-03   -0.58904E-03  2748   0.175E-01    0.266E-01
DAV:   3    -0.115773046291E+04   -0.26973E-03   -0.25812E-03  3312   0.164E-01    0.453E-01
DAV:   4    -0.115773014012E+04    0.32279E-03   -0.14920E-03  3036   0.110E-01    0.155E-01
DAV:   5    -0.115773014956E+04   -0.94361E-05   -0.34679E-04  2952   0.919E-02    0.777E-02
DAV:   6    -0.115773020072E+04   -0.51161E-04   -0.25568E-04  3000   0.585E-02    0.146E-01
DAV:   7    -0.115773014800E+04    0.52724E-04   -0.14744E-04  2964   0.601E-02    0.643E-02
DAV:   8    -0.115773016625E+04   -0.18257E-04   -0.86674E-05  2772   0.473E-02    0.676E-02
DAV:   9    -0.115773016254E+04    0.37160E-05   -0.81656E-05  2400   0.381E-02    0.447E-02
DAV:  10    -0.115773016468E+04   -0.21413E-05   -0.16089E-05  1944   0.243E-02    0.351E-02
DAV:  11    -0.115773016755E+04   -0.28710E-05   -0.67810E-06  1944   0.150E-02    0.260E-02
DAV:  12    -0.115773017161E+04   -0.40597E-05   -0.34723E-06  1692   0.108E-02    0.110E-02
DAV:  13    -0.115773017684E+04   -0.52268E-05   -0.13402E-06  1584   0.605E-03    0.538E-03
DAV:  14    -0.115773018110E+04   -0.42679E-05   -0.76850E-07  1596   0.457E-03    0.434E-03
DAV:  15    -0.115773018391E+04   -0.28086E-05   -0.35631E-07  1464   0.349E-03    0.287E-03
DAV:  16    -0.115773018875E+04   -0.48429E-05   -0.24408E-07  1464   0.242E-03    0.242E-03
DAV:  17    -0.115773019195E+04   -0.31977E-05   -0.19217E-07  1464   0.214E-03    0.168E-03
DAV:  18    -0.115773019487E+04   -0.29203E-05   -0.11800E-07  1452   0.123E-03    0.189E-03
DAV:  19    -0.115773019671E+04   -0.18405E-05   -0.79629E-08  1452   0.119E-03    0.187E-03
DAV:  20    -0.115773019882E+04   -0.21114E-05   -0.53452E-08  1452   0.899E-04    0.122E-03
DAV:  21    -0.115773020133E+04   -0.25019E-05   -0.56998E-08  1476   0.558E-04    0.106E-03
DAV:  22    -0.115773020257E+04   -0.12420E-05   -0.34581E-08  1428   0.712E-04    0.790E-04
DAV:  23    -0.115773020478E+04   -0.22109E-05   -0.29197E-08  1440   0.496E-04    0.524E-04
DAV:  24    -0.115773020685E+04   -0.20755E-05   -0.35644E-08  1452   0.377E-04    0.530E-04
DAV:  25    -0.115773020804E+04   -0.11858E-05   -0.22082E-08  1464   0.390E-04    0.452E-04
DAV:  26    -0.115773020943E+04   -0.13869E-05   -0.19021E-08  1452   0.381E-04    0.453E-04
DAV:  27    -0.115773021075E+04   -0.13208E-05   -0.20835E-08  1452   0.350E-04    0.341E-04
DAV:  28    -0.115773021166E+04   -0.91431E-06   -0.18855E-08  1452   0.277E-04
 237 F= -.11654309E+04 E0= -.11654278E+04  d E =-.271853E-03  mag=    13.0740
 curvature:  -2.17 expect dE=-0.524E-02 dE for cont linesearch -0.187E-06
 trial: gam= 0.40233 g(F)=  0.241E-02 g(S)=  0.000E+00 ort = 0.857E-04 (trialstep = 0.604E-01)
 search vector abs. value=  0.163E-01
 bond charge predicted
       N       E                     dE             d eps       ncg     rms          rms(c)
DAV:   1    -0.115773033484E+04   -0.12409E-03   -0.13646E-02  2040   0.248E-01    0.337E-02
DAV:   2    -0.115773035892E+04   -0.24089E-04   -0.32656E-04  2688   0.397E-02    0.324E-02
DAV:   3    -0.115773038562E+04   -0.26691E-04   -0.65801E-05  3216   0.454E-02    0.986E-02
DAV:   4    -0.115773036415E+04    0.21468E-04   -0.41070E-05  2460   0.272E-02    0.422E-02
DAV:   5    -0.115773036305E+04    0.10957E-05   -0.22545E-05  1752   0.178E-02    0.221E-02
DAV:   6    -0.115773036487E+04   -0.18180E-05   -0.14255E-05  1896   0.114E-02    0.228E-02
DAV:   7    -0.115773036429E+04    0.57602E-06   -0.59634E-06  1800   0.116E-02
 238 F= -.11654311E+04 E0= -.11654279E+04  d E =-.128342E-03  mag=    13.0740
 ZBRENT: can't locate minimum, use default step
 trial-energy change:   -0.000128  1 .order   -0.000135   -0.000148   -0.000122
 step:   0.2417(harm=  0.3508)  dis= 0.00105  next Energy= -1165.431372 (dE=-0.429E-03)
 bond charge predicted
       N       E                     dE             d eps       ncg     rms          rms(c)
DAV:   1    -0.115773035049E+04    0.14385E-04   -0.12258E-01  1992   0.744E-01    0.101E-01
DAV:   2    -0.115773061407E+04   -0.26359E-03   -0.29644E-03  2688   0.126E-01    0.118E-01
DAV:   3    -0.115773078031E+04   -0.16624E-03   -0.65883E-04  3204   0.147E-01    0.263E-01
DAV:   4    -0.115773064973E+04    0.13059E-03   -0.28726E-04  2880   0.868E-02    0.152E-01
DAV:   5    -0.115773061126E+04    0.38472E-04   -0.21634E-04  3000   0.559E-02    0.746E-02
DAV:   6    -0.115773062284E+04   -0.11581E-04   -0.15119E-04  2772   0.379E-02    0.668E-02
DAV:   7    -0.115773062884E+04   -0.60068E-05   -0.95360E-05  2760   0.337E-02    0.695E-02
DAV:   8    -0.115773061893E+04    0.99176E-05   -0.75365E-05  2712   0.381E-02    0.336E-02
DAV:   9    -0.115773062836E+04   -0.94385E-05   -0.25640E-05  2436   0.277E-02    0.381E-02
DAV:  10    -0.115773062634E+04    0.20273E-05   -0.10715E-05  2064   0.236E-02    0.184E-02
DAV:  11    -0.115773062842E+04   -0.20787E-05   -0.36485E-06  1752   0.119E-02    0.108E-02
DAV:  12    -0.115773063108E+04   -0.26611E-05   -0.14132E-06  1716   0.687E-03    0.391E-03
DAV:  13    -0.115773063384E+04   -0.27636E-05   -0.75102E-07  1452   0.436E-03    0.577E-03
DAV:  14    -0.115773063580E+04   -0.19596E-05   -0.44055E-07  1476   0.401E-03    0.303E-03
DAV:  15    -0.115773063851E+04   -0.27105E-05   -0.20232E-07  1476   0.215E-03    0.230E-03
DAV:  16    -0.115773064080E+04   -0.22923E-05   -0.16589E-07  1488   0.190E-03    0.210E-03
DAV:  17    -0.115773064237E+04   -0.15679E-05   -0.11239E-07  1452   0.165E-03    0.121E-03
DAV:  18    -0.115773064384E+04   -0.14696E-05   -0.79431E-08  1440   0.896E-04    0.867E-04
DAV:  19    -0.115773064497E+04   -0.11325E-05   -0.59136E-08  1452   0.527E-04    0.782E-04
DAV:  20    -0.115773064604E+04   -0.10719E-05   -0.27709E-08  1428   0.686E-04    0.852E-04
DAV:  21    -0.115773064738E+04   -0.13306E-05   -0.19776E-08  1440   0.641E-04    0.603E-04
DAV:  22    -0.115773064867E+04   -0.12994E-05   -0.22003E-08  1464   0.490E-04    0.509E-04
DAV:  23    -0.115773064918E+04   -0.50570E-06   -0.16358E-08  1428   0.372E-04
 239 F= -.11654313E+04 E0= -.11654281E+04  d E =-.339118E-03  mag=    13.0742
 curvature:  -1.00 expect dE=-0.115E-02 dE for cont linesearch -0.851E-05
 ZBRENT: extrapolating
 opt :   0.2825  next Energy= -1165.431289 (dE=-0.347E-03)
 bond charge predicted
       N       E                     dE             d eps       ncg     rms          rms(c)
DAV:   1    -0.115773065972E+04   -0.11048E-04   -0.62117E-03  2052   0.168E-01    0.227E-02
DAV:   2    -0.115773067053E+04   -0.10810E-04   -0.14880E-04  2724   0.267E-02    0.217E-02
DAV:   3    -0.115773068266E+04   -0.12123E-04   -0.28502E-05  3012   0.303E-02    0.655E-02
DAV:   4    -0.115773067300E+04    0.96568E-05   -0.16206E-05  1860   0.183E-02    0.279E-02
DAV:   5    -0.115773067267E+04    0.33272E-06   -0.10185E-05  1584   0.118E-02    0.153E-02
DAV:   6    -0.115773067354E+04   -0.87333E-06   -0.70239E-06  1824   0.782E-03
 240 F= -.11654313E+04 E0= -.11654281E+04  d E =-.346556E-03  mag=    13.0742
 curvature:  -0.89 expect dE=-0.138E-02 dE for cont linesearch -0.162E-06
 trial: gam= 0.71054 g(F)=  0.155E-02 g(S)=  0.000E+00 ort = 0.543E-04 (trialstep = 0.105E+00)
 search vector abs. value=  0.983E-02
 bond charge predicted
       N       E                     dE             d eps       ncg     rms          rms(c)
DAV:   1    -0.115773075896E+04   -0.86295E-04   -0.24378E-02  2004   0.335E-01    0.462E-02
DAV:   2    -0.115773081204E+04   -0.53075E-04   -0.63448E-04  2832   0.628E-02    0.635E-02
DAV:   3    -0.115773082508E+04   -0.13048E-04   -0.13363E-04  3192   0.693E-02    0.845E-02
DAV:   4    -0.115773081340E+04    0.11684E-04   -0.45342E-05  2688   0.409E-02    0.592E-02
DAV:   5    -0.115773081003E+04    0.33726E-05   -0.20464E-05  1956   0.214E-02    0.360E-02
DAV:   6    -0.115773081507E+04   -0.50411E-05   -0.44703E-05  2208   0.209E-02    0.497E-02
DAV:   7    -0.115773081278E+04    0.22911E-05   -0.51589E-05  2124   0.202E-02    0.420E-02
DAV:   8    -0.115773081098E+04    0.17999E-05   -0.25595E-05  2124   0.238E-02    0.204E-02
DAV:   9    -0.115773081410E+04   -0.31244E-05   -0.14358E-05  2064   0.171E-02    0.251E-02
DAV:  10    -0.115773081328E+04    0.82517E-06   -0.48838E-06  1848   0.140E-02
 241 F= -.11654314E+04 E0= -.11654283E+04  d E =-.123046E-03  mag=    13.0741
 trial-energy change:   -0.000123  1 .order   -0.000134   -0.000166   -0.000101
 step:   0.2693(harm=  0.2693)  dis= 0.00076  next Energy= -1165.431503 (dE=-0.213E-03)
 bond charge predicted
       N       E                     dE             d eps       ncg     rms          rms(c)
DAV:   1    -0.115773075396E+04    0.60145E-04   -0.60048E-02  1992   0.525E-01    0.723E-02
DAV:   2    -0.115773088998E+04   -0.13602E-03   -0.15555E-03  2904   0.919E-02    0.951E-02
DAV:   3    -0.115773097691E+04   -0.86930E-04   -0.50057E-04  3132   0.107E-01    0.216E-01
DAV:   4    -0.115773089141E+04    0.85496E-04   -0.39985E-04  2796   0.577E-02    0.104E-01
DAV:   5    -0.115773088508E+04    0.63290E-05   -0.78535E-05  2508   0.465E-02    0.368E-02
DAV:   6    -0.115773090037E+04   -0.15289E-04   -0.63094E-05  2676   0.334E-02    0.625E-02
DAV:   7    -0.115773089267E+04    0.77049E-05   -0.62720E-05  2628   0.336E-02    0.521E-02
DAV:   8    -0.115773089254E+04    0.13091E-06   -0.36940E-05  2364   0.291E-02    0.397E-02
DAV:   9    -0.115773089499E+04   -0.24504E-05   -0.36398E-05  2088   0.241E-02    0.389E-02
DAV:  10    -0.115773089290E+04    0.20869E-05   -0.10702E-05  1896   0.188E-02    0.165E-02
DAV:  11    -0.115773089613E+04   -0.32284E-05   -0.18542E-06  1608   0.882E-03    0.109E-02
DAV:  12    -0.115773089761E+04   -0.14805E-05   -0.11327E-06  1524   0.664E-03    0.575E-03
DAV:  13    -0.115773090024E+04   -0.26299E-05   -0.44373E-07  1464   0.369E-03    0.326E-03
DAV:  14    -0.115773090248E+04   -0.22376E-05   -0.30776E-07  1464   0.276E-03    0.299E-03
DAV:  15    -0.115773090426E+04   -0.17815E-05   -0.16434E-07  1440   0.210E-03    0.248E-03
DAV:  16    -0.115773090588E+04   -0.16216E-05   -0.10961E-07  1452   0.173E-03    0.160E-03
DAV:  17    -0.115773090803E+04   -0.21478E-05   -0.71424E-08  1452   0.108E-03    0.122E-03
DAV:  18    -0.115773090947E+04   -0.14460E-05   -0.57112E-08  1452   0.936E-04    0.100E-03
DAV:  19    -0.115773091096E+04   -0.14869E-05   -0.46612E-08  1428   0.869E-04    0.106E-03
DAV:  20    -0.115773091202E+04   -0.10622E-05   -0.31529E-08  1452   0.771E-04    0.620E-04
DAV:  21    -0.115773091304E+04   -0.10156E-05   -0.27172E-08  1428   0.423E-04    0.516E-04
DAV:  22    -0.115773091365E+04   -0.61137E-06   -0.15739E-08  1440   0.347E-04
 242 F= -.11654315E+04 E0= -.11654283E+04  d E =-.197110E-03  mag=    13.0738
 curvature:  -0.84 expect dE=-0.161E-02 dE for cont linesearch -0.822E-06
 trial: gam= 1.31716 g(F)=  0.193E-02 g(S)=  0.000E+00 ort =-0.984E-04 (trialstep = 0.723E-01)
 search vector abs. value=  0.187E-01
 bond charge predicted
       N       E                     dE             d eps       ncg     rms          rms(c)
DAV:   1    -0.115773097478E+04   -0.61738E-04   -0.23841E-02  2010   0.325E-01    0.410E-02
DAV:   2    -0.115773101537E+04   -0.40589E-04   -0.52433E-04  2772   0.502E-02    0.423E-02
DAV:   3    -0.115773105360E+04   -0.38231E-04   -0.98275E-05  3144   0.556E-02    0.120E-01
DAV:   4    -0.115773102313E+04    0.30463E-04   -0.67554E-05  2640   0.340E-02    0.554E-02
DAV:   5    -0.115773102098E+04    0.21514E-05   -0.42982E-05  1956   0.242E-02    0.309E-02
DAV:   6    -0.115773102529E+04   -0.43081E-05   -0.33158E-05  2196   0.176E-02    0.374E-02
DAV:   7    -0.115773102213E+04    0.31612E-05   -0.15799E-05  2016   0.182E-02    0.197E-02
DAV:   8    -0.115773102331E+04   -0.11814E-05   -0.94151E-06  1980   0.158E-02    0.143E-02
DAV:   9    -0.115773102460E+04   -0.12916E-05   -0.74535E-06  1812   0.108E-02    0.174E-02
DAV:  10    -0.115773102441E+04    0.18880E-06   -0.25317E-06  1704   0.875E-03
 243 F= -.11654316E+04 E0= -.11654285E+04  d E =-.104663E-03  mag=    13.0736
 trial-energy change:   -0.000105  1 .order   -0.000112   -0.000130   -0.000094
 step:   0.2618(harm=  0.2618)  dis= 0.00097  next Energy= -1165.431722 (dE=-0.236E-03)
 bond charge predicted
       N       E                     dE             d eps       ncg     rms          rms(c)
DAV:   1    -0.115773075386E+04    0.27075E-03   -0.16353E-01  1992   0.850E-01    0.108E-01
DAV:   2    -0.115773108455E+04   -0.33069E-03   -0.36246E-03  2820   0.136E-01    0.135E-01
DAV:   3    -0.115773135005E+04   -0.26550E-03   -0.85356E-04  3192   0.151E-01    0.358E-01
DAV:   4    -0.115773112025E+04    0.22980E-03   -0.74410E-04  2988   0.874E-02    0.156E-01
DAV:   5    -0.115773108936E+04    0.30889E-04   -0.33429E-04  3018   0.712E-02    0.755E-02
DAV:   6    -0.115773111703E+04   -0.27671E-04   -0.20108E-04  2988   0.471E-02    0.957E-02
DAV:   7    -0.115773109608E+04    0.20956E-04   -0.94929E-05  2760   0.463E-02    0.523E-02
DAV:   8    -0.115773109885E+04   -0.27772E-05   -0.62351E-05  2724   0.401E-02    0.411E-02
DAV:   9    -0.115773110354E+04   -0.46847E-05   -0.48509E-05  2376   0.292E-02    0.497E-02
DAV:  10    -0.115773109916E+04    0.43748E-05   -0.16033E-05  2064   0.237E-02    0.202E-02
DAV:  11    -0.115773110517E+04   -0.60063E-05   -0.28224E-06  1632   0.103E-02    0.114E-02
DAV:  12    -0.115773110771E+04   -0.25369E-05   -0.19023E-06  1656   0.808E-03    0.701E-03
DAV:  13    -0.115773111214E+04   -0.44303E-05   -0.67806E-07  1476   0.470E-03    0.381E-03
DAV:  14    -0.115773111592E+04   -0.37867E-05   -0.42866E-07  1488   0.313E-03    0.322E-03
DAV:  15    -0.115773111856E+04   -0.26401E-05   -0.27038E-07  1488   0.276E-03    0.285E-03
DAV:  16    -0.115773112178E+04   -0.32147E-05   -0.17450E-07  1464   0.215E-03    0.168E-03
DAV:  17    -0.115773112580E+04   -0.40218E-05   -0.13271E-07  1488   0.128E-03    0.152E-03
DAV:  18    -0.115773112763E+04   -0.18267E-05   -0.96925E-08  1476   0.124E-03    0.125E-03
DAV:  19    -0.115773112923E+04   -0.16078E-05   -0.62305E-08  1452   0.924E-04    0.922E-04
DAV:  20    -0.115773113048E+04   -0.12415E-05   -0.40051E-08  1452   0.696E-04    0.733E-04
DAV:  21    -0.115773113164E+04   -0.11649E-05   -0.32057E-08  1428   0.472E-04    0.605E-04
DAV:  22    -0.115773113335E+04   -0.17089E-05   -0.26175E-08  1452   0.449E-04    0.622E-04
DAV:  23    -0.115773113510E+04   -0.17537E-05   -0.20614E-08  1452   0.519E-04    0.475E-04
DAV:  24    -0.115773113694E+04   -0.18364E-05   -0.24436E-08  1476   0.434E-04    0.441E-04
DAV:  25    -0.115773113794E+04   -0.10047E-05   -0.20582E-08  1464   0.350E-04    0.452E-04
DAV:  26    -0.115773113854E+04   -0.59779E-06   -0.12150E-08  1428   0.315E-04
 244 F= -.11654317E+04 E0= -.11654286E+04  d E =-.202803E-03  mag=    13.0729
 curvature:  -1.36 expect dE=-0.340E-02 dE for cont linesearch -0.467E-05
 trial: gam= 1.25487 g(F)=  0.250E-02 g(S)=  0.000E+00 ort =-0.253E-03 (trialstep = 0.658E-01)
 search vector abs. value=  0.314E-01
 bond charge predicted
       N       E                     dE             d eps       ncg     rms          rms(c)
DAV:   1    -0.115773119011E+04   -0.52170E-04   -0.31787E-02  2010   0.378E-01    0.480E-02
DAV:   2    -0.115773124481E+04   -0.54691E-04   -0.72096E-04  2670   0.567E-02    0.413E-02
DAV:   3    -0.115773130114E+04   -0.56340E-04   -0.11874E-04  3240   0.579E-02    0.145E-01
DAV:   4    -0.115773125316E+04    0.47987E-04   -0.68301E-05  2760   0.376E-02    0.464E-02
DAV:   5    -0.115773125670E+04   -0.35390E-05   -0.39403E-05  1788   0.208E-02    0.326E-02
DAV:   6    -0.115773125916E+04   -0.24645E-05   -0.24322E-05  1872   0.158E-02    0.316E-02
DAV:   7    -0.115773125827E+04    0.88700E-06   -0.12820E-05  1812   0.181E-02    0.190E-02
DAV:   8    -0.115773126076E+04   -0.24811E-05   -0.10069E-05  2040   0.169E-02    0.220E-02
DAV:   9    -0.115773126125E+04   -0.49177E-06   -0.96009E-06  1992   0.143E-02
 245 F= -.11654318E+04 E0= -.11654286E+04  d E =-.119971E-03  mag=    13.0728
 ZBRENT: can't locate minimum, use default step
 trial-energy change:   -0.000120  1 .order   -0.000130   -0.000144   -0.000116
 step:   0.2633(harm=  0.3445)  dis= 0.00125  next Energy= -1165.432065 (dE=-0.376E-03)
 bond charge predicted
       N       E                     dE             d eps       ncg     rms          rms(c)
DAV:   1    -0.115773072627E+04    0.53449E-03   -0.28574E-01  1992   0.113E+00    0.146E-01
DAV:   2    -0.115773136473E+04   -0.63847E-03   -0.65933E-03  2736   0.188E-01    0.213E-01
DAV:   3    -0.115773188969E+04   -0.52495E-03   -0.15613E-03  3264   0.200E-01    0.524E-01
DAV:   4    -0.115773139680E+04    0.49289E-03   -0.14171E-03  3036   0.120E-01    0.217E-01
DAV:   5    -0.115773134645E+04    0.50346E-04   -0.59930E-04  3042   0.824E-02    0.836E-02
DAV:   6    -0.115773138377E+04   -0.37323E-04   -0.18065E-04  2820   0.547E-02    0.940E-02
DAV:   7    -0.115773137250E+04    0.11270E-04   -0.10579E-04  2712   0.507E-02    0.570E-02
DAV:   8    -0.115773138193E+04   -0.94308E-05   -0.89385E-05  2964   0.491E-02    0.621E-02
DAV:   9    -0.115773138736E+04   -0.54267E-05   -0.93394E-05  2664   0.423E-02    0.670E-02
DAV:  10    -0.115773138096E+04    0.64050E-05   -0.30470E-05  2292   0.330E-02    0.371E-02
DAV:  11    -0.115773138578E+04   -0.48258E-05   -0.84212E-06  1932   0.180E-02    0.216E-02
DAV:  12    -0.115773139071E+04   -0.49333E-05   -0.41124E-06  1824   0.130E-02    0.825E-03
DAV:  13    -0.115773139668E+04   -0.59668E-05   -0.16705E-06  1716   0.670E-03    0.920E-03
DAV:  14    -0.115773140056E+04   -0.38750E-05   -0.95029E-07  1584   0.536E-03    0.458E-03
DAV:  15    -0.115773140607E+04   -0.55132E-05   -0.33341E-07  1452   0.303E-03    0.378E-03
DAV:  16    -0.115773141063E+04   -0.45556E-05   -0.37158E-07  1500   0.340E-03    0.287E-03
DAV:  17    -0.115773141562E+04   -0.49961E-05   -0.20247E-07  1464   0.210E-03    0.156E-03
DAV:  18    -0.115773141881E+04   -0.31872E-05   -0.15435E-07  1500   0.142E-03    0.176E-03
DAV:  19    -0.115773142068E+04   -0.18726E-05   -0.11045E-07  1416   0.139E-03    0.128E-03
DAV:  20    -0.115773142276E+04   -0.20769E-05   -0.65888E-08  1464   0.907E-04    0.960E-04
DAV:  21    -0.115773142489E+04   -0.21311E-05   -0.63977E-08  1464   0.596E-04    0.918E-04
DAV:  22    -0.115773142694E+04   -0.20479E-05   -0.42773E-08  1452   0.692E-04    0.753E-04
DAV:  23    -0.115773142898E+04   -0.20421E-05   -0.29229E-08  1440   0.567E-04    0.624E-04
DAV:  24    -0.115773143107E+04   -0.20911E-05   -0.31273E-08  1452   0.454E-04    0.524E-04
DAV:  25    -0.115773143194E+04   -0.87287E-06   -0.20029E-08  1428   0.373E-04
 246 F= -.11654320E+04 E0= -.11654288E+04  d E =-.282573E-03  mag=    13.0726
 curvature:  -2.27 expect dE=-0.411E-02 dE for cont linesearch -0.393E-09
 trial: gam= 0.51829 g(F)=  0.181E-02 g(S)=  0.000E+00 ort = 0.233E-05 (trialstep = 0.105E+00)
 search vector abs. value=  0.102E-01
 bond charge predicted
       N       E                     dE             d eps       ncg     rms          rms(c)
DAV:   1    -0.115773150841E+04   -0.77340E-04   -0.25785E-02  2022   0.343E-01    0.484E-02
DAV:   2    -0.115773156106E+04   -0.52655E-04   -0.68067E-04  2748   0.541E-02    0.494E-02
DAV:   3    -0.115773158961E+04   -0.28549E-04   -0.17453E-04  3156   0.512E-02    0.106E-01
DAV:   4    -0.115773155901E+04    0.30605E-04   -0.13019E-04  2652   0.346E-02    0.401E-02
DAV:   5    -0.115773157077E+04   -0.11758E-04   -0.37174E-05  2004   0.253E-02    0.485E-02
DAV:   6    -0.115773157977E+04   -0.90029E-05   -0.32871E-05  2340   0.231E-02    0.774E-02
DAV:   7    -0.115773156528E+04    0.14494E-04   -0.16784E-05  2268   0.270E-02    0.233E-02
DAV:   8    -0.115773156981E+04   -0.45305E-05   -0.12884E-05  2208   0.203E-02    0.239E-02
DAV:   9    -0.115773156902E+04    0.78211E-06   -0.66560E-06  1836   0.154E-02
 247 F= -.11654321E+04 E0= -.11654290E+04  d E =-.148853E-03  mag=    13.0727
 trial-energy change:   -0.000149  1 .order   -0.000156   -0.000191   -0.000121
 step:   0.2884(harm=  0.2884)  dis= 0.00082  next Energy= -1165.432233 (dE=-0.262E-03)
 bond charge predicted
       N       E                     dE             d eps       ncg     rms          rms(c)
DAV:   1    -0.115773143480E+04    0.13501E-03   -0.77794E-02  1992   0.596E-01    0.853E-02
DAV:   2    -0.115773162204E+04   -0.18724E-03   -0.21705E-03  2820   0.105E-01    0.132E-01
DAV:   3    -0.115773170673E+04   -0.84693E-04   -0.12402E-03  3264   0.108E-01    0.245E-01
DAV:   4    -0.115773159792E+04    0.10882E-03   -0.69841E-04  2844   0.600E-02    0.103E-01
DAV:   5    -0.115773161761E+04   -0.19689E-04   -0.90332E-05  2568   0.493E-02    0.715E-02
DAV:   6    -0.115773163998E+04   -0.22373E-04   -0.48268E-05  2700   0.419E-02    0.104E-01
DAV:   7    -0.115773161231E+04    0.27674E-04   -0.56779E-05  2664   0.418E-02    0.412E-02
DAV:   8    -0.115773162317E+04   -0.10860E-04   -0.65000E-05  2724   0.366E-02    0.574E-02
DAV:   9    -0.115773161619E+04    0.69813E-05   -0.45445E-05  2148   0.262E-02    0.226E-02
DAV:  10    -0.115773161876E+04   -0.25763E-05   -0.50566E-06  1824   0.142E-02    0.186E-02
DAV:  11    -0.115773162027E+04   -0.15097E-05   -0.30659E-06  1788   0.911E-03    0.950E-03
DAV:  12    -0.115773162338E+04   -0.31098E-05   -0.13486E-06  1632   0.671E-03    0.568E-03
DAV:  13    -0.115773162696E+04   -0.35743E-05   -0.52059E-07  1476   0.416E-03    0.390E-03
DAV:  14    -0.115773162898E+04   -0.20218E-05   -0.29628E-07  1464   0.309E-03    0.303E-03
DAV:  15    -0.115773163141E+04   -0.24333E-05   -0.18623E-07  1452   0.224E-03    0.259E-03
DAV:  16    -0.115773163375E+04   -0.23404E-05   -0.14341E-07  1464   0.185E-03    0.142E-03
DAV:  17    -0.115773163635E+04   -0.25985E-05   -0.94205E-08  1452   0.106E-03    0.942E-04
DAV:  18    -0.115773163829E+04   -0.19445E-05   -0.67463E-08  1464   0.904E-04    0.103E-03
DAV:  19    -0.115773164014E+04   -0.18502E-05   -0.48130E-08  1464   0.974E-04    0.101E-03
DAV:  20    -0.115773164199E+04   -0.18444E-05   -0.37649E-08  1452   0.757E-04    0.626E-04
DAV:  21    -0.115773164315E+04   -0.11651E-05   -0.34423E-08  1440   0.488E-04    0.579E-04
DAV:  22    -0.115773164388E+04   -0.72819E-06   -0.18459E-08  1416   0.412E-04
 248 F= -.11654322E+04 E0= -.11654291E+04  d E =-.243748E-03  mag=    13.0732
 curvature:  -0.81 expect dE=-0.239E-02 dE for cont linesearch -0.167E-05
 trial: gam= 1.75203 g(F)=  0.294E-02 g(S)=  0.000E+00 ort =-0.145E-03 (trialstep = 0.429E-01)
 search vector abs. value=  0.339E-01
 bond charge predicted
       N       E                     dE             d eps       ncg     rms          rms(c)
DAV:   1    -0.115773170636E+04   -0.63205E-04   -0.15475E-02  2004   0.263E-01    0.333E-02
DAV:   2    -0.115773173364E+04   -0.27280E-04   -0.34948E-04  2700   0.408E-02    0.332E-02
DAV:   3    -0.115773175490E+04   -0.21258E-04   -0.14124E-04  3264   0.429E-02    0.926E-02
DAV:   4    -0.115773173269E+04    0.22206E-04   -0.11594E-04  2208   0.272E-02    0.412E-02
DAV:   5    -0.115773173760E+04   -0.49088E-05   -0.16267E-05  1752   0.198E-02    0.239E-02
DAV:   6    -0.115773174048E+04   -0.28837E-05   -0.65198E-06  2100   0.134E-02    0.328E-02
DAV:   7    -0.115773173826E+04    0.22193E-05   -0.48506E-06  1860   0.136E-02    0.147E-02
DAV:   8    -0.115773173871E+04   -0.44744E-06   -0.40484E-06  1884   0.119E-02
 249 F= -.11654323E+04 E0= -.11654291E+04  d E =-.996681E-04  mag=    13.0732
 ZBRENT: can't locate minimum, use default step
 trial-energy change:   -0.000100  1 .order   -0.000105   -0.000115   -0.000094
 step:   0.1717(harm=  0.2350)  dis= 0.00084  next Energy= -1165.432531 (dE=-0.315E-03)
 bond charge predicted
       N       E                     dE             d eps       ncg     rms          rms(c)
DAV:   1    -0.115773154829E+04    0.18997E-03   -0.13899E-01  1992   0.789E-01    0.101E-01
DAV:   2    -0.115773184808E+04   -0.29979E-03   -0.32637E-03  2784   0.135E-01    0.148E-01
DAV:   3    -0.115773199499E+04   -0.14691E-03   -0.17710E-03  3432   0.145E-01    0.306E-01
DAV:   4    -0.115773185471E+04    0.14028E-03   -0.12506E-03  2916   0.828E-02    0.167E-01
DAV:   5    -0.115773183197E+04    0.22741E-04   -0.16627E-04  3072   0.731E-02    0.691E-02
DAV:   6    -0.115773185425E+04   -0.22274E-04   -0.70927E-05  2940   0.425E-02    0.871E-02
DAV:   7    -0.115773184603E+04    0.82184E-05   -0.53631E-05  2784   0.395E-02    0.597E-02
DAV:   8    -0.115773183618E+04    0.98520E-05   -0.43135E-05  2868   0.385E-02    0.352E-02
DAV:   9    -0.115773184338E+04   -0.72057E-05   -0.46563E-05  2484   0.268E-02    0.460E-02
DAV:  10    -0.115773183881E+04    0.45722E-05   -0.31678E-05  2100   0.238E-02    0.198E-02
DAV:  11    -0.115773184143E+04   -0.26186E-05   -0.55957E-06  1704   0.114E-02    0.140E-02
DAV:  12    -0.115773184427E+04   -0.28454E-05   -0.21895E-06  1740   0.825E-03    0.762E-03
DAV:  13    -0.115773184822E+04   -0.39436E-05   -0.94127E-07  1572   0.527E-03    0.380E-03
DAV:  14    -0.115773185202E+04   -0.38050E-05   -0.35514E-07  1464   0.309E-03    0.283E-03
DAV:  15    -0.115773185492E+04   -0.28941E-05   -0.19660E-07  1476   0.228E-03    0.266E-03
DAV:  16    -0.115773185722E+04   -0.23003E-05   -0.12166E-07  1440   0.178E-03    0.195E-03
DAV:  17    -0.115773185966E+04   -0.24434E-05   -0.81582E-08  1476   0.121E-03    0.113E-03
DAV:  18    -0.115773186255E+04   -0.28893E-05   -0.66074E-08  1452   0.820E-04    0.109E-03
DAV:  19    -0.115773186494E+04   -0.23965E-05   -0.57292E-08  1464   0.994E-04    0.129E-03
DAV:  20    -0.115773186714E+04   -0.21975E-05   -0.42282E-08  1452   0.873E-04    0.613E-04
DAV:  21    -0.115773186924E+04   -0.21017E-05   -0.43587E-08  1488   0.457E-04    0.594E-04
DAV:  22    -0.115773186994E+04   -0.69267E-06   -0.22626E-08  1452   0.360E-04
 250 F= -.11654325E+04 E0= -.11654293E+04  d E =-.244931E-03  mag=    13.0735
 curvature:  -1.32 expect dE=-0.182E-02 dE for cont linesearch -0.125E-05
 trial: gam= 0.22917 g(F)=  0.138E-02 g(S)=  0.000E+00 ort = 0.179E-03 (trialstep = 0.687E-01)
 search vector abs. value=  0.324E-02
 bond charge predicted
       N       E                     dE             d eps       ncg     rms          rms(c)
DAV:   1    -0.115773196312E+04   -0.93874E-04   -0.39035E-03  2100   0.130E-01    0.193E-02
DAV:   2    -0.115773197117E+04   -0.80550E-05   -0.95880E-05  2664   0.196E-02    0.159E-02
DAV:   3    -0.115773197455E+04   -0.33753E-05   -0.12428E-05  2604   0.181E-02    0.304E-02
DAV:   4    -0.115773197274E+04    0.18128E-05   -0.87248E-06  1884   0.155E-02    0.215E-02
DAV:   5    -0.115773197381E+04   -0.10701E-05   -0.86518E-06  1620   0.108E-02    0.243E-02
DAV:   6    -0.115773197408E+04   -0.27873E-06   -0.10983E-05  1788   0.117E-02    0.204E-02
DAV:   7    -0.115773197392E+04    0.16304E-06   -0.62716E-06  1728   0.116E-02
 251 F= -.11654325E+04 E0= -.11654294E+04  d E =-.879815E-04  mag=    13.0735
 ZBRENT: can't locate minimum, use default step
 trial-energy change:   -0.000088  1 .order   -0.000086   -0.000097   -0.000075
 step:   0.2747(harm=  0.2926)  dis= 0.00077  next Energy= -1165.432668 (dE=-0.207E-03)
 bond charge predicted
       N       E                     dE             d eps       ncg     rms          rms(c)
DAV:   1    -0.115773204739E+04   -0.73308E-04   -0.35036E-02  2028   0.390E-01    0.591E-02
DAV:   2    -0.115773212367E+04   -0.76274E-04   -0.90242E-04  2808   0.701E-02    0.837E-02
DAV:   3    -0.115773215976E+04   -0.36091E-04   -0.28371E-04  3132   0.753E-02    0.144E-01
DAV:   4    -0.115773211344E+04    0.46316E-04   -0.10521E-04  2784   0.434E-02    0.546E-02
DAV:   5    -0.115773212017E+04   -0.67294E-05   -0.38949E-05  2412   0.370E-02    0.537E-02
DAV:   6    -0.115773213606E+04   -0.15889E-04   -0.11436E-04  2760   0.329E-02    0.100E-01
DAV:   7    -0.115773211832E+04    0.17734E-04   -0.13800E-04  2388   0.336E-02    0.598E-02
DAV:   8    -0.115773211504E+04    0.32844E-05   -0.42127E-05  2424   0.315E-02    0.227E-02
DAV:   9    -0.115773211929E+04   -0.42535E-05   -0.13241E-05  2028   0.196E-02    0.241E-02
DAV:  10    -0.115773211911E+04    0.18633E-06   -0.45250E-06  1800   0.137E-02
 252 F= -.11654326E+04 E0= -.11654295E+04  d E =-.184804E-03  mag=    13.0733
 curvature:  -0.33 expect dE=-0.525E-03 dE for cont linesearch -0.105E-06
 trial: gam= 1.23313 g(F)=  0.158E-02 g(S)=  0.000E+00 ort =-0.320E-04 (trialstep = 0.554E-01)
 search vector abs. value=  0.643E-02
 bond charge predicted
       N       E                     dE             d eps       ncg     rms          rms(c)
DAV:   1    -0.115773219496E+04   -0.75663E-04   -0.44528E-03  2034   0.144E-01    0.244E-02
DAV:   2    -0.115773221616E+04   -0.21206E-04   -0.15422E-04  3042   0.356E-02    0.711E-02
DAV:   3    -0.115773220653E+04    0.96346E-05   -0.44055E-05  3006   0.311E-02    0.442E-02
DAV:   4    -0.115773220911E+04   -0.25844E-05   -0.93675E-06  1968   0.173E-02    0.351E-02
DAV:   5    -0.115773220673E+04    0.23869E-05   -0.18136E-05  1752   0.126E-02    0.241E-02
DAV:   6    -0.115773220826E+04   -0.15377E-05   -0.10851E-05  1788   0.126E-02    0.206E-02
DAV:   7    -0.115773221062E+04   -0.23540E-05   -0.10033E-05  1896   0.135E-02    0.270E-02
DAV:   8    -0.115773220922E+04    0.13998E-05   -0.73835E-06  1704   0.126E-02    0.112E-02
DAV:   9    -0.115773221101E+04   -0.17882E-05   -0.20305E-06  1608   0.773E-03    0.104E-02
DAV:  10    -0.115773221145E+04   -0.44271E-06   -0.95976E-07  1572   0.578E-03
 253 F= -.11654327E+04 E0= -.11654296E+04  d E =-.741745E-04  mag=    13.0731
 trial-energy change:   -0.000074  1 .order   -0.000070   -0.000085   -0.000055
 step:   0.0959(harm=  0.1532)  dis= 0.00031  next Energy= -1165.432741 (dE=-0.958E-04)
 bond charge predicted
       N       E                     dE             d eps       ncg     rms          rms(c)
DAV:   1    -0.115773224977E+04   -0.38760E-04   -0.23802E-03  2088   0.105E-01    0.168E-02
DAV:   2    -0.115773225687E+04   -0.71042E-05   -0.72326E-05  2988   0.207E-02    0.293E-02
DAV:   3    -0.115773225916E+04   -0.22914E-05   -0.12702E-05  2556   0.204E-02    0.428E-02
DAV:   4    -0.115773225620E+04    0.29572E-05   -0.51520E-06  1692   0.118E-02    0.216E-02
DAV:   5    -0.115773225598E+04    0.22296E-06   -0.82939E-06  1524   0.877E-03
 254 F= -.11654328E+04 E0= -.11654296E+04  d E =-.105350E-03  mag=    13.0731
 curvature:  -0.21 expect dE=-0.120E-03 dE for cont linesearch -0.108E-04
 ZBRENT: increasing intervall
 opt :   0.1769  next Energy= -1165.432764 (dE=-0.119E-03)
 bond charge predicted
       N       E                     dE             d eps       ncg     rms          rms(c)
DAV:   1    -0.115773227134E+04   -0.15140E-04   -0.95499E-03  1998   0.211E-01    0.378E-02
DAV:   2    -0.115773232034E+04   -0.49001E-04   -0.44567E-04  3126   0.620E-02    0.130E-01
DAV:   3    -0.115773228010E+04    0.40246E-04   -0.30247E-04  3120   0.509E-02    0.712E-02
DAV:   4    -0.115773229306E+04   -0.12960E-04   -0.63269E-05  2424   0.314E-02    0.554E-02
DAV:   5    -0.115773228974E+04    0.33196E-05   -0.12235E-05  2028   0.233E-02    0.354E-02
DAV:   6    -0.115773229200E+04   -0.22623E-05   -0.10112E-05  2016   0.200E-02    0.378E-02
DAV:   7    -0.115773229516E+04   -0.31614E-05   -0.18926E-05  2496   0.253E-02    0.371E-02
DAV:   8    -0.115773228941E+04    0.57478E-05   -0.15258E-05  2376   0.240E-02    0.172E-02
DAV:   9    -0.115773229077E+04   -0.13550E-05   -0.42792E-06  1848   0.120E-02    0.136E-02
DAV:  10    -0.115773229170E+04   -0.93464E-06   -0.20552E-06  1656   0.781E-03
 255 F= -.11654328E+04 E0= -.11654296E+04  d E =-.114236E-03  mag=    13.0730
 curvature:  -0.26 expect dE=-0.261E-03 dE for cont linesearch -0.296E-05
 ZBRENT: bracketing found
 ZBRENT: interpolating
 opt :   0.1511  next Energy= -1165.432763 (dE=-0.118E-03)
 bond charge predicted
       N       E                     dE             d eps       ncg     rms          rms(c)
DAV:   1    -0.115773228539E+04    0.53847E-05   -0.97274E-04  2064   0.672E-02    0.116E-02
DAV:   2    -0.115773229246E+04   -0.70761E-05   -0.41011E-05  3156   0.214E-02    0.392E-02
DAV:   3    -0.115773228796E+04    0.44999E-05   -0.21917E-05  2232   0.190E-02    0.186E-02
DAV:   4    -0.115773229067E+04   -0.27080E-05   -0.98477E-06  1638   0.904E-03    0.212E-02
DAV:   5    -0.115773229007E+04    0.59455E-06   -0.33647E-06  1680   0.771E-03
 256 F= -.11654328E+04 E0= -.11654296E+04  d E =-.121176E-03  mag=    13.0729
 curvature:  -0.31 expect dE=-0.231E-03 dE for cont linesearch -0.911E-07
 trial: gam= 0.41455 g(F)=  0.752E-03 g(S)=  0.000E+00 ort =-0.436E-04 (trialstep = 0.745E-01)
 search vector abs. value=  0.182E-02
 bond charge predicted
       N       E                     dE             d eps       ncg     rms          rms(c)
DAV:   1    -0.115773233596E+04   -0.45287E-04   -0.24333E-03  2034   0.107E-01    0.204E-02
DAV:   2    -0.115773236739E+04   -0.31432E-04   -0.87162E-05  2868   0.376E-02    0.110E-01
DAV:   3    -0.115773233832E+04    0.29069E-04   -0.35869E-05  2844   0.319E-02    0.334E-02
DAV:   4    -0.115773234618E+04   -0.78619E-05   -0.46081E-05  1854   0.176E-02    0.498E-02
DAV:   5    -0.115773233957E+04    0.66146E-05   -0.25261E-05  1656   0.124E-02    0.141E-02
DAV:   6    -0.115773234254E+04   -0.29738E-05   -0.17956E-06  1476   0.852E-03    0.743E-03
DAV:   7    -0.115773234337E+04   -0.82947E-06   -0.11426E-06  1584   0.599E-03
 257 F= -.11654328E+04 E0= -.11654297E+04  d E =-.516218E-04  mag=    13.0729
 ZBRENT: can't locate minimum, use default step
 trial-energy change:   -0.000052  1 .order   -0.000050   -0.000055   -0.000046
 step:   0.2980(harm=  0.4635)  dis= 0.00052  next Energy= -1165.432936 (dE=-0.170E-03)
 bond charge predicted
       N       E                     dE             d eps       ncg     rms          rms(c)
DAV:   1    -0.115773237829E+04   -0.35753E-04   -0.21822E-02  1992   0.318E-01    0.466E-02
DAV:   2    -0.115773242493E+04   -0.46634E-04   -0.56750E-04  2688   0.544E-02    0.636E-02
DAV:   3    -0.115773246648E+04   -0.41553E-04   -0.16362E-04  3096   0.652E-02    0.143E-01
DAV:   4    -0.115773242522E+04    0.41257E-04   -0.11073E-04  2652   0.396E-02    0.728E-02
DAV:   5    -0.115773242054E+04    0.46860E-05   -0.47345E-05  1884   0.243E-02    0.242E-02
DAV:   6    -0.115773243096E+04   -0.10418E-04   -0.29664E-05  2112   0.193E-02    0.507E-02
DAV:   7    -0.115773242438E+04    0.65722E-05   -0.26302E-05  2148   0.200E-02    0.244E-02
DAV:   8    -0.115773242785E+04   -0.34705E-05   -0.13995E-05  2064   0.203E-02    0.232E-02
DAV:   9    -0.115773242794E+04   -0.86933E-07   -0.13909E-05  1932   0.160E-02    0.170E-02
DAV:  10    -0.115773242788E+04    0.58753E-07   -0.34495E-06  1788   0.101E-02
 258 F= -.11654329E+04 E0= -.11654298E+04  d E =-.131104E-03  mag=    13.0729
 curvature:  -0.47 expect dE=-0.260E-03 dE for cont linesearch -0.959E-05
 ZBRENT: extrapolating
 opt :   0.3997  next Energy= -1165.432907 (dE=-0.141E-03)
 bond charge predicted
       N       E                     dE             d eps       ncg     rms          rms(c)
DAV:   1    -0.115773242564E+04    0.22973E-05   -0.45078E-03  2034   0.145E-01    0.222E-02
DAV:   2    -0.115773243857E+04   -0.12929E-04   -0.13293E-04  2892   0.300E-02    0.447E-02
DAV:   3    -0.115773244363E+04   -0.50610E-05   -0.95694E-05  3036   0.329E-02    0.738E-02
DAV:   4    -0.115773243493E+04    0.87092E-05   -0.47244E-05  1824   0.201E-02    0.332E-02
DAV:   5    -0.115773243589E+04   -0.96396E-06   -0.98163E-06  1656   0.179E-02
 259 F= -.11654329E+04 E0= -.11654297E+04  d E =-.136811E-03  mag=    13.0729
 curvature:  -0.48 expect dE=-0.429E-03 dE for cont linesearch -0.744E-09
 trial: gam= 1.18612 g(F)=  0.893E-03 g(S)=  0.000E+00 ort =-0.168E-05 (trialstep = 0.736E-01)
 search vector abs. value=  0.345E-02
 bond charge predicted
       N       E                     dE             d eps       ncg     rms          rms(c)
DAV:   1    -0.115773247008E+04   -0.35152E-04   -0.50644E-03  2064   0.145E-01    0.265E-02
DAV:   2    -0.115773251632E+04   -0.46239E-04   -0.18397E-04  3042   0.535E-02    0.133E-01
DAV:   3    -0.115773246841E+04    0.47906E-04   -0.61227E-05  2886   0.441E-02    0.368E-02
DAV:   4    -0.115773247979E+04   -0.11382E-04   -0.32856E-05  1980   0.192E-02    0.466E-02
DAV:   5    -0.115773247656E+04    0.32321E-05   -0.27656E-05  1980   0.132E-02    0.234E-02
DAV:   6    -0.115773247813E+04   -0.15734E-05   -0.87313E-06  1776   0.136E-02    0.176E-02
DAV:   7    -0.115773248134E+04   -0.32117E-05   -0.11829E-05  2172   0.157E-02    0.281E-02
DAV:   8    -0.115773247918E+04    0.21682E-05   -0.98269E-06  1980   0.155E-02    0.167E-02
DAV:   9    -0.115773247994E+04   -0.76140E-06   -0.22668E-06  1548   0.936E-03
 260 F= -.11654330E+04 E0= -.11654298E+04  d E =-.519653E-04  mag=    13.0729
 trial-energy change:   -0.000052  1 .order   -0.000052   -0.000066   -0.000038
 step:   0.1735(harm=  0.1735)  dis= 0.00031  next Energy= -1165.432980 (dE=-0.773E-04)
 bond charge predicted
       N       E                     dE             d eps       ncg     rms          rms(c)
DAV:   1    -0.115773247202E+04    0.71573E-05   -0.93171E-03  2046   0.196E-01    0.288E-02
DAV:   2    -0.115773249266E+04   -0.20640E-04   -0.21991E-04  2922   0.348E-02    0.575E-02
DAV:   3    -0.115773249689E+04   -0.42275E-05   -0.37672E-05  3084   0.296E-02    0.706E-02
DAV:   4    -0.115773249089E+04    0.59949E-05   -0.36046E-05  1932   0.178E-02    0.415E-02
DAV:   5    -0.115773248865E+04    0.22455E-05   -0.28420E-05  1776   0.140E-02    0.246E-02
DAV:   6    -0.115773249364E+04   -0.49952E-05   -0.21735E-05  2160   0.209E-02    0.371E-02
DAV:   7    -0.115773249069E+04    0.29525E-05   -0.16528E-05  2172   0.228E-02    0.233E-02
DAV:   8    -0.115773249092E+04   -0.23311E-06   -0.49647E-06  1728   0.148E-02
 261 F= -.11654330E+04 E0= -.11654298E+04  d E =-.736486E-04  mag=    13.0729
 curvature:  -0.34 expect dE=-0.294E-03 dE for cont linesearch -0.350E-07
 trial: gam= 1.00846 g(F)=  0.874E-03 g(S)=  0.000E+00 ort =-0.190E-04 (trialstep = 0.743E-01)
 search vector abs. value=  0.434E-02
 bond charge predicted
       N       E                     dE             d eps       ncg     rms          rms(c)
DAV:   1    -0.115773251824E+04   -0.27553E-04   -0.60315E-03  2028   0.167E-01    0.240E-02
DAV:   2    -0.115773254580E+04   -0.27556E-04   -0.17932E-04  2886   0.444E-02    0.933E-02
DAV:   3    -0.115773252793E+04    0.17864E-04   -0.82201E-05  2916   0.398E-02    0.520E-02
DAV:   4    -0.115773253519E+04   -0.72599E-05   -0.53644E-05  1956   0.229E-02    0.534E-02
DAV:   5    -0.115773252833E+04    0.68616E-05   -0.26114E-05  1758   0.186E-02    0.141E-02
DAV:   6    -0.115773253127E+04   -0.29379E-05   -0.43857E-06  1656   0.889E-03    0.141E-02
DAV:   7    -0.115773253182E+04   -0.54650E-06   -0.24629E-06  1680   0.748E-03
 262 F= -.11654330E+04 E0= -.11654299E+04  d E =-.570028E-04  mag=    13.0729
 ZBRENT: can't locate minimum, use default step
 trial-energy change:   -0.000057  1 .order   -0.000059   -0.000064   -0.000054
 step:   0.2973(harm=  0.5046)  dis= 0.00087  next Energy= -1165.433192 (dE=-0.216E-03)
 bond charge predicted
       N       E                     dE             d eps       ncg     rms          rms(c)
DAV:   1    -0.115773246888E+04    0.62394E-04   -0.54311E-02  1992   0.501E-01    0.635E-02
DAV:   2    -0.115773257353E+04   -0.10465E-03   -0.12221E-03  2712   0.809E-02    0.818E-02
DAV:   3    -0.115773265038E+04   -0.76846E-04   -0.32488E-04  3240   0.885E-02    0.184E-01
DAV:   4    -0.115773258352E+04    0.66855E-04   -0.10728E-04  2760   0.549E-02    0.916E-02
DAV:   5    -0.115773257540E+04    0.81221E-05   -0.80139E-05  2244   0.293E-02    0.358E-02
DAV:   6    -0.115773258689E+04   -0.11489E-04   -0.53516E-05  2088   0.223E-02    0.537E-02
DAV:   7    -0.115773258190E+04    0.49865E-05   -0.38037E-05  2460   0.210E-02    0.273E-02
DAV:   8    -0.115773258725E+04   -0.53495E-05   -0.16706E-05  1920   0.247E-02    0.333E-02
DAV:   9    -0.115773258641E+04    0.84465E-06   -0.82022E-06  1944   0.167E-02
 263 F= -.11654331E+04 E0= -.11654300E+04  d E =-.159707E-03  mag=    13.0730
 curvature:  -0.98 expect dE=-0.691E-03 dE for cont linesearch -0.298E-04
 ZBRENT: increasing intervall
 opt :   0.7432  next Energy= -1165.433135 (dE=-0.158E-03)
 bond charge predicted
       N       E                     dE             d eps       ncg     rms          rms(c)
DAV:   1    -0.115773193954E+04    0.64771E-03   -0.21754E-01  1992   0.100E+00    0.130E-01
DAV:   2    -0.115773249773E+04   -0.55818E-03   -0.50150E-03  2784   0.181E-01    0.269E-01
DAV:   3    -0.115773269546E+04   -0.19774E-03   -0.13397E-03  3288   0.181E-01    0.399E-01
DAV:   4    -0.115773250349E+04    0.19197E-03   -0.12682E-03  3072   0.109E-01    0.253E-01
DAV:   5    -0.115773238105E+04    0.12244E-03   -0.67525E-04  2916   0.848E-02    0.709E-02
DAV:   6    -0.115773242913E+04   -0.48079E-04   -0.15123E-04  2772   0.498E-02    0.844E-02
DAV:   7    -0.115773241967E+04    0.94665E-05   -0.76571E-05  2808   0.369E-02    0.455E-02
DAV:   8    -0.115773243745E+04   -0.17779E-04   -0.80971E-05  2904   0.440E-02    0.772E-02
DAV:   9    -0.115773242775E+04    0.96971E-05   -0.70913E-05  2328   0.361E-02    0.382E-02
DAV:  10    -0.115773243207E+04   -0.43236E-05   -0.11483E-05  1980   0.206E-02    0.305E-02
DAV:  11    -0.115773243334E+04   -0.12634E-05   -0.50489E-06  1800   0.141E-02    0.171E-02
DAV:  12    -0.115773243836E+04   -0.50240E-05   -0.22398E-06  1656   0.993E-03    0.752E-03
DAV:  13    -0.115773244283E+04   -0.44704E-05   -0.12000E-06  1644   0.690E-03    0.777E-03
DAV:  14    -0.115773244654E+04   -0.37088E-05   -0.69126E-07  1512   0.474E-03    0.461E-03
DAV:  15    -0.115773244950E+04   -0.29572E-05   -0.30182E-07  1428   0.325E-03    0.372E-03
DAV:  16    -0.115773245337E+04   -0.38717E-05   -0.26139E-07  1500   0.270E-03    0.221E-03
DAV:  17    -0.115773245687E+04   -0.35059E-05   -0.14755E-07  1452   0.165E-03    0.200E-03
DAV:  18    -0.115773245882E+04   -0.19462E-05   -0.11725E-07  1428   0.155E-03    0.194E-03
DAV:  19    -0.115773246142E+04   -0.25969E-05   -0.78910E-08  1452   0.124E-03    0.154E-03
DAV:  20    -0.115773246371E+04   -0.22942E-05   -0.68440E-08  1452   0.111E-03    0.122E-03
DAV:  21    -0.115773246687E+04   -0.31597E-05   -0.65130E-08  1464   0.811E-04    0.107E-03
DAV:  22    -0.115773246894E+04   -0.20689E-05   -0.59432E-08  1464   0.892E-04    0.108E-03
DAV:  23    -0.115773247103E+04   -0.20864E-05   -0.47362E-08  1440   0.783E-04    0.669E-04
DAV:  24    -0.115773247266E+04   -0.16369E-05   -0.44628E-08  1464   0.508E-04    0.795E-04
DAV:  25    -0.115773247344E+04   -0.77883E-06   -0.26058E-08  1416   0.519E-04
 264 F= -.11654331E+04 E0= -.11654300E+04  d E =-.141540E-03  mag=    13.0734
 curvature:   0.05 expect dE= 0.152E-03 dE for cont linesearch  0.235E-05
 ZBRENT: bracketing found
 ZBRENT: interpolating
 opt :   0.4971  next Energy= -1165.433173 (dE=-0.196E-03)
 bond charge predicted
       N       E                     dE             d eps       ncg     rms          rms(c)
DAV:   1    -0.115773242725E+04    0.45413E-04   -0.66342E-02  2004   0.553E-01    0.706E-02
DAV:   2    -0.115773256497E+04   -0.13772E-03   -0.14785E-03  2760   0.871E-02    0.102E-01
DAV:   3    -0.115773270730E+04   -0.14234E-03   -0.40740E-04  3300   0.898E-02    0.268E-01
DAV:   4    -0.115773256877E+04    0.13854E-03   -0.36468E-04  2988   0.562E-02    0.926E-02
DAV:   5    -0.115773257002E+04   -0.12552E-05   -0.10878E-04  2544   0.344E-02    0.353E-02
DAV:   6    -0.115773258613E+04   -0.16103E-04   -0.41845E-05  2172   0.265E-02    0.512E-02
DAV:   7    -0.115773258238E+04    0.37462E-05   -0.28159E-05  2520   0.266E-02    0.238E-02
DAV:   8    -0.115773259126E+04   -0.88809E-05   -0.22406E-05  2256   0.238E-02    0.398E-02
DAV:   9    -0.115773258828E+04    0.29769E-05   -0.21725E-05  2028   0.206E-02    0.277E-02
DAV:  10    -0.115773258770E+04    0.58773E-06   -0.45934E-06  1884   0.129E-02
 265 F= -.11654332E+04 E0= -.11654300E+04  d E =-.203690E-03  mag=    13.0734
 curvature:  -0.79 expect dE=-0.108E-02 dE for cont linesearch -0.650E-06
 trial: gam= 1.40407 g(F)=  0.137E-02 g(S)=  0.000E+00 ort =-0.598E-04 (trialstep = 0.706E-01)
 search vector abs. value=  0.977E-02
 bond charge predicted
       N       E                     dE             d eps       ncg     rms          rms(c)
DAV:   1    -0.115773261365E+04   -0.25370E-04   -0.11705E-02  2064   0.231E-01    0.323E-02
DAV:   2    -0.115773264235E+04   -0.28694E-04   -0.30373E-04  3024   0.416E-02    0.526E-02
DAV:   3    -0.115773265505E+04   -0.12707E-04   -0.65753E-05  3120   0.439E-02    0.888E-02
DAV:   4    -0.115773264140E+04    0.13659E-04   -0.51880E-05  2352   0.239E-02    0.466E-02
DAV:   5    -0.115773264094E+04    0.45315E-06   -0.20362E-05  1764   0.191E-02    0.229E-02
DAV:   6    -0.115773264765E+04   -0.67043E-05   -0.21116E-05  2124   0.168E-02    0.394E-02
DAV:   7    -0.115773264572E+04    0.19309E-05   -0.19825E-05  1992   0.179E-02    0.290E-02
DAV:   8    -0.115773264640E+04   -0.68016E-06   -0.10466E-05  1944   0.174E-02    0.187E-02
DAV:   9    -0.115773264663E+04   -0.23239E-06   -0.60933E-06  1884   0.110E-02
 266 F= -.11654333E+04 E0= -.11654301E+04  d E =-.792498E-04  mag=    13.0733
 trial-energy change:   -0.000079  1 .order   -0.000076   -0.000091   -0.000062
 step:   0.2176(harm=  0.2176)  dis= 0.00066  next Energy= -1165.433321 (dE=-0.140E-03)
 bond charge predicted
       N       E                     dE             d eps       ncg     rms          rms(c)
DAV:   1    -0.115773251920E+04    0.12720E-03   -0.50460E-02  2022   0.479E-01    0.669E-02
DAV:   2    -0.115773262800E+04   -0.10880E-03   -0.13111E-03  2922   0.810E-02    0.884E-02
DAV:   3    -0.115773268332E+04   -0.55317E-04   -0.28263E-04  3240   0.876E-02    0.161E-01
DAV:   4    -0.115773263522E+04    0.48096E-04   -0.15182E-04  2868   0.525E-02    0.923E-02
DAV:   5    -0.115773262941E+04    0.58070E-05   -0.91110E-05  2232   0.351E-02    0.486E-02
DAV:   6    -0.115773265658E+04   -0.27164E-04   -0.13346E-04  2700   0.349E-02    0.104E-01
DAV:   7    -0.115773262893E+04    0.27652E-04   -0.10803E-04  2724   0.373E-02    0.421E-02
DAV:   8    -0.115773263449E+04   -0.55663E-05   -0.28684E-05  2460   0.310E-02    0.241E-02
DAV:   9    -0.115773263520E+04   -0.71128E-06   -0.22698E-05  2196   0.212E-02    0.258E-02
DAV:  10    -0.115773263430E+04    0.90698E-06   -0.76644E-06  1788   0.144E-02
 267 F= -.11654333E+04 E0= -.11654302E+04  d E =-.109160E-03  mag=    13.0733
 curvature:  -0.82 expect dE=-0.168E-02 dE for cont linesearch -0.394E-05
 trial: gam= 1.62888 g(F)=  0.204E-02 g(S)=  0.000E+00 ort =-0.216E-03 (trialstep = 0.359E-01)
 search vector abs. value=  0.273E-01
 bond charge predicted
       N       E                     dE             d eps       ncg     rms          rms(c)
DAV:   1    -0.115773265795E+04   -0.22744E-04   -0.87743E-03  2052   0.200E-01    0.277E-02
DAV:   2    -0.115773269734E+04   -0.39387E-04   -0.23277E-04  2904   0.501E-02    0.105E-01
DAV:   3    -0.115773267589E+04    0.21443E-04   -0.80523E-05  3084   0.425E-02    0.582E-02
DAV:   4    -0.115773268327E+04   -0.73766E-05   -0.76994E-05  2208   0.286E-02    0.617E-02
DAV:   5    -0.115773267470E+04    0.85717E-05   -0.44327E-05  1836   0.211E-02    0.222E-02
DAV:   6    -0.115773267757E+04   -0.28727E-05   -0.65707E-06  1752   0.119E-02    0.115E-02
DAV:   7    -0.115773267938E+04   -0.18078E-05   -0.38269E-06  1884   0.932E-03    0.139E-02
DAV:   8    -0.115773267990E+04   -0.52256E-06   -0.42152E-06  1788   0.975E-03
 268 F= -.11654333E+04 E0= -.11654302E+04  d E =-.561667E-04  mag=    13.0733
 ZBRENT: can't locate minimum, use default step
 trial-energy change:   -0.000056  1 .order   -0.000058   -0.000060   -0.000056
 step:   0.1434(harm=  0.4559)  dis= 0.00076  next Energy= -1165.433674 (dE=-0.384E-03)
 bond charge predicted
       N       E                     dE             d eps       ncg     rms          rms(c)
DAV:   1    -0.115773258397E+04    0.95407E-04   -0.78905E-02  1998   0.600E-01    0.746E-02
DAV:   2    -0.115773274196E+04   -0.15799E-03   -0.17535E-03  2670   0.978E-02    0.898E-02
DAV:   3    -0.115773284447E+04   -0.10250E-03   -0.42010E-04  3276   0.107E-01    0.214E-01
DAV:   4    -0.115773275987E+04    0.84601E-04   -0.27921E-04  2964   0.669E-02    0.118E-01
DAV:   5    -0.115773274246E+04    0.17403E-04   -0.12919E-04  2616   0.413E-02    0.438E-02
DAV:   6    -0.115773275281E+04   -0.10347E-04   -0.50733E-05  2448   0.285E-02    0.421E-02
DAV:   7    -0.115773275383E+04   -0.10174E-05   -0.41610E-05  2400   0.222E-02    0.498E-02
DAV:   8    -0.115773274945E+04    0.43803E-05   -0.28346E-05  2268   0.246E-02    0.213E-02
DAV:   9    -0.115773275417E+04   -0.47272E-05   -0.11439E-05  2100   0.176E-02    0.217E-02
DAV:  10    -0.115773275459E+04   -0.41620E-06   -0.51278E-06  1884   0.145E-02
 269 F= -.11654335E+04 E0= -.11654303E+04  d E =-.162565E-03  mag=    13.0731
 curvature:  -1.65 expect dE=-0.273E-02 dE for cont linesearch -0.493E-04
 ZBRENT: increasing intervall
 opt :   0.3586  next Energy= -1165.433507 (dE=-0.217E-03)
 bond charge predicted
       N       E                     dE             d eps       ncg     rms          rms(c)
DAV:   1    -0.115773197967E+04    0.77450E-03   -0.31603E-01  1992   0.120E+00    0.150E-01
DAV:   2    -0.115773271003E+04   -0.73035E-03   -0.70438E-03  2784   0.198E-01    0.245E-01
DAV:   3    -0.115773318882E+04   -0.47880E-03   -0.18608E-03  3348   0.205E-01    0.523E-01
DAV:   4    -0.115773273031E+04    0.45851E-03   -0.16003E-03  3072   0.127E-01    0.232E-01
DAV:   5    -0.115773265015E+04    0.80155E-04   -0.67226E-04  2988   0.913E-02    0.855E-02
DAV:   6    -0.115773268888E+04   -0.38731E-04   -0.19605E-04  3012   0.558E-02    0.904E-02
DAV:   7    -0.115773267902E+04    0.98587E-05   -0.12585E-04  2760   0.500E-02    0.677E-02
DAV:   8    -0.115773267729E+04    0.17398E-05   -0.10043E-04  2988   0.501E-02    0.494E-02
DAV:   9    -0.115773268794E+04   -0.10655E-04   -0.82711E-05  2604   0.400E-02    0.709E-02
DAV:  10    -0.115773268029E+04    0.76510E-05   -0.29157E-05  2244   0.330E-02    0.385E-02
DAV:  11    -0.115773268641E+04   -0.61218E-05   -0.70666E-06  1872   0.160E-02    0.166E-02
DAV:  12    -0.115773269260E+04   -0.61886E-05   -0.29739E-06  1776   0.112E-02    0.942E-03
DAV:  13    -0.115773269976E+04   -0.71657E-05   -0.14886E-06  1536   0.747E-03    0.752E-03
DAV:  14    -0.115773270658E+04   -0.68174E-05   -0.74635E-07  1536   0.494E-03    0.382E-03
DAV:  15    -0.115773271324E+04   -0.66601E-05   -0.32443E-07  1476   0.300E-03    0.351E-03
DAV:  16    -0.115773271824E+04   -0.49936E-05   -0.28055E-07  1476   0.286E-03    0.259E-03
DAV:  17    -0.115773272435E+04   -0.61157E-05   -0.18245E-07  1488   0.184E-03    0.155E-03
DAV:  18    -0.115773272876E+04   -0.44077E-05   -0.15113E-07  1512   0.128E-03    0.156E-03
DAV:  19    -0.115773273372E+04   -0.49587E-05   -0.13061E-07  1440   0.124E-03    0.187E-03
DAV:  20    -0.115773273756E+04   -0.38434E-05   -0.97799E-08  1476   0.127E-03    0.120E-03
DAV:  21    -0.115773274238E+04   -0.48181E-05   -0.10427E-07  1488   0.756E-04    0.969E-04
DAV:  22    -0.115773274435E+04   -0.19715E-05   -0.62328E-08  1536   0.743E-04    0.899E-04
DAV:  23    -0.115773274709E+04   -0.27351E-05   -0.49785E-08  1416   0.591E-04    0.659E-04
DAV:  24    -0.115773274958E+04   -0.24888E-05   -0.43939E-08  1464   0.414E-04    0.606E-04
DAV:  25    -0.115773275178E+04   -0.22001E-05   -0.32955E-08  1452   0.369E-04    0.633E-04
DAV:  26    -0.115773275452E+04   -0.27490E-05   -0.31237E-08  1440   0.487E-04    0.582E-04
DAV:  27    -0.115773275779E+04   -0.32656E-05   -0.47080E-08  1476   0.479E-04    0.560E-04
DAV:  28    -0.115773276069E+04   -0.29042E-05   -0.60260E-08  1440   0.481E-04    0.462E-04
DAV:  29    -0.115773276199E+04   -0.12981E-05   -0.50114E-08  1500   0.348E-04    0.418E-04
DAV:  30    -0.115773276345E+04   -0.14535E-05   -0.45237E-08  1416   0.384E-04    0.399E-04
DAV:  31    -0.115773276401E+04   -0.56168E-06   -0.29765E-08  1512   0.370E-04
 270 F= -.11654335E+04 E0= -.11654304E+04  d E =-.235377E-03  mag=    13.0726
 curvature:  -1.83 expect dE=-0.618E-02 dE for cont linesearch -0.114E-04
 trial: gam= 1.26842 g(F)=  0.337E-02 g(S)=  0.000E+00 ort =-0.411E-03 (trialstep = 0.593E-01)
 search vector abs. value=  0.462E-01
 bond charge predicted
       N       E                     dE             d eps       ncg     rms          rms(c)
DAV:   1    -0.115773280003E+04   -0.36586E-04   -0.41038E-02  2064   0.425E-01    0.530E-02
DAV:   2    -0.115773287701E+04   -0.76977E-04   -0.89809E-04  2772   0.662E-02    0.766E-02
DAV:   3    -0.115773294826E+04   -0.71255E-04   -0.25594E-04  3324   0.662E-02    0.192E-01
DAV:   4    -0.115773287754E+04    0.70726E-04   -0.21192E-04  2868   0.423E-02    0.647E-02
DAV:   5    -0.115773288158E+04   -0.40458E-05   -0.69532E-05  2256   0.318E-02    0.374E-02
DAV:   6    -0.115773288960E+04   -0.80158E-05   -0.42449E-05  2508   0.243E-02    0.456E-02
DAV:   7    -0.115773288422E+04    0.53830E-05   -0.22171E-05  2328   0.248E-02    0.257E-02
DAV:   8    -0.115773288615E+04   -0.19332E-05   -0.11565E-05  2172   0.192E-02    0.210E-02
DAV:   9    -0.115773288665E+04   -0.50606E-06   -0.96837E-06  1848   0.131E-02
 271 F= -.11654337E+04 E0= -.11654305E+04  d E =-.131886E-03  mag=    13.0726
 trial-energy change:   -0.000132  1 .order   -0.000143   -0.000169   -0.000117
 step:   0.1951(harm=  0.1951)  dis= 0.00133  next Energy= -1165.433803 (dE=-0.278E-03)
 bond charge predicted
       N       E                     dE             d eps       ncg     rms          rms(c)
DAV:   1    -0.115773246728E+04    0.41887E-03   -0.21549E-01  1992   0.975E-01    0.124E-01
DAV:   2    -0.115773303795E+04   -0.57067E-03   -0.49472E-03  2856   0.172E-01    0.305E-01
DAV:   3    -0.115773309130E+04   -0.53356E-04   -0.16444E-03  3300   0.151E-01    0.348E-01
DAV:   4    -0.115773297632E+04    0.11499E-03   -0.12333E-03  3084   0.104E-01    0.198E-01
DAV:   5    -0.115773290519E+04    0.71124E-04   -0.45983E-04  3084   0.808E-02    0.766E-02
DAV:   6    -0.115773294479E+04   -0.39594E-04   -0.16820E-04  2988   0.590E-02    0.971E-02
DAV:   7    -0.115773292510E+04    0.19683E-04   -0.85987E-05  2784   0.517E-02    0.589E-02
DAV:   8    -0.115773292802E+04   -0.29183E-05   -0.58458E-05  2868   0.437E-02    0.482E-02
DAV:   9    -0.115773293044E+04   -0.24210E-05   -0.55395E-05  2460   0.291E-02    0.481E-02
DAV:  10    -0.115773292743E+04    0.30107E-05   -0.20741E-05  1980   0.233E-02    0.270E-02
DAV:  11    -0.115773293168E+04   -0.42461E-05   -0.31805E-06  1752   0.111E-02    0.148E-02
DAV:  12    -0.115773293383E+04   -0.21548E-05   -0.17902E-06  1752   0.802E-03    0.666E-03
DAV:  13    -0.115773293923E+04   -0.54013E-05   -0.54996E-07  1500   0.424E-03    0.397E-03
DAV:  14    -0.115773294258E+04   -0.33463E-05   -0.42485E-07  1488   0.349E-03    0.404E-03
DAV:  15    -0.115773294544E+04   -0.28633E-05   -0.25714E-07  1476   0.283E-03    0.230E-03
DAV:  16    -0.115773294933E+04   -0.38895E-05   -0.17282E-07  1452   0.202E-03    0.194E-03
DAV:  17    -0.115773295208E+04   -0.27521E-05   -0.13825E-07  1488   0.154E-03    0.131E-03
DAV:  18    -0.115773295388E+04   -0.17974E-05   -0.87738E-08  1440   0.103E-03    0.145E-03
DAV:  19    -0.115773295543E+04   -0.15514E-05   -0.61801E-08  1452   0.105E-03    0.104E-03
DAV:  20    -0.115773295764E+04   -0.22083E-05   -0.47870E-08  1428   0.687E-04    0.886E-04
DAV:  21    -0.115773295984E+04   -0.21955E-05   -0.50404E-08  1452   0.546E-04    0.848E-04
DAV:  22    -0.115773296202E+04   -0.21867E-05   -0.42262E-08  1452   0.608E-04    0.784E-04
DAV:  23    -0.115773296342E+04   -0.13937E-05   -0.29054E-08  1464   0.581E-04    0.616E-04
DAV:  24    -0.115773296493E+04   -0.15122E-05   -0.26007E-08  1488   0.420E-04    0.473E-04
DAV:  25    -0.115773296597E+04   -0.10395E-05   -0.23077E-08  1464   0.304E-04    0.470E-04
DAV:  26    -0.115773296700E+04   -0.10276E-05   -0.14808E-08  1440   0.372E-04    0.465E-04
DAV:  27    -0.115773296819E+04   -0.11960E-05   -0.15041E-08  1428   0.377E-04    0.385E-04
DAV:  28    -0.115773296961E+04   -0.14137E-05   -0.27756E-08  1452   0.326E-04    0.358E-04
DAV:  29    -0.115773297021E+04   -0.60356E-06   -0.19637E-08  1500   0.273E-04
 272 F= -.11654338E+04 E0= -.11654306E+04  d E =-.236337E-03  mag=    13.0725
 curvature:  -1.58 expect dE=-0.513E-02 dE for cont linesearch -0.542E-05
 trial: gam= 0.91711 g(F)=  0.324E-02 g(S)=  0.000E+00 ort =-0.398E-03 (trialstep = 0.864E-01)
 search vector abs. value=  0.414E-01
 bond charge predicted
       N       E                     dE             d eps       ncg     rms          rms(c)
DAV:   1    -0.115773295246E+04    0.17142E-04   -0.73750E-02  2004   0.580E-01    0.753E-02
DAV:   2    -0.115773310862E+04   -0.15615E-03   -0.17679E-03  2772   0.913E-02    0.105E-01
DAV:   3    -0.115773326572E+04   -0.15710E-03   -0.57522E-04  3192   0.938E-02    0.287E-01
DAV:   4    -0.115773309838E+04    0.16734E-03   -0.40730E-04  2988   0.592E-02    0.733E-02
DAV:   5    -0.115773311610E+04   -0.17719E-04   -0.87871E-05  2532   0.378E-02    0.493E-02
DAV:   6    -0.115773312873E+04   -0.12634E-04   -0.68847E-05  2520   0.302E-02    0.638E-02
DAV:   7    -0.115773311935E+04    0.93809E-05   -0.42534E-05  2676   0.347E-02    0.369E-02
DAV:   8    -0.115773312726E+04   -0.79161E-05   -0.30191E-05  2376   0.306E-02    0.415E-02
DAV:   9    -0.115773312433E+04    0.29355E-05   -0.26278E-05  2232   0.231E-02    0.331E-02
DAV:  10    -0.115773312343E+04    0.89510E-06   -0.71615E-06  1788   0.152E-02
 273 F= -.11654339E+04 E0= -.11654308E+04  d E =-.177726E-03  mag=    13.0725
 trial-energy change:   -0.000178  1 .order   -0.000196   -0.000249   -0.000143
 step:   0.2036(harm=  0.2036)  dis= 0.00152  next Energy= -1165.434054 (dE=-0.293E-03)
 bond charge predicted
       N       E                     dE             d eps       ncg     rms          rms(c)
DAV:   1    -0.115773283292E+04    0.29140E-03   -0.13534E-01  1992   0.786E-01    0.103E-01
DAV:   2    -0.115773315641E+04   -0.32348E-03   -0.32952E-03  2808   0.129E-01    0.176E-01
DAV:   3    -0.115773338889E+04   -0.23249E-03   -0.11518E-03  3228   0.131E-01    0.376E-01
DAV:   4    -0.115773313054E+04    0.25835E-03   -0.80081E-04  2988   0.813E-02    0.119E-01
DAV:   5    -0.115773313600E+04   -0.54590E-05   -0.18917E-04  2832   0.553E-02    0.618E-02
DAV:   6    -0.115773316261E+04   -0.26611E-04   -0.12120E-04  2832   0.423E-02    0.866E-02
DAV:   7    -0.115773314464E+04    0.17977E-04   -0.74007E-05  2868   0.445E-02    0.512E-02
DAV:   8    -0.115773315634E+04   -0.11706E-04   -0.61226E-05  2676   0.415E-02    0.581E-02
DAV:   9    -0.115773315277E+04    0.35697E-05   -0.49641E-05  2376   0.297E-02    0.420E-02
DAV:  10    -0.115773315168E+04    0.10952E-05   -0.13092E-05  1932   0.208E-02    0.270E-02
DAV:  11    -0.115773315510E+04   -0.34229E-05   -0.30984E-06  1848   0.984E-03    0.652E-03
DAV:  12    -0.115773315850E+04   -0.33973E-05   -0.12317E-06  1596   0.618E-03    0.788E-03
DAV:  13    -0.115773316108E+04   -0.25796E-05   -0.53355E-07  1488   0.454E-03    0.448E-03
DAV:  14    -0.115773316400E+04   -0.29230E-05   -0.21327E-07  1440   0.254E-03    0.231E-03
DAV:  15    -0.115773316705E+04   -0.30472E-05   -0.18042E-07  1440   0.231E-03    0.278E-03
DAV:  16    -0.115773316952E+04   -0.24734E-05   -0.14566E-07  1512   0.209E-03    0.179E-03
DAV:  17    -0.115773317177E+04   -0.22521E-05   -0.97579E-08  1452   0.138E-03    0.136E-03
DAV:  18    -0.115773317353E+04   -0.17564E-05   -0.77624E-08  1440   0.949E-04    0.124E-03
DAV:  19    -0.115773317475E+04   -0.12173E-05   -0.53048E-08  1440   0.821E-04    0.109E-03
DAV:  20    -0.115773317602E+04   -0.12676E-05   -0.31231E-08  1428   0.681E-04    0.899E-04
DAV:  21    -0.115773317767E+04   -0.16516E-05   -0.28712E-08  1428   0.560E-04    0.740E-04
DAV:  22    -0.115773317893E+04   -0.12644E-05   -0.22265E-08  1452   0.456E-04    0.736E-04
DAV:  23    -0.115773317986E+04   -0.93193E-06   -0.16935E-08  1428   0.530E-04
 274 F= -.11654340E+04 E0= -.11654309E+04  d E =-.267291E-03  mag=    13.0728
 curvature:  -1.46 expect dE=-0.320E-02 dE for cont linesearch -0.115E-05
 trial: gam= 0.64902 g(F)=  0.219E-02 g(S)=  0.000E+00 ort =-0.180E-03 (trialstep = 0.110E+00)
 search vector abs. value=  0.194E-01
 bond charge predicted
       N       E                     dE             d eps       ncg     rms          rms(c)
DAV:   1    -0.115773315448E+04    0.24451E-04   -0.58645E-02  1998   0.518E-01    0.643E-02
DAV:   2    -0.115773327955E+04   -0.12507E-03   -0.13725E-03  2826   0.848E-02    0.861E-02
DAV:   3    -0.115773337091E+04   -0.91359E-04   -0.40447E-04  3300   0.921E-02    0.219E-01
DAV:   4    -0.115773328211E+04    0.88806E-04   -0.30677E-04  2976   0.527E-02    0.862E-02
DAV:   5    -0.115773327491E+04    0.71946E-05   -0.95191E-05  2568   0.421E-02    0.392E-02
DAV:   6    -0.115773328077E+04   -0.58531E-05   -0.44621E-05  2472   0.227E-02    0.433E-02
DAV:   7    -0.115773327819E+04    0.25766E-05   -0.23097E-05  2220   0.211E-02    0.321E-02
DAV:   8    -0.115773327860E+04   -0.41237E-06   -0.20876E-05  2148   0.236E-02    0.231E-02
DAV:   9    -0.115773328092E+04   -0.23153E-05   -0.20867E-05  2340   0.178E-02    0.271E-02
DAV:  10    -0.115773327999E+04    0.92360E-06   -0.93037E-06  1920   0.153E-02
 275 F= -.11654342E+04 E0= -.11654311E+04  d E =-.159310E-03  mag=    13.0727
 trial-energy change:   -0.000159  1 .order   -0.000175   -0.000228   -0.000122
 step:   0.2375(harm=  0.2375)  dis= 0.00114  next Energy= -1165.434275 (dE=-0.246E-03)
 bond charge predicted
       N       E                     dE             d eps       ncg     rms          rms(c)
DAV:   1    -0.115773308198E+04    0.19894E-03   -0.79083E-02  1992   0.601E-01    0.758E-02
DAV:   2    -0.115773327444E+04   -0.19246E-03   -0.18889E-03  2856   0.105E-01    0.137E-01
DAV:   3    -0.115773336212E+04   -0.87675E-04   -0.62951E-04  3264   0.108E-01    0.256E-01
DAV:   4    -0.115773326659E+04    0.95529E-04   -0.48159E-04  3048   0.682E-02    0.113E-01
DAV:   5    -0.115773324582E+04    0.20768E-04   -0.16504E-04  2772   0.537E-02    0.510E-02
DAV:   6    -0.115773325244E+04   -0.66252E-05   -0.57611E-05  2508   0.283E-02    0.441E-02
DAV:   7    -0.115773325263E+04   -0.18617E-06   -0.32539E-05  2388   0.249E-02    0.445E-02
DAV:   8    -0.115773325019E+04    0.24365E-05   -0.33114E-05  2340   0.264E-02    0.261E-02
DAV:   9    -0.115773325570E+04   -0.55008E-05   -0.21491E-05  2244   0.223E-02    0.369E-02
DAV:  10    -0.115773325315E+04    0.25490E-05   -0.89167E-06  1932   0.193E-02    0.141E-02
DAV:  11    -0.115773325665E+04   -0.35037E-05   -0.18484E-06  1644   0.824E-03    0.693E-03
DAV:  12    -0.115773325943E+04   -0.27817E-05   -0.10027E-06  1524   0.573E-03    0.573E-03
DAV:  13    -0.115773326187E+04   -0.24389E-05   -0.56236E-07  1464   0.409E-03    0.334E-03
DAV:  14    -0.115773326541E+04   -0.35397E-05   -0.26414E-07  1476   0.263E-03    0.250E-03
DAV:  15    -0.115773326834E+04   -0.29323E-05   -0.15870E-07  1464   0.188E-03    0.208E-03
DAV:  16    -0.115773327032E+04   -0.19798E-05   -0.11948E-07  1452   0.162E-03    0.178E-03
DAV:  17    -0.115773327249E+04   -0.21714E-05   -0.82949E-08  1440   0.137E-03    0.124E-03
DAV:  18    -0.115773327505E+04   -0.25534E-05   -0.78124E-08  1464   0.973E-04    0.856E-04
DAV:  19    -0.115773327717E+04   -0.21274E-05   -0.74455E-08  1476   0.753E-04    0.108E-03
DAV:  20    -0.115773327858E+04   -0.14027E-05   -0.49171E-08  1452   0.856E-04    0.735E-04
DAV:  21    -0.115773327976E+04   -0.11820E-05   -0.31999E-08  1440   0.527E-04    0.559E-04
DAV:  22    -0.115773328050E+04   -0.73869E-06   -0.25263E-08  1416   0.388E-04
 276 F= -.11654343E+04 E0= -.11654311E+04  d E =-.228074E-03  mag=    13.0726
 curvature:  -1.11 expect dE=-0.173E-02 dE for cont linesearch -0.117E-05
 trial: gam= 0.76387 g(F)=  0.155E-02 g(S)=  0.000E+00 ort =-0.143E-03 (trialstep = 0.135E+00)
 search vector abs. value=  0.126E-01
 bond charge predicted
       N       E                     dE             d eps       ncg     rms          rms(c)
DAV:   1    -0.115773323493E+04    0.44828E-04   -0.59532E-02  2004   0.510E-01    0.639E-02
DAV:   2    -0.115773334169E+04   -0.10676E-03   -0.12826E-03  2592   0.753E-02    0.646E-02
DAV:   3    -0.115773343708E+04   -0.95389E-04   -0.32045E-04  3300   0.782E-02    0.206E-01
DAV:   4    -0.115773334546E+04    0.91626E-04   -0.25003E-04  2868   0.498E-02    0.663E-02
DAV:   5    -0.115773335758E+04   -0.12127E-04   -0.83784E-05  2280   0.406E-02    0.501E-02
DAV:   6    -0.115773336813E+04   -0.10549E-04   -0.87317E-05  2628   0.311E-02    0.728E-02
DAV:   7    -0.115773335271E+04    0.15425E-04   -0.48152E-05  2472   0.317E-02    0.322E-02
DAV:   8    -0.115773335780E+04   -0.50877E-05   -0.23069E-05  2184   0.250E-02    0.258E-02
DAV:   9    -0.115773335844E+04   -0.64210E-06   -0.19842E-05  2076   0.177E-02    0.267E-02
DAV:  10    -0.115773335787E+04    0.56902E-06   -0.49553E-06  1788   0.127E-02
 277 F= -.11654344E+04 E0= -.11654313E+04  d E =-.134029E-03  mag=    13.0726
 trial-energy change:   -0.000134  1 .order   -0.000148   -0.000196   -0.000100
 step:   0.2761(harm=  0.2761)  dis= 0.00080  next Energy= -1165.434456 (dE=-0.199E-03)
 bond charge predicted
       N       E                     dE             d eps       ncg     rms          rms(c)
DAV:   1    -0.115773319779E+04    0.16065E-03   -0.64284E-02  1992   0.530E-01    0.677E-02
DAV:   2    -0.115773334198E+04   -0.14419E-03   -0.14530E-03  2856   0.895E-02    0.129E-01
DAV:   3    -0.115773340006E+04   -0.58079E-04   -0.52871E-04  3276   0.848E-02    0.215E-01
DAV:   4    -0.115773333109E+04    0.68972E-04   -0.36222E-04  3012   0.576E-02    0.916E-02
DAV:   5    -0.115773332608E+04    0.50076E-05   -0.10714E-04  2628   0.492E-02    0.443E-02
DAV:   6    -0.115773334171E+04   -0.15630E-04   -0.74872E-05  2616   0.344E-02    0.712E-02
DAV:   7    -0.115773333021E+04    0.11502E-04   -0.46961E-05  2460   0.329E-02    0.443E-02
DAV:   8    -0.115773333008E+04    0.12650E-06   -0.27819E-05  2364   0.268E-02    0.260E-02
DAV:   9    -0.115773333339E+04   -0.33041E-05   -0.15595E-05  1944   0.190E-02    0.276E-02
DAV:  10    -0.115773333323E+04    0.15656E-06   -0.48133E-06  1776   0.151E-02
 278 F= -.11654344E+04 E0= -.11654313E+04  d E =-.168032E-03  mag=    13.0726
 curvature:  -1.21 expect dE=-0.336E-02 dE for cont linesearch -0.745E-07
 trial: gam= 1.75225 g(F)=  0.278E-02 g(S)=  0.000E+00 ort =-0.279E-04 (trialstep = 0.498E-01)
 search vector abs. value=  0.415E-01
 bond charge predicted
       N       E                     dE             d eps       ncg     rms          rms(c)
DAV:   1    -0.115773336322E+04   -0.29834E-04   -0.24706E-02  1998   0.336E-01    0.439E-02
DAV:   2    -0.115773342313E+04   -0.59909E-04   -0.60488E-04  2868   0.582E-02    0.804E-02
DAV:   3    -0.115773346042E+04   -0.37291E-04   -0.28738E-04  3300   0.583E-02    0.160E-01
DAV:   4    -0.115773341410E+04    0.46321E-04   -0.16809E-04  2664   0.375E-02    0.513E-02
DAV:   5    -0.115773341926E+04   -0.51609E-05   -0.31418E-05  1848   0.285E-02    0.224E-02
DAV:   6    -0.115773342380E+04   -0.45328E-05   -0.16736E-05  1872   0.154E-02    0.348E-02
DAV:   7    -0.115773342354E+04    0.25093E-06   -0.11603E-05  1848   0.163E-02    0.241E-02
DAV:   8    -0.115773342594E+04   -0.23917E-05   -0.88758E-06  1728   0.164E-02    0.169E-02
DAV:   9    -0.115773342893E+04   -0.29934E-05   -0.11365E-05  1896   0.136E-02    0.207E-02
DAV:  10    -0.115773342998E+04   -0.10498E-05   -0.37950E-06  1776   0.111E-02    0.122E-02
DAV:  11    -0.115773343155E+04   -0.15707E-05   -0.77641E-07  1488   0.550E-03    0.887E-03
DAV:  12    -0.115773343309E+04   -0.15429E-05   -0.46439E-07  1440   0.415E-03    0.313E-03
DAV:  13    -0.115773343516E+04   -0.20655E-05   -0.21417E-07  1488   0.228E-03    0.234E-03
DAV:  14    -0.115773343676E+04   -0.16042E-05   -0.15410E-07  1452   0.194E-03    0.161E-03
DAV:  15    -0.115773343856E+04   -0.18009E-05   -0.80017E-08  1440   0.126E-03    0.148E-03
DAV:  16    -0.115773343960E+04   -0.10377E-05   -0.53197E-08  1440   0.119E-03    0.891E-04
DAV:  17    -0.115773344136E+04   -0.17558E-05   -0.39784E-08  1428   0.684E-04    0.696E-04
DAV:  18    -0.115773344220E+04   -0.84470E-06   -0.28082E-08  1476   0.559E-04
 279 F= -.11654346E+04 E0= -.11654314E+04  d E =-.138800E-03  mag=    13.0727
 ZBRENT: can't locate minimum, use default step
 trial-energy change:   -0.000139  1 .order   -0.000120   -0.000136   -0.000103
 step:   0.1993(harm=  0.2067)  dis= 0.00108  next Energy= -1165.434707 (dE=-0.282E-03)
 bond charge predicted
       N       E                     dE             d eps       ncg     rms          rms(c)
DAV:   1    -0.115773298184E+04    0.45952E-03   -0.22268E-01  1992   0.101E+00    0.129E-01
DAV:   2    -0.115773343398E+04   -0.45214E-03   -0.51276E-03  2568   0.148E-01    0.112E-01
DAV:   3    -0.115773378302E+04   -0.34904E-03   -0.13159E-03  3252   0.148E-01    0.396E-01
DAV:   4    -0.115773344716E+04    0.33586E-03   -0.91356E-04  2952   0.989E-02    0.107E-01
DAV:   5    -0.115773348887E+04   -0.41707E-04   -0.16939E-04  2712   0.612E-02    0.719E-02
DAV:   6    -0.115773350500E+04   -0.16134E-04   -0.14004E-04  2700   0.414E-02    0.944E-02
DAV:   7    -0.115773348919E+04    0.15815E-04   -0.10708E-04  2832   0.454E-02    0.624E-02
DAV:   8    -0.115773351435E+04   -0.25159E-04   -0.78260E-05  2736   0.476E-02    0.838E-02
DAV:   9    -0.115773349703E+04    0.17316E-04   -0.87788E-05  2592   0.405E-02    0.517E-02
DAV:  10    -0.115773349732E+04   -0.28728E-06   -0.18215E-05  2028   0.241E-02    0.369E-02
DAV:  11    -0.115773350003E+04   -0.27170E-05   -0.61199E-06  1884   0.145E-02    0.120E-02
DAV:  12    -0.115773350421E+04   -0.41762E-05   -0.32894E-06  1788   0.971E-03    0.966E-03
DAV:  13    -0.115773350781E+04   -0.36047E-05   -0.15460E-06  1560   0.707E-03    0.595E-03
DAV:  14    -0.115773351051E+04   -0.26976E-05   -0.59691E-07  1476   0.418E-03    0.333E-03
DAV:  15    -0.115773351453E+04   -0.40192E-05   -0.28052E-07  1464   0.303E-03    0.373E-03
DAV:  16    -0.115773351770E+04   -0.31694E-05   -0.31179E-07  1488   0.310E-03    0.275E-03
DAV:  17    -0.115773352141E+04   -0.37134E-05   -0.18727E-07  1452   0.218E-03    0.209E-03
DAV:  18    -0.115773352393E+04   -0.25157E-05   -0.13612E-07  1464   0.145E-03    0.183E-03
DAV:  19    -0.115773352608E+04   -0.21453E-05   -0.10991E-07  1440   0.109E-03    0.137E-03
DAV:  20    -0.115773352721E+04   -0.11386E-05   -0.66306E-08  1452   0.866E-04    0.905E-04
DAV:  21    -0.115773352849E+04   -0.12742E-05   -0.40185E-08  1416   0.580E-04    0.801E-04
DAV:  22    -0.115773352965E+04   -0.11609E-05   -0.26997E-08  1428   0.454E-04    0.733E-04
DAV:  23    -0.115773353094E+04   -0.12881E-05   -0.17394E-08  1428   0.532E-04    0.564E-04
DAV:  24    -0.115773353293E+04   -0.19885E-05   -0.19580E-08  1440   0.412E-04    0.454E-04
DAV:  25    -0.115773353465E+04   -0.17219E-05   -0.23560E-08  1512   0.379E-04    0.438E-04
DAV:  26    -0.115773353544E+04   -0.78994E-06   -0.13656E-08  1452   0.311E-04
 280 F= -.11654347E+04 E0= -.11654316E+04  d E =-.321383E-03  mag=    13.0730
 curvature:  -1.57 expect dE=-0.162E-02 dE for cont linesearch -0.422E-05
 ZBRENT: extrapolating
 opt :   0.2280  next Energy= -1165.434751 (dE=-0.326E-03)
 bond charge predicted
       N       E                     dE             d eps       ncg     rms          rms(c)
DAV:   1    -0.115773350317E+04    0.31480E-04   -0.82387E-03  2064   0.194E-01    0.248E-02
DAV:   2    -0.115773351770E+04   -0.14532E-04   -0.19042E-04  2640   0.287E-02    0.224E-02
DAV:   3    -0.115773353313E+04   -0.15427E-04   -0.53528E-05  3036   0.291E-02    0.821E-02
DAV:   4    -0.115773351640E+04    0.16725E-04   -0.37115E-05  1968   0.192E-02    0.202E-02
DAV:   5    -0.115773352083E+04   -0.44237E-05   -0.60685E-06  1548   0.120E-02    0.135E-02
DAV:   6    -0.115773352211E+04   -0.12877E-05   -0.57393E-06  1728   0.837E-03    0.198E-02
DAV:   7    -0.115773352135E+04    0.76515E-06   -0.41332E-06  1656   0.934E-03
 281 F= -.11654347E+04 E0= -.11654316E+04  d E =-.324465E-03  mag=    13.0731
 curvature:  -1.78 expect dE=-0.225E-02 dE for cont linesearch -0.540E-06
 trial: gam= 0.43468 g(F)=  0.126E-02 g(S)=  0.000E+00 ort = 0.112E-03 (trialstep = 0.855E-01)
 search vector abs. value=  0.920E-02
 bond charge predicted
       N       E                     dE             d eps       ncg     rms          rms(c)
DAV:   1    -0.115773356740E+04   -0.45283E-04   -0.16095E-02  2004   0.271E-01    0.386E-02
DAV:   2    -0.115773361469E+04   -0.47296E-04   -0.44444E-04  2946   0.608E-02    0.970E-02
DAV:   3    -0.115773360500E+04    0.96908E-05   -0.14321E-04  3144   0.605E-02    0.787E-02
DAV:   4    -0.115773360855E+04   -0.35489E-05   -0.33359E-05  2418   0.306E-02    0.734E-02
DAV:   5    -0.115773359675E+04    0.11800E-04   -0.44004E-05  2016   0.233E-02    0.299E-02
DAV:   6    -0.115773360079E+04   -0.40406E-05   -0.19963E-05  1728   0.149E-02    0.278E-02
DAV:   7    -0.115773360381E+04   -0.30141E-05   -0.20617E-05  2052   0.174E-02    0.324E-02
DAV:   8    -0.115773360155E+04    0.22573E-05   -0.11830E-05  2016   0.197E-02    0.153E-02
DAV:   9    -0.115773360395E+04   -0.24059E-05   -0.40109E-06  1704   0.130E-02    0.148E-02
DAV:  10    -0.115773360426E+04   -0.30769E-06   -0.28933E-06  1632   0.101E-02
 282 F= -.11654348E+04 E0= -.11654317E+04  d E =-.912805E-04  mag=    13.0730
 trial-energy change:   -0.000091  1 .order   -0.000097   -0.000112   -0.000082
 step:   0.3217(harm=  0.3217)  dis= 0.00108  next Energy= -1165.434960 (dE=-0.211E-03)
 bond charge predicted
       N       E                     dE             d eps       ncg     rms          rms(c)
DAV:   1    -0.115773336578E+04    0.23818E-03   -0.12333E-01  1992   0.750E-01    0.101E-01
DAV:   2    -0.115773361746E+04   -0.25168E-03   -0.29559E-03  2604   0.113E-01    0.894E-02
DAV:   3    -0.115773374069E+04   -0.12323E-03   -0.38504E-04  3240   0.114E-01    0.202E-01
DAV:   4    -0.115773365049E+04    0.90204E-04   -0.21242E-04  3012   0.785E-02    0.108E-01
DAV:   5    -0.115773364751E+04    0.29810E-05   -0.12863E-04  2688   0.453E-02    0.700E-02
DAV:   6    -0.115773366988E+04   -0.22373E-04   -0.17786E-04  2784   0.361E-02    0.108E-01
DAV:   7    -0.115773364198E+04    0.27898E-04   -0.13355E-04  2868   0.414E-02    0.452E-02
DAV:   8    -0.115773365933E+04   -0.17350E-04   -0.55492E-05  2568   0.402E-02    0.487E-02
DAV:   9    -0.115773365303E+04    0.62984E-05   -0.36979E-05  2460   0.313E-02    0.267E-02
DAV:  10    -0.115773365502E+04   -0.19888E-05   -0.90029E-06  1788   0.163E-02    0.175E-02
DAV:  11    -0.115773365702E+04   -0.19924E-05   -0.25792E-06  1680   0.102E-02    0.766E-03
DAV:  12    -0.115773366048E+04   -0.34634E-05   -0.12838E-06  1608   0.607E-03    0.586E-03
DAV:  13    -0.115773366277E+04   -0.22935E-05   -0.83884E-07  1464   0.479E-03    0.563E-03
DAV:  14    -0.115773366491E+04   -0.21364E-05   -0.40839E-07  1464   0.335E-03    0.277E-03
DAV:  15    -0.115773366703E+04   -0.21233E-05   -0.20642E-07  1452   0.246E-03    0.305E-03
DAV:  16    -0.115773366901E+04   -0.19789E-05   -0.13489E-07  1464   0.218E-03    0.210E-03
DAV:  17    -0.115773367103E+04   -0.20168E-05   -0.98076E-08  1440   0.155E-03    0.124E-03
DAV:  18    -0.115773367280E+04   -0.17772E-05   -0.75333E-08  1476   0.116E-03    0.101E-03
DAV:  19    -0.115773367447E+04   -0.16604E-05   -0.59800E-08  1452   0.101E-03    0.118E-03
DAV:  20    -0.115773367570E+04   -0.12374E-05   -0.46614E-08  1440   0.937E-04    0.614E-04
DAV:  21    -0.115773367691E+04   -0.12079E-05   -0.42948E-08  1440   0.468E-04    0.592E-04
DAV:  22    -0.115773367753E+04   -0.62057E-06   -0.22455E-08  1416   0.458E-04
 283 F= -.11654349E+04 E0= -.11654318E+04  d E =-.187440E-03  mag=    13.0725
 curvature:  -1.13 expect dE=-0.254E-02 dE for cont linesearch -0.134E-05
 trial: gam= 1.88710 g(F)=  0.225E-02 g(S)=  0.000E+00 ort =-0.105E-03 (trialstep = 0.353E-01)
 search vector abs. value=  0.346E-01
 bond charge predicted
       N       E                     dE             d eps       ncg     rms          rms(c)
DAV:   1    -0.115773371585E+04   -0.38938E-04   -0.11056E-02  2040   0.221E-01    0.279E-02
DAV:   2    -0.115773373360E+04   -0.17754E-04   -0.23655E-04  2664   0.318E-02    0.220E-02
DAV:   3    -0.115773374514E+04   -0.11541E-04   -0.43981E-05  3084   0.310E-02    0.584E-02
DAV:   4    -0.115773373630E+04    0.88424E-05   -0.39771E-05  1884   0.230E-02    0.327E-02
DAV:   5    -0.115773373812E+04   -0.18163E-05   -0.12395E-05  1668   0.147E-02    0.193E-02
DAV:   6    -0.115773373975E+04   -0.16307E-05   -0.68259E-06  1968   0.121E-02    0.189E-02
DAV:   7    -0.115773373913E+04    0.62059E-06   -0.49549E-06  1872   0.127E-02
 284 F= -.11654350E+04 E0= -.11654319E+04  d E =-.626418E-04  mag=    13.0724
 ZBRENT: can't locate minimum, use default step
 trial-energy change:   -0.000063  1 .order   -0.000066   -0.000072   -0.000059
 step:   0.1411(harm=  0.1978)  dis= 0.00084  next Energy= -1165.435139 (dE=-0.203E-03)
 bond charge predicted
       N       E                     dE             d eps       ncg     rms          rms(c)
DAV:   1    -0.115773360341E+04    0.13634E-03   -0.99327E-02  1992   0.661E-01    0.858E-02
DAV:   2    -0.115773382496E+04   -0.22156E-03   -0.22978E-03  2796   0.113E-01    0.157E-01
DAV:   3    -0.115773387916E+04   -0.54197E-04   -0.10401E-03  3228   0.106E-01    0.221E-01
DAV:   4    -0.115773379695E+04    0.82214E-04   -0.43008E-04  3000   0.650E-02    0.730E-02
DAV:   5    -0.115773380807E+04   -0.11125E-04   -0.10482E-04  2868   0.530E-02    0.725E-02
DAV:   6    -0.115773381723E+04   -0.91530E-05   -0.99987E-05  2700   0.312E-02    0.838E-02
DAV:   7    -0.115773380429E+04    0.12931E-04   -0.34242E-05  2460   0.344E-02    0.353E-02
DAV:   8    -0.115773380994E+04   -0.56441E-05   -0.22206E-05  2448   0.313E-02    0.347E-02
DAV:   9    -0.115773381066E+04   -0.71958E-06   -0.10516E-05  1872   0.218E-02    0.159E-02
DAV:  10    -0.115773381290E+04   -0.22395E-05   -0.48873E-06  1812   0.112E-02    0.151E-02
DAV:  11    -0.115773381427E+04   -0.13769E-05   -0.30361E-06  1596   0.797E-03    0.865E-03
DAV:  12    -0.115773381714E+04   -0.28615E-05   -0.75153E-07  1452   0.473E-03    0.453E-03
DAV:  13    -0.115773381906E+04   -0.19255E-05   -0.37928E-07  1440   0.384E-03    0.421E-03
DAV:  14    -0.115773382139E+04   -0.23319E-05   -0.19060E-07  1452   0.266E-03    0.181E-03
DAV:  15    -0.115773382366E+04   -0.22651E-05   -0.14192E-07  1476   0.150E-03    0.163E-03
DAV:  16    -0.115773382507E+04   -0.14095E-05   -0.10972E-07  1416   0.164E-03    0.164E-03
DAV:  17    -0.115773382664E+04   -0.15718E-05   -0.65152E-08  1452   0.123E-03    0.104E-03
DAV:  18    -0.115773382804E+04   -0.13981E-05   -0.54661E-08  1440   0.907E-04    0.852E-04
DAV:  19    -0.115773382924E+04   -0.12026E-05   -0.40648E-08  1452   0.653E-04    0.671E-04
DAV:  20    -0.115773383009E+04   -0.85379E-06   -0.27751E-08  1416   0.568E-04
 285 F= -.11654351E+04 E0= -.11654320E+04  d E =-.156432E-03  mag=    13.0718
 curvature:  -1.47 expect dE=-0.148E-02 dE for cont linesearch -0.111E-05
 trial: gam= 0.21125 g(F)=  0.101E-02 g(S)=  0.000E+00 ort = 0.162E-03 (trialstep = 0.564E-01)
 search vector abs. value=  0.263E-02
 bond charge predicted
       N       E                     dE             d eps       ncg     rms          rms(c)
DAV:   1    -0.115773388082E+04   -0.51581E-04   -0.21285E-03  2148   0.954E-02    0.149E-02
DAV:   2    -0.115773388534E+04   -0.45233E-05   -0.54054E-05  2760   0.156E-02    0.141E-02
DAV:   3    -0.115773388845E+04   -0.31015E-05   -0.18546E-05  2592   0.178E-02    0.323E-02
DAV:   4    -0.115773388527E+04    0.31809E-05   -0.17466E-05  1620   0.117E-02    0.188E-02
DAV:   5    -0.115773388614E+04   -0.87205E-06   -0.44311E-06  1632   0.898E-03
 286 F= -.11654351E+04 E0= -.11654321E+04  d E =-.532918E-04  mag=    13.0717
 ZBRENT: can't locate minimum, use default step
 trial-energy change:   -0.000053  1 .order   -0.000052   -0.000059   -0.000045
 step:   0.2257(harm=  0.2423)  dis= 0.00062  next Energy= -1165.435220 (dE=-0.127E-03)
 bond charge predicted
       N       E                     dE             d eps       ncg     rms          rms(c)
DAV:   1    -0.115773392184E+04   -0.36575E-04   -0.19122E-02  2028   0.286E-01    0.486E-02
DAV:   2    -0.115773401139E+04   -0.89554E-04   -0.52810E-04  2634   0.673E-02    0.171E-01
DAV:   3    -0.115773395710E+04    0.54295E-04   -0.12678E-04  3204   0.568E-02    0.848E-02
DAV:   4    -0.115773398031E+04   -0.23211E-04   -0.22937E-04  2844   0.328E-02    0.125E-01
DAV:   5    -0.115773394003E+04    0.40278E-04   -0.14128E-04  2448   0.271E-02    0.216E-02
DAV:   6    -0.115773396277E+04   -0.22740E-04   -0.33920E-05  2268   0.276E-02    0.548E-02
DAV:   7    -0.115773395338E+04    0.93949E-05   -0.38544E-05  2616   0.272E-02    0.308E-02
DAV:   8    -0.115773395540E+04   -0.20186E-05   -0.11153E-05  1944   0.187E-02    0.239E-02
DAV:   9    -0.115773395601E+04   -0.61100E-06   -0.49316E-06  1860   0.137E-02
 287 F= -.11654352E+04 E0= -.11654321E+04  d E =-.114873E-03  mag=    13.0719
 curvature:  -0.30 expect dE=-0.227E-03 dE for cont linesearch -0.121E-06
 trial: gam= 0.78198 g(F)=  0.753E-03 g(S)=  0.000E+00 ort = 0.325E-04 (trialstep = 0.903E-01)
 search vector abs. value=  0.241E-02
 bond charge predicted
       N       E                     dE             d eps       ncg     rms          rms(c)
DAV:   1    -0.115773399238E+04   -0.36983E-04   -0.43776E-03  2040   0.139E-01    0.258E-02
DAV:   2    -0.115773400939E+04   -0.17011E-04   -0.15573E-04  3048   0.375E-02    0.568E-02
DAV:   3    -0.115773400586E+04    0.35337E-05   -0.40899E-05  2964   0.366E-02    0.485E-02
DAV:   4    -0.115773400568E+04    0.17246E-06   -0.92157E-06  1992   0.171E-02    0.388E-02
DAV:   5    -0.115773400377E+04    0.19095E-05   -0.14668E-05  1776   0.155E-02    0.253E-02
DAV:   6    -0.115773400551E+04   -0.17367E-05   -0.20549E-05  1560   0.124E-02    0.320E-02
DAV:   7    -0.115773400576E+04   -0.24998E-06   -0.15199E-05  1932   0.169E-02    0.254E-02
DAV:   8    -0.115773400504E+04    0.71638E-06   -0.71650E-06  1884   0.160E-02
 288 F= -.11654353E+04 E0= -.11654322E+04  d E =-.505049E-04  mag=    13.0719
 trial-energy change:   -0.000051  1 .order   -0.000051   -0.000070   -0.000031
 step:   0.1614(harm=  0.1614)  dis= 0.00034  next Energy= -1165.435271 (dE=-0.629E-04)
 bond charge predicted
       N       E                     dE             d eps       ncg     rms          rms(c)
DAV:   1    -0.115773400766E+04   -0.19012E-05   -0.27078E-03  2058   0.110E-01    0.223E-02
DAV:   2    -0.115773402465E+04   -0.16988E-04   -0.13994E-04  3000   0.382E-02    0.691E-02
DAV:   3    -0.115773401125E+04    0.13398E-04   -0.67664E-05  2748   0.339E-02    0.246E-02
DAV:   4    -0.115773401484E+04   -0.35881E-05   -0.81812E-06  1740   0.130E-02    0.208E-02
DAV:   5    -0.115773401453E+04    0.31113E-06   -0.10409E-05  1692   0.105E-02    0.213E-02
DAV:   6    -0.115773401555E+04   -0.10246E-05   -0.12357E-05  1656   0.113E-02    0.273E-02
DAV:   7    -0.115773401716E+04   -0.16104E-05   -0.61995E-06  1704   0.145E-02    0.350E-02
DAV:   8    -0.115773401562E+04    0.15427E-05   -0.36087E-06  1800   0.120E-02    0.159E-02
DAV:   9    -0.115773401600E+04   -0.37906E-06   -0.15786E-06  1548   0.875E-03
 289 F= -.11654353E+04 E0= -.11654322E+04  d E =-.626114E-04  mag=    13.0720
 curvature:  -0.25 expect dE=-0.110E-03 dE for cont linesearch -0.451E-07
 trial: gam= 0.61791 g(F)=  0.439E-03 g(S)=  0.000E+00 ort =-0.209E-04 (trialstep = 0.105E+00)
 search vector abs. value=  0.133E-02
 bond charge predicted
       N       E                     dE             d eps       ncg     rms          rms(c)
DAV:   1    -0.115773404316E+04   -0.27538E-04   -0.35549E-03  2070   0.127E-01    0.169E-02
DAV:   2    -0.115773405011E+04   -0.69492E-05   -0.87283E-05  2964   0.242E-02    0.255E-02
DAV:   3    -0.115773405278E+04   -0.26758E-05   -0.29056E-05  2544   0.275E-02    0.382E-02
DAV:   4    -0.115773405188E+04    0.90776E-06   -0.15769E-05  1752   0.151E-02    0.338E-02
DAV:   5    -0.115773404959E+04    0.22849E-05   -0.89556E-06  1644   0.112E-02    0.110E-02
DAV:   6    -0.115773405051E+04   -0.91622E-06   -0.29302E-06  1572   0.698E-03
 290 F= -.11654353E+04 E0= -.11654322E+04  d E =-.375250E-04  mag=    13.0720
 trial-energy change:   -0.000038  1 .order   -0.000039   -0.000045   -0.000033
 step:   0.4012(harm=  0.4012)  dis= 0.00036  next Energy= -1165.435356 (dE=-0.855E-04)
 bond charge predicted
       N       E                     dE             d eps       ncg     rms          rms(c)
DAV:   1    -0.115773402026E+04    0.29335E-04   -0.28675E-02  1992   0.360E-01    0.485E-02
DAV:   2    -0.115773408845E+04   -0.68198E-04   -0.77970E-04  2940   0.702E-02    0.118E-01
DAV:   3    -0.115773407868E+04    0.97775E-05   -0.44300E-04  3174   0.654E-02    0.109E-01
DAV:   4    -0.115773407850E+04    0.17830E-06   -0.19402E-04  2856   0.382E-02    0.774E-02
DAV:   5    -0.115773407230E+04    0.61990E-05   -0.52007E-05  2244   0.320E-02    0.412E-02
DAV:   6    -0.115773407486E+04   -0.25618E-05   -0.14850E-05  2220   0.200E-02    0.338E-02
DAV:   7    -0.115773407583E+04   -0.96512E-06   -0.17338E-05  2352   0.192E-02    0.273E-02
DAV:   8    -0.115773407427E+04    0.15537E-05   -0.18114E-05  2292   0.201E-02    0.180E-02
DAV:   9    -0.115773407679E+04   -0.25219E-05   -0.11825E-05  1884   0.151E-02    0.234E-02
DAV:  10    -0.115773407626E+04    0.52987E-06   -0.37236E-06  1728   0.120E-02
 291 F= -.11654353E+04 E0= -.11654323E+04  d E =-.718761E-04  mag=    13.0719
 curvature:  -0.63 expect dE=-0.477E-03 dE for cont linesearch -0.102E-10
 trial: gam= 1.57378 g(F)=  0.760E-03 g(S)=  0.000E+00 ort = 0.147E-06 (trialstep = 0.538E-01)
 search vector abs. value=  0.406E-02
 bond charge predicted
       N       E                     dE             d eps       ncg     rms          rms(c)
DAV:   1    -0.115773411001E+04   -0.33213E-04   -0.29757E-03  2088   0.112E-01    0.171E-02
DAV:   2    -0.115773412104E+04   -0.11032E-04   -0.85495E-05  3012   0.279E-02    0.508E-02
DAV:   3    -0.115773411550E+04    0.55379E-05   -0.39351E-05  2472   0.242E-02    0.269E-02
DAV:   4    -0.115773411899E+04   -0.34876E-05   -0.16813E-05  1680   0.137E-02    0.267E-02
DAV:   5    -0.115773411818E+04    0.81250E-06   -0.87437E-06  1656   0.120E-02
 292 F= -.11654354E+04 E0= -.11654323E+04  d E =-.369971E-04  mag=    13.0719
 trial-energy change:   -0.000037  1 .order   -0.000035   -0.000041   -0.000030
 step:   0.2032(harm=  0.2032)  dis= 0.00032  next Energy= -1165.435420 (dE=-0.772E-04)
 bond charge predicted
       N       E                     dE             d eps       ncg     rms          rms(c)
DAV:   1    -0.115773412320E+04   -0.42094E-05   -0.23019E-02  1998   0.312E-01    0.475E-02
DAV:   2    -0.115773421549E+04   -0.92287E-04   -0.63799E-04  2838   0.684E-02    0.185E-01
DAV:   3    -0.115773415217E+04    0.63314E-04   -0.29803E-04  3198   0.555E-02    0.805E-02
DAV:   4    -0.115773417469E+04   -0.22517E-04   -0.11490E-04  2676   0.375E-02    0.726E-02
DAV:   5    -0.115773416168E+04    0.13005E-04   -0.62625E-05  2532   0.311E-02    0.349E-02
DAV:   6    -0.115773417053E+04   -0.88441E-05   -0.35552E-05  2340   0.275E-02    0.475E-02
DAV:   7    -0.115773416593E+04    0.46020E-05   -0.19878E-05  2388   0.252E-02    0.286E-02
DAV:   8    -0.115773416736E+04   -0.14383E-05   -0.13530E-05  2136   0.185E-02    0.213E-02
DAV:   9    -0.115773416860E+04   -0.12384E-05   -0.98600E-06  1872   0.117E-02    0.154E-02
DAV:  10    -0.115773416971E+04   -0.11087E-05   -0.26039E-06  1728   0.835E-03    0.868E-03
DAV:  11    -0.115773417108E+04   -0.13656E-05   -0.55725E-07  1512   0.463E-03    0.668E-03
DAV:  12    -0.115773417223E+04   -0.11489E-05   -0.25249E-07  1428   0.317E-03    0.252E-03
DAV:  13    -0.115773417327E+04   -0.10417E-05   -0.16585E-07  1428   0.200E-03    0.217E-03
DAV:  14    -0.115773417482E+04   -0.15567E-05   -0.10723E-07  1464   0.152E-03    0.107E-03
DAV:  15    -0.115773417604E+04   -0.12114E-05   -0.55272E-08  1464   0.840E-04    0.100E-03
DAV:  16    -0.115773417655E+04   -0.50938E-06   -0.32357E-08  1428   0.835E-04
 293 F= -.11654354E+04 E0= -.11654323E+04  d E =-.816578E-04  mag=    13.0717
 curvature:  -0.54 expect dE=-0.368E-03 dE for cont linesearch -0.458E-07
 trial: gam= 0.88778 g(F)=  0.679E-03 g(S)=  0.000E+00 ort =-0.185E-04 (trialstep = 0.837E-01)
 search vector abs. value=  0.385E-02
 bond charge predicted
       N       E                     dE             d eps       ncg     rms          rms(c)
DAV:   1    -0.115773421798E+04   -0.41949E-04   -0.61878E-03  2064   0.164E-01    0.238E-02
DAV:   2    -0.115773422863E+04   -0.10643E-04   -0.15364E-04  2916   0.268E-02    0.237E-02
DAV:   3    -0.115773423714E+04   -0.85164E-05   -0.28142E-05  2832   0.292E-02    0.454E-02
DAV:   4    -0.115773423180E+04    0.53441E-05   -0.92451E-06  2100   0.195E-02    0.260E-02
DAV:   5    -0.115773423185E+04   -0.48924E-07   -0.54553E-06  1716   0.115E-02
 294 F= -.11654355E+04 E0= -.11654324E+04  d E =-.442586E-04  mag=    13.0716
 trial-energy change:   -0.000044  1 .order   -0.000046   -0.000055   -0.000036
 step:   0.2429(harm=  0.2429)  dis= 0.00034  next Energy= -1165.435504 (dE=-0.804E-04)
 bond charge predicted
       N       E                     dE             d eps       ncg     rms          rms(c)
DAV:   1    -0.115773422790E+04    0.39038E-05   -0.22394E-02  1992   0.312E-01    0.518E-02
DAV:   2    -0.115773436347E+04   -0.13557E-03   -0.12393E-03  2856   0.780E-02    0.255E-01
DAV:   3    -0.115773422020E+04    0.14328E-03   -0.84431E-04  3036   0.631E-02    0.694E-02
DAV:   4    -0.115773429310E+04   -0.72907E-04   -0.56833E-05  2700   0.376E-02    0.108E-01
DAV:   5    -0.115773426558E+04    0.27524E-04   -0.25427E-05  2472   0.277E-02    0.293E-02
DAV:   6    -0.115773427781E+04   -0.12234E-04   -0.23485E-05  2364   0.245E-02    0.489E-02
DAV:   7    -0.115773427243E+04    0.53843E-05   -0.35268E-05  2436   0.261E-02    0.336E-02
DAV:   8    -0.115773427311E+04   -0.68578E-06   -0.18910E-05  2196   0.227E-02    0.264E-02
DAV:   9    -0.115773427449E+04   -0.13776E-05   -0.65554E-06  1788   0.150E-02    0.138E-02
DAV:  10    -0.115773427620E+04   -0.17133E-05   -0.16496E-06  1584   0.873E-03    0.105E-02
DAV:  11    -0.115773427719E+04   -0.98660E-06   -0.78254E-07  1500   0.598E-03
 295 F= -.11654355E+04 E0= -.11654324E+04  d E =-.684585E-04  mag=    13.0717
 curvature:  -0.71 expect dE=-0.573E-03 dE for cont linesearch -0.431E-06
 trial: gam= 1.25699 g(F)=  0.813E-03 g(S)=  0.000E+00 ort =-0.485E-04 (trialstep = 0.656E-01)
 search vector abs. value=  0.677E-02
 bond charge predicted
       N       E                     dE             d eps       ncg     rms          rms(c)
DAV:   1    -0.115773430898E+04   -0.32779E-04   -0.68801E-03  2016   0.174E-01    0.235E-02
DAV:   2    -0.115773432018E+04   -0.11201E-04   -0.15577E-04  2796   0.268E-02    0.261E-02
DAV:   3    -0.115773433541E+04   -0.15224E-04   -0.99344E-05  2892   0.317E-02    0.850E-02
DAV:   4    -0.115773431721E+04    0.18203E-04   -0.63944E-05  1824   0.193E-02    0.253E-02
DAV:   5    -0.115773432321E+04   -0.60004E-05   -0.40923E-06  1500   0.134E-02    0.124E-02
DAV:   6    -0.115773432499E+04   -0.17812E-05   -0.22700E-06  1716   0.749E-03    0.186E-02
DAV:   7    -0.115773432474E+04    0.24519E-06   -0.27107E-06  1608   0.780E-03
 296 F= -.11654355E+04 E0= -.11654325E+04  d E =-.448039E-04  mag=    13.0716
 ZBRENT: can't locate minimum, use default step
 trial-energy change:   -0.000045  1 .order   -0.000047   -0.000049   -0.000044
 step:   0.2626(harm=  0.5741)  dis= 0.00054  next Energy= -1165.435708 (dE=-0.216E-03)
 bond charge predicted
       N       E                     dE             d eps       ncg     rms          rms(c)
DAV:   1    -0.115773427760E+04    0.47390E-04   -0.61875E-02  1992   0.521E-01    0.703E-02
DAV:   2    -0.115773439561E+04   -0.11801E-03   -0.13954E-03  2820   0.880E-02    0.801E-02
DAV:   3    -0.115773446497E+04   -0.69356E-04   -0.34210E-04  3192   0.105E-01    0.150E-01
DAV:   4    -0.115773440550E+04    0.59467E-04   -0.14699E-04  2880   0.644E-02    0.727E-02
DAV:   5    -0.115773440313E+04    0.23709E-05   -0.27437E-05  2376   0.322E-02    0.342E-02
DAV:   6    -0.115773441447E+04   -0.11344E-04   -0.49028E-05  2436   0.236E-02    0.714E-02
DAV:   7    -0.115773440523E+04    0.92383E-05   -0.72377E-05  2184   0.206E-02    0.412E-02
DAV:   8    -0.115773440720E+04   -0.19711E-05   -0.24911E-05  2184   0.251E-02    0.246E-02
DAV:   9    -0.115773441173E+04   -0.45244E-05   -0.20934E-05  2148   0.207E-02    0.312E-02
DAV:  10    -0.115773441013E+04    0.16033E-05   -0.12062E-05  1644   0.151E-02    0.126E-02
DAV:  11    -0.115773441269E+04   -0.25682E-05   -0.15010E-06  1584   0.764E-03    0.853E-03
DAV:  12    -0.115773441416E+04   -0.14621E-05   -0.79787E-07  1572   0.557E-03    0.547E-03
DAV:  13    -0.115773441642E+04   -0.22649E-05   -0.32370E-07  1452   0.375E-03    0.297E-03
DAV:  14    -0.115773441952E+04   -0.31035E-05   -0.18596E-07  1464   0.207E-03    0.215E-03
DAV:  15    -0.115773442121E+04   -0.16885E-05   -0.10271E-07  1416   0.169E-03    0.175E-03
DAV:  16    -0.115773442340E+04   -0.21923E-05   -0.82772E-08  1476   0.134E-03    0.151E-03
DAV:  17    -0.115773442536E+04   -0.19547E-05   -0.59008E-08  1464   0.117E-03    0.910E-04
DAV:  18    -0.115773442709E+04   -0.17319E-05   -0.49836E-08  1452   0.643E-04    0.724E-04
DAV:  19    -0.115773442838E+04   -0.12903E-05   -0.32258E-08  1428   0.644E-04    0.839E-04
DAV:  20    -0.115773442932E+04   -0.94232E-06   -0.21156E-08  1440   0.628E-04
 297 F= -.11654356E+04 E0= -.11654326E+04  d E =-.141240E-03  mag=    13.0715
 curvature:  -1.61 expect dE=-0.124E-02 dE for cont linesearch -0.231E-04
 ZBRENT: increasing intervall
 opt :   0.6564  next Energy= -1165.435616 (dE=-0.124E-03)
 bond charge predicted
       N       E                     dE             d eps       ncg     rms          rms(c)
DAV:   1    -0.115773384035E+04    0.58803E-03   -0.24797E-01  1992   0.104E+00    0.139E-01
DAV:   2    -0.115773431183E+04   -0.47148E-03   -0.54567E-03  2628   0.155E-01    0.116E-01
DAV:   3    -0.115773465130E+04   -0.33947E-03   -0.10051E-03  3156   0.172E-01    0.332E-01
DAV:   4    -0.115773438004E+04    0.27126E-03   -0.36302E-04  2856   0.117E-01    0.126E-01
DAV:   5    -0.115773438770E+04   -0.76588E-05   -0.22154E-04  3024   0.552E-02    0.918E-02
DAV:   6    -0.115773440867E+04   -0.20968E-04   -0.26921E-04  2928   0.406E-02    0.111E-01
DAV:   7    -0.115773438134E+04    0.27322E-04   -0.14425E-04  2868   0.469E-02    0.464E-02
DAV:   8    -0.115773440825E+04   -0.26905E-04   -0.99216E-05  2892   0.495E-02    0.682E-02
DAV:   9    -0.115773439548E+04    0.12769E-04   -0.97895E-05  2808   0.415E-02    0.506E-02
DAV:  10    -0.115773439432E+04    0.11579E-05   -0.24531E-05  2172   0.256E-02    0.305E-02
DAV:  11    -0.115773439761E+04   -0.32905E-05   -0.56577E-06  1860   0.153E-02    0.144E-02
DAV:  12    -0.115773440198E+04   -0.43720E-05   -0.26477E-06  1692   0.984E-03    0.937E-03
DAV:  13    -0.115773440726E+04   -0.52717E-05   -0.12213E-06  1644   0.622E-03    0.623E-03
DAV:  14    -0.115773441247E+04   -0.52109E-05   -0.47039E-07  1500   0.382E-03    0.341E-03
DAV:  15    -0.115773441646E+04   -0.39901E-05   -0.31801E-07  1488   0.333E-03    0.386E-03
DAV:  16    -0.115773442172E+04   -0.52664E-05   -0.24845E-07  1440   0.274E-03    0.229E-03
DAV:  17    -0.115773442576E+04   -0.40366E-05   -0.16858E-07  1488   0.169E-03    0.225E-03
DAV:  18    -0.115773442816E+04   -0.23988E-05   -0.11950E-07  1440   0.126E-03    0.176E-03
DAV:  19    -0.115773443014E+04   -0.19835E-05   -0.74060E-08  1452   0.913E-04    0.147E-03
DAV:  20    -0.115773443296E+04   -0.28168E-05   -0.59954E-08  1428   0.857E-04    0.866E-04
DAV:  21    -0.115773443615E+04   -0.31877E-05   -0.63906E-08  1452   0.596E-04    0.872E-04
DAV:  22    -0.115773443788E+04   -0.17313E-05   -0.38876E-08  1464   0.668E-04    0.842E-04
DAV:  23    -0.115773443968E+04   -0.18053E-05   -0.30329E-08  1440   0.590E-04    0.597E-04
DAV:  24    -0.115773444145E+04   -0.17689E-05   -0.30735E-08  1476   0.395E-04    0.481E-04
DAV:  25    -0.115773444318E+04   -0.17316E-05   -0.27363E-08  1476   0.348E-04    0.584E-04
DAV:  26    -0.115773444494E+04   -0.17582E-05   -0.23607E-08  1440   0.448E-04    0.538E-04
DAV:  27    -0.115773444649E+04   -0.15495E-05   -0.26022E-08  1452   0.371E-04    0.539E-04
DAV:  28    -0.115773444788E+04   -0.13939E-05   -0.30461E-08  1452   0.333E-04    0.461E-04
DAV:  29    -0.115773444839E+04   -0.51021E-06   -0.18537E-08  1476   0.298E-04
 298 F= -.11654356E+04 E0= -.11654326E+04  d E =-.144243E-03  mag=    13.0712
 curvature:   1.21 expect dE= 0.382E-02 dE for cont linesearch  0.192E-04
 ZBRENT: bracketing found
 ZBRENT: interpolating
 opt :   0.4544  next Energy= -1165.435664 (dE=-0.171E-03)
 bond charge predicted
       N       E                     dE             d eps       ncg     rms          rms(c)
DAV:   1    -0.115773431446E+04    0.13343E-03   -0.65261E-02  2034   0.534E-01    0.711E-02
DAV:   2    -0.115773442612E+04   -0.11166E-03   -0.14335E-03  2664   0.796E-02    0.591E-02
DAV:   3    -0.115773452663E+04   -0.10051E-03   -0.25657E-04  3168   0.876E-02    0.171E-01
DAV:   4    -0.115773445278E+04    0.73852E-04   -0.95183E-05  2892   0.595E-02    0.665E-02
DAV:   5    -0.115773445696E+04   -0.41735E-05   -0.59825E-05  2364   0.285E-02    0.454E-02
DAV:   6    -0.115773446540E+04   -0.84441E-05   -0.68498E-05  2292   0.210E-02    0.564E-02
DAV:   7    -0.115773445879E+04    0.66080E-05   -0.37318E-05  2244   0.241E-02    0.239E-02
DAV:   8    -0.115773446883E+04   -0.10034E-04   -0.26551E-05  2400   0.258E-02    0.349E-02
DAV:   9    -0.115773446496E+04    0.38700E-05   -0.26427E-05  2232   0.218E-02    0.262E-02
DAV:  10    -0.115773446410E+04    0.85129E-06   -0.65896E-06  1932   0.135E-02
 299 F= -.11654357E+04 E0= -.11654326E+04  d E =-.168162E-03  mag=    13.0712
 curvature:  -1.88 expect dE=-0.296E-02 dE for cont linesearch -0.179E-06
 trial: gam= 1.68212 g(F)=  0.157E-02 g(S)=  0.000E+00 ort =-0.253E-04 (trialstep = 0.470E-01)
 search vector abs. value=  0.206E-01
 bond charge predicted
       N       E                     dE             d eps       ncg     rms          rms(c)
DAV:   1    -0.115773450039E+04   -0.35434E-04   -0.11459E-02  2052   0.218E-01    0.288E-02
DAV:   2    -0.115773452446E+04   -0.24066E-04   -0.25012E-04  2868   0.383E-02    0.525E-02
DAV:   3    -0.115773453791E+04   -0.13454E-04   -0.11539E-04  3204   0.388E-02    0.923E-02
DAV:   4    -0.115773452467E+04    0.13237E-04   -0.72933E-05  2280   0.243E-02    0.423E-02
DAV:   5    -0.115773452797E+04   -0.33009E-05   -0.15338E-05  1812   0.221E-02    0.142E-02
DAV:   6    -0.115773453314E+04   -0.51700E-05   -0.87655E-06  2100   0.142E-02    0.243E-02
DAV:   7    -0.115773453322E+04   -0.76667E-07   -0.87459E-06  1956   0.141E-02
 300 F= -.11654357E+04 E0= -.11654326E+04  d E =-.728560E-04  mag=    13.0712
 ZBRENT: can't locate minimum, use default step
 trial-energy change:   -0.000073  1 .order   -0.000065   -0.000072   -0.000059
 step:   0.1881(harm=  0.2544)  dis= 0.00071  next Energy= -1165.435855 (dE=-0.195E-03)
 bond charge predicted
       N       E                     dE             d eps       ncg     rms          rms(c)
DAV:   1    -0.115773437189E+04    0.16125E-03   -0.10273E-01  2004   0.651E-01    0.864E-02
DAV:   2    -0.115773455905E+04   -0.18716E-03   -0.22150E-03  2880   0.103E-01    0.120E-01
DAV:   3    -0.115773466647E+04   -0.10742E-03   -0.10867E-03  3192   0.111E-01    0.240E-01
DAV:   4    -0.115773456473E+04    0.10174E-03   -0.79339E-04  2976   0.670E-02    0.117E-01
DAV:   5    -0.115773457688E+04   -0.12146E-04   -0.14800E-04  2688   0.534E-02    0.736E-02
DAV:   6    -0.115773460416E+04   -0.27280E-04   -0.61892E-05  2760   0.451E-02    0.102E-01
DAV:   7    -0.115773458441E+04    0.19748E-04   -0.63127E-05  2580   0.423E-02    0.593E-02
DAV:   8    -0.115773457634E+04    0.80662E-05   -0.44781E-05  2628   0.353E-02    0.257E-02
DAV:   9    -0.115773458165E+04   -0.53050E-05   -0.20360E-05  2340   0.222E-02    0.317E-02
DAV:  10    -0.115773457949E+04    0.21596E-05   -0.75975E-06  1920   0.180E-02    0.145E-02
DAV:  11    -0.115773458218E+04   -0.26949E-05   -0.14337E-06  1536   0.710E-03    0.772E-03
DAV:  12    -0.115773458358E+04   -0.13996E-05   -0.95901E-07  1548   0.573E-03    0.510E-03
DAV:  13    -0.115773458572E+04   -0.21358E-05   -0.41827E-07  1452   0.371E-03    0.273E-03
DAV:  14    -0.115773458725E+04   -0.15371E-05   -0.21034E-07  1452   0.250E-03    0.202E-03
DAV:  15    -0.115773458897E+04   -0.17146E-05   -0.13814E-07  1464   0.181E-03    0.216E-03
DAV:  16    -0.115773459007E+04   -0.10975E-05   -0.95141E-08  1440   0.164E-03    0.148E-03
DAV:  17    -0.115773459184E+04   -0.17738E-05   -0.65866E-08  1428   0.984E-04    0.118E-03
DAV:  18    -0.115773459263E+04   -0.79220E-06   -0.46488E-08  1452   0.783E-04
 301 F= -.11654358E+04 E0= -.11654327E+04  d E =-.143497E-03  mag=    13.0711
 curvature:  -1.54 expect dE=-0.247E-02 dE for cont linesearch -0.526E-06
 trial: gam= 1.12189 g(F)=  0.161E-02 g(S)=  0.000E+00 ort =-0.840E-04 (trialstep = 0.567E-01)
 search vector abs. value=  0.274E-01
 bond charge predicted
       N       E                     dE             d eps       ncg     rms          rms(c)
DAV:   1    -0.115773461274E+04   -0.20904E-04   -0.20687E-02  1998   0.299E-01    0.388E-02
DAV:   2    -0.115773464389E+04   -0.31143E-04   -0.44286E-04  2580   0.435E-02    0.303E-02
DAV:   3    -0.115773467515E+04   -0.31267E-04   -0.80940E-05  3198   0.442E-02    0.969E-02
DAV:   4    -0.115773465169E+04    0.23468E-04   -0.29278E-05  2388   0.306E-02    0.339E-02
DAV:   5    -0.115773465449E+04   -0.28024E-05   -0.19129E-05  1740   0.146E-02    0.251E-02
DAV:   6    -0.115773465625E+04   -0.17564E-05   -0.17390E-05  1788   0.110E-02    0.283E-02
DAV:   7    -0.115773465486E+04    0.13898E-05   -0.97937E-06  1776   0.129E-02    0.119E-02
DAV:   8    -0.115773465821E+04   -0.33561E-05   -0.60599E-06  1788   0.136E-02    0.228E-02
DAV:   9    -0.115773465760E+04    0.60809E-06   -0.58065E-06  1776   0.120E-02
 302 F= -.11654359E+04 E0= -.11654328E+04  d E =-.766352E-04  mag=    13.0711
 ZBRENT: can't locate minimum, use default step
 trial-energy change:   -0.000077  1 .order   -0.000084   -0.000086   -0.000082
 step:   0.2267(harm=  1.2632)  dis= 0.00102  next Energy= -1165.436759 (dE=-0.955E-03)
 bond charge predicted
       N       E                     dE             d eps       ncg     rms          rms(c)
DAV:   1    -0.115773434416E+04    0.31405E-03   -0.18585E-01  1992   0.897E-01    0.117E-01
DAV:   2    -0.115773471274E+04   -0.36857E-03   -0.40620E-03  2784   0.142E-01    0.148E-01
DAV:   3    -0.115773508546E+04   -0.37272E-03   -0.10440E-03  3324   0.161E-01    0.416E-01
DAV:   4    -0.115773475265E+04    0.33281E-03   -0.75441E-04  3024   0.966E-02    0.167E-01
DAV:   5    -0.115773472745E+04    0.25193E-04   -0.34960E-04  2988   0.602E-02    0.595E-02
DAV:   6    -0.115773475617E+04   -0.28715E-04   -0.11886E-04  2628   0.390E-02    0.796E-02
DAV:   7    -0.115773474336E+04    0.12806E-04   -0.69223E-05  2520   0.355E-02    0.347E-02
DAV:   8    -0.115773476211E+04   -0.18750E-04   -0.57932E-05  2628   0.405E-02    0.708E-02
DAV:   9    -0.115773475239E+04    0.97186E-05   -0.56855E-05  2544   0.341E-02    0.384E-02
DAV:  10    -0.115773475565E+04   -0.32573E-05   -0.93548E-06  1908   0.183E-02    0.270E-02
DAV:  11    -0.115773475823E+04   -0.25763E-05   -0.52168E-06  1884   0.126E-02    0.139E-02
DAV:  12    -0.115773476266E+04   -0.44314E-05   -0.17996E-06  1668   0.857E-03    0.617E-03
DAV:  13    -0.115773476790E+04   -0.52446E-05   -0.82512E-07  1524   0.494E-03    0.644E-03
DAV:  14    -0.115773477081E+04   -0.29120E-05   -0.47870E-07  1500   0.369E-03    0.431E-03
DAV:  15    -0.115773477399E+04   -0.31755E-05   -0.21636E-07  1464   0.275E-03    0.243E-03
DAV:  16    -0.115773477864E+04   -0.46494E-05   -0.18535E-07  1452   0.189E-03    0.174E-03
DAV:  17    -0.115773478164E+04   -0.29959E-05   -0.12694E-07  1500   0.149E-03    0.201E-03
DAV:  18    -0.115773478343E+04   -0.17976E-05   -0.90388E-08  1416   0.138E-03    0.132E-03
DAV:  19    -0.115773478594E+04   -0.25033E-05   -0.68231E-08  1452   0.794E-04    0.970E-04
DAV:  20    -0.115773478752E+04   -0.15805E-05   -0.49751E-08  1452   0.773E-04    0.819E-04
DAV:  21    -0.115773478927E+04   -0.17538E-05   -0.32420E-08  1428   0.607E-04    0.671E-04
DAV:  22    -0.115773479057E+04   -0.13034E-05   -0.23056E-08  1452   0.507E-04    0.641E-04
DAV:  23    -0.115773479227E+04   -0.16966E-05   -0.23074E-08  1428   0.508E-04    0.446E-04
DAV:  24    -0.115773479381E+04   -0.15430E-05   -0.21387E-08  1464   0.336E-04    0.461E-04
DAV:  25    -0.115773479474E+04   -0.92814E-06   -0.12617E-08  1428   0.350E-04
 303 F= -.11654361E+04 E0= -.11654330E+04  d E =-.248782E-03  mag=    13.0712
 curvature:  -3.00 expect dE=-0.295E-02 dE for cont linesearch -0.501E-04
 ZBRENT: increasing intervall
 opt :   0.5668  next Energy= -1165.436022 (dE=-0.218E-03)
 bond charge predicted
       N       E                     dE             d eps       ncg     rms          rms(c)
DAV:   1    -0.115773295798E+04    0.18358E-02   -0.74434E-01  1992   0.180E+00    0.233E-01
DAV:   2    -0.115773442031E+04   -0.14623E-02   -0.15949E-02  2532   0.260E-01    0.178E-01
DAV:   3    -0.115773537251E+04   -0.95220E-03   -0.27204E-03  3252   0.259E-01    0.591E-01
DAV:   4    -0.115773460369E+04    0.76882E-03   -0.12962E-03  2976   0.181E-01    0.215E-01
DAV:   5    -0.115773461444E+04   -0.10753E-04   -0.76221E-04  3144   0.890E-02    0.141E-01
DAV:   6    -0.115773465478E+04   -0.40334E-04   -0.53769E-04  2952   0.645E-02    0.162E-01
DAV:   7    -0.115773460677E+04    0.48013E-04   -0.31602E-04  2928   0.745E-02    0.754E-02
DAV:   8    -0.115773467096E+04   -0.64195E-04   -0.22315E-04  3120   0.794E-02    0.135E-01
DAV:   9    -0.115773463247E+04    0.38487E-04   -0.19537E-04  2988   0.677E-02    0.740E-02
DAV:  10    -0.115773463413E+04   -0.16570E-05   -0.43705E-05  2604   0.396E-02    0.491E-02
DAV:  11    -0.115773464145E+04   -0.73178E-05   -0.17080E-05  2148   0.238E-02    0.236E-02
DAV:  12    -0.115773465237E+04   -0.10925E-04   -0.69748E-06  1896   0.162E-02    0.135E-02
DAV:  13    -0.115773466323E+04   -0.10858E-04   -0.31797E-06  1824   0.104E-02    0.114E-02
DAV:  14    -0.115773467102E+04   -0.77855E-05   -0.15983E-06  1668   0.695E-03    0.547E-03
DAV:  15    -0.115773467943E+04   -0.84128E-05   -0.58689E-07  1476   0.447E-03    0.481E-03
DAV:  16    -0.115773468940E+04   -0.99717E-05   -0.70518E-07  1536   0.452E-03    0.469E-03
DAV:  17    -0.115773469611E+04   -0.67076E-05   -0.38710E-07  1452   0.350E-03    0.312E-03
DAV:  18    -0.115773470331E+04   -0.71970E-05   -0.25908E-07  1488   0.197E-03    0.256E-03
DAV:  19    -0.115773470737E+04   -0.40632E-05   -0.18592E-07  1476   0.185E-03    0.228E-03
DAV:  20    -0.115773471177E+04   -0.43990E-05   -0.13882E-07  1476   0.149E-03    0.131E-03
DAV:  21    -0.115773471582E+04   -0.40533E-05   -0.13391E-07  1452   0.722E-04    0.114E-03
DAV:  22    -0.115773471794E+04   -0.21201E-05   -0.70443E-08  1416   0.671E-04    0.921E-04
DAV:  23    -0.115773472142E+04   -0.34815E-05   -0.45550E-08  1464   0.691E-04    0.915E-04
DAV:  24    -0.115773472546E+04   -0.40365E-05   -0.45369E-08  1488   0.633E-04    0.674E-04
DAV:  25    -0.115773473099E+04   -0.55357E-05   -0.74605E-08  1440   0.515E-04    0.742E-04
DAV:  26    -0.115773473288E+04   -0.18859E-05   -0.46669E-08  1524   0.525E-04    0.544E-04
DAV:  27    -0.115773473574E+04   -0.28645E-05   -0.45699E-08  1428   0.399E-04    0.537E-04
DAV:  28    -0.115773473848E+04   -0.27360E-05   -0.44070E-08  1464   0.386E-04    0.424E-04
DAV:  29    -0.115773474041E+04   -0.19270E-05   -0.39364E-08  1500   0.321E-04    0.534E-04
DAV:  30    -0.115773474218E+04   -0.17743E-05   -0.33693E-08  1452   0.400E-04    0.357E-04
DAV:  31    -0.115773474409E+04   -0.19098E-05   -0.43329E-08  1440   0.340E-04    0.361E-04
DAV:  32    -0.115773474557E+04   -0.14746E-05   -0.39682E-08  1452   0.371E-04    0.290E-04
DAV:  33    -0.115773474653E+04   -0.96026E-06   -0.43040E-08  1476   0.286E-04
 304 F= -.11654361E+04 E0= -.11654330E+04  d E =-.270592E-03  mag=    13.0715
 curvature:   1.85 expect dE= 0.588E-02 dE for cont linesearch  0.226E-04
 ZBRENT: bracketing found
 ZBRENT: interpolating
 opt :   0.4099  next Energy= -1165.436120 (dE=-0.316E-03)
 bond charge predicted
       N       E                     dE             d eps       ncg     rms          rms(c)
DAV:   1    -0.115773444491E+04    0.30065E-03   -0.15852E-01  2004   0.829E-01    0.107E-01
DAV:   2    -0.115773472711E+04   -0.28219E-03   -0.33887E-03  2592   0.120E-01    0.820E-02
DAV:   3    -0.115773495366E+04   -0.22655E-03   -0.58916E-04  3276   0.120E-01    0.275E-01
DAV:   4    -0.115773478021E+04    0.17345E-03   -0.27528E-04  2988   0.823E-02    0.983E-02
DAV:   5    -0.115773478938E+04   -0.91679E-05   -0.16158E-04  2748   0.416E-02    0.640E-02
DAV:   6    -0.115773480269E+04   -0.13315E-04   -0.11323E-04  2388   0.297E-02    0.755E-02
DAV:   7    -0.115773479271E+04    0.99838E-05   -0.67923E-05  2472   0.343E-02    0.347E-02
DAV:   8    -0.115773481077E+04   -0.18057E-04   -0.47140E-05  2568   0.368E-02    0.636E-02
DAV:   9    -0.115773480009E+04    0.10678E-04   -0.42049E-05  2448   0.318E-02    0.350E-02
DAV:  10    -0.115773480166E+04   -0.15763E-05   -0.89023E-06  1944   0.185E-02    0.230E-02
DAV:  11    -0.115773480323E+04   -0.15643E-05   -0.39016E-06  1872   0.114E-02    0.116E-02
DAV:  12    -0.115773480578E+04   -0.25485E-05   -0.15393E-06  1584   0.772E-03    0.598E-03
DAV:  13    -0.115773480829E+04   -0.25136E-05   -0.75690E-07  1548   0.492E-03    0.559E-03
DAV:  14    -0.115773480987E+04   -0.15793E-05   -0.41272E-07  1440   0.338E-03    0.282E-03
DAV:  15    -0.115773481167E+04   -0.17991E-05   -0.14886E-07  1476   0.215E-03    0.233E-03
DAV:  16    -0.115773481361E+04   -0.19367E-05   -0.17135E-07  1440   0.220E-03    0.210E-03
DAV:  17    -0.115773481514E+04   -0.15296E-05   -0.91774E-08  1464   0.162E-03    0.142E-03
DAV:  18    -0.115773481653E+04   -0.13942E-05   -0.64260E-08  1464   0.990E-04    0.111E-03
DAV:  19    -0.115773481753E+04   -0.99562E-06   -0.44115E-08  1428   0.890E-04
 305 F= -.11654361E+04 E0= -.11654330E+04  d E =-.309270E-03  mag=    13.0714
 curvature:  -3.71 expect dE=-0.632E-02 dE for cont linesearch -0.163E-07
 trial: gam= 0.88377 g(F)=  0.171E-02 g(S)=  0.000E+00 ort = 0.110E-04 (trialstep = 0.127E+00)
 search vector abs. value=  0.231E-01
 bond charge predicted
       N       E                     dE             d eps       ncg     rms          rms(c)
DAV:   1    -0.115773472962E+04    0.86909E-04   -0.82276E-02  1998   0.596E-01    0.844E-02
DAV:   2    -0.115773489131E+04   -0.16169E-03   -0.20024E-03  2652   0.892E-02    0.750E-02
DAV:   3    -0.115773499025E+04   -0.98946E-04   -0.29103E-04  3240   0.830E-02    0.172E-01
DAV:   4    -0.115773491836E+04    0.71887E-04   -0.10234E-04  2976   0.590E-02    0.641E-02
DAV:   5    -0.115773494003E+04   -0.21665E-04   -0.98219E-05  2328   0.372E-02    0.901E-02
DAV:   6    -0.115773494593E+04   -0.59036E-05   -0.21114E-04  2664   0.321E-02    0.103E-01
DAV:   7    -0.115773492525E+04    0.20681E-04   -0.11746E-04  2580   0.431E-02    0.318E-02
DAV:   8    -0.115773494788E+04   -0.22627E-04   -0.42680E-05  2292   0.328E-02    0.572E-02
DAV:   9    -0.115773493654E+04    0.11336E-04   -0.31991E-05  2100   0.265E-02    0.239E-02
DAV:  10    -0.115773493921E+04   -0.26623E-05   -0.48373E-06  1704   0.121E-02    0.170E-02
DAV:  11    -0.115773493979E+04   -0.58213E-06   -0.20737E-06  1716   0.943E-03
 306 F= -.11654363E+04 E0= -.11654332E+04  d E =-.147795E-03  mag=    13.0715
 trial-energy change:   -0.000148  1 .order   -0.000149   -0.000218   -0.000080
 step:   0.2015(harm=  0.2015)  dis= 0.00081  next Energy= -1165.436286 (dE=-0.173E-03)
 bond charge predicted
       N       E                     dE             d eps       ncg     rms          rms(c)
DAV:   1    -0.115773487540E+04    0.63809E-04   -0.27894E-02  2028   0.347E-01    0.496E-02
DAV:   2    -0.115773492481E+04   -0.49409E-04   -0.68311E-04  2616   0.522E-02    0.423E-02
DAV:   3    -0.115773495109E+04   -0.26280E-04   -0.98751E-05  3120   0.493E-02    0.754E-02
DAV:   4    -0.115773493654E+04    0.14545E-04   -0.55790E-05  2412   0.375E-02    0.466E-02
DAV:   5    -0.115773493868E+04   -0.21367E-05   -0.32075E-05  1920   0.192E-02    0.426E-02
DAV:   6    -0.115773493970E+04   -0.10243E-05   -0.28873E-05  2256   0.206E-02    0.342E-02
DAV:   7    -0.115773493958E+04    0.12168E-06   -0.24870E-05  2244   0.226E-02    0.337E-02
DAV:   8    -0.115773494189E+04   -0.23089E-05   -0.19878E-05  1992   0.184E-02    0.319E-02
DAV:   9    -0.115773494047E+04    0.14198E-05   -0.80801E-06  1860   0.164E-02    0.124E-02
DAV:  10    -0.115773494125E+04   -0.78177E-06   -0.14345E-06  1608   0.776E-03
 307 F= -.11654363E+04 E0= -.11654332E+04  d E =-.164148E-03  mag=    13.0716
 curvature:  -1.36 expect dE=-0.273E-02 dE for cont linesearch -0.677E-08
 trial: gam= 1.21109 g(F)=  0.201E-02 g(S)=  0.000E+00 ort = 0.107E-04 (trialstep = 0.914E-01)
 search vector abs. value=  0.360E-01
 bond charge predicted
       N       E                     dE             d eps       ncg     rms          rms(c)
DAV:   1    -0.115773490212E+04    0.38349E-04   -0.69304E-02  2004   0.544E-01    0.723E-02
DAV:   2    -0.115773502448E+04   -0.12236E-03   -0.15314E-03  2592   0.796E-02    0.531E-02
DAV:   3    -0.115773511710E+04   -0.92624E-04   -0.21372E-04  3252   0.818E-02    0.170E-01
DAV:   4    -0.115773504193E+04    0.75177E-04   -0.85231E-05  2892   0.598E-02    0.627E-02
DAV:   5    -0.115773505051E+04   -0.85783E-05   -0.63368E-05  2196   0.299E-02    0.552E-02
DAV:   6    -0.115773505499E+04   -0.44800E-05   -0.84936E-05  2400   0.236E-02    0.618E-02
DAV:   7    -0.115773504713E+04    0.78553E-05   -0.39930E-05  2124   0.257E-02    0.234E-02
DAV:   8    -0.115773505433E+04   -0.71981E-05   -0.19711E-05  2112   0.232E-02    0.378E-02
DAV:   9    -0.115773505426E+04    0.66902E-07   -0.19916E-05  1968   0.192E-02    0.234E-02
DAV:  10    -0.115773505539E+04   -0.11256E-05   -0.51333E-06  1800   0.125E-02    0.150E-02
DAV:  11    -0.115773505759E+04   -0.21985E-05   -0.16343E-06  1572   0.782E-03    0.776E-03
DAV:  12    -0.115773505909E+04   -0.15034E-05   -0.84865E-07  1476   0.535E-03    0.341E-03
DAV:  13    -0.115773506201E+04   -0.29258E-05   -0.30957E-07  1464   0.272E-03    0.294E-03
DAV:  14    -0.115773506339E+04   -0.13732E-05   -0.21766E-07  1440   0.240E-03    0.215E-03
DAV:  15    -0.115773506551E+04   -0.21231E-05   -0.12009E-07  1428   0.164E-03    0.180E-03
DAV:  16    -0.115773506712E+04   -0.16039E-05   -0.83701E-08  1452   0.141E-03    0.118E-03
DAV:  17    -0.115773506953E+04   -0.24196E-05   -0.71477E-08  1464   0.100E-03    0.930E-04
DAV:  18    -0.115773507060E+04   -0.10671E-05   -0.46869E-08  1440   0.674E-04    0.817E-04
DAV:  19    -0.115773507172E+04   -0.11159E-05   -0.32896E-08  1440   0.603E-04    0.722E-04
DAV:  20    -0.115773507278E+04   -0.10587E-05   -0.20070E-08  1440   0.519E-04    0.479E-04
DAV:  21    -0.115773507387E+04   -0.10969E-05   -0.17071E-08  1440   0.359E-04    0.426E-04
DAV:  22    -0.115773507457E+04   -0.70161E-06   -0.10835E-08  1416   0.264E-04
 308 F= -.11654364E+04 E0= -.11654333E+04  d E =-.152704E-03  mag=    13.0716
 trial-energy change:   -0.000153  1 .order   -0.000148   -0.000185   -0.000111
 step:   0.1716(harm=  0.2299)  dis= 0.00083  next Energy= -1165.436482 (dE=-0.205E-03)
 bond charge predicted
       N       E                     dE             d eps       ncg     rms          rms(c)
DAV:   1    -0.115773500378E+04    0.70091E-04   -0.53299E-02  1992   0.477E-01    0.631E-02
DAV:   2    -0.115773509457E+04   -0.90784E-04   -0.11765E-03  2592   0.705E-02    0.474E-02
DAV:   3    -0.115773516240E+04   -0.67838E-04   -0.22582E-04  3276   0.731E-02    0.142E-01
DAV:   4    -0.115773510584E+04    0.56566E-04   -0.98950E-05  2808   0.521E-02    0.440E-02
DAV:   5    -0.115773511800E+04   -0.12161E-04   -0.26307E-05  2220   0.284E-02    0.469E-02
DAV:   6    -0.115773512214E+04   -0.41431E-05   -0.63656E-05  2256   0.198E-02    0.652E-02
DAV:   7    -0.115773511173E+04    0.10416E-04   -0.43040E-05  1980   0.209E-02    0.176E-02
DAV:   8    -0.115773512100E+04   -0.92757E-05   -0.17307E-05  2136   0.209E-02    0.314E-02
DAV:   9    -0.115773511861E+04    0.23912E-05   -0.17351E-05  2088   0.184E-02    0.210E-02
DAV:  10    -0.115773511934E+04   -0.72635E-06   -0.38929E-06  1716   0.104E-02
 309 F= -.11654365E+04 E0= -.11654334E+04  d E =-.214398E-03  mag=    13.0715
 curvature:  -1.68 expect dE=-0.132E-02 dE for cont linesearch -0.195E-04
 ZBRENT: increasing intervall
 opt :   0.3319  next Energy= -1165.436504 (dE=-0.226E-03)
 bond charge predicted
       N       E                     dE             d eps       ncg     rms          rms(c)
DAV:   1    -0.115773456028E+04    0.55833E-03   -0.21301E-01  1992   0.954E-01    0.127E-01
DAV:   2    -0.115773497418E+04   -0.41390E-03   -0.47495E-03  2712   0.145E-01    0.112E-01
DAV:   3    -0.115773526399E+04   -0.28981E-03   -0.11057E-03  3300   0.162E-01    0.323E-01
DAV:   4    -0.115773500011E+04    0.26388E-03   -0.44738E-04  2904   0.109E-01    0.103E-01
DAV:   5    -0.115773502932E+04   -0.29214E-04   -0.12571E-04  3108   0.582E-02    0.924E-02
DAV:   6    -0.115773505013E+04   -0.20804E-04   -0.27569E-04  2820   0.398E-02    0.131E-01
DAV:   7    -0.115773501161E+04    0.38520E-04   -0.17537E-04  2736   0.433E-02    0.381E-02
DAV:   8    -0.115773503987E+04   -0.28261E-04   -0.77947E-05  2736   0.427E-02    0.720E-02
DAV:   9    -0.115773502865E+04    0.11219E-04   -0.53560E-05  2448   0.332E-02    0.360E-02
DAV:  10    -0.115773503195E+04   -0.33013E-05   -0.97939E-06  2052   0.198E-02    0.241E-02
DAV:  11    -0.115773503644E+04   -0.44871E-05   -0.46296E-06  1800   0.137E-02    0.947E-03
DAV:  12    -0.115773504049E+04   -0.40559E-05   -0.18508E-06  1680   0.826E-03    0.830E-03
DAV:  13    -0.115773504626E+04   -0.57672E-05   -0.84440E-07  1524   0.530E-03    0.359E-03
DAV:  14    -0.115773505058E+04   -0.43238E-05   -0.36828E-07  1500   0.282E-03    0.353E-03
DAV:  15    -0.115773505476E+04   -0.41765E-05   -0.25892E-07  1464   0.278E-03    0.259E-03
DAV:  16    -0.115773505895E+04   -0.41866E-05   -0.20284E-07  1500   0.210E-03    0.179E-03
DAV:  17    -0.115773506288E+04   -0.39342E-05   -0.15543E-07  1488   0.150E-03    0.147E-03
DAV:  18    -0.115773506530E+04   -0.24215E-05   -0.99111E-08  1464   0.109E-03    0.133E-03
DAV:  19    -0.115773506734E+04   -0.20382E-05   -0.71113E-08  1428   0.985E-04    0.100E-03
DAV:  20    -0.115773506956E+04   -0.22246E-05   -0.49285E-08  1464   0.733E-04    0.807E-04
DAV:  21    -0.115773507128E+04   -0.17183E-05   -0.42395E-08  1428   0.520E-04    0.701E-04
DAV:  22    -0.115773507305E+04   -0.17696E-05   -0.31066E-08  1464   0.498E-04    0.570E-04
DAV:  23    -0.115773507474E+04   -0.16853E-05   -0.20942E-08  1452   0.406E-04    0.474E-04
DAV:  24    -0.115773507675E+04   -0.20175E-05   -0.22749E-08  1452   0.354E-04    0.387E-04
DAV:  25    -0.115773507818E+04   -0.14248E-05   -0.20065E-08  1464   0.270E-04    0.389E-04
DAV:  26    -0.115773507910E+04   -0.91764E-06   -0.11267E-08  1428   0.266E-04
 310 F= -.11654365E+04 E0= -.11654334E+04  d E =-.207883E-03  mag=    13.0713
 curvature:  -1.03 expect dE=-0.243E-02 dE for cont linesearch -0.163E-04
 ZBRENT: bracketing found
 ZBRENT: interpolating
 opt :   0.2455  next Energy= -1165.436516 (dE=-0.238E-03)
 bond charge predicted
       N       E                     dE             d eps       ncg     rms          rms(c)
DAV:   1    -0.115773498685E+04    0.91325E-04   -0.61977E-02  2004   0.515E-01    0.680E-02
DAV:   2    -0.115773509706E+04   -0.11020E-03   -0.13667E-03  2676   0.761E-02    0.514E-02
DAV:   3    -0.115773518134E+04   -0.84280E-04   -0.26787E-04  3360   0.790E-02    0.155E-01
DAV:   4    -0.115773511376E+04    0.67576E-04   -0.12171E-04  2928   0.560E-02    0.471E-02
DAV:   5    -0.115773512970E+04   -0.15933E-04   -0.29550E-05  2304   0.309E-02    0.491E-02
DAV:   6    -0.115773513702E+04   -0.73263E-05   -0.70870E-05  2328   0.215E-02    0.714E-02
DAV:   7    -0.115773512494E+04    0.12086E-04   -0.51497E-05  1980   0.221E-02    0.192E-02
DAV:   8    -0.115773513760E+04   -0.12659E-04   -0.20570E-05  2292   0.225E-02    0.341E-02
DAV:   9    -0.115773513367E+04    0.39286E-05   -0.20314E-05  2088   0.197E-02    0.227E-02
DAV:  10    -0.115773513366E+04    0.81127E-08   -0.45709E-06  1920   0.112E-02
 311 F= -.11654365E+04 E0= -.11654334E+04  d E =-.244290E-03  mag=    13.0714
 curvature:  -1.50 expect dE=-0.181E-02 dE for cont linesearch -0.586E-06
 trial: gam= 0.57215 g(F)=  0.120E-02 g(S)=  0.000E+00 ort =-0.118E-03 (trialstep = 0.122E+00)
 search vector abs. value=  0.128E-01
 bond charge predicted
       N       E                     dE             d eps       ncg     rms          rms(c)
DAV:   1    -0.115773513733E+04   -0.36603E-05   -0.45217E-02  2028   0.436E-01    0.559E-02
DAV:   2    -0.115773521679E+04   -0.79468E-04   -0.97834E-04  2772   0.653E-02    0.463E-02
DAV:   3    -0.115773526307E+04   -0.46270E-04   -0.17620E-04  3264   0.698E-02    0.106E-01
DAV:   4    -0.115773523116E+04    0.31903E-04   -0.14293E-04  2808   0.528E-02    0.582E-02
DAV:   5    -0.115773523671E+04   -0.55481E-05   -0.69758E-05  2004   0.250E-02    0.466E-02
DAV:   6    -0.115773524291E+04   -0.61994E-05   -0.19835E-05  2232   0.246E-02    0.447E-02
DAV:   7    -0.115773524103E+04    0.18832E-05   -0.13045E-05  2124   0.208E-02    0.303E-02
DAV:   8    -0.115773524202E+04   -0.99137E-06   -0.96132E-06  2112   0.173E-02
 312 F= -.11654366E+04 E0= -.11654335E+04  d E =-.120376E-03  mag=    13.0713
 ZBRENT: can't locate minimum, use default step
 trial-energy change:   -0.000120  1 .order   -0.000122   -0.000139   -0.000105
 step:   0.4890(harm=  0.5086)  dis= 0.00133  next Energy= -1165.436810 (dE=-0.288E-03)
 bond charge predicted
       N       E                     dE             d eps       ncg     rms          rms(c)
DAV:   1    -0.115773435062E+04    0.89041E-03   -0.40583E-01  1992   0.131E+00    0.169E-01
DAV:   2    -0.115773515055E+04   -0.79994E-03   -0.88064E-03  2736   0.198E-01    0.155E-01
DAV:   3    -0.115773565890E+04   -0.50835E-03   -0.14803E-03  3348   0.224E-01    0.413E-01
DAV:   4    -0.115773525539E+04    0.40351E-03   -0.82384E-04  3072   0.156E-01    0.223E-01
DAV:   5    -0.115773520736E+04    0.48030E-04   -0.53872E-04  3324   0.884E-02    0.123E-01
DAV:   6    -0.115773526384E+04   -0.56477E-04   -0.51922E-04  3192   0.745E-02    0.150E-01
DAV:   7    -0.115773522027E+04    0.43574E-04   -0.32984E-04  3108   0.655E-02    0.975E-02
DAV:   8    -0.115773521353E+04    0.67374E-05   -0.13744E-04  3000   0.587E-02    0.559E-02
DAV:   9    -0.115773523137E+04   -0.17843E-04   -0.11052E-04  2856   0.463E-02    0.697E-02
DAV:  10    -0.115773522096E+04    0.10412E-04   -0.55050E-05  2400   0.380E-02    0.289E-02
DAV:  11    -0.115773522597E+04   -0.50115E-05   -0.12040E-05  2088   0.183E-02    0.204E-02
DAV:  12    -0.115773523186E+04   -0.58899E-05   -0.60510E-06  1824   0.127E-02    0.108E-02
DAV:  13    -0.115773523591E+04   -0.40431E-05   -0.18331E-06  1620   0.786E-03    0.615E-03
DAV:  14    -0.115773524275E+04   -0.68492E-05   -0.54666E-07  1512   0.414E-03    0.317E-03
DAV:  15    -0.115773524874E+04   -0.59828E-05   -0.35511E-07  1500   0.322E-03    0.329E-03
DAV:  16    -0.115773525362E+04   -0.48801E-05   -0.29557E-07  1476   0.299E-03    0.304E-03
DAV:  17    -0.115773525802E+04   -0.44010E-05   -0.20306E-07  1452   0.212E-03    0.140E-03
DAV:  18    -0.115773526206E+04   -0.40459E-05   -0.15357E-07  1512   0.118E-03    0.137E-03
DAV:  19    -0.115773526432E+04   -0.22520E-05   -0.10609E-07  1464   0.101E-03    0.122E-03
DAV:  20    -0.115773526649E+04   -0.21784E-05   -0.63919E-08  1428   0.933E-04    0.861E-04
DAV:  21    -0.115773526916E+04   -0.26626E-05   -0.51018E-08  1452   0.711E-04    0.736E-04
DAV:  22    -0.115773527103E+04   -0.18739E-05   -0.42523E-08  1464   0.632E-04    0.877E-04
DAV:  23    -0.115773527287E+04   -0.18335E-05   -0.35719E-08  1440   0.569E-04    0.507E-04
DAV:  24    -0.115773527521E+04   -0.23470E-05   -0.40755E-08  1440   0.310E-04    0.496E-04
DAV:  25    -0.115773527700E+04   -0.17856E-05   -0.23496E-08  1452   0.400E-04    0.504E-04
DAV:  26    -0.115773527929E+04   -0.22931E-05   -0.26949E-08  1476   0.445E-04    0.512E-04
DAV:  27    -0.115773528146E+04   -0.21670E-05   -0.34009E-08  1452   0.480E-04    0.388E-04
DAV:  28    -0.115773528298E+04   -0.15269E-05   -0.41526E-08  1452   0.328E-04    0.377E-04
DAV:  29    -0.115773528391E+04   -0.92446E-06   -0.27488E-08  1464   0.304E-04
 313 F= -.11654367E+04 E0= -.11654337E+04  d E =-.197077E-03  mag=    13.0707
 curvature:  -2.87 expect dE=-0.146E-01 dE for cont linesearch -0.294E-04
 ZBRENT: interpolating
 opt :   0.3803  next Energy= -1165.436739 (dE=-0.217E-03)
 bond charge predicted
       N       E                     dE             d eps       ncg     rms          rms(c)
DAV:   1    -0.115773523406E+04    0.48923E-04   -0.35688E-02  2028   0.388E-01    0.497E-02
DAV:   2    -0.115773529408E+04   -0.60021E-04   -0.76903E-04  2712   0.565E-02    0.386E-02
DAV:   3    -0.115773533547E+04   -0.41393E-04   -0.12777E-04  3288   0.579E-02    0.100E-01
DAV:   4    -0.115773530989E+04    0.25584E-04   -0.77649E-05  2772   0.437E-02    0.570E-02
DAV:   5    -0.115773531093E+04   -0.10436E-05   -0.42087E-05  2112   0.238E-02    0.395E-02
DAV:   6    -0.115773531637E+04   -0.54354E-05   -0.40911E-05  2328   0.212E-02    0.408E-02
DAV:   7    -0.115773531245E+04    0.39241E-05   -0.23500E-05  2148   0.202E-02    0.238E-02
DAV:   8    -0.115773531518E+04   -0.27395E-05   -0.12459E-05  1992   0.160E-02    0.220E-02
DAV:   9    -0.115773531527E+04   -0.88912E-07   -0.89140E-06  1932   0.142E-02
 314 F= -.11654367E+04 E0= -.11654337E+04  d E =-.218325E-03  mag=    13.0708
 curvature:  -1.92 expect dE=-0.588E-02 dE for cont linesearch -0.124E-05
 trial: gam= 2.54322 g(F)=  0.305E-02 g(S)=  0.000E+00 ort =-0.910E-04 (trialstep = 0.261E-01)
 search vector abs. value=  0.856E-01
 bond charge predicted
       N       E                     dE             d eps       ncg     rms          rms(c)
DAV:   1    -0.115773534713E+04   -0.31950E-04   -0.12958E-02  2064   0.237E-01    0.316E-02
DAV:   2    -0.115773537455E+04   -0.27411E-04   -0.30789E-04  2940   0.401E-02    0.467E-02
DAV:   3    -0.115773539916E+04   -0.24611E-04   -0.84557E-05  3240   0.451E-02    0.110E-01
DAV:   4    -0.115773537555E+04    0.23610E-04   -0.66034E-05  2400   0.257E-02    0.465E-02
DAV:   5    -0.115773537563E+04   -0.83463E-07   -0.22290E-05  1692   0.189E-02    0.167E-02
DAV:   6    -0.115773538007E+04   -0.44413E-05   -0.87821E-06  1788   0.110E-02    0.235E-02
DAV:   7    -0.115773538028E+04   -0.20444E-06   -0.57834E-06  1716   0.112E-02
 315 F= -.11654368E+04 E0= -.11654338E+04  d E =-.724125E-04  mag=    13.0707
 ZBRENT: can't locate minimum, use default step
 trial-energy change:   -0.000072  1 .order   -0.000073   -0.000074   -0.000073
 step:   0.1043(harm=  5.3954)  dis= 0.00071  next Energy= -1165.444356 (dE=-0.762E-02)
 bond charge predicted
       N       E                     dE             d eps       ncg     rms          rms(c)
DAV:   1    -0.115773523111E+04    0.14896E-03   -0.11583E-01  1998   0.709E-01    0.946E-02
DAV:   2    -0.115773547243E+04   -0.24132E-03   -0.27866E-03  2844   0.119E-01    0.111E-01
DAV:   3    -0.115773557957E+04   -0.10713E-03   -0.88016E-04  3360   0.135E-01    0.207E-01
DAV:   4    -0.115773549457E+04    0.84999E-04   -0.48309E-04  2940   0.882E-02    0.133E-01
DAV:   5    -0.115773547727E+04    0.17298E-04   -0.14890E-04  2856   0.420E-02    0.531E-02
DAV:   6    -0.115773549774E+04   -0.20473E-04   -0.70719E-05  2652   0.367E-02    0.617E-02
DAV:   7    -0.115773549146E+04    0.62825E-05   -0.55935E-05  2676   0.379E-02    0.446E-02
DAV:   8    -0.115773549804E+04   -0.65813E-05   -0.50063E-05  2592   0.360E-02    0.558E-02
DAV:   9    -0.115773549944E+04   -0.13968E-05   -0.52043E-05  2280   0.260E-02    0.571E-02
DAV:  10    -0.115773549223E+04    0.72076E-05   -0.16377E-05  1872   0.234E-02    0.134E-02
DAV:  11    -0.115773549711E+04   -0.48787E-05   -0.33460E-06  1728   0.886E-03    0.987E-03
DAV:  12    -0.115773549861E+04   -0.15018E-05   -0.12236E-06  1632   0.672E-03    0.521E-03
DAV:  13    -0.115773550085E+04   -0.22377E-05   -0.57436E-07  1464   0.415E-03    0.387E-03
DAV:  14    -0.115773550266E+04   -0.18104E-05   -0.30206E-07  1452   0.308E-03    0.277E-03
DAV:  15    -0.115773550424E+04   -0.15861E-05   -0.16554E-07  1440   0.224E-03    0.252E-03
DAV:  16    -0.115773550579E+04   -0.15424E-05   -0.12782E-07  1428   0.194E-03    0.129E-03
DAV:  17    -0.115773550764E+04   -0.18530E-05   -0.75240E-08  1428   0.118E-03    0.110E-03
DAV:  18    -0.115773550869E+04   -0.10453E-05   -0.61672E-08  1440   0.101E-03    0.939E-04
DAV:  19    -0.115773550963E+04   -0.94525E-06   -0.38968E-08  1440   0.832E-04
 316 F= -.11654370E+04 E0= -.11654339E+04  d E =-.223648E-03  mag=    13.0708
 curvature:  -2.37 expect dE=-0.259E-02 dE for cont linesearch -0.521E-04
 ZBRENT: increasing intervall
 opt :   0.2607  next Energy= -1165.436954 (dE=-0.214E-03)
 bond charge predicted
       N       E                     dE             d eps       ncg     rms          rms(c)
DAV:   1    -0.115773434722E+04    0.11615E-02   -0.46438E-01  1992   0.142E+00    0.188E-01
DAV:   2    -0.115773530600E+04   -0.95879E-03   -0.10818E-02  2568   0.208E-01    0.141E-01
DAV:   3    -0.115773567787E+04   -0.37187E-03   -0.16653E-03  3276   0.188E-01    0.346E-01
DAV:   4    -0.115773540647E+04    0.27140E-03   -0.10644E-03  2916   0.143E-01    0.167E-01
DAV:   5    -0.115773542906E+04   -0.22589E-04   -0.40015E-04  3216   0.707E-02    0.132E-01
DAV:   6    -0.115773543565E+04   -0.65944E-05   -0.26098E-04  3072   0.593E-02    0.104E-01
DAV:   7    -0.115773542789E+04    0.77643E-05   -0.20257E-04  3168   0.772E-02    0.923E-02
DAV:   8    -0.115773548343E+04   -0.55543E-04   -0.24740E-04  3180   0.617E-02    0.151E-01
DAV:   9    -0.115773542387E+04    0.59564E-04   -0.17471E-04  2976   0.583E-02    0.518E-02
DAV:  10    -0.115773543135E+04   -0.74854E-05   -0.31087E-05  2244   0.325E-02    0.296E-02
DAV:  11    -0.115773543833E+04   -0.69785E-05   -0.11834E-05  2088   0.197E-02    0.158E-02
DAV:  12    -0.115773544549E+04   -0.71563E-05   -0.44200E-06  1752   0.128E-02    0.130E-02
DAV:  13    -0.115773545036E+04   -0.48741E-05   -0.18269E-06  1692   0.841E-03    0.734E-03
DAV:  14    -0.115773545703E+04   -0.66696E-05   -0.68880E-07  1500   0.457E-03    0.331E-03
DAV:  15    -0.115773546360E+04   -0.65721E-05   -0.45082E-07  1488   0.376E-03    0.528E-03
DAV:  16    -0.115773546953E+04   -0.59312E-05   -0.47748E-07  1476   0.372E-03    0.263E-03
DAV:  17    -0.115773547475E+04   -0.52173E-05   -0.26738E-07  1488   0.229E-03    0.216E-03
DAV:  18    -0.115773547894E+04   -0.41901E-05   -0.19651E-07  1500   0.178E-03    0.135E-03
DAV:  19    -0.115773548174E+04   -0.27999E-05   -0.12128E-07  1452   0.126E-03    0.148E-03
DAV:  20    -0.115773548348E+04   -0.17403E-05   -0.76436E-08  1404   0.111E-03    0.765E-04
DAV:  21    -0.115773548663E+04   -0.31508E-05   -0.79239E-08  1440   0.509E-04    0.801E-04
DAV:  22    -0.115773548823E+04   -0.15998E-05   -0.41406E-08  1428   0.564E-04    0.641E-04
DAV:  23    -0.115773549046E+04   -0.22229E-05   -0.28498E-08  1428   0.562E-04    0.703E-04
DAV:  24    -0.115773549313E+04   -0.26797E-05   -0.30022E-08  1476   0.542E-04    0.478E-04
DAV:  25    -0.115773549595E+04   -0.28143E-05   -0.44581E-08  1464   0.412E-04    0.571E-04
DAV:  26    -0.115773549691E+04   -0.95712E-06   -0.23636E-08  1476   0.411E-04
 317 F= -.11654370E+04 E0= -.11654339E+04  d E =-.252957E-03  mag=    13.0707
 curvature:   0.45 expect dE= 0.135E-02 dE for cont linesearch  0.515E-05
 ZBRENT: bracketing found
 ZBRENT: interpolating
 opt :   0.1951  next Energy= -1165.437026 (dE=-0.285E-03)
 bond charge predicted
       N       E                     dE             d eps       ncg     rms          rms(c)
DAV:   1    -0.115773534589E+04    0.15006E-03   -0.81541E-02  1998   0.596E-01    0.788E-02
DAV:   2    -0.115773550348E+04   -0.15759E-03   -0.18967E-03  2664   0.872E-02    0.592E-02
DAV:   3    -0.115773558149E+04   -0.78014E-04   -0.29066E-04  3324   0.791E-02    0.139E-01
DAV:   4    -0.115773553309E+04    0.48404E-04   -0.17110E-04  2928   0.603E-02    0.687E-02
DAV:   5    -0.115773554036E+04   -0.72696E-05   -0.68699E-05  2232   0.285E-02    0.574E-02
DAV:   6    -0.115773554607E+04   -0.57135E-05   -0.50273E-05  2568   0.251E-02    0.439E-02
DAV:   7    -0.115773554722E+04   -0.11501E-05   -0.39699E-05  2472   0.323E-02    0.412E-02
DAV:   8    -0.115773555790E+04   -0.10682E-04   -0.46479E-05  2592   0.267E-02    0.610E-02
DAV:   9    -0.115773554670E+04    0.11201E-04   -0.31909E-05  2244   0.264E-02    0.231E-02
DAV:  10    -0.115773554887E+04   -0.21659E-05   -0.54598E-06  1764   0.144E-02    0.121E-02
DAV:  11    -0.115773555014E+04   -0.12713E-05   -0.19943E-06  1716   0.827E-03    0.608E-03
DAV:  12    -0.115773555089E+04   -0.75233E-06   -0.83786E-07  1452   0.566E-03

===================================================================================
=   BAD TERMINATION OF ONE OF YOUR APPLICATION PROCESSES
=   RANK 0 PID 12962 RUNNING AT li010
=   KILLED BY SIGNAL: 9 (Killed)
===================================================================================

===================================================================================
=   BAD TERMINATION OF ONE OF YOUR APPLICATION PROCESSES
=   RANK 1 PID 12963 RUNNING AT li010
=   KILLED BY SIGNAL: 9 (Killed)
===================================================================================

===================================================================================
=   BAD TERMINATION OF ONE OF YOUR APPLICATION PROCESSES
=   RANK 2 PID 12964 RUNNING AT li010
=   KILLED BY SIGNAL: 9 (Killed)
===================================================================================

===================================================================================
=   BAD TERMINATION OF ONE OF YOUR APPLICATION PROCESSES
=   RANK 3 PID 12965 RUNNING AT li010
=   KILLED BY SIGNAL: 9 (Killed)
===================================================================================

===================================================================================
=   BAD TERMINATION OF ONE OF YOUR APPLICATION PROCESSES
=   RANK 4 PID 12966 RUNNING AT li010
=   KILLED BY SIGNAL: 9 (Killed)
===================================================================================

===================================================================================
=   BAD TERMINATION OF ONE OF YOUR APPLICATION PROCESSES
=   RANK 5 PID 12967 RUNNING AT li010
=   KILLED BY SIGNAL: 9 (Killed)
===================================================================================

===================================================================================
=   BAD TERMINATION OF ONE OF YOUR APPLICATION PROCESSES
=   RANK 6 PID 12968 RUNNING AT li010
=   KILLED BY SIGNAL: 9 (Killed)
===================================================================================

===================================================================================
=   BAD TERMINATION OF ONE OF YOUR APPLICATION PROCESSES
=   RANK 7 PID 12969 RUNNING AT li010
=   KILLED BY SIGNAL: 9 (Killed)
===================================================================================

===================================================================================
=   BAD TERMINATION OF ONE OF YOUR APPLICATION PROCESSES
=   RANK 8 PID 12970 RUNNING AT li010
=   KILLED BY SIGNAL: 9 (Killed)
===================================================================================

===================================================================================
=   BAD TERMINATION OF ONE OF YOUR APPLICATION PROCESSES
=   RANK 9 PID 12971 RUNNING AT li010
=   KILLED BY SIGNAL: 9 (Killed)
===================================================================================

===================================================================================
=   BAD TERMINATION OF ONE OF YOUR APPLICATION PROCESSES
=   RANK 10 PID 12972 RUNNING AT li010
=   KILLED BY SIGNAL: 9 (Killed)
===================================================================================

===================================================================================
=   BAD TERMINATION OF ONE OF YOUR APPLICATION PROCESSES
=   RANK 11 PID 12973 RUNNING AT li010
=   KILLED BY SIGNAL: 9 (Killed)
===================================================================================

===================================================================================
=   BAD TERMINATION OF ONE OF YOUR APPLICATION PROCESSES
=   RANK 12 PID 12974 RUNNING AT li010
=   KILLED BY SIGNAL: 9 (Killed)
===================================================================================

===================================================================================
=   BAD TERMINATION OF ONE OF YOUR APPLICATION PROCESSES
=   RANK 13 PID 12975 RUNNING AT li010
=   KILLED BY SIGNAL: 9 (Killed)
===================================================================================

===================================================================================
=   BAD TERMINATION OF ONE OF YOUR APPLICATION PROCESSES
=   RANK 14 PID 12976 RUNNING AT li010
=   KILLED BY SIGNAL: 9 (Killed)
===================================================================================

===================================================================================
=   BAD TERMINATION OF ONE OF YOUR APPLICATION PROCESSES
=   RANK 15 PID 12977 RUNNING AT li010
=   KILLED BY SIGNAL: 9 (Killed)
===================================================================================

===================================================================================
=   BAD TERMINATION OF ONE OF YOUR APPLICATION PROCESSES
=   RANK 16 PID 12978 RUNNING AT li010
=   KILLED BY SIGNAL: 9 (Killed)
===================================================================================

===================================================================================
=   BAD TERMINATION OF ONE OF YOUR APPLICATION PROCESSES
=   RANK 17 PID 12979 RUNNING AT li010
=   KILLED BY SIGNAL: 9 (Killed)
===================================================================================

===================================================================================
=   BAD TERMINATION OF ONE OF YOUR APPLICATION PROCESSES
=   RANK 18 PID 12980 RUNNING AT li010
=   KILLED BY SIGNAL: 9 (Killed)
===================================================================================

===================================================================================
=   BAD TERMINATION OF ONE OF YOUR APPLICATION PROCESSES
=   RANK 19 PID 12981 RUNNING AT li010
=   KILLED BY SIGNAL: 9 (Killed)
===================================================================================

===================================================================================
=   BAD TERMINATION OF ONE OF YOUR APPLICATION PROCESSES
=   RANK 20 PID 12982 RUNNING AT li010
=   KILLED BY SIGNAL: 9 (Killed)
===================================================================================

===================================================================================
=   BAD TERMINATION OF ONE OF YOUR APPLICATION PROCESSES
=   RANK 21 PID 12983 RUNNING AT li010
=   KILLED BY SIGNAL: 9 (Killed)
===================================================================================

===================================================================================
=   BAD TERMINATION OF ONE OF YOUR APPLICATION PROCESSES
=   RANK 22 PID 12984 RUNNING AT li010
=   KILLED BY SIGNAL: 9 (Killed)
===================================================================================

===================================================================================
=   BAD TERMINATION OF ONE OF YOUR APPLICATION PROCESSES
=   RANK 23 PID 12985 RUNNING AT li010
=   KILLED BY SIGNAL: 9 (Killed)
===================================================================================
