O  C  H  Co Li                          
   1.00000000000000     
    23.9261198104165054    1.4270226320989507   -0.1702423552515908
    13.3807977504398092   19.9075722412530887    0.0070620584243260
    -0.0366049182984033    0.0428470880645103    6.8013684059336974
   O    C    H    Co   Li
    54    67    16    18     3
Direct
  0.0623148778101949  0.2594177315046247  0.3160937235607722
  0.0335183439310115  0.3018735650471391  0.9339582059718737
  0.1070682620593153  0.2678374364695253  0.7204496201445181
  0.7015710049312149  0.0471246720083635  0.3156059163526470
  0.6833388936748225  0.0229883968585351  0.9317536740518831
  0.6469418240805733  0.0976186121797011  0.7220364982469344
  0.0353132032271391  0.3997324587486575  0.6564763526191698
  0.2446583602868486  0.7018832382178576  0.3489239113795595
  0.2993207773054997  0.6685626481412235  0.9962826709084597
  0.2694903648521862  0.6197740185717477  0.8021838885898619
  0.5805475129279273  0.0296003551672939  0.6464842220184377
  0.3047718972675386  0.0537312451492157  0.3733959400769291
  0.2319635700755468  0.0923203888791425  0.5895577454442966
  0.2774226763798043  0.0979802785934446  0.9935463907119646
  0.6943992746221174  0.2744733564981659  0.3986865502578796
  0.7654871544103984  0.1875322046240848  0.5121486849941611
  0.9821025735221224  0.6477400490149641  0.7375231412053193
  0.0244169385198913  0.5732501130399235  0.9460963805482349
  0.6689568165153444  0.2571747880847681  0.0062552653981449
  0.0389743818113445  0.6623927268650626  0.4068875163150853
  0.0717685395795197  0.7030695898909123  0.6209991129324935
  0.3736889095782661  0.9944093320733386  0.7054573195154843
  0.4100347831433134  0.0314490167271972  0.9196472902259976
  0.0835919746900858  0.6460505167994761  0.0277484680538618
  0.6928198455515074  0.9535420645828061  0.5987126832045278
  0.7677432692084633  0.9178810739512671  0.3913433629376863
  0.7194710515921902  0.9106803398440173  0.9853418799986536
  0.3405902891314881  0.7197403733646313  0.5312730102348278
  0.2838496856092496  0.7996756645043130  0.3586785352506980
  0.0217722684506096  0.3720204720275725  0.2689223905667721
  0.9790580144074320  0.4470262052983391  0.0626869179303584
  0.3229695919882431  0.7534557501802677  0.9431248876086242
  0.9624955793623396  0.3599833702230641  0.6011820092798580
  0.9313597907653668  0.3162600943615926  0.3935450290907830
  0.6238978881903509  0.0137691041020325  0.2655295490055386
  0.5874539305608790  0.9767294552241944  0.0517588727444871
  0.9206575128337388  0.3737630900348859  0.9888507493005195
  0.9412312199012258  0.7602865346214323  0.6857034567698401
  0.9689182798012203  0.7183685495052140  0.0709636021372690
  0.8941503848557613  0.7506568227198500  0.2783124390068809
  0.2963295601165776  0.9616286264711569  0.6529500476931198
  0.3145063222936618  0.9846285705795333  0.0373690260394966
  0.3498744319782187  0.9100219152343306  0.2457013255764101
  0.9686054078128430  0.6198164010240573  0.3515889517727244
  0.7799828515600630  0.2872097429386599  0.7028372752403993
  0.7076887664542922  0.3476630877335289  0.0192473121798748
  0.7582711590199832  0.3599115251352985  0.2652920096935858
  0.4171417926996506  0.9783289680617511  0.3244646023730502
  0.5965427231020327  0.4031262789161013  0.2364012404236628
  0.6326372457345146  0.4641525204528260  0.2165172725883727
  0.6506521747654421  0.4107421318088621  0.4859047449992864
  0.8359735564356915  0.1373119662357643  0.0171923888100407
  0.8874819194894492  0.1186401951148957  0.6282636228318740
  0.8681186822773955  0.0409029963702685  0.6751600577030590
  0.1134960719269369  0.2220964074813750  0.2287657160576855
  0.1566013177599130  0.1783035566126607  0.3467461286360234
  0.0880670861939302  0.2662904258512534  0.8880080728246907
  0.1277584291452870  0.2227967897721999  0.0295774904365413
  0.6948921668362921  0.0957386478141069  0.2276150238416000
  0.7089026744154938  0.1316272683645647  0.3395121103100837
  0.6672942806243423  0.0770765680823608  0.8888764795123294
  0.6752850902648756  0.1138710967734318  0.0329587775601108
  0.0189886531414154  0.4520858974991804  0.5732265354344129
  0.0182930838799903  0.4953411437267435  0.6948664268879434
  0.2058863743737659  0.6872172747145708  0.2686522142595798
  0.1576107329519306  0.6954375202519405  0.3784735710885520
  0.2635170141821995  0.6481394893854510  0.9604151641471880
  0.2143727129815848  0.6607308867247814  0.0835254249783556
  0.5422312828534239  0.0169702259262563  0.5597712598307792
  0.4979126456906071  0.0186015437113132  0.6778607021376909
  0.2510921466733761  0.0918574827790140  0.4205568696512932
  0.2121571757237189  0.1357340149690014  0.2790724054962322
  0.2263853397015066  0.1361177015136006  0.0798546143470096
  0.1834369750986952  0.1803160256809667  0.9620307289009451
  0.7222571437948371  0.2164650032993230  0.4013004960486283
  0.7014731199483458  0.1855869427446520  0.2734613612621375
  0.0032692731111958  0.5925511445209540  0.7793138199905724
  0.0013582831951401  0.5525384574415758  0.6334858673353932
  0.6767324497671506  0.2059608601360438  0.0869817798302661
  0.6649729363021507  0.1693999708915041  0.9714245646116929
  0.0734438237343216  0.6826651217203847  0.4526669695553743
  0.1168668159602172  0.6791523772716234  0.3127397026198671
  0.4108196244284996  0.0112178270424902  0.7519520663679642
  0.4550080285149518  0.0060112625731712  0.6106611298862216
  0.1218620150739088  0.6578473546008656  0.1185611776163930
  0.1711835851091572  0.6482933594529080  0.0115151523052999
  0.7479274170334955  0.9179819924054725  0.5588484259390188
  0.7875563738388749  0.8766862045373408  0.7060487119586624
  0.7721604669486564  0.8749878703418019  0.9032617418389174
  0.8155931787607964  0.8328450145755139  0.0255655265551747
  0.3106226670949523  0.7773715286134598  0.5161054366590541
  0.3105854549254276  0.8164004109558739  0.6694587839188058
  0.0003524797097731  0.4273911008911208  0.2289761037876451
  0.0022667901397846  0.4672103753657022  0.3753846162163900
  0.3209784372440048  0.8019955280051906  0.8694484111739709
  0.3269086517753274  0.8407557140900732  0.9947434579733673
  0.9299050045019565  0.3370742485606750  0.5611967536210913
  0.8896985691161656  0.3366505484973388  0.7075831818313355
  0.5866892144683260  0.9969020805025625  0.2193946828574107
  0.5425393845891147  0.0021214083807040  0.3606691964519654
  0.8857281033775456  0.3563604204419872  0.9033143451214644
  0.8411649308059433  0.3581228678044048  0.0199102039570290
  0.8886296964641425  0.7955467754922964  0.7682797016743107
  0.8451872054502688  0.8375070446894650  0.6460295623222243
  0.9134679562743512  0.7522254577024787  0.1115479163471990
  0.8732539499147293  0.7936230694675594  0.9654324129946135
  0.3058820506715282  0.9111438673815184  0.7349496628169215
  0.3020871055090433  0.8711583720414223  0.6094985721127801
  0.3292823194310854  0.9307835590223826  0.0796080136854877
  0.3202246152990053  0.8947566307364128  0.9338195292360264
  0.9847723758133060  0.5675865888817906  0.4355497005379450
  0.9853436409963193  0.5243967795859473  0.3140615782335916
  0.8094142112366889  0.3154090216571988  0.7682367928439225
  0.8527599992711903  0.3145014227448376  0.6495014897445043
  0.7541815424451943  0.3484182326816463  0.0855313295148640
  0.8012838241320430  0.3401572631684760  0.9566205211728437
  0.4553216324387570  0.9911438563713727  0.4114960780303656
  0.4995996969028148  0.9895852687058838  0.2934036280349415
  0.6251060436969523  0.4267926200265895  0.3171342135528646
  0.8773724184527921  0.0796953337776570  0.6520457791806807
  0.8011750454994260  0.1870611132362464  0.9896725966818125
  0.1450890789717734  0.1773020584701319  0.4970767568244281
  0.7271424784847649  0.1151413806233967  0.4822148494871554
  0.0324131473247386  0.4826580663583805  0.8435181642754405
  0.1498311130435616  0.7168300442653389  0.5192689417603806
  0.4970245653559629  0.0312850704624023  0.8279797448080278
  0.1950128141400364  0.1813228993459603  0.8117306134808490
  0.6476526102449149  0.1847434353801889  0.8270431737924386
  0.1761768295657678  0.6292451880754789  0.8683666255327008
  0.8028672670391312  0.8311440238724483  0.1739200968060989
  0.3369263853835535  0.8280116093451917  0.1452521506264756
  0.8381696409668252  0.3745217980892225  0.1662391933536218
  0.8579846092720702  0.8392895311311879  0.4978169162769439
  0.2922183551249093  0.8839877808347051  0.4587933349402530
  0.9712846287605181  0.5370897675504946  0.1653894154182874
  0.8589130910251055  0.2956316998596962  0.5050343623849256
  0.5005155612147498  0.9769583826188047  0.1432195945690244
  0.2664552558164163  0.6589436947227393  0.5786582669885105
  0.0529268506757411  0.3233355139698709  0.5141100685969121
  0.6425735013554190  0.0441129184530652  0.5141515287720541
  0.0178298791470569  0.7014292031064288  0.8278441812329248
  0.3539765637256947  0.0352357307644037  0.1276748238864863
  0.2839798121891982  0.0356934312682214  0.7953686622743917
  0.6315502223835002  0.3184463694109328  0.2003231556751636
  0.7453890873635526  0.2587496844199140  0.9337644175543529
  0.0232349238310168  0.6286218849511994  0.1575698137093154
  0.6436738601433443  0.9729004559868352  0.8439538923134871
  0.9849332748627100  0.3183639318094368  0.1824868216513047
  0.3228680038656880  0.6928353340238333  0.7617113844932445
  0.7138030117896401  0.9723966630022092  0.1797353415237168
  0.9802560256908480  0.3913487935591759  0.8516912368116746
  0.2920115311203959  0.7338193958995944  0.1885020506964207
  0.7246629084921108  0.3291713595105609  0.4833615002045419
  0.9496617425213726  0.6970451524716942  0.4897577095140637
  0.3547790609960159  0.9640190129685051  0.4545411450261120
  0.7033684618896926  0.4389040223219992  0.3608306209193055
  0.6312225154076329  0.4192359274510394  0.9955253880806098
  0.8196600049903233  0.2043854848814106  0.6290713762222603
