O  C  H  Co Li
 1.0000000000000000
    25.9869300199999991    0.0014776500000000   -0.0002841700000000
    12.9947443200000006   22.5035161499999994   -0.0005769100000000
    -0.0000740900000000   -0.0001328100000000    6.8098320599999997
 O   C   H   Co  Li 
  54  67  16  18   3
Direct
  0.0593995240812820  0.2492199505123552  0.3167964275736246
  0.0311360283137899  0.2901715986666287  0.9220366449271837
  0.1076718271385945  0.2591464505861449  0.7161338467935362
  0.7020249102034158  0.0482277239304223  0.3356217480718139
  0.6874676230326650  0.0222973401587307  0.9403550241903358
  0.6429930061016638  0.0994305263201383  0.7363714188498677
  0.0341814082844688  0.3897531835424899  0.6575931643162024
  0.2532901834046386  0.6879700181653580  0.3538880158339464
  0.3087799936109596  0.6532226245500222  0.9979421989502382
  0.2811205167351287  0.6007998195941009  0.8059748530266994
  0.5836546399920535  0.0250021168965510  0.6623828154592460
  0.3065687810771823  0.0475365272678334  0.3940478041508589
  0.2304709461921085  0.0815811494074233  0.6029393218575928
  0.2791468618973734  0.0898586673630985  0.0017834388092105
  0.6646789248332322  0.2902227319828430  0.4427030018306857
  0.7312176599368734  0.2063949152615452  0.5952328624723097
 -0.0157512995473911  0.6378866624405921  0.7527319598192594
  0.0309552130812529  0.5606410365727127  0.9546002077472618
  0.6568116190641792  0.2643142652518357  0.0255043671884504
  0.0462698041762156  0.6487157348306206  0.4218285006745542
  0.0772400237310936  0.6938689136113910  0.6304325841653994
  0.3784549272503639  0.9846724754305474  0.7259559865524328
  0.4109495000845912  0.0278405042501244  0.9365633462412433
  0.0898002656507400  0.6333211303682874  0.0308281716268800
  0.6983019161097436  0.9499997387400625  0.6053022851772740
  0.7750708896599382  0.9180878540893774  0.4004195502057060
  0.7253508530855435  0.9082724983687535  1.0000673519049768
  0.3472100392466635  0.7084818004400654  0.5240554908443452
  0.2859712013887251  0.7900175746833172  0.3595162353279377
  0.0215732138388995  0.3628480095466743  0.2577532658665196
  0.9730194549766441  0.4405059113390362  0.0587096498960194
  0.3350668642016496  0.7380290465683325 -0.0521816937594201
  0.9582112591764977  0.3530141702865284  0.5894030425116694
  0.9286204599463407  0.3064696315792037  0.3816938311085175
  0.6258035519159224  0.0116183687209601  0.2722423232696722
  0.5937809904184341  0.9681185805210123  0.0612495714476947
  0.9163916929714208  0.3653356847241544  0.9845172193037254
  0.9468085467986325  0.7514903398948174  0.6925489488268002
  0.9743490677914503  0.7102559003249850  0.0872215093002951
  0.8975298866297331  0.7415101504937904  0.2917123860814938
  0.3001413140047727  0.9518211125386515  0.6617413093234865
  0.3156453078432650  0.9753039131139360  0.0583237323704451
  0.3592398699893180  0.8975918598794095  0.2594784919383486
  0.9706790847968568  0.6111195179173115  0.3549253293775074
  0.7661272094966101  0.2914046178607984  0.6727364941704108
  0.6930763537452692  0.3526321440295270 -0.0068526131068828
  0.7432489203008646  0.3653740016713264  0.2459141292993151
  0.4207992439739743  0.9708297654686210  0.3350522160518837
  0.5862146762454215  0.4218357791548511  0.2222787610756184
  0.6279090961426507  0.4785223404815385  0.1903988940476860
  0.6397120485262319  0.4310896040367717  0.4766731032847005
  0.8320536540185151  0.1457818666680798  0.0354535430032331
  0.8672674540680563  0.1231455051080887  0.6041133321032004
  0.8626088227783991  0.0412094607325012  0.7291302666171445
  0.1115935037180819  0.2117167176616229  0.2309779542157353
  0.1542957486527466  0.1673975061701687  0.3525855896156354
  0.0872582841956859  0.2565038155911112  0.8834044942622146
  0.1271698242748366  0.2135390967192627  0.0302651819422742
  0.6909891120458401  0.0993209805499390  0.2501502004361842
  0.6977079300571215  0.1391897184724576  0.3710125631602724
  0.6666018118347724  0.0781199440467620  0.9028288713907333
  0.6723673004183499  0.1164478328031079  0.0507325855785738
  0.0188237119625227  0.4424392914993692  0.5742812822475415
  0.0208244000675234  0.4845292606504497  0.6985960695151435
  0.2140624025558819  0.6732332263557917  0.2735328719851035
  0.1647322307772426  0.6832745632465058  0.3846511601974877
  0.2735274118649814  0.6314302570187135  0.9635337764521372
  0.2233371454986707  0.6450208789753717  0.0873317402776962
  0.5453393525659843  0.0117278795999361  0.5744465619263041
  0.5002448090830041  0.0141120579854982  0.6937892426436526
  0.2509032852195275  0.0828162999303830  0.4342140185546813
  0.2113049178777142  0.1259510055211642  0.2874668535873749
  0.2269128983827597  0.1276440723040629  0.0868268210557768
  0.1842489337948691  0.1721321130083631  0.9652317635601904
  0.6947321500316220  0.2320869222925081  0.4534130178582103
  0.6856774961860840  0.1958260550312960  0.3078984318581366
  0.0073302100707637  0.5815644564172406  0.7882221003554081
  0.0042597160206189  0.5421718296240163  0.6381225004287268
  0.6653843260797918  0.2133536252819215  0.1111357337916828
  0.6592726514663998  0.1733389622687886  0.9895487934727241
  0.0798121067905615  0.6710711481392244  0.4620849971504259
  0.1235558965150663  0.6670291585920791  0.3184344095539533
  0.4134872170449664  0.0050062592627188  0.7686261397000580
  0.4577858015369327  0.0004126580968900  0.6248841732114587
  0.1291545763602756  0.6442695851463824  0.1223916920186290
  0.1797123186034951  0.6326204768401761  1.0144566526835410
  0.7544246507371829  0.9160818083605595  0.5680600040673913
  0.7941328130004952  0.8735235438766258  0.7165056433523488
  0.7780970631264391  0.8712551441966137  0.9163027994342153
  0.8207106391227543  0.8271921913914118  0.0392003724118636
  0.3151506192453596  0.7667924260678188  0.5158012729271352
  0.3162144709094942  0.8049405960109094  0.6737890190490635
  0.9973867627934150  0.4193867568133153  0.2240654542567847
  1.0002123119054225  0.4588283944219799  0.3745940309798412
  0.3305078620462351  0.7883201856311572  0.8749638451091671
  0.3374140205621294  0.8267876462662411  0.0028900801995304
  0.9257826312526741  0.3293830112313990  0.5501792286061749
  0.8837274347887699  0.3308226023582949  0.6958825193492879
  0.5910037707919702  0.9909195911697980  0.2292779775589467
  0.5467537537243941  0.9953284232271811  0.3728007289570354
  0.8791573204696609  0.3509139842599331  0.8949445820400741
  0.8316640696379957  0.3563361896760808  0.0080965058464489
  0.8942567164174519  0.7886996654976705  0.7765543601412294
  0.8516629717045723  0.8328076453066730  0.6537619181759426
  0.9180914673686300  0.7439139839109167  0.1245323930531601
  0.8782715490191817  0.7865020664266026  0.9764781086309677
  0.3106253566574711  0.9004382943365747  0.7436449190281869
  0.3053738307935757  0.8611218969497088  0.6155282104241996
  0.3354540687665322  0.9194807718452088  0.0940190438382759
  0.3277765436580509  0.8825436101313269  0.9438113339736601
  0.9857649497379989  0.5585228165581079  0.4383908197557190
  0.9835808400728339  0.5164961722800357  0.3142339396072376
  0.7982478223457541  0.3161873610679400  0.7458452641236790
  0.8445032116180354  0.3116219327897640  0.6310131115627339
  0.7398678904673889  0.3532831920094457  0.0631956274175754
  0.7892845914348069  0.3417398651737511  0.9371603428708322
  0.4591472674982779  0.9840422570108518  0.4231897848031997
  0.5043008779375662  0.9816133649258783  0.3038732792210312
  0.6160907447385091  0.4450521362465542  0.3001824419857373
  0.8646672906977332  0.0820670325041997  0.6682260812703205
  0.7931049576419308  0.1919603400938923  0.9847546286323774
  0.1415449677291075  0.1655945276731585  0.5038583660588597
  0.7121557057685534  0.1247714362202320  0.5213627483753794
  0.0364180391696153  0.4706128122901378  0.8484202811081581
  0.1568962630825254  0.7056159421588207  0.5267140060744983
  0.4984442073705168  0.0280475323974293  0.8458883490796765
  0.1969794128122783  0.1739476053713203  0.8139298455205182
  0.6431943848008536  0.1877865564014163  0.8402116061578695
  0.1850543447838733  0.6123936259193637  0.8700598065531738
  0.8074655646131594  0.8251501876642490  0.1896033369981625
  0.3503835992585680  0.8125485907983823  0.1539525712988989
  0.8286201857295977  0.3725723363734220  0.1578194837668651
  0.8649035847177990  0.8348653891391912  0.5033435530175229
  0.2928145297099157  0.8754739924941449  0.4640428282472802
  0.9680178536014934  0.5304142168905802  0.1643898749796571
  0.8506763754013629  0.2926416104607270  0.4837112825545496
  0.5061337849147870  0.9677058817830996  0.1517290937732534
  0.7032239264139044  0.3430295455156275  0.4689144713630899
  0.2857823238309383  0.0259898632283574  0.8104921415179903
  0.6350772518857282  0.3351005604577756  0.1897166622432638
  0.9537155589233736  0.6870944329009178  0.5019064206896643
  0.3600684919831177  0.9545005626889508  0.4695284406865297
  0.3554771440770649  0.0288324213906946  0.1444621305321886
  0.7180913288679520  0.9722819278279120  0.1911926726724377
  0.3322533705037349  0.6782748938840409  0.7598407733174405
  0.7312295479069028  0.2554876650427397  0.8855211249858405
  0.9828239583154540  0.3079712460318965  0.1725230922261731
  0.3014850325600986  0.7193063850083120  0.1915863311630039
  0.9760581465719088  0.3832357436534123  0.8460698673029273
  0.6491597436528022  0.9678732751863259  0.8537492423747423
  0.0287602676161354  0.6172202632118678  0.1671811922102039
  0.6428619541888244  0.0430908201411359  0.5261881394312956
  0.0230096112021356  0.6919142883561398  0.8388690401966596
  0.2770894054023819  0.6414141550305391  0.5796815956353217
  0.0514149830766055  0.3141500331590064  0.5081244131810766
  0.6996846911586525  0.4475309100893667  0.3406778814464787
  0.6205997392359839  0.4353128431502287  0.9676292953784978
  0.8039797284291931  0.2089521132152466  0.5913944088781886
