O  C  H  Co Li                          
   1.00000000000000     
    25.9869300199999991    0.0014776500000000   -0.0002841700000000
    12.9947443200000006   22.5035161499999994   -0.0005769100000000
    -0.0000740900000000   -0.0001328100000000    6.8098320599999997
   O    C    H    Co   Li
    54    67    16    18     3
Direct
  0.0580955116068933  0.2579941024935818  0.3155229545066114
  0.0325798267063658  0.3014085228096943  0.9504374799542922
  0.1016392820810339  0.2621183843455928  0.7174529214016229
  0.6861344017489820  0.0541929819905697  0.3131895618139930
  0.6642560253279000  0.0335130168830518  0.9550123433577402
  0.6380867543501750  0.1009637340101982  0.7173113897814333
  0.0239118243339996  0.3967666134195307  0.6539616390179933
  0.2725443217855046  0.6713792385358596  0.3463785058361321
  0.3233703357969315  0.6374404114723063  0.9933900291932971
  0.2887848940041141  0.5939591630577662  0.7914663269226384
  0.5859195596046717  0.0157454018028490  0.6466262270706400
  0.2940650106965967  0.0357713177151555  0.3573844993540055
  0.2266967215590469  0.0766573156133486  0.5956103358206172
  0.2700852441322094  0.0809937107630683 -0.0020166493145680
  0.6657353753376870  0.2871618585015288  0.4443396853123857
  0.7352056501396707  0.2002728482462980  0.5689692275575108
  0.0090465430590444  0.6329788904127717  0.7115509461120231
  0.0341392470816528  0.5657629629602593  0.9491745047982867
  0.6558013447833723  0.2680820078136334  0.0317898177034282
  0.0411142169845536  0.6734653963768912  0.3790526586275408
  0.0838948864501894  0.6960434201593734  0.6234569268446642
  0.3655036210479701  0.9989403696948007  0.6897766565704715
  0.4059989677042123  0.0257639421788017  0.9279692942882181
  0.0908301454449564  0.6439953895087269  0.0258314335704078
  0.7034765547951302  0.9604073596981919  0.6230907666752430
  0.7715051584332882  0.9215614696833628  0.3863354002703084
  0.7275156679673279  0.9154948717555135  0.9825263535516591
  0.3594917900061004  0.6956243007620218  0.5303312122209336
  0.2995944800612992  0.7738321798444336  0.3519037259484201
  0.0045372516209527  0.3731958661284129  0.2856116959592803
  0.9737559060437442  0.4432417880217017  0.0566227120042077
  0.3363017219510180  0.7295598074280626  0.9383732083777649
  0.9610548728364967  0.3456333430881052  0.6178435086236839
  0.9227346741138525  0.3141896570367121  0.3870789899631907
  0.6325792837903698  0.9920929903587848  0.2901447136044192
  0.5918453535784733  0.9666774755349076  0.0483031188713747
  0.9164526869698137  0.3651379386408961  0.9857651051809124
  0.9477360791162301  0.7497595618324830  0.6855947948442669
  0.9721787610641088  0.7058496453693497  0.0477096414289039
  0.9028345952726621  0.7432538991167484  0.2802418394929904
  0.3073579992270885  0.9420648497941071  0.6579625580848645
  0.3273146494650631  0.9642362961252109  0.0223150864164970
  0.3569375683786790  0.8947718211709370  0.2529419246279043
  0.9863842435739464  0.6106718897590592  0.3516795959377034
  0.7604455723115796  0.2955956433243776  0.7099681336401829
  0.6865592368660960  0.3634592505337582  0.0142496551862046
  0.7459437792094281  0.3558525096280553  0.2830577040532832
  0.4109995308271528  0.9773466630840624  0.3291495599485513
  0.5861777480294684  0.4227883076265266  0.2544104575032509
  0.6298615833970128  0.4782444298133322  0.2391973947387848
  0.6417581168018742  0.4252652580892818  0.5123696764925939
  0.8329082745717579  0.1785733210109151  0.2080219959968727
  0.8570653712258401  0.1238280968733705  0.6918075196157326
  0.8363694905945024  0.0501944706152014  0.5868231140989638
  0.1088953491348552  0.2156766500926559  0.2342076540368966
  0.1500334541829810  0.1693513463888543  0.3532734818078971
  0.0845183853839483  0.2616865634461698  0.8917655291661052
  0.1238946225346269  0.2149270854779821  0.0315134353394100
  0.6786478479384462  0.1050652553581093  0.2354198121057241
  0.6883599068013012  0.1420659279143473  0.3592901856346725
  0.6539950542223963  0.0846664781140933  0.8933210651740194
  0.6623073978876378  0.1232322937536233  0.0360856050833281
  0.0147713140285631  0.4480294873156783  0.5752410999539976
  0.0200664809757310  0.4885019074434283  0.6978728464150727
  0.2294269914362033  0.6614724385237433  0.2726644882154847
  0.1787561349765472  0.6759353025437008  0.3836786222094149
  0.2849591069373971  0.6205254521223921  0.9548032107403813
  0.2345161437410345  0.6361410061993491  0.0837609097383029
  0.5444902225516748  0.0057907988794088  0.5652503080766047
  0.4982701373351672  0.0107945248332808  0.6842693872593905
  0.2432251546623902  0.0765179985099826  0.4200876061440939
  0.2040413756216625  0.1238128365460535  0.2813935543732143
  0.2191455752782904  0.1231932815445469  0.0789713562474755
  0.1780500963417531  0.1694775942941101  0.9598475091959258
  0.6955613003256851  0.2286257258588268  0.4445340918827173
  0.6801769908933422  0.1967233417079360  0.2980639745070780
  0.0186280309542136  0.5821375605245268  0.7732023189381833
  0.0108117959910442  0.5432317648815669  0.6311016566729003
  0.6622644001784533  0.2165029020045324  0.1010203149417749
  0.6542259332712502  0.1783598319311764  0.9743955450845078
  0.0831800465549766  0.6806262563934327  0.4467260464211005
  0.1325715544234249  0.6683197773791605  0.3113862969162616
  0.4060415169014893  0.0093615906197696  0.7523010622053078
  0.4531522692515665  0.0015424410306238  0.6130003308165114
  0.1350413271731545  0.6478958773576310  0.1140533432241430
  0.1872894932857070  0.6305823271706009  0.0080346716208366
  0.7554459868098100  0.9214696022846171  0.5621888268265838
  0.7962755405012429  0.8762394089514355  0.7046555500852113
  0.7804151155581054  0.8759345569396865  0.9055778635093841
  0.8226214975587134  0.8318778184336896  0.0289621510528516
  0.3266579741298620  0.7531245638548678  0.5136397501960053
  0.3240337928162921  0.7942783427994787  0.6682381402210221
  0.9918636057524621  0.4254985005623042  0.2301186635553821
  0.9994888567107594  0.4641228100899990  0.3735623727025655
  0.3336122318656438  0.7796033108014482  0.8718963407218938
  0.3383917041974233  0.8193400873633100 -0.0004277567592293
  0.9223602663459050  0.3315644054647751  0.5622456205888939
  0.8774221444896269  0.3365399134976997  0.7045891989625948
  0.5917879053186786  0.9825114996362069  0.2247286057902112
  0.5444184769291638  0.9905023361494015  0.3632838355685981
  0.8761158350296597  0.3535644968477495  0.9048712511441226
  0.8300875304256478  0.3578098804630531  0.0256669342938356
  0.8948201944740699  0.7894829572619780  0.7621704710448541
  0.8525673096609386  0.8335629144365040  0.6387649927286058
  0.9195169069775158  0.7441494175087139  0.1057650012645644
  0.8789338437046287  0.7892390401976200  0.9631563367984012
  0.3166076569737256  0.8903687949471765  0.7339583026285587
  0.3136885505333183  0.8497808476283044  0.6060723966372820
  0.3389251877461487  0.9122846770471662  0.0793093300302207
  0.3306331281986406  0.8739449556205845  0.9357179324792383
  0.9955832247004818  0.5591949441485103  0.4296653359391842
  0.9900957851179819  0.5189567941816805  0.3070504206090603
  0.7938002492319228  0.3205716736894427  0.7647522176727211
  0.8363088758350312  0.3199945773250816  0.6396818453117649
  0.7430031972621682  0.3434308143174171  0.0944857576772491
  0.7885736317155716  0.3427731773459095  0.9592703242340297
  0.4529010415007287  0.9865811973345845  0.4107943942343557
  0.4992713412932295  0.9813172549196075  0.2919134946206254
  0.6177909034465702  0.4431136146274430  0.3377547169197115
  0.8459852208048377  0.0873114329902651  0.6377257778453139
  0.7923150821485507  0.2160946277964776  0.1213520753725807
  0.1393134336685865  0.1691258486870854  0.5080073291709647
  0.7023453402894467  0.1273777270904163  0.5097230428810275
  0.0315801320797090  0.4765520829036606  0.8516232542756953
  0.1746054260893006  0.6938739987960945  0.5317723753752764
  0.4977879024749768  0.0222393910233790  0.8386603594605377
  0.1888283819941085  0.1696394469835329  0.8051637666437281
  0.6416007101745871  0.1919540678445012  0.8221868643373357
  0.1906235161688563  0.6133648831729082  0.8596639363999460
  0.8109761554996859  0.8313561425580795  0.1825065169030268
  0.3477842936507182  0.8077263152190092  0.1542413179081132
  0.8296107394478721  0.3702386966095242  0.1789857919247956
  0.8641360688341621  0.8341131776816154  0.4851392383029325
  0.3050592424773377  0.8615068696756519  0.4512090267730137
  0.9786511021192988  0.5308767306423929  0.1532251329151015
  0.8395622292241182  0.3043123230888988  0.4889244802831627
  0.4998398101140237  0.9698157957749405  0.1375422699852460
  0.7017754321247224  0.3374101493583168  0.4968787726674012
  0.2847161586498904  0.0206663153322414  0.7935562358034026
  0.6372047412653168  0.3363280481611430  0.2051623148297534
  0.9626393529805155  0.6898285718653741  0.4835681302947841
  0.3540871826804390  0.9547311904748967  0.4547809344521335
  0.3498656907745792  0.0231821653822833  0.1258256965377449
  0.7110002273811480  0.9757202825418204  0.1841671981885592
  0.3498372943152273  0.6609732433822907  0.7626182272439606
  0.7327312388752054  0.2766542450340319  0.0191921056435608
  0.9786406388276770  0.3162890528335005  0.1875655463527333
  0.3135544988960549  0.7061152978387606  0.1836565205689156
  0.9755483592807495  0.3845569827517644  0.8559199087821299
  0.6471189730100371  0.9711983260132071  0.8506915923824344
  0.0316058505849414  0.6251916326699191  0.1495712464825643
  0.6416349251422645  0.0398637312694303  0.5196610565108232
  0.0282777734513347  0.6931518566693968  0.8212896148084504
  0.3028364778837696  0.6300966050630989  0.5808456755872065
  0.0441889661481589  0.3186007360094241  0.5196707700980187
  0.7057829705744764  0.4368653337517828  0.3704972678006961
  0.6198854873600608  0.4421631882928718  0.0032015648170816
  0.7926978206017972  0.2123782756918813  0.6832992008350219
 
  0.00000000E+00  0.00000000E+00  0.00000000E+00
  0.00000000E+00  0.00000000E+00  0.00000000E+00
  0.00000000E+00  0.00000000E+00  0.00000000E+00
  0.00000000E+00  0.00000000E+00  0.00000000E+00
  0.00000000E+00  0.00000000E+00  0.00000000E+00
  0.00000000E+00  0.00000000E+00  0.00000000E+00
  0.00000000E+00  0.00000000E+00  0.00000000E+00
  0.00000000E+00  0.00000000E+00  0.00000000E+00
  0.00000000E+00  0.00000000E+00  0.00000000E+00
  0.00000000E+00  0.00000000E+00  0.00000000E+00
  0.00000000E+00  0.00000000E+00  0.00000000E+00
  0.00000000E+00  0.00000000E+00  0.00000000E+00
  0.00000000E+00  0.00000000E+00  0.00000000E+00
  0.00000000E+00  0.00000000E+00  0.00000000E+00
  0.00000000E+00  0.00000000E+00  0.00000000E+00
  0.00000000E+00  0.00000000E+00  0.00000000E+00
  0.00000000E+00  0.00000000E+00  0.00000000E+00
  0.00000000E+00  0.00000000E+00  0.00000000E+00
  0.00000000E+00  0.00000000E+00  0.00000000E+00
  0.00000000E+00  0.00000000E+00  0.00000000E+00
  0.00000000E+00  0.00000000E+00  0.00000000E+00
  0.00000000E+00  0.00000000E+00  0.00000000E+00
  0.00000000E+00  0.00000000E+00  0.00000000E+00
  0.00000000E+00  0.00000000E+00  0.00000000E+00
  0.00000000E+00  0.00000000E+00  0.00000000E+00
  0.00000000E+00  0.00000000E+00  0.00000000E+00
  0.00000000E+00  0.00000000E+00  0.00000000E+00
  0.00000000E+00  0.00000000E+00  0.00000000E+00
  0.00000000E+00  0.00000000E+00  0.00000000E+00
  0.00000000E+00  0.00000000E+00  0.00000000E+00
  0.00000000E+00  0.00000000E+00  0.00000000E+00
  0.00000000E+00  0.00000000E+00  0.00000000E+00
  0.00000000E+00  0.00000000E+00  0.00000000E+00
  0.00000000E+00  0.00000000E+00  0.00000000E+00
  0.00000000E+00  0.00000000E+00  0.00000000E+00
  0.00000000E+00  0.00000000E+00  0.00000000E+00
  0.00000000E+00  0.00000000E+00  0.00000000E+00
  0.00000000E+00  0.00000000E+00  0.00000000E+00
  0.00000000E+00  0.00000000E+00  0.00000000E+00
  0.00000000E+00  0.00000000E+00  0.00000000E+00
  0.00000000E+00  0.00000000E+00  0.00000000E+00
  0.00000000E+00  0.00000000E+00  0.00000000E+00
  0.00000000E+00  0.00000000E+00  0.00000000E+00
  0.00000000E+00  0.00000000E+00  0.00000000E+00
  0.00000000E+00  0.00000000E+00  0.00000000E+00
  0.00000000E+00  0.00000000E+00  0.00000000E+00
  0.00000000E+00  0.00000000E+00  0.00000000E+00
  0.00000000E+00  0.00000000E+00  0.00000000E+00
  0.00000000E+00  0.00000000E+00  0.00000000E+00
  0.00000000E+00  0.00000000E+00  0.00000000E+00
  0.00000000E+00  0.00000000E+00  0.00000000E+00
  0.00000000E+00  0.00000000E+00  0.00000000E+00
  0.00000000E+00  0.00000000E+00  0.00000000E+00
  0.00000000E+00  0.00000000E+00  0.00000000E+00
  0.00000000E+00  0.00000000E+00  0.00000000E+00
  0.00000000E+00  0.00000000E+00  0.00000000E+00
  0.00000000E+00  0.00000000E+00  0.00000000E+00
  0.00000000E+00  0.00000000E+00  0.00000000E+00
  0.00000000E+00  0.00000000E+00  0.00000000E+00
  0.00000000E+00  0.00000000E+00  0.00000000E+00
  0.00000000E+00  0.00000000E+00  0.00000000E+00
  0.00000000E+00  0.00000000E+00  0.00000000E+00
  0.00000000E+00  0.00000000E+00  0.00000000E+00
  0.00000000E+00  0.00000000E+00  0.00000000E+00
  0.00000000E+00  0.00000000E+00  0.00000000E+00
  0.00000000E+00  0.00000000E+00  0.00000000E+00
  0.00000000E+00  0.00000000E+00  0.00000000E+00
  0.00000000E+00  0.00000000E+00  0.00000000E+00
  0.00000000E+00  0.00000000E+00  0.00000000E+00
  0.00000000E+00  0.00000000E+00  0.00000000E+00
  0.00000000E+00  0.00000000E+00  0.00000000E+00
  0.00000000E+00  0.00000000E+00  0.00000000E+00
  0.00000000E+00  0.00000000E+00  0.00000000E+00
  0.00000000E+00  0.00000000E+00  0.00000000E+00
  0.00000000E+00  0.00000000E+00  0.00000000E+00
  0.00000000E+00  0.00000000E+00  0.00000000E+00
  0.00000000E+00  0.00000000E+00  0.00000000E+00
  0.00000000E+00  0.00000000E+00  0.00000000E+00
  0.00000000E+00  0.00000000E+00  0.00000000E+00
  0.00000000E+00  0.00000000E+00  0.00000000E+00
  0.00000000E+00  0.00000000E+00  0.00000000E+00
  0.00000000E+00  0.00000000E+00  0.00000000E+00
  0.00000000E+00  0.00000000E+00  0.00000000E+00
  0.00000000E+00  0.00000000E+00  0.00000000E+00
  0.00000000E+00  0.00000000E+00  0.00000000E+00
  0.00000000E+00  0.00000000E+00  0.00000000E+00
  0.00000000E+00  0.00000000E+00  0.00000000E+00
  0.00000000E+00  0.00000000E+00  0.00000000E+00
  0.00000000E+00  0.00000000E+00  0.00000000E+00
  0.00000000E+00  0.00000000E+00  0.00000000E+00
  0.00000000E+00  0.00000000E+00  0.00000000E+00
  0.00000000E+00  0.00000000E+00  0.00000000E+00
  0.00000000E+00  0.00000000E+00  0.00000000E+00
  0.00000000E+00  0.00000000E+00  0.00000000E+00
  0.00000000E+00  0.00000000E+00  0.00000000E+00
  0.00000000E+00  0.00000000E+00  0.00000000E+00
  0.00000000E+00  0.00000000E+00  0.00000000E+00
  0.00000000E+00  0.00000000E+00  0.00000000E+00
  0.00000000E+00  0.00000000E+00  0.00000000E+00
  0.00000000E+00  0.00000000E+00  0.00000000E+00
  0.00000000E+00  0.00000000E+00  0.00000000E+00
  0.00000000E+00  0.00000000E+00  0.00000000E+00
  0.00000000E+00  0.00000000E+00  0.00000000E+00
  0.00000000E+00  0.00000000E+00  0.00000000E+00
  0.00000000E+00  0.00000000E+00  0.00000000E+00
  0.00000000E+00  0.00000000E+00  0.00000000E+00
  0.00000000E+00  0.00000000E+00  0.00000000E+00
  0.00000000E+00  0.00000000E+00  0.00000000E+00
  0.00000000E+00  0.00000000E+00  0.00000000E+00
  0.00000000E+00  0.00000000E+00  0.00000000E+00
  0.00000000E+00  0.00000000E+00  0.00000000E+00
  0.00000000E+00  0.00000000E+00  0.00000000E+00
  0.00000000E+00  0.00000000E+00  0.00000000E+00
  0.00000000E+00  0.00000000E+00  0.00000000E+00
  0.00000000E+00  0.00000000E+00  0.00000000E+00
  0.00000000E+00  0.00000000E+00  0.00000000E+00
  0.00000000E+00  0.00000000E+00  0.00000000E+00
  0.00000000E+00  0.00000000E+00  0.00000000E+00
  0.00000000E+00  0.00000000E+00  0.00000000E+00
  0.00000000E+00  0.00000000E+00  0.00000000E+00
  0.00000000E+00  0.00000000E+00  0.00000000E+00
  0.00000000E+00  0.00000000E+00  0.00000000E+00
  0.00000000E+00  0.00000000E+00  0.00000000E+00
  0.00000000E+00  0.00000000E+00  0.00000000E+00
  0.00000000E+00  0.00000000E+00  0.00000000E+00
  0.00000000E+00  0.00000000E+00  0.00000000E+00
  0.00000000E+00  0.00000000E+00  0.00000000E+00
  0.00000000E+00  0.00000000E+00  0.00000000E+00
  0.00000000E+00  0.00000000E+00  0.00000000E+00
  0.00000000E+00  0.00000000E+00  0.00000000E+00
  0.00000000E+00  0.00000000E+00  0.00000000E+00
  0.00000000E+00  0.00000000E+00  0.00000000E+00
  0.00000000E+00  0.00000000E+00  0.00000000E+00
  0.00000000E+00  0.00000000E+00  0.00000000E+00
  0.00000000E+00  0.00000000E+00  0.00000000E+00
  0.00000000E+00  0.00000000E+00  0.00000000E+00
  0.00000000E+00  0.00000000E+00  0.00000000E+00
  0.00000000E+00  0.00000000E+00  0.00000000E+00
  0.00000000E+00  0.00000000E+00  0.00000000E+00
  0.00000000E+00  0.00000000E+00  0.00000000E+00
  0.00000000E+00  0.00000000E+00  0.00000000E+00
  0.00000000E+00  0.00000000E+00  0.00000000E+00
  0.00000000E+00  0.00000000E+00  0.00000000E+00
  0.00000000E+00  0.00000000E+00  0.00000000E+00
  0.00000000E+00  0.00000000E+00  0.00000000E+00
  0.00000000E+00  0.00000000E+00  0.00000000E+00
  0.00000000E+00  0.00000000E+00  0.00000000E+00
  0.00000000E+00  0.00000000E+00  0.00000000E+00
  0.00000000E+00  0.00000000E+00  0.00000000E+00
  0.00000000E+00  0.00000000E+00  0.00000000E+00
  0.00000000E+00  0.00000000E+00  0.00000000E+00
  0.00000000E+00  0.00000000E+00  0.00000000E+00
  0.00000000E+00  0.00000000E+00  0.00000000E+00
  0.00000000E+00  0.00000000E+00  0.00000000E+00
  0.00000000E+00  0.00000000E+00  0.00000000E+00
  0.00000000E+00  0.00000000E+00  0.00000000E+00
  0.00000000E+00  0.00000000E+00  0.00000000E+00
  0.00000000E+00  0.00000000E+00  0.00000000E+00
