O  C  H  Co Li                          
   1.00000000000000    
    25.9869300199999991    0.0014776500000000   -0.0002841700000000
    12.9947443200000006   22.5035161499999994   -0.0005769100000000
    -0.0000740900000000   -0.0001328100000000    6.8098320599999997
   O    C    H    Co   Li
    54    67    16    18     3
Direct
  0.0604701864888958  0.2532601439210999  0.3181210692968559
  0.0370601274084223  0.2983589855921145  0.9585620920231790
  0.1046115784344418  0.2575817820766825  0.7212263956652447
  0.6844232954115511  0.0620471613401835  0.3328008206771197
  0.6646251379179009  0.0386998925812787  0.9730140843777889
  0.6370363409268575  0.1064007190425493  0.7362273023109439
  0.0227726009436688  0.3931789147368277  0.6537677980431731
  0.2571896152323320  0.6899305592204613  0.3335720602029508
  0.3117179757610842  0.6530154115583890  0.9937139224094927
  0.2666724920821003  0.6358553535121342  0.7429485421814384
  0.5856786231614194  0.0203698440794903  0.6618906255312913
  0.2962292630986417  0.0304104268746577  0.3630202772632540
  0.2291066194533341  0.0704899935469760  0.6020286672559580
  0.2725345260705463  0.0755361373590927  0.0049443381008059
  0.6416037507626015  0.3082234996675899  0.4366315380594885
  0.6928799276815434  0.2304434974355714  0.6320580023369134
  0.0053996800206692  0.6308237005612186  0.7077670490817441
  0.0323893173153431  0.5634263817052183  0.9455838763050726
  0.6609347656891255  0.2707585257891658  0.0325391806193242
  0.0375678917979076  0.6711305826240886  0.3754743493466519
  0.0788006097169944  0.6959141847516487  0.6180608188897961
  0.3679727205195981  0.9983951870686634  0.6981632866212145
  0.4072159550666208  0.0258637776322882  0.9391235603989455
  0.0846366113370040  0.6470510230440089  0.0196405126935669
  0.7036645602463405  0.9668580914864230  0.6385064314441616
  0.7708286939876937  0.9271915307703891  0.3993233776860088
  0.7277098645927719  0.9213037211444324  0.9961466717982456
  0.3683726544071577  0.6830319642202295  0.5727484211799272
  0.3103734218327120  0.7604632005530633  0.3826960922541925
  0.0009684625863593  0.3701577294897698  0.2928805244359030
  0.9736742298751101  0.4380209402844958  0.0566937631023908
  0.3536390155904972  0.7211914010740856 -0.0118042299982199
  0.9660615728115926  0.3329908102566966  0.6252461032645549
  0.9247163921377793  0.3078662792791273  0.3843651242539097
  0.6323219487994248 -0.0017166350989586  0.3052253915127472
  0.5926310210368556  0.9717209574332636  0.0632032901222401
  0.9194604787755122  0.3563903620360176  0.9826813171518212
  0.9427185489711774  0.7482852180689291  0.6844996534958812
  0.9667358461835862  0.7028762300024787  0.0430166539167307
  0.8993194974183013  0.7424965113209037  0.2813755092217367
  0.3149332193316600  0.9339431474047371  0.6694477226841460
  0.3361743611916207  0.9586756638538017  0.0283975227352151
  0.3631727513430781  0.8917371721880256  0.2679709333776749
  0.9835678805638656  0.6077054631137795  0.3485547264917944
  0.7455089488531331  0.3157834810515075  0.6716901802887176
  0.6882034048556326  0.3584128950855259  0.0088544556449387
  0.7461159440826058  0.3527743988968149  0.2651268950398295
  0.4141566120605098  0.9771051798843788  0.3411288163752404
  0.5965427231020327  0.4031262789161013  0.2364012404236628
  0.6326372457345146  0.4641525204528260  0.2165172725883727
  0.6506521747654421  0.4107421318088621  0.4859047449992864
  0.8359735564356915  0.1373119662357643  0.0171923888100407
  0.8874819194894492  0.1186401951148957  0.6282636228318740
  0.8681186822773955  0.0409029963702685  0.6751600577030590
  0.1115050317517093  0.2107006007473434  0.2379935846436114
  0.1520095393967547  0.1642444957085790  0.3579498703811956
  0.0880288279365080  0.2574719011102879  0.8964309757287633
  0.1268544468130975  0.2100736658431663  0.0358822943389336
  0.6749308645909977  0.1135293639546369  0.2553392317357467
  0.6767303617470432  0.1551657986980568  0.3808970233114058
  0.6541434401599644  0.0897999769016964  0.9109901602088529
  0.6623415628495001  0.1287313340091798  0.0522720844549990
  0.0131182115379293  0.4447892769131533  0.5750077317608332
  0.0180999729013773  0.4855293831872914  0.6968843862062213
  0.2169144094520467  0.6766652896028951  0.2546053713091153
  0.1703511392470353  0.6830534340125712  0.3732733463903202
  0.2668620338828107  0.6484197047224559  0.9226894404715766
  0.2189315659270454  0.6583134085797482  0.0560937931622524
  0.5448620414996540  0.0094821422193580  0.5797353326958876
  0.4990581271802401  0.0132713187576161  0.6979160913316323
  0.2452632002982209  0.0709740379917874  0.4264885847622956
  0.2061212922951337  0.1183811990761159  0.2873892934710520
  0.2214675940814284  0.1178328997647444  0.0852456102092251
  0.1809263644558708  0.1642285572316968  0.9653255106844350
  0.6689956662636053  0.2496317041629929  0.4673991941974335
  0.6679827644051732  0.2098446918315019  0.3149084565737788
  0.0160422220785000  0.5796523168252917  0.7699180665788018
  0.0085297507027227  0.5403513545828422  0.6289324544078113
  0.6607578499669524  0.2225626288128910  0.1093062926719648
  0.6562202645752651  0.1823232368151878  0.9845045143540793
  0.0784123172707861  0.6806093147744129  0.4412128246040957
  0.1257595951896118  0.6727273921271271  0.3026239388867822
  0.4078419127683877  0.0095552584592860  0.7630387761142109
  0.4547895277673891  0.0028548118889287  0.6252447918151207
  0.1263376816186241  0.6562622270446495  0.1013952884699753
  0.1736766368172263  0.6491175816041929  0.9840657526390734
  0.7548389137369547  0.9267796425249639  0.5751470055494560
  0.7947242156825648  0.8799469440998079  0.7143886957327906
  0.7794654978467003  0.8800540540354904  0.9162597063484391
  0.8208705124959521  0.8343719577597491  0.0364818752895187
  0.3373732666749780  0.7420432018327123  0.5447914534506555
  0.3372861900280560  0.7830449691452781  0.6953332780504098
  0.9902597823521966  0.4214340096344367  0.2319789038753996
  0.9979631970411633  0.4605164477629058  0.3733379465656231
  0.3473000484822443  0.7709481650495007  0.9036125317612641
  0.3495350220117820  0.8134508773537013  0.0230330802863569
  0.9249278380300641  0.3237285020253327  0.5606558219118108
  0.8773010959540815  0.3324118773143596  0.6985925334908029
  0.5922017370822834  0.9876337219205645  0.2396825775463412
  0.5451581844242629  0.9944523934695745  0.3774498568026735
  0.8770118425846878  0.3482310043830170  0.9002878557166468
  0.8296735969773487  0.3553933819509931  0.0176010405439083
  0.8909845929710003  0.7895884392297483  0.7644051251464766
  0.8495524514003073  0.8352953567567415  0.6441734836123195
  0.9154507729836734  0.7429423189900484  0.1058260468362587
  0.8757000816492354  0.7897303290277777  0.9662980727510895
  0.3262588935278347  0.8820326011566910  0.7489900453146189
  0.3254050874355505  0.8389769469936340  0.6274330364690183
  0.3467964242531406  0.9077977834243117  0.0922755479468786
  0.3399678530026101  0.8678298324766307  0.9523851633230001
  0.9933668838337864  0.5560411513068156  0.4272707556217591
  0.9884022202125030  0.5153222999280540  0.3054072858608208
  0.7856661798051019  0.3293875729283181  0.7454933050208461
  0.8322808651899338  0.3229602151488083  0.6268528446665897
  0.7374904571910094  0.3533573066691766  0.0804531213810550
  0.7840662646488659  0.3468172793073658  0.9448057038874915
  0.4550170911661932  0.9878863868704957  0.4229534471927188
  0.5008825541929601  0.9840621949317416  0.3047926832289268
  0.6251060436969523  0.4267926200265895  0.3171342135528646
  0.8773724184527921  0.0796953337776570  0.6520457791806807
  0.8011750454994260  0.1870611132362464  0.9896725966818125
  0.1407447699692655  0.1641931171985854  0.5122361492068099
  0.6842043538186572  0.1445325288372835  0.5368157094121879
  0.0296473025729165  0.4738455524109235  0.8507979309290885
  0.1684272779898825  0.6966869396384432  0.5259132400809365
  0.4980687742733194  0.0247852223654891  0.8524539240012755
  0.1922433845842334  0.1642791829003621  0.8111098953460558
  0.6487475445339220  0.1926675461460420  0.8284979769082583
  0.1750186335350127  0.6360563129192266  0.8311019841629046
  0.8097175437364471  0.8338841398006919  0.1906271380442028
  0.3588645826845823  0.8033942901711416  0.1787243815111674
  0.8289650312301653  0.3675269587158175  0.1712660830159330
  0.8606804588091429  0.8357553140943176  0.4899819675279949
  0.3164278341339983  0.8494187926974751  0.4717105207002394
  0.9768029368473391  0.5270201862309286  0.1515380963407923
  0.8340859064584388  0.3095706215174236  0.4740769076527880
  0.5019083556514774  0.9725169073582549  0.1502720348681269
  0.7026180751200526  0.3307307752987398  0.4314893811426960
  0.2890801528500020  0.0147247648280122  0.8000000653622253
  0.6479746619273836  0.3361304168769492  0.1902864899933408
  0.9589675816614669  0.6874418287676957  0.4807179764636474
  0.3589090166700744  0.9520059287093393  0.4679417314928975
  0.3525699708053139  0.0208235806844011  0.1366966979123344
  0.7110482447691184  0.9818424171659575  0.2003135095517524
  0.3678837137804902  0.6556947160758809  0.8244311506984103
  0.6943429737381209  0.2933760342666485  0.8077820955966898
  0.9808560702394581  0.3102468842774441  0.1870068385811459
  0.3104992974463033  0.7046821889254617  0.1928115122227032
  0.9768732500422286  0.3786009474420582  0.8563607719376893
  0.6474801670997984  0.9767878639590403  0.8659841318791317
  0.0282271598970787  0.6235000844011759  0.1456911950999019
  0.6404801634858898  0.0456026779253725  0.5371433443205882
  0.0226718177705088  0.6923716704012430  0.8153511699458322
  0.3109240856803153  0.6543524054245016  0.5479077072840800
  0.0458112400563879  0.3136725586759217  0.5219383838807085
  0.7033684618896926  0.4389040223219992  0.3608306209193055
  0.6312225154076329  0.4192359274510394  0.9955253880806098
  0.8196600049903233  0.2043854848814106  0.6290713762222603
