O  C  H  Co Li                          
   1.00000000000000     
    25.9869300199999991    0.0014776500000000   -0.0002841700000000
    12.9947443200000006   22.5035161499999994   -0.0005769100000000
    -0.0000740900000000   -0.0001328100000000    6.8098320599999997
   O    C    H    Co   Li
    54    67    16    18     3
Direct
  0.0610175681201184  0.2545743259640242  0.3104081884610938
  0.0374045501703757  0.2986991645854601  0.9483681117810661
  0.1062671779249575  0.2593965054271415  0.7143285950484025
  0.6925296116773760  0.0527083256176129  0.3205323951627232
  0.6743458549944755  0.0280833537186511  0.9548298595497648
  0.6431343841424505  0.0973763565705572  0.7223341639968518
  0.0260078733780771  0.3925737824086665  0.6514506313094471
  0.2697162210065949  0.6728125477147843  0.3455802782878769
  0.3150754666345651  0.6461660252873179  0.9821259841826786
  0.2853678633325055  0.5957533865663441  0.7927059528247969
  0.5883927458847603  0.0170852567742609  0.6539794405137346
  0.2989761230961510  0.0361316137565300  0.3655665773131238
  0.2313735668038050  0.0786270591466034  0.6019041349149391
  0.2766857412820087  0.0813208177279812  0.0046400637267665
  0.6653351028097564  0.2918790182575245  0.4195878790959121
  0.7304268404408334  0.2068557780131413  0.5655054456492661
  0.0087167914001192  0.6294492643792566  0.7201896385835594
  0.0332282721779108  0.5620507904286388  0.9566095491068012
  0.6489048940358481  0.2691656596895019  0.0142158432777795
  0.0410520796025674  0.6692444945345997  0.3890386604269196
  0.0836928998868506  0.6925155939398421  0.6323365209035723
  0.3702910051887845  0.9966460577507817  0.6991312064518515
  0.4108567322951711  0.0236195596649904  0.9367387024113050
  0.0899687543410169  0.6405114404600676  0.0348227859312665
  0.7035224850909169  0.9555259102934178  0.6238985775125111
  0.7740427169431069  0.9182405385599580  0.3962589706492541
  0.7280994796182427  0.9128861924678906 -0.0064487263199346
  0.3469936671609442  0.7067724810261837  0.5193287159751451
  0.2819867689842784  0.7866192120397199  0.3587311722705777
  0.0050876755937072  0.3703513730345478  0.2847214706317773
  0.9742782664002214  0.4404000978783837  0.0556381333451596
  0.3259611015274433  0.7365099414513331  0.9428621617274890
  0.9673183138185155  0.3362181497390962  0.6169031945562570
  0.9260491314547665  0.3106319304646680  0.3768212680129912
  0.6323612896489227 -0.0021941450441196  0.2889575402047153
  0.5936216431660322  0.9676830137816781  0.0555426450865303
  0.9196460704866934  0.3600427742065628  0.9761906189953511
  0.9482139113307815  0.7465936358284649  0.6971587259128429
  0.9716715451163431  0.7020448836521130  0.0578145812610255
  0.9027890198832748  0.7404200535944215  0.2918818482184637
  0.3065065230709760  0.9456635858262258  0.6653139606397662
  0.3308794533157527  0.9643097028741695  0.0281634963613098
  0.3546965907337403  0.8963047917543165  0.2614667608266765
  0.9841845076978215  0.6087681555657619  0.3598683627902645
  0.7575162060185067  0.3007475631518036  0.6861421672614142
  0.6842826084922018  0.3689532290917325 -0.0122966535189476
  0.7432261351775642  0.3606599737740083  0.2585580822733213
  0.4158955179152212  0.9743218041641757  0.3384649893762467
  0.5848653730204793  0.4228748853348219  0.2332127181762116
  0.6232090911822759  0.4830478963508034  0.2224871434057327
  0.6403169435506052  0.4264021581844010  0.4901418680719967
  0.8266020021444430  0.1798893903514559  0.1686421665305538
  0.8597330370690838  0.1306681428866066  0.6580401367273734
  0.8558579276367740  0.0425509323781773  0.6673125085477720
  0.1128643125466350  0.2134380880674742  0.2313178941530032
  0.1541152698272851  0.1682571817161377  0.3529950110505975
  0.0893217714820753  0.2591264615137850  0.8889506767666947
  0.1287476223714817  0.2129478040318981  0.0300349788303608
  0.6832266328755685  0.1038946919896778  0.2392489822550829
  0.6900149493624737  0.1437855597068887  0.3580865076481956
  0.6607680871136390  0.0804746347324148  0.8967345000879331
  0.6671442010930070  0.1201655454740058  0.0382415623353314
  0.0154074986083875  0.4446531133322090  0.5750032142867171
  0.0201535362556310  0.4848660622036412  0.7002272464596175
  0.2262052433401273  0.6627085508850465  0.2732542130039123
  0.1766522419138634  0.6756640568855480  0.3875389164506872
  0.2802572499861558  0.6243580221044072  0.9523743777812452
  0.2310651287632302  0.6378061326040425  0.0843121482479528
  0.5473680324975720  0.0065690775991723  0.5729017409354150
  0.5018924154509574  0.0101550440073872  0.6925262303594338
  0.2480630866988598  0.0773743472393886  0.4259706337016281
  0.2091414713378445  0.1237106820062645  0.2845782409915987
  0.2249767003212474  0.1229913522390992  0.0832290759172686
  0.1839266793853718  0.1684910904826903  0.9617422002650969
  0.6931885531676016  0.2332811539450689  0.4328124620984542
  0.6791791389784995  0.1991737357593311  0.2906591478477509
  0.0178591336854677  0.5786543490850676  0.7806720959580276
  0.0098276328840991  0.5402681787556337  0.6367635722122202
  0.6601438611185932  0.2171466985775196  0.0926547538720515
  0.6557758855990583  0.1758147256471321  0.9711538005869310
  0.0826898924714443  0.6772826756546928  0.4555952705759305
  0.1311738338937584  0.6663457830399112  0.3182465267172497
  0.4107807704297496  0.0071806031327185  0.7612235111826759
  0.4574889847162116 -0.0002581466767978  0.6217192967678532
  0.1333956411095829  0.6460295313005241  0.1211403911231516
  0.1845981529905374  0.6307499741643811  0.0113218387025839
  0.7566359653830015  0.9175357567437818  0.5699003350100385
  0.7966857200528128  0.8727807458974240  0.7148253725116472
  0.7806404732590166  0.8728516372108622  0.9159378466952001
  0.8226289136063786  0.8286211936779322  0.0395099585642524
  0.3118897339888171  0.7644827924821302  0.5139532695278118
  0.3120958443536371  0.8030033514677842  0.6741506944388143
  0.9921672887822314  0.4227722784860125  0.2293232713263996
 -0.0006513060100420  0.4613939665355845  0.3744119841274506
  0.3236387292282611  0.7865619402804241  0.8764608109236492
  0.3311735172393613  0.8244447246390598  0.0046130520329891
  0.9265737445960199  0.3262551589734021  0.5536064657386391
  0.8797753975147266  0.3338838312134434  0.6917958191945158
  0.5930294600602060  0.9851753776640304  0.2300612073980402
  0.5468214368124091  0.9918584446936047  0.3706666440874717
  0.8782551876581353  0.3507027910958242  0.8923089672506141
  0.8306023948817733  0.3573646517858630  0.0096509316269003
  0.8951631163115233  0.7861709320449634  0.7738724239101328
  0.8531239970195837  0.8300556070526790  0.6500822451985135
  0.9193227481085198  0.7408199165077223  0.1168792698761008
  0.8790025584779444  0.7859491983048418  0.9743045779824053
  0.3118817808183948  0.8956556605168475  0.7423226969751024
  0.3043422118392682  0.8577258624895309  0.6145220877366784
  0.3380803842184937  0.9140682825879836  0.0870588730674084
  0.3262063629979268  0.8781489660407280  0.9429118008764377
  0.9939894233086746  0.5568926629862746  0.4362479590546325
  0.9886463623943554  0.5170015555169983  0.3114362072796268
  0.7926972368901325  0.3235472294457457  0.7435745912553914
  0.8370917860581215  0.3201907320771042  0.6220633601020058
  0.7406002580608028  0.3475680041455516  0.0691516816251424
  0.7876705531304232  0.3451243773517730  0.9384180551105350
  0.4570354964142379  0.9848993086040772  0.4196844790271094
  0.5024523859653509  0.9813110360376803  0.3000294429284780
  0.6143656052695119  0.4450522860395714  0.3180441530804201
  0.8573070376670988  0.0866121916078738  0.6619666915351313
  0.7857599126586632  0.2200765957843457  0.0913223183271735
  0.1427328817171245  0.1680776205529551  0.5070494899979580
  0.7036506061899743  0.1313469814575538  0.5104294756433999
  0.0321540628828536  0.4721378837571165  0.8532983992995049
  0.1725901171990169  0.6936822983724188  0.5354238522449111
  0.5013952992099219  0.0214902551033343  0.8470672226055898
  0.1954571388920440  0.1687176901138379  0.8078191678603646
  0.6430148391142830  0.1876381983104300  0.8178099828378825
  0.1873372580497039  0.6143573778852435  0.8619548780301733
  0.8108293750830019  0.8280559744765666  0.1929390781415103
  0.3410828966302194  0.8119996259484376  0.1584981975022707
  0.8298713756900620  0.3693327354673253  0.1636367884955320
  0.8648954855216667  0.8305308772251082  0.4966559067480230
  0.2947209209770684  0.8707763595880758  0.4606710763083942
  0.9765686352761281  0.5297540657660018  0.1584909068319875
  0.8410147599616623  0.3040379396745682  0.4715476208287047
  0.5029345622148911  0.9701968991120076  0.1452916487921443
  0.7044136975744338  0.3394325318528908  0.4691556438648218
  0.2887352269629392  0.0221369818259945  0.8008653593479153
  0.6345394300658287  0.3359466132025599  0.1717186537621045
  0.9623979304534755  0.6869147502026014  0.4945408181956962
  0.3566233554760454  0.9546682766823986  0.4626552626940740
  0.3550747168519738  0.0214341167754452  0.1353053688997221
  0.7145701415590900  0.9740916907488844  0.1941269803830007
  0.3373393392515314  0.6708892392631458  0.7464260567904127
  0.7277592598412850  0.2831350984675607  0.9953786468218849
  0.9821452464590739  0.3122226784920006  0.1793433253923806
  0.3037505332833146  0.7139375310369767  0.1892271403555071
  0.9783585792847210  0.3803473150368856  0.8523688397953220
  0.6496165129491334  0.9701145932605644  0.8585722431468455
  0.0307736100474277  0.6215320501338972  0.1585526365268510
  0.6460079036137766  0.0382868605416884  0.5242664150402557
  0.0278054091402411  0.6895269198710147  0.8306340730878138
  0.2979051477553622  0.6299361681170040  0.5768794412171324
  0.0477956081912501  0.3144202212475048  0.5145260801432743
  0.7004084936835189  0.4425767303561940  0.3434276723370041
  0.6153194646480713  0.4459144486258277  0.9850686992422364
  0.7887991890545610  0.2163057234832850  0.6803271281351098
 
  0.00000000E+00  0.00000000E+00  0.00000000E+00
  0.00000000E+00  0.00000000E+00  0.00000000E+00
  0.00000000E+00  0.00000000E+00  0.00000000E+00
  0.00000000E+00  0.00000000E+00  0.00000000E+00
  0.00000000E+00  0.00000000E+00  0.00000000E+00
  0.00000000E+00  0.00000000E+00  0.00000000E+00
  0.00000000E+00  0.00000000E+00  0.00000000E+00
  0.00000000E+00  0.00000000E+00  0.00000000E+00
  0.00000000E+00  0.00000000E+00  0.00000000E+00
  0.00000000E+00  0.00000000E+00  0.00000000E+00
  0.00000000E+00  0.00000000E+00  0.00000000E+00
  0.00000000E+00  0.00000000E+00  0.00000000E+00
  0.00000000E+00  0.00000000E+00  0.00000000E+00
  0.00000000E+00  0.00000000E+00  0.00000000E+00
  0.00000000E+00  0.00000000E+00  0.00000000E+00
  0.00000000E+00  0.00000000E+00  0.00000000E+00
  0.00000000E+00  0.00000000E+00  0.00000000E+00
  0.00000000E+00  0.00000000E+00  0.00000000E+00
  0.00000000E+00  0.00000000E+00  0.00000000E+00
  0.00000000E+00  0.00000000E+00  0.00000000E+00
  0.00000000E+00  0.00000000E+00  0.00000000E+00
  0.00000000E+00  0.00000000E+00  0.00000000E+00
  0.00000000E+00  0.00000000E+00  0.00000000E+00
  0.00000000E+00  0.00000000E+00  0.00000000E+00
  0.00000000E+00  0.00000000E+00  0.00000000E+00
  0.00000000E+00  0.00000000E+00  0.00000000E+00
  0.00000000E+00  0.00000000E+00  0.00000000E+00
  0.00000000E+00  0.00000000E+00  0.00000000E+00
  0.00000000E+00  0.00000000E+00  0.00000000E+00
  0.00000000E+00  0.00000000E+00  0.00000000E+00
  0.00000000E+00  0.00000000E+00  0.00000000E+00
  0.00000000E+00  0.00000000E+00  0.00000000E+00
  0.00000000E+00  0.00000000E+00  0.00000000E+00
  0.00000000E+00  0.00000000E+00  0.00000000E+00
  0.00000000E+00  0.00000000E+00  0.00000000E+00
  0.00000000E+00  0.00000000E+00  0.00000000E+00
  0.00000000E+00  0.00000000E+00  0.00000000E+00
  0.00000000E+00  0.00000000E+00  0.00000000E+00
  0.00000000E+00  0.00000000E+00  0.00000000E+00
  0.00000000E+00  0.00000000E+00  0.00000000E+00
  0.00000000E+00  0.00000000E+00  0.00000000E+00
  0.00000000E+00  0.00000000E+00  0.00000000E+00
  0.00000000E+00  0.00000000E+00  0.00000000E+00
  0.00000000E+00  0.00000000E+00  0.00000000E+00
  0.00000000E+00  0.00000000E+00  0.00000000E+00
  0.00000000E+00  0.00000000E+00  0.00000000E+00
  0.00000000E+00  0.00000000E+00  0.00000000E+00
  0.00000000E+00  0.00000000E+00  0.00000000E+00
  0.00000000E+00  0.00000000E+00  0.00000000E+00
  0.00000000E+00  0.00000000E+00  0.00000000E+00
  0.00000000E+00  0.00000000E+00  0.00000000E+00
  0.00000000E+00  0.00000000E+00  0.00000000E+00
  0.00000000E+00  0.00000000E+00  0.00000000E+00
  0.00000000E+00  0.00000000E+00  0.00000000E+00
  0.00000000E+00  0.00000000E+00  0.00000000E+00
  0.00000000E+00  0.00000000E+00  0.00000000E+00
  0.00000000E+00  0.00000000E+00  0.00000000E+00
  0.00000000E+00  0.00000000E+00  0.00000000E+00
  0.00000000E+00  0.00000000E+00  0.00000000E+00
  0.00000000E+00  0.00000000E+00  0.00000000E+00
  0.00000000E+00  0.00000000E+00  0.00000000E+00
  0.00000000E+00  0.00000000E+00  0.00000000E+00
  0.00000000E+00  0.00000000E+00  0.00000000E+00
  0.00000000E+00  0.00000000E+00  0.00000000E+00
  0.00000000E+00  0.00000000E+00  0.00000000E+00
  0.00000000E+00  0.00000000E+00  0.00000000E+00
  0.00000000E+00  0.00000000E+00  0.00000000E+00
  0.00000000E+00  0.00000000E+00  0.00000000E+00
  0.00000000E+00  0.00000000E+00  0.00000000E+00
  0.00000000E+00  0.00000000E+00  0.00000000E+00
  0.00000000E+00  0.00000000E+00  0.00000000E+00
  0.00000000E+00  0.00000000E+00  0.00000000E+00
  0.00000000E+00  0.00000000E+00  0.00000000E+00
  0.00000000E+00  0.00000000E+00  0.00000000E+00
  0.00000000E+00  0.00000000E+00  0.00000000E+00
  0.00000000E+00  0.00000000E+00  0.00000000E+00
  0.00000000E+00  0.00000000E+00  0.00000000E+00
  0.00000000E+00  0.00000000E+00  0.00000000E+00
  0.00000000E+00  0.00000000E+00  0.00000000E+00
  0.00000000E+00  0.00000000E+00  0.00000000E+00
  0.00000000E+00  0.00000000E+00  0.00000000E+00
  0.00000000E+00  0.00000000E+00  0.00000000E+00
  0.00000000E+00  0.00000000E+00  0.00000000E+00
  0.00000000E+00  0.00000000E+00  0.00000000E+00
  0.00000000E+00  0.00000000E+00  0.00000000E+00
  0.00000000E+00  0.00000000E+00  0.00000000E+00
  0.00000000E+00  0.00000000E+00  0.00000000E+00
  0.00000000E+00  0.00000000E+00  0.00000000E+00
  0.00000000E+00  0.00000000E+00  0.00000000E+00
  0.00000000E+00  0.00000000E+00  0.00000000E+00
  0.00000000E+00  0.00000000E+00  0.00000000E+00
  0.00000000E+00  0.00000000E+00  0.00000000E+00
  0.00000000E+00  0.00000000E+00  0.00000000E+00
  0.00000000E+00  0.00000000E+00  0.00000000E+00
  0.00000000E+00  0.00000000E+00  0.00000000E+00
  0.00000000E+00  0.00000000E+00  0.00000000E+00
  0.00000000E+00  0.00000000E+00  0.00000000E+00
  0.00000000E+00  0.00000000E+00  0.00000000E+00
  0.00000000E+00  0.00000000E+00  0.00000000E+00
  0.00000000E+00  0.00000000E+00  0.00000000E+00
  0.00000000E+00  0.00000000E+00  0.00000000E+00
  0.00000000E+00  0.00000000E+00  0.00000000E+00
  0.00000000E+00  0.00000000E+00  0.00000000E+00
  0.00000000E+00  0.00000000E+00  0.00000000E+00
  0.00000000E+00  0.00000000E+00  0.00000000E+00
  0.00000000E+00  0.00000000E+00  0.00000000E+00
  0.00000000E+00  0.00000000E+00  0.00000000E+00
  0.00000000E+00  0.00000000E+00  0.00000000E+00
  0.00000000E+00  0.00000000E+00  0.00000000E+00
  0.00000000E+00  0.00000000E+00  0.00000000E+00
  0.00000000E+00  0.00000000E+00  0.00000000E+00
  0.00000000E+00  0.00000000E+00  0.00000000E+00
  0.00000000E+00  0.00000000E+00  0.00000000E+00
  0.00000000E+00  0.00000000E+00  0.00000000E+00
  0.00000000E+00  0.00000000E+00  0.00000000E+00
  0.00000000E+00  0.00000000E+00  0.00000000E+00
  0.00000000E+00  0.00000000E+00  0.00000000E+00
  0.00000000E+00  0.00000000E+00  0.00000000E+00
  0.00000000E+00  0.00000000E+00  0.00000000E+00
  0.00000000E+00  0.00000000E+00  0.00000000E+00
  0.00000000E+00  0.00000000E+00  0.00000000E+00
  0.00000000E+00  0.00000000E+00  0.00000000E+00
  0.00000000E+00  0.00000000E+00  0.00000000E+00
  0.00000000E+00  0.00000000E+00  0.00000000E+00
  0.00000000E+00  0.00000000E+00  0.00000000E+00
  0.00000000E+00  0.00000000E+00  0.00000000E+00
  0.00000000E+00  0.00000000E+00  0.00000000E+00
  0.00000000E+00  0.00000000E+00  0.00000000E+00
  0.00000000E+00  0.00000000E+00  0.00000000E+00
  0.00000000E+00  0.00000000E+00  0.00000000E+00
  0.00000000E+00  0.00000000E+00  0.00000000E+00
  0.00000000E+00  0.00000000E+00  0.00000000E+00
  0.00000000E+00  0.00000000E+00  0.00000000E+00
  0.00000000E+00  0.00000000E+00  0.00000000E+00
  0.00000000E+00  0.00000000E+00  0.00000000E+00
  0.00000000E+00  0.00000000E+00  0.00000000E+00
  0.00000000E+00  0.00000000E+00  0.00000000E+00
  0.00000000E+00  0.00000000E+00  0.00000000E+00
  0.00000000E+00  0.00000000E+00  0.00000000E+00
  0.00000000E+00  0.00000000E+00  0.00000000E+00
  0.00000000E+00  0.00000000E+00  0.00000000E+00
  0.00000000E+00  0.00000000E+00  0.00000000E+00
  0.00000000E+00  0.00000000E+00  0.00000000E+00
  0.00000000E+00  0.00000000E+00  0.00000000E+00
  0.00000000E+00  0.00000000E+00  0.00000000E+00
  0.00000000E+00  0.00000000E+00  0.00000000E+00
  0.00000000E+00  0.00000000E+00  0.00000000E+00
  0.00000000E+00  0.00000000E+00  0.00000000E+00
  0.00000000E+00  0.00000000E+00  0.00000000E+00
  0.00000000E+00  0.00000000E+00  0.00000000E+00
  0.00000000E+00  0.00000000E+00  0.00000000E+00
  0.00000000E+00  0.00000000E+00  0.00000000E+00
  0.00000000E+00  0.00000000E+00  0.00000000E+00
  0.00000000E+00  0.00000000E+00  0.00000000E+00
  0.00000000E+00  0.00000000E+00  0.00000000E+00
  0.00000000E+00  0.00000000E+00  0.00000000E+00
  0.00000000E+00  0.00000000E+00  0.00000000E+00
  0.00000000E+00  0.00000000E+00  0.00000000E+00
