Co–organic framework                  
           1
    25.986930    0.001478   -0.000284
    12.994744   22.503516   -0.000577
    -0.000074   -0.000133    6.809832
   O    C    H    Co   Li
  54  67  16  18   3
Direct configuration=     1
   0.05809551  0.25799410  0.31552295
   0.03257983  0.30140852  0.95043748
   0.10163928  0.26211838  0.71745292
   0.68613440  0.05419298  0.31318956
   0.66425603  0.03351302  0.95501234
   0.63808675  0.10096373  0.71731139
   0.02391182  0.39676661  0.65396164
   0.27254432  0.67137924  0.34637851
   0.32337034  0.63744041  0.99339003
   0.28878489  0.59395916  0.79146633
   0.58591956  0.01574540  0.64662623
   0.29406501  0.03577132  0.35738450
   0.22669672  0.07665732  0.59561034
   0.27008524  0.08099371  0.99798335
   0.66573538  0.28716186  0.44433969
   0.73520565  0.20027285  0.56896923
   0.00904654  0.63297889  0.71155095
   0.03413925  0.56576296  0.94917450
   0.65580134  0.26808201  0.03178982
   0.04111422  0.67346540  0.37905266
   0.08389489  0.69604342  0.62345693
   0.36550362  0.99894037  0.68977666
   0.40599897  0.02576394  0.92796929
   0.09083015  0.64399539  0.02583143
   0.70347655  0.96040736  0.62309077
   0.77150516  0.92156147  0.38633540
   0.72751567  0.91549487  0.98252635
   0.35949179  0.69562430  0.53033121
   0.29959448  0.77383218  0.35190373
   0.00453725  0.37319587  0.28561170
   0.97375591  0.44324179  0.05662271
   0.33630172  0.72955981  0.93837321
   0.96105487  0.34563334  0.61784351
   0.92273467  0.31418966  0.38707899
   0.63257928  0.99209299  0.29014471
   0.59184535  0.96667748  0.04830312
   0.91645269  0.36513794  0.98576511
   0.94773608  0.74975956  0.68559479
   0.97217876  0.70584965  0.04770964
   0.90283460  0.74325390  0.28024184
   0.30735800  0.94206485  0.65796256
   0.32731465  0.96423630  0.02231509
   0.35693757  0.89477182  0.25294192
   0.98638424  0.61067189  0.35167960
   0.76044557  0.29559564  0.70996813
   0.68655924  0.36345925  0.01424966
   0.74594378  0.35585251  0.28305770
   0.41099953  0.97734666  0.32914956
   0.58617775  0.42278831  0.25441046
   0.62986158  0.47824443  0.23919739
   0.64175812  0.42526526  0.51236968
   0.83290827  0.17857332  0.20802200
   0.85706537  0.12382810  0.69180752
   0.83636949  0.05019447  0.58682311
   0.10889535  0.21567665  0.23420765
   0.15003345  0.16935135  0.35327348
   0.08451839  0.26168656  0.89176553
   0.12389462  0.21492709  0.03151344
   0.67864785  0.10506526  0.23541981
   0.68835991  0.14206593  0.35929019
   0.65399505  0.08466648  0.89332107
   0.66230740  0.12323229  0.03608561
   0.01477131  0.44802949  0.57524110
   0.02006648  0.48850191  0.69787285
   0.22942699  0.66147244  0.27266449
   0.17875613  0.67593530  0.38367862
   0.28495911  0.62052545  0.95480321
   0.23451614  0.63614101  0.08376091
   0.54449022  0.00579080  0.56525031
   0.49827014  0.01079452  0.68426939
   0.24322515  0.07651800  0.42008761
   0.20404138  0.12381284  0.28139355
   0.21914558  0.12319328  0.07897136
   0.17805010  0.16947759  0.95984751
   0.69556130  0.22862573  0.44453409
   0.68017699  0.19672334  0.29806397
   0.01862803  0.58213756  0.77320232
   0.01081180  0.54323176  0.63110166
   0.66226440  0.21650290  0.10102031
   0.65422593  0.17835983  0.97439555
   0.08318005  0.68062626  0.44672605
   0.13257155  0.66831978  0.31138630
   0.40604152  0.00936159  0.75230106
   0.45315227  0.00154244  0.61300033
   0.13504133  0.64789588  0.11405334
   0.18728949  0.63058233  0.00803467
   0.75544599  0.92146960  0.56218883
   0.79627554  0.87623941  0.70465555
   0.78041512  0.87593456  0.90557786
   0.82262150  0.83187782  0.02896215
   0.32665797  0.75312456  0.51363975
   0.32403379  0.79427834  0.66823814
   0.99186361  0.42549850  0.23011866
   0.99948886  0.46412281  0.37356237
   0.33361223  0.77960331  0.87189634
   0.33839170  0.81934009  0.99957224
   0.92236027  0.33156441  0.56224562
   0.87742214  0.33653991  0.70458920
   0.59178791  0.98251150  0.22472861
   0.54441848  0.99050234  0.36328384
   0.87611584  0.35356450  0.90487125
   0.83008753  0.35780988  0.02566693
   0.89482019  0.78948296  0.76217047
   0.85256731  0.83356291  0.63876499
   0.91951691  0.74414942  0.10576500
   0.87893384  0.78923904  0.96315634
   0.31660766  0.89036879  0.73395830
   0.31368855  0.84978085  0.60607240
   0.33892519  0.91228468  0.07930933
   0.33063313  0.87394496  0.93571793
   0.99558322  0.55919494  0.42966534
   0.99009579  0.51895679  0.30705042
   0.79380025  0.32057167  0.76475222
   0.83630888  0.31999458  0.63968185
   0.74300320  0.34343081  0.09448576
   0.78857363  0.34277318  0.95927032
   0.45290104  0.98658120  0.41079439
   0.49927134  0.98131725  0.29191349
   0.61779090  0.44311361  0.33775472
   0.84598522  0.08731143  0.63772578
   0.79231508  0.21609463  0.12135208
   0.13931343  0.16912585  0.50800733
   0.70234534  0.12737773  0.50972304
   0.03158013  0.47655208  0.85162325
   0.17460543  0.69387400  0.53177238
   0.49778790  0.02223939  0.83866036
   0.18882838  0.16963945  0.80516377
   0.64160071  0.19195407  0.82218686
   0.19062352  0.61336488  0.85966394
   0.81097616  0.83135614  0.18250652
   0.34778429  0.80772632  0.15424132
   0.82961074  0.37023870  0.17898579
   0.86413607  0.83411318  0.48513924
   0.30505924  0.86150687  0.45120903
   0.97865110  0.53087673  0.15322513
   0.83956223  0.30431232  0.48892448
   0.49983981  0.96981580  0.13754227
   0.70177543  0.33741015  0.49687877
   0.28471616  0.02066632  0.79355624
   0.63720474  0.33632805  0.20516231
   0.96263935  0.68982857  0.48356813
   0.35408718  0.95473119  0.45478093
   0.34986569  0.02318217  0.12582570
   0.71100023  0.97572028  0.18416720
   0.34983729  0.66097324  0.76261823
   0.73273124  0.27665425  0.01919211
   0.97864064  0.31628905  0.18756555
   0.31355450  0.70611530  0.18365652
   0.97554836  0.38455698  0.85591991
   0.64711897  0.97119833  0.85069159
   0.03160585  0.62519163  0.14957125
   0.64163493  0.03986373  0.51966106
   0.02827777  0.69315186  0.82128961
   0.30283648  0.63009661  0.58084568
   0.04418897  0.31860074  0.51967077
   0.70578297  0.43686533  0.37049727
   0.61988549  0.44216319  0.00320156
   0.79269782  0.21237828  0.68329920
Direct configuration=     2
   0.05808272  0.25796533  0.31547990
   0.03256975  0.30142802  0.95045855
   0.10167667  0.26206586  0.71761458
   0.68614570  0.05425911  0.31323053
   0.66423539  0.03348199  0.95514770
   0.63808614  0.10090679  0.71733203
   0.02392549  0.39672248  0.65399295
   0.27294438  0.67151183  0.34657462
   0.32354007  0.63748247  0.99338675
   0.28865146  0.59417118  0.79123361
   0.58576052  0.01576630  0.64649608
   0.29406955  0.03583178  0.35707523
   0.22691883  0.07651892  0.59572738
   0.27029005  0.08089294  0.99717491
   0.66576680  0.28785013  0.44400208
   0.73499178  0.20034398  0.56824302
   0.00903396  0.63299753  0.71144785
   0.03412300  0.56580889  0.94920133
   0.65584750  0.26842798  0.03206247
   0.04103406  0.67349007  0.37903675
   0.08389200  0.69598134  0.62347680
   0.36560899  0.99902940  0.68936742
   0.40574500  0.02563571  0.92788174
   0.09105564  0.64395722  0.02590505
   0.70339283  0.96046776  0.62328000
   0.77144044  0.92160254  0.38637510
   0.72744370  0.91552500  0.98275971
   0.35964781  0.69566892  0.52995153
   0.29963657  0.77418825  0.35403044
   0.00453474  0.37324922  0.28555421
   0.97377417  0.44321286  0.05649223
   0.33627188  0.72932922  0.93960232
   0.96102219  0.34563560  0.61795747
   0.92271407  0.31419716  0.38727788
   0.63254358  0.99204837  0.29032986
   0.59178444  0.96670784  0.04818720
   0.91628144  0.36510798  0.98572168
   0.94767317  0.74986039  0.68553446
   0.97212712  0.70588843  0.04748041
   0.90284512  0.74325657  0.28041966
   0.30728282  0.94203029  0.65819980
   0.32742839  0.96417550  0.02173004
   0.35697294  0.89485563  0.25401601
   0.98637197  0.61062737  0.35156677
   0.75985408  0.29563152  0.70908942
   0.68666253  0.36341295  0.01417728
   0.74569541  0.35605169  0.28531944
   0.41181102  0.97687213  0.33111012
   0.58610681  0.42267363  0.25406492
   0.62982797  0.47828303  0.23896410
   0.64168835  0.42554042  0.51246300
   0.83297769  0.17852823  0.20813687
   0.85704085  0.12373060  0.69168514
   0.83630866  0.05016527  0.58666135
   0.10894679  0.21561469  0.23439382
   0.14995852  0.16944356  0.35317653
   0.08450812  0.26170614  0.89159071
   0.12391959  0.21488647  0.03155468
   0.67864111  0.10499018  0.23527628
   0.68839784  0.14211280  0.35953736
   0.65399511  0.08473814  0.89336605
   0.66229857  0.12312421  0.03596528
   0.01474595  0.44812670  0.57530714
   0.02004081  0.48848442  0.69783345
   0.22913533  0.66144749  0.27219524
   0.17888614  0.67585952  0.38388384
   0.28500213  0.62047159  0.95515934
   0.23443027  0.63615932  0.08379174
   0.54443567  0.00578255  0.56510993
   0.49840222  0.01075625  0.68360960
   0.24319481  0.07661698  0.41962102
   0.20412747  0.12372562  0.28149660
   0.21931571  0.12297670  0.07891300
   0.17807603  0.16942453  0.96006137
   0.69603544  0.22824494  0.44635740
   0.68004603  0.19665974  0.29750673
   0.01859027  0.58213764  0.77304730
   0.01081263  0.54326875  0.63123054
   0.66221073  0.21631004  0.10135151
   0.65424180  0.17842585  0.97446976
   0.08320894  0.68060620  0.44677953
   0.13258937  0.66826623  0.31127732
   0.40583884  0.00935935  0.75272675
   0.45308217  0.00162638  0.61272520
   0.13494501  0.64791145  0.11405379
   0.18731089  0.63061759  0.00811511
   0.75553041  0.92137979  0.56234326
   0.79625496  0.87625505  0.70453641
   0.78049563  0.87588878  0.90559666
   0.82259558  0.83191032  0.02892684
   0.32650852  0.75313797  0.51186046
   0.32403826  0.79451564  0.66902210
   0.99187343  0.42550782  0.23027567
   0.99947696  0.46413797  0.37352011
   0.33364500  0.77976922  0.87114854
   0.33838720  0.81917665  0.99950521
   0.92237471  0.33155921  0.56224028
   0.87739809  0.33647208  0.70405599
   0.59184494  0.98254939  0.22489650
   0.54439494  0.99059935  0.36382768
   0.87625728  0.35361877  0.90497659
   0.82999441  0.35775715  0.02591238
   0.89492058  0.78937392  0.76199736
   0.85253346  0.83355251  0.63872748
   0.91957466  0.74410284  0.10564519
   0.87892541  0.78923309  0.96321992
   0.31670692  0.89041408  0.73414752
   0.31378559  0.84957628  0.60599945
   0.33886382  0.91249867  0.07866893
   0.33064907  0.87400045  0.93552921
   0.99559745  0.55926793  0.42970189
   0.99010762  0.51891957  0.30697982
   0.79355877  0.32069337  0.76431812
   0.83649761  0.31996916  0.63956133
   0.74275734  0.34322387  0.09405846
   0.78860858  0.34291398  0.96007681
   0.45269624  0.98642093  0.40888181
   0.49914022  0.98126165  0.29270732
   0.61786275  0.44331056  0.33861729
   0.84601026  0.08747681  0.63789061
   0.79223536  0.21604331  0.12128535
   0.13929815  0.16913410  0.50798741
   0.70233523  0.12739809  0.50970111
   0.03156665  0.47656025  0.85157544
   0.17462020  0.69379964  0.53150529
   0.49779062  0.02222658  0.83851010
   0.18882415  0.16963748  0.80520079
   0.64162101  0.19194191  0.82216142
   0.19062742  0.61339382  0.85974931
   0.81098514  0.83135396  0.18245523
   0.34776320  0.80772851  0.15422799
   0.82962044  0.37021639  0.17898599
   0.86412275  0.83410394  0.48523958
   0.30506410  0.86149695  0.45120660
   0.97866133  0.53086753  0.15330246
   0.83955824  0.30431427  0.48880470
   0.49981815  0.96983541  0.13799684
   0.70234536  0.33683964  0.49466012
   0.28403747  0.02089446  0.79260163
   0.63754483  0.33564624  0.20599754
   0.96257083  0.68978792  0.48374433
   0.35463398  0.95417152  0.45485921
   0.34939016  0.02444786  0.12720730
   0.71099647  0.97568701  0.18354072
   0.34955123  0.66102523  0.75993963
   0.73318038  0.27651673  0.01848213
   0.97861106  0.31637576  0.18722365
   0.31333204  0.70582655  0.18463052
   0.97550613  0.38457984  0.85605780
   0.64732718  0.97102176  0.85085288
   0.03152253  0.62523991  0.14969826
   0.64163522  0.03994009  0.51945020
   0.02821581  0.69313035  0.82157020
   0.30263659  0.63002463  0.58165026
   0.04418665  0.31865612  0.51969011
   0.70576724  0.43718840  0.37040629
   0.61986689  0.44226463  0.00293744
   0.79292214  0.21202833  0.68331923
Direct configuration=     3
   0.05808951  0.25798060  0.31550275
   0.03257510  0.30141767  0.95044737
   0.10165683  0.26209373  0.71752879
   0.68613970  0.05422402  0.31320879
   0.66424634  0.03349845  0.95507587
   0.63808647  0.10093701  0.71732107
   0.02391824  0.39674590  0.65397633
   0.27273208  0.67144147  0.34647055
   0.32345000  0.63746015  0.99338849
   0.28872227  0.59405867  0.79135710
   0.58584492  0.01575521  0.64656514
   0.29406714  0.03579970  0.35723935
   0.22680096  0.07659236  0.59566527
   0.27018137  0.08094642  0.99760392
   0.66575012  0.28748489  0.44418123
   0.73510527  0.20030623  0.56862839
   0.00904064  0.63298764  0.71150256
   0.03413162  0.56578452  0.94918709
   0.65582301  0.26824439  0.03191778
   0.04107660  0.67347698  0.37904519
   0.08389353  0.69601428  0.62346625
   0.36555307  0.99898215  0.68958459
   0.40587977  0.02570376  0.92792820
   0.09093598  0.64397748  0.02586599
   0.70343726  0.96043571  0.62317958
   0.77147478  0.92158074  0.38635403
   0.72748189  0.91550901  0.98263588
   0.35956502  0.69564524  0.53015301
   0.29961423  0.77399930  0.35290187
   0.00453607  0.37322091  0.28558472
   0.97376448  0.44322821  0.05656147
   0.33628772  0.72945158  0.93895008
   0.96103953  0.34563440  0.61789700
   0.92272500  0.31419318  0.38717234
   0.63256253  0.99207205  0.29023161
   0.59181676  0.96669172  0.04824872
   0.91637231  0.36512388  0.98574472
   0.94770655  0.74980688  0.68556648
   0.97215453  0.70586785  0.04760205
   0.90283953  0.74325515  0.28032530
   0.30732272  0.94204863  0.65807390
   0.32736803  0.96420776  0.02204050
   0.35695417  0.89481115  0.25344603
   0.98637848  0.61065100  0.35162664
   0.76016796  0.29561248  0.70955572
   0.68660771  0.36343752  0.01421569
   0.74582721  0.35594599  0.28411922
   0.41138039  0.97712395  0.33006973
   0.58614445  0.42273449  0.25424828
   0.62984581  0.47826255  0.23908790
   0.64172537  0.42539440  0.51241348
   0.83294085  0.17855216  0.20807591
   0.85705386  0.12378234  0.69175008
   0.83634094  0.05018077  0.58674719
   0.10891949  0.21564757  0.23429503
   0.14999828  0.16939463  0.35322798
   0.08451357  0.26169575  0.89168348
   0.12390634  0.21490802  0.03153279
   0.67864468  0.10503002  0.23535245
   0.68837771  0.14208793  0.35940620
   0.65399508  0.08470011  0.89334218
   0.66230326  0.12318157  0.03602913
   0.01475941  0.44807511  0.57527209
   0.02005443  0.48849370  0.69785435
   0.22929010  0.66146073  0.27244425
   0.17881715  0.67589973  0.38377494
   0.28497930  0.62050017  0.95497036
   0.23447584  0.63614960  0.08377538
   0.54446462  0.00578693  0.56518442
   0.49833213  0.01077656  0.68395973
   0.24321091  0.07656446  0.41986862
   0.20408178  0.12377190  0.28144192
   0.21922543  0.12309163  0.07894397
   0.17806227  0.16945269  0.95994788
   0.69578383  0.22844701  0.44538984
   0.68011553  0.19669349  0.29780244
   0.01861031  0.58213760  0.77312956
   0.01081219  0.54324912  0.63116214
   0.66223921  0.21641238  0.10117576
   0.65423338  0.17839082  0.97443038
   0.08319361  0.68061684  0.44675115
   0.13257992  0.66829464  0.31133515
   0.40594639  0.00936054  0.75250085
   0.45311937  0.00158184  0.61287120
   0.13499612  0.64790318  0.11405355
   0.18729953  0.63059888  0.00807242
   0.75548561  0.92142745  0.56226131
   0.79626588  0.87624675  0.70459964
   0.78045290  0.87591307  0.90558669
   0.82260934  0.83189307  0.02894558
   0.32658783  0.75313086  0.51280466
   0.32403589  0.79438972  0.66860608
   0.99186822  0.42550288  0.23019235
   0.99948327  0.46412993  0.37354254
   0.33362761  0.77968118  0.87154537
   0.33838959  0.81926338  0.99954078
   0.92236705  0.33156197  0.56224312
   0.87741086  0.33650808  0.70433895
   0.59181467  0.98252928  0.22480741
   0.54440743  0.99054787  0.36353908
   0.87618222  0.35358997  0.90492069
   0.83004383  0.35778513  0.02578213
   0.89486731  0.78943178  0.76208922
   0.85255142  0.83355803  0.63874739
   0.91954401  0.74412756  0.10570877
   0.87892988  0.78923625  0.96318618
   0.31665425  0.89039005  0.73404711
   0.31373409  0.84968484  0.60603816
   0.33889639  0.91238511  0.07900876
   0.33064061  0.87397100  0.93562936
   0.99558990  0.55922920  0.42968249
   0.99010134  0.51893932  0.30701728
   0.79368691  0.32062879  0.76454848
   0.83639745  0.31998265  0.63962528
   0.74288781  0.34333369  0.09428521
   0.78859004  0.34283926  0.95964884
   0.45280492  0.98650598  0.40989675
   0.49920980  0.98129116  0.29228606
   0.61782462  0.44320605  0.33815955
   0.84599697  0.08738905  0.63780314
   0.79227767  0.21607054  0.12132076
   0.13930626  0.16912972  0.50799798
   0.70234059  0.12738728  0.50971275
   0.03157380  0.47655592  0.85160081
   0.17461236  0.69383910  0.53164702
   0.49778918  0.02223338  0.83858984
   0.18882640  0.16963852  0.80518114
   0.64161024  0.19194836  0.82217492
   0.19062535  0.61337846  0.85970401
   0.81098037  0.83135512  0.18248244
   0.34777439  0.80772734  0.15423506
   0.82961529  0.37022823  0.17898588
   0.86412982  0.83410884  0.48518633
   0.30506152  0.86150222  0.45120789
   0.97865590  0.53087241  0.15326143
   0.83956036  0.30431324  0.48886826
   0.49982964  0.96982500  0.13775562
   0.70204292  0.33714239  0.49583748
   0.28439762  0.02077339  0.79310821
   0.63736436  0.33600805  0.20555432
   0.96260719  0.68980949  0.48365083
   0.35434381  0.95446851  0.45481767
   0.34964250  0.02377620  0.12647414
   0.71099847  0.97570466  0.18387317
   0.34970303  0.66099764  0.76136106
   0.73294204  0.27658970  0.01885889
   0.97862675  0.31632975  0.18740508
   0.31345009  0.70597978  0.18411365
   0.97552854  0.38456771  0.85598463
   0.64721669  0.97111546  0.85076729
   0.03156674  0.62521429  0.14963086
   0.64163506  0.03989957  0.51956209
   0.02824869  0.69314176  0.82142130
   0.30274267  0.63006282  0.58122330
   0.04418788  0.31862673  0.51967985
   0.70577559  0.43701696  0.37045457
   0.61987676  0.44221080  0.00307760
   0.79280310  0.21221403  0.68330860
Direct configuration=     4
   0.05809123  0.25798446  0.31550853
   0.03257645  0.30141505  0.95044454
   0.10165181  0.26210079  0.71750708
   0.68613819  0.05421514  0.31320329
   0.66424911  0.03350262  0.95505769
   0.63808655  0.10094466  0.71731830
   0.02391640  0.39675183  0.65397213
   0.27267835  0.67142366  0.34644421
   0.32342720  0.63745450  0.99338893
   0.28874019  0.59403019  0.79138836
   0.58586628  0.01575240  0.64658262
   0.29406653  0.03579158  0.35728089
   0.22677113  0.07661095  0.59564955
   0.27015386  0.08095995  0.99771250
   0.66574590  0.28739245  0.44422658
   0.73513400  0.20029668  0.56872593
   0.00904233  0.63298514  0.71151641
   0.03413380  0.56577835  0.94918349
   0.65581681  0.26819792  0.03188116
   0.04108736  0.67347366  0.37904733
   0.08389392  0.69602262  0.62346358
   0.36553892  0.99897020  0.68963955
   0.40591388  0.02572098  0.92793996
   0.09090569  0.64398260  0.02585610
   0.70344851  0.96042760  0.62315416
   0.77148347  0.92157523  0.38634870
   0.72749156  0.91550497  0.98260453
   0.35954406  0.69563925  0.53020401
   0.29960858  0.77395147  0.35261623
   0.00453641  0.37321374  0.28559244
   0.97376202  0.44323210  0.05657900
   0.33629172  0.72948255  0.93878499
   0.96104392  0.34563410  0.61788169
   0.92272777  0.31419217  0.38714562
   0.63256732  0.99207804  0.29020674
   0.59182495  0.96668765  0.04826428
   0.91639531  0.36512790  0.98575056
   0.94771500  0.74979334  0.68557458
   0.97216146  0.70586264  0.04763284
   0.90283812  0.74325479  0.28030141
   0.30733281  0.94205327  0.65804204
   0.32735276  0.96421593  0.02211908
   0.35694942  0.89479990  0.25330177
   0.98638013  0.61065697  0.35164180
   0.76024741  0.29560766  0.70967374
   0.68659384  0.36344374  0.01422541
   0.74586057  0.35591924  0.28381544
   0.41127140  0.97718768  0.32980640
   0.58615398  0.42274989  0.25429469
   0.62985032  0.47825736  0.23911924
   0.64173474  0.42535744  0.51240094
   0.83293153  0.17855821  0.20806048
   0.85705716  0.12379543  0.69176652
   0.83634911  0.05018469  0.58676892
   0.10891258  0.21565589  0.23427002
   0.15000835  0.16938224  0.35324100
   0.08451495  0.26169312  0.89170696
   0.12390299  0.21491348  0.03152725
   0.67864559  0.10504010  0.23537173
   0.68837261  0.14208163  0.35937300
   0.65399507  0.08469049  0.89333614
   0.66230444  0.12319608  0.03604529
   0.01476282  0.44806206  0.57526322
   0.02005788  0.48849605  0.69785965
   0.22932928  0.66146408  0.27250728
   0.17879969  0.67590991  0.38374738
   0.28497352  0.62050741  0.95492252
   0.23448737  0.63614714  0.08377124
   0.54447195  0.00578804  0.56520328
   0.49831439  0.01078170  0.68404834
   0.24321499  0.07655116  0.41993129
   0.20407022  0.12378362  0.28142808
   0.21920258  0.12312072  0.07895181
   0.17805878  0.16945982  0.95991916
   0.69572015  0.22849815  0.44514494
   0.68013312  0.19670203  0.29787729
   0.01861538  0.58213759  0.77315038
   0.01081208  0.54324416  0.63114483
   0.66224642  0.21643829  0.10113127
   0.65423125  0.17838195  0.97442041
   0.08318973  0.68061954  0.44674396
   0.13257752  0.66830184  0.31134979
   0.40597361  0.00936084  0.75244368
   0.45312878  0.00157056  0.61290815
   0.13500906  0.64790109  0.11405349
   0.18729666  0.63059414  0.00806162
   0.75547427  0.92143951  0.56224056
   0.79626864  0.87624465  0.70461564
   0.78044209  0.87591922  0.90558416
   0.82261282  0.83188871  0.02895032
   0.32660790  0.75312906  0.51304364
   0.32403529  0.79435784  0.66850079
   0.99186690  0.42550162  0.23017127
   0.99948487  0.46412789  0.37354821
   0.33362321  0.77965889  0.87164581
   0.33839020  0.81928533  0.99954979
   0.92236511  0.33156267  0.56224383
   0.87741409  0.33651719  0.70441056
   0.59180701  0.98252419  0.22478485
   0.54441059  0.99053484  0.36346604
   0.87616322  0.35358268  0.90490654
   0.83005633  0.35779221  0.02574916
   0.89485383  0.78944643  0.76211247
   0.85255597  0.83355943  0.63875243
   0.91953625  0.74413381  0.10572486
   0.87893102  0.78923705  0.96317764
   0.31664091  0.89038397  0.73402169
   0.31372106  0.84971231  0.60604796
   0.33890463  0.91235637  0.07909478
   0.33063847  0.87396355  0.93565471
   0.99558799  0.55921940  0.42967758
   0.99009975  0.51894432  0.30702677
   0.79371935  0.32061244  0.76460678
   0.83637210  0.31998606  0.63964147
   0.74292083  0.34336148  0.09434260
   0.78858534  0.34282035  0.95954052
   0.45283243  0.98652750  0.41015363
   0.49922741  0.98129862  0.29217944
   0.61781497  0.44317960  0.33804370
   0.84599361  0.08736684  0.63778100
   0.79228837  0.21607744  0.12132972
   0.13930831  0.16912861  0.50800066
   0.70234195  0.12738455  0.50971569
   0.03157561  0.47655482  0.85160723
   0.17461038  0.69384909  0.53168290
   0.49778881  0.02223510  0.83861002
   0.18882696  0.16963879  0.80517617
   0.64160751  0.19195000  0.82217834
   0.19062482  0.61337458  0.85969254
   0.81097916  0.83135541  0.18248933
   0.34777723  0.80772705  0.15423685
   0.82961399  0.37023122  0.17898586
   0.86413161  0.83411008  0.48517286
   0.30506087  0.86150355  0.45120821
   0.97865453  0.53087365  0.15325104
   0.83956089  0.30431298  0.48888435
   0.49983255  0.96982237  0.13769456
   0.70196637  0.33721901  0.49613547
   0.28448878  0.02074275  0.79323642
   0.63731868  0.33609963  0.20544213
   0.96261640  0.68981495  0.48362716
   0.35427037  0.95454369  0.45480716
   0.34970638  0.02360620  0.12628857
   0.71099897  0.97570913  0.18395731
   0.34974146  0.66099066  0.76172083
   0.73288171  0.27660817  0.01895425
   0.97863073  0.31631810  0.18745100
   0.31347997  0.70601856  0.18398283
   0.97553421  0.38456464  0.85596610
   0.64718873  0.97113917  0.85074563
   0.03157794  0.62520781  0.14961380
   0.64163502  0.03988931  0.51959041
   0.02825702  0.69314465  0.82138362
   0.30276951  0.63007249  0.58111523
   0.04418819  0.31861929  0.51967725
   0.70577770  0.43697357  0.37046679
   0.61987926  0.44219717  0.00311308
   0.79277297  0.21226104  0.68330591
Direct configuration=     5
   0.05806157  0.25799591  0.31551488
   0.03255101  0.30143599  0.95044540
   0.10166670  0.26208473  0.71753273
   0.68614971  0.05425355  0.31318590
   0.66423195  0.03351839  0.95511152
   0.63808977  0.10092350  0.71734620
   0.02392014  0.39674530  0.65397427
   0.27286640  0.67151291  0.34656726
   0.32354662  0.63753801  0.99314337
   0.28865642  0.59421250  0.79126088
   0.58582788  0.01578235  0.64657030
   0.29407226  0.03580414  0.35707670
   0.22689133  0.07653142  0.59578261
   0.27025343  0.08093349  0.99759266
   0.66583685  0.28762687  0.44448368
   0.73517722  0.20025212  0.56896675
   0.00903762  0.63298889  0.71145730
   0.03412666  0.56579888  0.94918541
   0.65579074  0.26823424  0.03190205
   0.04106420  0.67349011  0.37906524
   0.08389526  0.69599486  0.62348345
   0.36549221  0.99902532  0.68936455
   0.40570714  0.02573913  0.92845435
   0.09100279  0.64395708  0.02586744
   0.70346364  0.96042040  0.62320534
   0.77146116  0.92158558  0.38637239
   0.72750001  0.91548301  0.98265615
   0.35966019  0.69565113  0.52991190
   0.29950323  0.77425913  0.35322802
   0.00453478  0.37322292  0.28558806
   0.97376916  0.44322040  0.05656371
   0.33631665  0.72930913  0.93986854
   0.96101266  0.34563276  0.61794590
   0.92271049  0.31419992  0.38719422
   0.63259341  0.99205985  0.29031702
   0.59179788  0.96671183  0.04831949
   0.91629865  0.36511875  0.98571272
   0.94770919  0.74981904  0.68550105
   0.97216574  0.70586255  0.04750945
   0.90285271  0.74325309  0.28032219
   0.30732297  0.94201116  0.65818858
   0.32743416  0.96414874  0.02182328
   0.35693348  0.89488372  0.25357925
   0.98636902  0.61064360  0.35159533
   0.75977657  0.29582250  0.70894254
   0.68668612  0.36341443  0.01423985
   0.74569486  0.35599200  0.28493340
   0.41139179  0.97691214  0.33017568
   0.58624179  0.42279895  0.25454186
   0.62984840  0.47829045  0.23916310
   0.64178463  0.42543751  0.51286222
   0.83294108  0.17855198  0.20805467
   0.85707423  0.12385385  0.69185051
   0.83634115  0.05027135  0.58679922
   0.10893736  0.21562812  0.23430710
   0.14999992  0.16940666  0.35321640
   0.08453079  0.26167682  0.89172339
   0.12391598  0.21489216  0.03152058
   0.67865036  0.10502703  0.23541225
   0.68838432  0.14204818  0.35936832
   0.65399542  0.08467844  0.89334208
   0.66229659  0.12318452  0.03595993
   0.01475010  0.44808097  0.57525876
   0.02004793  0.48851076  0.69787805
   0.22925518  0.66147781  0.27236944
   0.17885711  0.67586467  0.38381238
   0.28500668  0.62046500  0.95514879
   0.23447347  0.63614493  0.08370155
   0.54445496  0.00578454  0.56509778
   0.49831830  0.01076773  0.68391712
   0.24318770  0.07661022  0.41982153
   0.20408727  0.12375074  0.28146001
   0.21924474  0.12303400  0.07876016
   0.17806664  0.16943620  0.96002443
   0.69569226  0.22850602  0.44504140
   0.68010815  0.19672221  0.29799468
   0.01860257  0.58214938  0.77312126
   0.01080916  0.54325322  0.63115429
   0.66219731  0.21653791  0.10109582
   0.65424218  0.17835881  0.97442372
   0.08318578  0.68060907  0.44672199
   0.13259267  0.66827753  0.31133369
   0.40600724  0.00929321  0.75207384
   0.45308391  0.00160003  0.61277534
   0.13499036  0.64791003  0.11410160
   0.18729339  0.63061179  0.00809172
   0.75545007  0.92145260  0.56229010
   0.79627327  0.87623798  0.70461402
   0.78044266  0.87593120  0.90559693
   0.82261730  0.83188497  0.02896575
   0.32660558  0.75315081  0.51296079
   0.32404560  0.79439050  0.66857188
   0.99186659  0.42552034  0.23016346
   0.99948129  0.46413677  0.37355570
   0.33364225  0.77967101  0.87155548
   0.33838411  0.81923488  0.99946544
   0.92239559  0.33155835  0.56221752
   0.87744437  0.33650897  0.70433827
   0.59177584  0.98253162  0.22478592
   0.54437871  0.99057150  0.36358024
   0.87619103  0.35359563  0.90487651
   0.83005987  0.35777682  0.02583915
   0.89485546  0.78943565  0.76211184
   0.85254602  0.83354675  0.63875834
   0.91952071  0.74414219  0.10574936
   0.87893548  0.78922980  0.96316165
   0.31671239  0.89038832  0.73404331
   0.31377817  0.84966489  0.60604224
   0.33890588  0.91242410  0.07908972
   0.33066689  0.87396846  0.93568986
   0.99559459  0.55922915  0.42971082
   0.99010697  0.51894166  0.30702529
   0.79367235  0.32070843  0.76451219
   0.83635292  0.31994771  0.63967863
   0.74284744  0.34318190  0.09407010
   0.78854089  0.34284395  0.95973482
   0.45288225  0.98654571  0.41010930
   0.49923274  0.98127233  0.29227035
   0.61763149  0.44325835  0.33772272
   0.84595451  0.08723151  0.63756313
   0.79221786  0.21609003  0.12134130
   0.13929939  0.16913556  0.50797708
   0.70233672  0.12739538  0.50974982
   0.03156980  0.47655826  0.85159225
   0.17462154  0.69381996  0.53161293
   0.49779605  0.02222330  0.83844553
   0.18882363  0.16963890  0.80520712
   0.64161657  0.19194903  0.82216037
   0.19062914  0.61338719  0.85971833
   0.81098085  0.83135727  0.18247031
   0.34776444  0.80772535  0.15422233
   0.82961700  0.37022185  0.17902376
   0.86412581  0.83410774  0.48519878
   0.30506374  0.86149539  0.45121513
   0.97865816  0.53087227  0.15327028
   0.83957181  0.30431243  0.48881119
   0.49982907  0.96982929  0.13793557
   0.70251590  0.33684641  0.49531362
   0.28388735  0.02103090  0.79224306
   0.63759392  0.33556153  0.20513877
   0.96258496  0.68980594  0.48369474
   0.35454281  0.95404501  0.45514502
   0.34980024  0.02426334  0.12682573
   0.71097561  0.97570689  0.18371900
   0.34951154  0.66109929  0.75985613
   0.73302222  0.27661774  0.01903827
   0.97865745  0.31633269  0.18734561
   0.31336074  0.70578218  0.18449154
   0.97552815  0.38459479  0.85602574
   0.64727259  0.97106390  0.85083357
   0.03154200  0.62522563  0.14964821
   0.64163032  0.03989940  0.51951952
   0.02822132  0.69314337  0.82151642
   0.30266016  0.62988060  0.58146462
   0.04419168  0.31863097  0.51964027
   0.70576428  0.43713589  0.37041400
   0.61985330  0.44222988  0.00302703
   0.79288658  0.21207294  0.68335622
Direct configuration=     6
   0.05805890  0.25799694  0.31551546
   0.03254871  0.30143788  0.95044548
   0.10166805  0.26208328  0.71753505
   0.68615075  0.05425701  0.31318433
   0.66423041  0.03351981  0.95511638
   0.63809006  0.10092159  0.71734871
   0.02392047  0.39674471  0.65397446
   0.27288336  0.67152097  0.34657835
   0.32355739  0.63754554  0.99312122
   0.28864887  0.59422895  0.79124938
   0.58582442  0.01578505  0.64656919
   0.29407278  0.03580527  0.35705828
   0.22690217  0.07652425  0.59579461
   0.27026242  0.08093110  0.99758184
   0.66584505  0.28764801  0.44450687
   0.73518112  0.20024810  0.56898847
   0.00903719  0.63298922  0.71145197
   0.03412602  0.56580073  0.94918559
   0.65578839  0.26823752  0.03190393
   0.04106212  0.67349159  0.37906686
   0.08389538  0.69599236  0.62348524
   0.36548799  0.99903030  0.68933974
   0.40568850  0.02574077  0.92850075
   0.09101155  0.64395477  0.02586847
   0.70346500  0.96041975  0.62320996
   0.77145915  0.92158651  0.38637453
   0.72750077  0.91548103  0.98266081
   0.35967067  0.69565220  0.52988555
   0.29949373  0.77428688  0.35328320
   0.00453463  0.37322375  0.28558767
   0.97376980  0.44321935  0.05656233
   0.33631890  0.72929348  0.93996628
   0.96100984  0.34563264  0.61795169
   0.92270893  0.31420062  0.38719860
   0.63259576  0.99205821  0.29032696
   0.59179544  0.96671401  0.04832447
   0.91628993  0.36511792  0.98570931
   0.94770866  0.74982136  0.68549442
   0.97216613  0.70586254  0.04749832
   0.90285403  0.74325293  0.28032407
   0.30732208  0.94200736  0.65820180
   0.32744151  0.96414268  0.02179660
   0.35693204  0.89489128  0.25360428
   0.98636801  0.61064240  0.35159114
   0.75973410  0.29584188  0.70887659
   0.68669445  0.36341179  0.01424115
   0.74567992  0.35599856  0.28503425
   0.41140265  0.97688728  0.33020899
   0.58624972  0.42280338  0.25456415
   0.62984823  0.47829344  0.23916706
   0.64178913  0.42544473  0.51290383
   0.83294194  0.17855142  0.20805414
   0.85707577  0.12385912  0.69185809
   0.83634043  0.05027917  0.58680196
   0.10893960  0.21562562  0.23431044
   0.14999916  0.16940887  0.35321418
   0.08453222  0.26167535  0.89172488
   0.12391715  0.21489024  0.03151997
   0.67865079  0.10502585  0.23541590
   0.68838537  0.14204516  0.35936790
   0.65399546  0.08467735  0.89334261
   0.66229588  0.12318347  0.03595222
   0.01474895  0.44808267  0.57525836
   0.02004703  0.48851209  0.69787972
   0.22924849  0.66147905  0.27235701
   0.17886229  0.67586058  0.38381824
   0.28500967  0.62046118  0.95516920
   0.23447221  0.63614473  0.08369527
   0.54445343  0.00578422  0.56508826
   0.49831865  0.01076647  0.68390528
   0.24318524  0.07661555  0.41981163
   0.20408881  0.12374777  0.28146289
   0.21924855  0.12302618  0.07874288
   0.17806735  0.16943407  0.96003393
   0.69568974  0.22850673  0.44503206
   0.68010590  0.19672402  0.29800527
   0.01860141  0.58215044  0.77311863
   0.01080890  0.54325403  0.63115514
   0.66219288  0.21654690  0.10109262
   0.65424317  0.17835672  0.97442402
   0.08318542  0.68060813  0.44672001
   0.13259404  0.66827533  0.31133224
   0.40601027  0.00928711  0.75204049
   0.45307986  0.00160269  0.61276336
   0.13498868  0.64791084  0.11410594
   0.18729309  0.63061338  0.00809443
   0.75544789  0.92145378  0.56229457
   0.79627369  0.87623738  0.70461387
   0.78044271  0.87593228  0.90559809
   0.82261771  0.83188463  0.02896714
   0.32660537  0.75315277  0.51295332
   0.32404653  0.79439344  0.66857829
   0.99186656  0.42552203  0.23016276
   0.99948096  0.46413757  0.37355637
   0.33364397  0.77967211  0.87154733
   0.33838356  0.81923033  0.99945783
   0.92239833  0.33155796  0.56221514
   0.87744710  0.33650823  0.70433175
   0.59177302  0.98253229  0.22478602
   0.54437583  0.99057481  0.36359054
   0.87619354  0.35359680  0.90487380
   0.83006019  0.35777543  0.02584726
   0.89485561  0.78943468  0.76211179
   0.85254512  0.83354561  0.63875887
   0.91951931  0.74414295  0.10575157
   0.87893588  0.78922915  0.96316021
   0.31671884  0.89038872  0.73404526
   0.31378333  0.84966061  0.60604173
   0.33890599  0.91243021  0.07908926
   0.33066945  0.87396891  0.93569303
   0.99559518  0.55923003  0.42971382
   0.99010762  0.51894142  0.30702516
   0.79366812  0.32071709  0.76450366
   0.83635119  0.31994425  0.63968198
   0.74284082  0.34316570  0.09404552
   0.78853688  0.34284607  0.95975235
   0.45288675  0.98654736  0.41010530
   0.49923322  0.98126996  0.29227855
   0.61761494  0.44326545  0.33769377
   0.84595098  0.08721931  0.63754348
   0.79221149  0.21609117  0.12134235
   0.13929858  0.16913619  0.50797496
   0.70233624  0.12739636  0.50975289
   0.03156928  0.47655857  0.85159090
   0.17462255  0.69381733  0.53160662
   0.49779670  0.02222224  0.83843069
   0.18882333  0.16963891  0.80520991
   0.64161738  0.19194894  0.82215874
   0.19062953  0.61338833  0.85972066
   0.81098100  0.83135743  0.18246860
   0.34776328  0.80772519  0.15422102
   0.82961728  0.37022100  0.17902718
   0.86412529  0.83410752  0.48520112
   0.30506400  0.86149465  0.45121576
   0.97865849  0.53087215  0.15327202
   0.83957280  0.30431238  0.48880459
   0.49982875  0.96982992  0.13795731
   0.70256547  0.33681280  0.49523949
   0.28383310  0.02105690  0.79215346
   0.63761875  0.33551299  0.20511141
   0.96258212  0.68980512  0.48370084
   0.35456738  0.95400002  0.45517549
   0.34980871  0.02432261  0.12687418
   0.71097350  0.97570669  0.18369750
   0.34949081  0.66110909  0.75968793
   0.73303489  0.27661861  0.01904585
   0.97865986  0.31633401  0.18733611
   0.31334999  0.70576086  0.18453742
   0.97552760  0.38459751  0.85603112
   0.64728016  0.97105711  0.85084150
   0.03153875  0.62522724  0.14965131
   0.64162989  0.03990031  0.51951313
   0.02821810  0.69314326  0.82152840
   0.30265030  0.62986330  0.58149613
   0.04419200  0.31863202  0.51963693
   0.70576307  0.43715053  0.37040924
   0.61985096  0.44223283  0.00301927
   0.79289682  0.21205597  0.68336076
Direct configuration=     7
   0.05804412  0.25800656  0.31552043
   0.03254751  0.30143531  0.95039978
   0.10167332  0.26208167  0.71751213
   0.68616985  0.05424508  0.31317488
   0.66421401  0.03354297  0.95515302
   0.63809292  0.10091549  0.71734488
   0.02391740  0.39676563  0.65395347
   0.27288232  0.67154479  0.34663740
   0.32359114  0.63761415  0.99256060
   0.28856510  0.59438407  0.79136019
   0.58584469  0.01581793  0.64662390
   0.29407831  0.03580017  0.35692082
   0.22693141  0.07651260  0.59579243
   0.27029769  0.08094623  0.99771456
   0.66603075  0.28753533  0.44505947
   0.73522689  0.20021591  0.56936977
   0.00903476  0.63298731  0.71139990
   0.03411995  0.56581461  0.94915847
   0.65570257  0.26810722  0.03168906
   0.04106053  0.67350675  0.37907884
   0.08390060  0.69597355  0.62350292
   0.36535846  0.99907677  0.68906767
   0.40552805  0.02579126  0.92871025
   0.09102015  0.64392738  0.02581127
   0.70350074  0.96040227  0.62324147
   0.77144964  0.92158653  0.38639832
   0.72754232  0.91543369  0.98262939
   0.35978153  0.69567889  0.52937601
   0.29929148  0.77456123  0.35303197
   0.00453191  0.37322131  0.28560939
   0.97377040  0.44322159  0.05658955
   0.33637011  0.72924296  0.94077345
   0.96101846  0.34563977  0.61803080
   0.92270502  0.31420339  0.38709470
   0.63262576  0.99204102  0.29036744
   0.59177832  0.96673833  0.04844377
   0.91628045  0.36513582  0.98575759
   0.94773016  0.74981414  0.68540672
   0.97217493  0.70585703  0.04745529
   0.90287105  0.74324893  0.28028070
   0.30733072  0.94199984  0.65823507
   0.32750826  0.96417392  0.02153265
   0.35688318  0.89497873  0.25343071
   0.98635097  0.61065271  0.35157781
   0.75941020  0.29619865  0.70840757
   0.68673642  0.36340525  0.01426125
   0.74554643  0.35595803  0.28500069
   0.41124521  0.97668417  0.32984836
   0.58635370  0.42283525  0.25484542
   0.62983618  0.47834393  0.23925126
   0.64184715  0.42545313  0.51307954
   0.83286039  0.17861097  0.20786205
   0.85703163  0.12368936  0.69161311
   0.83626328  0.05007366  0.58643033
   0.10891157  0.21565261  0.23424816
   0.15005082  0.16936973  0.35326192
   0.08453381  0.26166367  0.89183777
   0.12392004  0.21487588  0.03155497
   0.67865763  0.10506488  0.23546238
   0.68838397  0.14199950  0.35924889
   0.65399198  0.08463398  0.89331966
   0.66229532  0.12322493  0.03595816
   0.01474433  0.44805864  0.57525358
   0.02004153  0.48853783  0.69790535
   0.22940499  0.66152903  0.27252578
   0.17886688  0.67582574  0.38377467
   0.28511757  0.62047715  0.95535101
   0.23451565  0.63613661  0.08366001
   0.54446139  0.00579669  0.56509523
   0.49823708  0.01076965  0.68403690
   0.24325424  0.07657899  0.41982404
   0.20405241  0.12376513  0.28136164
   0.21923681  0.12299670  0.07861997
   0.17808268  0.16940576  0.95998199
   0.69549896  0.22874034  0.44445419
   0.68010424  0.19681956  0.29835645
   0.01860185  0.58216870  0.77317365
   0.01080324  0.54325419  0.63111792
   0.66214800  0.21671739  0.10094421
   0.65424981  0.17832602  0.97439717
   0.08317064  0.68059926  0.44668648
   0.13260734  0.66826611  0.31143726
   0.40604970  0.00923993  0.75185188
   0.45308981  0.00161257  0.61279426
   0.13504354  0.64791495  0.11419455
   0.18727707  0.63061791  0.00805530
   0.75540047  0.92149483  0.56224736
   0.79627899  0.87622761  0.70468220
   0.78042627  0.87595201  0.90561665
   0.82263436  0.83187012  0.02896572
   0.32667538  0.75323358  0.51383135
   0.32408442  0.79425970  0.66837881
   0.99186448  0.42553415  0.23009639
   0.99948030  0.46414569  0.37357753
   0.33366696  0.77946978  0.87212507
   0.33837952  0.81928382  0.99941039
   0.92239491  0.33154739  0.56220043
   0.87747601  0.33651824  0.70451564
   0.59172356  0.98253901  0.22480605
   0.54434639  0.99057485  0.36336719
   0.87610058  0.35357163  0.90468501
   0.83009274  0.35776800  0.02582474
   0.89480879  0.78947159  0.76217485
   0.85254732  0.83352943  0.63878571
   0.91949207  0.74416393  0.10579394
   0.87894149  0.78922240  0.96312994
   0.31678819  0.89030875  0.73407200
   0.31383047  0.84973334  0.60610333
   0.33894893  0.91241581  0.07944994
   0.33071707  0.87391636  0.93589406
   0.99559702  0.55919613  0.42971053
   0.99011494  0.51896175  0.30708605
   0.79358199  0.32077254  0.76451616
   0.83626596  0.31990088  0.63974717
   0.74291435  0.34304656  0.09454678
   0.78846333  0.34279866  0.95960071
   0.45298312  0.98661366  0.41096876
   0.49932501  0.98127085  0.29205550
   0.61750251  0.44329169  0.33764011
   0.84605230  0.08759394  0.63804565
   0.79224129  0.21605886  0.12158851
   0.13929079  0.16914624  0.50794167
   0.70233188  0.12740214  0.50981995
   0.03156641  0.47656058  0.85160217
   0.17463591  0.69380994  0.53167999
   0.49780786  0.02220884  0.83824307
   0.18881691  0.16964166  0.80528326
   0.64162505  0.19194906  0.82215399
   0.19063216  0.61339640  0.85972983
   0.81097881  0.83136073  0.18248112
   0.34774936  0.80771827  0.15417668
   0.82961965  0.37021561  0.17911915
   0.86412183  0.83410724  0.48519201
   0.30507019  0.86148028  0.45124885
   0.97865937  0.53087545  0.15325869
   0.83958726  0.30431223  0.48876769
   0.49983611  0.96982022  0.13805050
   0.70314823  0.33657170  0.49489200
   0.28327025  0.02135589  0.79124018
   0.63786406  0.33504961  0.20427559
   0.96256667  0.68980842  0.48371966
   0.35473315  0.95350316  0.45560770
   0.35015912  0.02472820  0.12716815
   0.71093556  0.97572280  0.18364548
   0.34923564  0.66125906  0.75821951
   0.73301810  0.27669502  0.01945642
   0.97870643  0.31631773  0.18734201
   0.31326992  0.70556417  0.18491685
   0.97553481  0.38463041  0.85605614
   0.64730757  0.97102590  0.85089186
   0.03152404  0.62523824  0.14962927
   0.64162037  0.03987869  0.51950130
   0.02819369  0.69315130  0.82159553
   0.30254193  0.62962947  0.58131674
   0.04419404  0.31862762  0.51957699
   0.70572424  0.43727192  0.37039056
   0.61982031  0.44224342  0.00299241
   0.79298496  0.21191512  0.68341292
Direct configuration=     8
   0.05804938  0.25800313  0.31551866
   0.03254794  0.30143623  0.95041605
   0.10167144  0.26208224  0.71752029
   0.68616305  0.05424932  0.31317824
   0.66421984  0.03353473  0.95513998
   0.63809190  0.10091766  0.71734625
   0.02391849  0.39675819  0.65396094
   0.27288269  0.67153631  0.34661638
   0.32357913  0.63758973  0.99276013
   0.28859491  0.59432886  0.79132076
   0.58583747  0.01580623  0.64660443
   0.29407634  0.03580199  0.35696974
   0.22692100  0.07651674  0.59579321
   0.27028513  0.08094084  0.99766733
   0.66596466  0.28757544  0.44486280
   0.73521060  0.20022736  0.56923407
   0.00903563  0.63298799  0.71141843
   0.03412211  0.56580967  0.94916812
   0.65573311  0.26815359  0.03176553
   0.04106110  0.67350136  0.37907457
   0.08389874  0.69598025  0.62349663
   0.36540456  0.99906023  0.68916450
   0.40558515  0.02577329  0.92863569
   0.09101709  0.64393713  0.02583163
   0.70348802  0.96040849  0.62323025
   0.77145302  0.92158652  0.38638985
   0.72752753  0.91545054  0.98264057
   0.35974207  0.69566939  0.52955736
   0.29936346  0.77446359  0.35312138
   0.00453288  0.37322218  0.28560166
   0.97377018  0.44322079  0.05657986
   0.33635188  0.72926094  0.94048618
   0.96101540  0.34563724  0.61800264
   0.92270641  0.31420240  0.38713168
   0.63261508  0.99204714  0.29035304
   0.59178441  0.96672967  0.04840131
   0.91628382  0.36512945  0.98574041
   0.94772251  0.74981671  0.68543793
   0.97217180  0.70585899  0.04747060
   0.90286499  0.74325036  0.28029613
   0.30732765  0.94200252  0.65822323
   0.32748450  0.96416280  0.02162659
   0.35690057  0.89494761  0.25349248
   0.98635704  0.61064904  0.35158255
   0.75952548  0.29607167  0.70857449
   0.68672148  0.36340758  0.01425410
   0.74559394  0.35597246  0.28501263
   0.41130124  0.97675646  0.32997671
   0.58631669  0.42282391  0.25474531
   0.62984047  0.47832596  0.23922129
   0.64182650  0.42545014  0.51301701
   0.83288941  0.17858977  0.20793042
   0.85704734  0.12374978  0.69170030
   0.83629074  0.05014680  0.58656259
   0.10892154  0.21564300  0.23427033
   0.15003243  0.16938366  0.35324493
   0.08453324  0.26166783  0.89179759
   0.12391901  0.21488099  0.03154252
   0.67865519  0.10505099  0.23544584
   0.68838447  0.14201575  0.35929124
   0.65399322  0.08464941  0.89332783
   0.66229552  0.12321018  0.03595605
   0.01474598  0.44806719  0.57525528
   0.02004349  0.48852866  0.69789623
   0.22934929  0.66151124  0.27246571
   0.17886525  0.67583814  0.38379018
   0.28507917  0.62047147  0.95528630
   0.23450019  0.63613950  0.08367256
   0.54445855  0.00579225  0.56509275
   0.49826611  0.01076852  0.68399006
   0.24322969  0.07659200  0.41981962
   0.20406537  0.12375895  0.28139767
   0.21924099  0.12300719  0.07866371
   0.17807723  0.16941583  0.96000048
   0.69556686  0.22865720  0.44465985
   0.68010483  0.19678556  0.29823146
   0.01860169  0.58216220  0.77315407
   0.01080526  0.54325413  0.63113117
   0.66216397  0.21665671  0.10099703
   0.65424745  0.17833695  0.97440673
   0.08317590  0.68060242  0.44669841
   0.13260260  0.66826939  0.31139988
   0.40603567  0.00925672  0.75191900
   0.45308627  0.00160905  0.61278326
   0.13502402  0.64791349  0.11416302
   0.18728277  0.63061630  0.00806923
   0.75541735  0.92148022  0.56226416
   0.79627710  0.87623108  0.70465788
   0.78043212  0.87594499  0.90561004
   0.82262843  0.83187529  0.02896623
   0.32665046  0.75320482  0.51351886
   0.32407093  0.79430730  0.66844980
   0.99186522  0.42552984  0.23012001
   0.99948053  0.46414280  0.37357000
   0.33365878  0.77954179  0.87191945
   0.33838096  0.81926478  0.99942728
   0.92239613  0.33155115  0.56220566
   0.87746572  0.33651468  0.70445019
   0.59174117  0.98253662  0.22479892
   0.54435687  0.99057484  0.36344668
   0.87613367  0.35358058  0.90475220
   0.83008116  0.35777064  0.02583276
   0.89482545  0.78945845  0.76215241
   0.85254654  0.83353519  0.63877616
   0.91950176  0.74415646  0.10577886
   0.87893949  0.78922480  0.96314071
   0.31676351  0.89033721  0.73406248
   0.31381369  0.84970745  0.60608141
   0.33893365  0.91242093  0.07932158
   0.33070012  0.87393506  0.93582251
   0.99559637  0.55920820  0.42971170
   0.99011233  0.51895451  0.30706438
   0.79361264  0.32075280  0.76451171
   0.83629630  0.31991632  0.63972397
   0.74288818  0.34308896  0.09436838
   0.78848951  0.34281553  0.95965468
   0.45294882  0.98659006  0.41066145
   0.49929234  0.98127054  0.29213488
   0.61754252  0.44328235  0.33765921
   0.84601624  0.08746061  0.63786693
   0.79223069  0.21607036  0.12150090
   0.13929356  0.16914266  0.50795352
   0.70233343  0.12740009  0.50979608
   0.03156743  0.47655987  0.85159816
   0.17463116  0.69381257  0.53165387
   0.49780389  0.02221361  0.83830985
   0.18881920  0.16964068  0.80525715
   0.64162232  0.19194902  0.82215569
   0.19063122  0.61339353  0.85972657
   0.81097959  0.83135956  0.18247666
   0.34775432  0.80772073  0.15419246
   0.82961880  0.37021753  0.17908642
   0.86412306  0.83410734  0.48519525
   0.30506799  0.86148540  0.45123707
   0.97865905  0.53087428  0.15326343
   0.83958211  0.30431229  0.48878082
   0.49983349  0.96982367  0.13801734
   0.70294083  0.33665751  0.49501567
   0.28347057  0.02124947  0.79156522
   0.63777676  0.33521453  0.20457306
   0.96257217  0.68980725  0.48371296
   0.35467415  0.95368000  0.45545388
   0.35003441  0.02458385  0.12706353
   0.71094906  0.97571707  0.18366399
   0.34932645  0.66120568  0.75874212
   0.73302408  0.27666782  0.01931030
   0.97868985  0.31632352  0.18733991
   0.31329841  0.70563417  0.18478181
   0.97553225  0.38461870  0.85604724
   0.64729781  0.97103700  0.85087394
   0.03152928  0.62523433  0.14963711
   0.64162376  0.03988639  0.51950551
   0.02820238  0.69314844  0.82157164
   0.30258050  0.62971269  0.58138058
   0.04419331  0.31862919  0.51959833
   0.70573806  0.43722872  0.37039721
   0.61983121  0.44223965  0.00300197
   0.79295359  0.21196525  0.68339436
Direct configuration=     9
   0.05804673  0.25800731  0.31551633
   0.03255810  0.30142299  0.95036250
   0.10166813  0.26208690  0.71752075
   0.68618045  0.05421558  0.31317482
   0.66420778  0.03354043  0.95517490
   0.63809343  0.10091480  0.71733031
   0.02391443  0.39678047  0.65394307
   0.27281489  0.67152218  0.34669467
   0.32358125  0.63765150  0.99214417
   0.28852507  0.59443096  0.79152874
   0.58586611  0.01583250  0.64665999
   0.29409518  0.03577525  0.35689648
   0.22688286  0.07655314  0.59569887
   0.27028782  0.08096624  0.99787701
   0.66612349  0.28739401  0.44539689
   0.73516189  0.20026779  0.56931493
   0.00903507  0.63298697  0.71138088
   0.03411901  0.56581693  0.94915186
   0.65561831  0.26801320  0.03136574
   0.04106251  0.67351240  0.37906384
   0.08390384  0.69596652  0.62349811
   0.36529401  0.99910569  0.68898123
   0.40549543  0.02582501  0.92848469
   0.09099249  0.64391467  0.02578044
   0.70350383  0.96040754  0.62327131
   0.77144923  0.92158301  0.38638828
   0.72756230  0.91541095  0.98259597
   0.35982836  0.69571524  0.52902045
   0.29921975  0.77460848  0.35292446
   0.00452900  0.37322114  0.28562204
   0.97376507  0.44323303  0.05659513
   0.33641203  0.72925712  0.94102793
   0.96103522  0.34564300  0.61805377
   0.92270777  0.31420586  0.38701088
   0.63262144  0.99202879  0.29034121
   0.59177209  0.96674706  0.04848768
   0.91630156  0.36515199  0.98578872
   0.94773894  0.74980564  0.68538055
   0.97216959  0.70585994  0.04748879
   0.90287564  0.74324759  0.28025658
   0.30734271  0.94200740  0.65820909
   0.32754183  0.96422107  0.02144580
   0.35686555  0.89499366  0.25332487
   0.98634082  0.61066466  0.35159375
   0.75934029  0.29642054  0.70835867
   0.68672937  0.36340780  0.01429401
   0.74551590  0.35588976  0.28451032
   0.41114523  0.97664026  0.32953949
   0.58638687  0.42280415  0.25490732
   0.62981874  0.47837531  0.23931683
   0.64187947  0.42541635  0.51295012
   0.83287034  0.17858609  0.20787187
   0.85708886  0.12385227  0.69185864
   0.83630718  0.05027516  0.58666218
   0.10888953  0.21567342  0.23421642
   0.15007542  0.16934872  0.35327762
   0.08453214  0.26166151  0.89187785
   0.12391580  0.21487273  0.03157938
   0.67866068  0.10509497  0.23544659
   0.68838396  0.14201301  0.35923598
   0.65398657  0.08462659  0.89329308
   0.66229912  0.12325527  0.03599440
   0.01474489  0.44804452  0.57525406
   0.02004044  0.48854454  0.69790500
   0.22952827  0.66155614  0.27266018
   0.17887617  0.67581964  0.38373944
   0.28517612  0.62051669  0.95539597
   0.23457277  0.63614018  0.08374047
   0.54445554  0.00581320  0.56519586
   0.49821808  0.01077949  0.68414020
   0.24333222  0.07652338  0.41979375
   0.20403060  0.12377645  0.28128700
   0.21920872  0.12301167  0.07860866
   0.17808440  0.16939341  0.95990712
   0.69548180  0.22882377  0.44443503
   0.68009176  0.19689182  0.29843897
   0.01860568  0.58217692  0.77320211
   0.01080090  0.54325197  0.63110455
   0.66214052  0.21673757  0.10095298
   0.65425148  0.17833180  0.97439201
   0.08316586  0.68059892  0.44670993
   0.13261693  0.66826474  0.31151477
   0.40599296  0.00923468  0.75193369
   0.45310063  0.00160923  0.61299531
   0.13508344  0.64791246  0.11422515
   0.18728772  0.63061564  0.00803602
   0.75539690  0.92150204  0.56219509
   0.79627528  0.87622900  0.70471655
   0.78043112  0.87594712  0.90562149
   0.82264181  0.83186357  0.02895855
   0.32666980  0.75332884  0.51405486
   0.32412351  0.79416518  0.66846378
   0.99186697  0.42553108  0.23008472
   0.99948146  0.46414622  0.37358657
   0.33367222  0.77932002  0.87255270
   0.33838364  0.81931643  0.99946480
   0.92238478  0.33154160  0.56220683
   0.87745303  0.33650722  0.70458985
   0.59172094  0.98254692  0.22484677
   0.54435972  0.99056838  0.36319892
   0.87604099  0.35355587  0.90462036
   0.83007342  0.35775611  0.02574660
   0.89478904  0.78949178  0.76220004
   0.85254537  0.83352871  0.63879424
   0.91949177  0.74416866  0.10577630
   0.87893907  0.78922292  0.96313195
   0.31681970  0.89025054  0.73414808
   0.31385711  0.84975742  0.60617871
   0.33895927  0.91243786  0.07951852
   0.33074568  0.87387958  0.93602243
   0.99559382  0.55917824  0.42969457
   0.99011649  0.51897124  0.30710472
   0.79350414  0.32078061  0.76453415
   0.83623478  0.31989267  0.63980927
   0.74300837  0.34301792  0.09499210
   0.78844819  0.34275894  0.95952427
   0.45298546  0.98662210  0.41133507
   0.49934086  0.98129342  0.29198102
   0.61754250  0.44329270  0.33790571
   0.84594734  0.08721510  0.63749556
   0.79220039  0.21611492  0.12162029
   0.13928903  0.16915140  0.50793265
   0.70232790  0.12740347  0.50983436
   0.03156631  0.47656213  0.85162155
   0.17464306  0.69381249  0.53175858
   0.49781198  0.02220628  0.83820478
   0.18881401  0.16964510  0.80531083
   0.64162894  0.19194761  0.82215322
   0.19063154  0.61339752  0.85971452
   0.81097705  0.83136242  0.18249807
   0.34774144  0.80771519  0.15414167
   0.82962289  0.37021178  0.17916526
   0.86412077  0.83410766  0.48518136
   0.30507569  0.86147303  0.45128022
   0.97865976  0.53087915  0.15325286
   0.83959252  0.30431174  0.48877018
   0.49984388  0.96980228  0.13797007
   0.70343224  0.33653459  0.49491363
   0.28303764  0.02148982  0.79093737
   0.63796617  0.33487574  0.20362824
   0.96256773  0.68981547  0.48370599
   0.35475757  0.95327562  0.45585238
   0.35043396  0.02479455  0.12723117
   0.71091087  0.97574136  0.18371522
   0.34909186  0.66135064  0.75770441
   0.73294598  0.27675623  0.01982333
   0.97873423  0.31629797  0.18738751
   0.31325165  0.70551025  0.18510130
   0.97554171  0.38464632  0.85605391
   0.64729770  0.97102975  0.85090711
   0.03152783  0.62524112  0.14959501
   0.64161914  0.03985594  0.51950821
   0.02818927  0.69315997  0.82159010
   0.30248431  0.62949874  0.58091470
   0.04419405  0.31861793  0.51954541
   0.70568292  0.43731793  0.37039973
   0.61980402  0.44223870  0.00301313
   0.79300047  0.21188536  0.68343901
Direct configuration=    10
   0.05804725  0.25800650  0.31551679
   0.03255612  0.30142556  0.95037292
   0.10166877  0.26208599  0.71752066
   0.68617707  0.05422214  0.31317549
   0.66421012  0.03353932  0.95516811
   0.63809313  0.10091535  0.71733341
   0.02391522  0.39677614  0.65394655
   0.27282807  0.67152493  0.34667944
   0.32358084  0.63763949  0.99226395
   0.28853865  0.59441111  0.79148829
   0.58586054  0.01582739  0.64664919
   0.29409152  0.03578045  0.35691072
   0.22689028  0.07654606  0.59571722
   0.27028730  0.08096130  0.99783624
   0.66609260  0.28742929  0.44529303
   0.73517136  0.20025993  0.56929921
   0.00903517  0.63298717  0.71138818
   0.03411961  0.56581552  0.94915502
   0.65564064  0.26804050  0.03144348
   0.04106224  0.67351025  0.37906593
   0.08390285  0.69596919  0.62349782
   0.36531551  0.99909685  0.68901687
   0.40551288  0.02581496  0.92851406
   0.09099727  0.64391903  0.02579039
   0.70350076  0.96040773  0.62326333
   0.77144997  0.92158369  0.38638858
   0.72755554  0.91541865  0.98260464
   0.35981158  0.69570632  0.52912486
   0.29924770  0.77458031  0.35296276
   0.00452975  0.37322134  0.28561808
   0.97376606  0.44323065  0.05659216
   0.33640033  0.72925786  0.94092258
   0.96103136  0.34564188  0.61804383
   0.92270751  0.31420519  0.38703437
   0.63262020  0.99203236  0.29034351
   0.59177448  0.96674368  0.04847088
   0.91629811  0.36514761  0.98577933
   0.94773574  0.74980779  0.68539171
   0.97217002  0.70585976  0.04748526
   0.90287357  0.74324813  0.28026427
   0.30733978  0.94200645  0.65821184
   0.32753068  0.96420974  0.02148095
   0.35687236  0.89498471  0.25335747
   0.98634397  0.61066162  0.35159157
   0.75937630  0.29635270  0.70840064
   0.68672783  0.36340776  0.01428625
   0.74553107  0.35590584  0.28460800
   0.41117557  0.97666285  0.32962451
   0.58637323  0.42280799  0.25487582
   0.62982297  0.47836572  0.23929825
   0.64186917  0.42542292  0.51296313
   0.83287404  0.17858681  0.20788325
   0.85708079  0.12383234  0.69182785
   0.83630398  0.05025020  0.58664281
   0.10889576  0.21566750  0.23422690
   0.15006706  0.16935551  0.35327126
   0.08453236  0.26166274  0.89186224
   0.12391643  0.21487433  0.03157221
   0.67865961  0.10508641  0.23544645
   0.68838406  0.14201354  0.35924673
   0.65398786  0.08463103  0.89329983
   0.66229842  0.12324650  0.03598694
   0.01474510  0.44804893  0.57525430
   0.02004103  0.48854145  0.69790330
   0.22949347  0.66154741  0.27262236
   0.17887405  0.67582324  0.38374931
   0.28515727  0.62050790  0.95537464
   0.23455866  0.63614005  0.08372727
   0.54445613  0.00580913  0.56517581
   0.49822742  0.01077736  0.68411101
   0.24331228  0.07653673  0.41979879
   0.20403736  0.12377305  0.28130852
   0.21921499  0.12301080  0.07861936
   0.17808301  0.16939777  0.95992527
   0.69549834  0.22879137  0.44447875
   0.68009430  0.19687116  0.29839861
   0.01860490  0.58217406  0.77319277
   0.01080175  0.54325239  0.63110973
   0.66214508  0.21672185  0.10096155
   0.65425070  0.17833280  0.97439488
   0.08316782  0.68059960  0.44670769
   0.13261414  0.66826564  0.31149243
   0.40600126  0.00923897  0.75193084
   0.45309784  0.00160919  0.61295408
   0.13507189  0.64791266  0.11421307
   0.18728676  0.63061576  0.00804248
   0.75540087  0.92149780  0.56220852
   0.79627563  0.87622941  0.70470514
   0.78043131  0.87594670  0.90561927
   0.82263921  0.83186585  0.02896004
   0.32666604  0.75330473  0.51395063
   0.32411329  0.79419281  0.66846106
   0.99186663  0.42553084  0.23009158
   0.99948128  0.46414555  0.37358335
   0.33366960  0.77936315  0.87242956
   0.33838312  0.81930639  0.99945750
   0.92238699  0.33154346  0.56220661
   0.87745550  0.33650867  0.70456269
   0.59172487  0.98254492  0.22483746
   0.54435917  0.99056964  0.36324710
   0.87605901  0.35356068  0.90464600
   0.83007492  0.35775894  0.02576335
   0.89479612  0.78948530  0.76219078
   0.85254560  0.83352997  0.63879072
   0.91949371  0.74416629  0.10577680
   0.87893915  0.78922329  0.96313366
   0.31680878  0.89026740  0.73413143
   0.31384867  0.84974771  0.60615979
   0.33895429  0.91243457  0.07948022
   0.33073682  0.87389037  0.93598356
   0.99559432  0.55918406  0.42969790
   0.99011569  0.51896799  0.30709688
   0.79352524  0.32077520  0.76452978
   0.83624675  0.31989726  0.63979268
   0.74298499  0.34303173  0.09487081
   0.78845623  0.34276994  0.95954963
   0.45297833  0.98661587  0.41120408
   0.49933142  0.98128897  0.29201094
   0.61754250  0.44329069  0.33785777
   0.84596074  0.08726284  0.63756778
   0.79220628  0.21610625  0.12159707
   0.13928991  0.16914970  0.50793671
   0.70232898  0.12740281  0.50982692
   0.03156653  0.47656169  0.85161700
   0.17464075  0.69381251  0.53173822
   0.49781041  0.02220770  0.83822522
   0.18881502  0.16964424  0.80530039
   0.64162765  0.19194788  0.82215370
   0.19063148  0.61339675  0.85971686
   0.81097755  0.83136187  0.18249390
   0.34774394  0.80771626  0.15415155
   0.82962210  0.37021290  0.17914993
   0.86412122  0.83410760  0.48518406
   0.30507419  0.86147543  0.45127183
   0.97865962  0.53087820  0.15325491
   0.83959050  0.30431185  0.48877225
   0.49984186  0.96980644  0.13797926
   0.70333668  0.33655849  0.49493348
   0.28312182  0.02144308  0.79105946
   0.63792934  0.33494163  0.20381197
   0.96256860  0.68981387  0.48370734
   0.35474135  0.95335426  0.45577489
   0.35035626  0.02475357  0.12719857
   0.71091830  0.97573663  0.18370526
   0.34913748  0.66132246  0.75790620
   0.73296117  0.27673904  0.01972356
   0.97872560  0.31630294  0.18737825
   0.31326075  0.70553435  0.18503917
   0.97553987  0.38464095  0.85605261
   0.64729772  0.97103116  0.85090066
   0.03152811  0.62523980  0.14960320
   0.64162004  0.03986186  0.51950768
   0.02819182  0.69315773  0.82158651
   0.30250301  0.62954035  0.58100530
   0.04419390  0.31862012  0.51955570
   0.70569364  0.43730058  0.37039924
   0.61980931  0.44223888  0.00301096
   0.79299136  0.21190090  0.68343032
Direct configuration=    11
   0.05805072  0.25800747  0.31551095
   0.03256218  0.30141586  0.95034603
   0.10166027  0.26209220  0.71755939
   0.68618568  0.05419866  0.31316653
   0.66420359  0.03352666  0.95519329
   0.63809365  0.10091112  0.71731750
   0.02391410  0.39678221  0.65394780
   0.27279048  0.67150028  0.34681941
   0.32359180  0.63770296  0.99182631
   0.28849939  0.59443888  0.79165309
   0.58586836  0.01584040  0.64667227
   0.29413683  0.03572615  0.35690108
   0.22681217  0.07660752  0.59556356
   0.27027986  0.08097381  0.99801120
   0.66613258  0.28738432  0.44558439
   0.73506746  0.20033671  0.56910896
   0.00903640  0.63299064  0.71137427
   0.03412051  0.56581596  0.94916830
   0.65553130  0.26798574  0.03095561
   0.04106001  0.67351555  0.37903407
   0.08390478  0.69596262  0.62349613
   0.36526515  0.99913643  0.68896844
   0.40550447  0.02586273  0.92818432
   0.09098092  0.64390828  0.02579730
   0.70349035  0.96042530  0.62330374
   0.77145086  0.92158011  0.38634606
   0.72756265  0.91540636  0.98258856
   0.35985188  0.69576770  0.52873758
   0.29922371  0.77456961  0.35315759
   0.00452591  0.37322517  0.28562250
   0.97375834  0.44324654  0.05658355
   0.33645436  0.72923320  0.94120574
   0.96103584  0.34563877  0.61803743
   0.92270846  0.31421405  0.38700088
   0.63260663  0.99201825  0.29031704
   0.59176760  0.96674954  0.04847595
   0.91629840  0.36515743  0.98576341
   0.94772955  0.74980929  0.68539287
   0.97215889  0.70586713  0.04753335
   0.90287302  0.74324950  0.28025471
   0.30735408  0.94200069  0.65821649
   0.32757552  0.96424658  0.02142755
   0.35687252  0.89497131  0.25339168
   0.98633456  0.61067012  0.35161795
   0.75931535  0.29656442  0.70841134
   0.68672039  0.36340262  0.01435399
   0.74553043  0.35584423  0.28423242
   0.41115929  0.97664686  0.32947306
   0.58640881  0.42274313  0.25490891
   0.62980002  0.47840013  0.23940181
   0.64192304  0.42536087  0.51281782
   0.83289874  0.17854687  0.20791541
   0.85708198  0.12378591  0.69177599
   0.83629210  0.05023344  0.58656910
   0.10889448  0.21566625  0.23423614
   0.15006189  0.16936269  0.35324827
   0.08453801  0.26165816  0.89185190
   0.12391123  0.21487182  0.03157207
   0.67866435  0.10510305  0.23542276
   0.68838708  0.14207245  0.35929572
   0.65398148  0.08464679  0.89328967
   0.66230236  0.12326344  0.03599730
   0.01474475  0.44805222  0.57525093
   0.02004058  0.48853789  0.69789531
   0.22953802  0.66155834  0.27265644
   0.17891556  0.67582605  0.38375488
   0.28517543  0.62055294  0.95538381
   0.23462815  0.63615402  0.08388259
   0.54443775  0.00582746  0.56528064
   0.49825958  0.01078897  0.68416445
   0.24338005  0.07649561  0.41967212
   0.20403867  0.12376128  0.28127847
   0.21918628  0.12303264  0.07861900
   0.17806777  0.16939419  0.95988032
   0.69558262  0.22876333  0.44474585
   0.68006754  0.19692821  0.29833417
   0.01860706  0.58217748  0.77318378
   0.01080088  0.54325131  0.63111852
   0.66214801  0.21665307  0.10108187
   0.65425306  0.17835036  0.97441230
   0.08317054  0.68060101  0.44675993
   0.13263398  0.66826044  0.31153735
   0.40588373  0.00923516  0.75198415
   0.45308221  0.00159843  0.61324981
   0.13508961  0.64790607  0.11420432
   0.18733037  0.63061628  0.00807408
   0.75541693  0.92148633  0.56219034
   0.79626738  0.87623740  0.70470325
   0.78045137  0.87592752  0.90561608
   0.82264153  0.83186267  0.02896765
   0.32660729  0.75340850  0.51362810
   0.32415920  0.79414993  0.66884776
   0.99187182  0.42552485  0.23011462
   0.99948311  0.46414249  0.37358492
   0.33366681  0.77928269  0.87270639
   0.33839240  0.81928754  0.99957119
   0.92238650  0.33153901  0.56221206
   0.87740508  0.33647528  0.70452416
   0.59174252  0.98255346  0.22486376
   0.54438983  0.99057656  0.36321251
   0.87604230  0.35355925  0.90469311
   0.83001763  0.35773901  0.02569624
   0.89480039  0.78948764  0.76218346
   0.85253623  0.83353848  0.63878547
   0.91950532  0.74416334  0.10573329
   0.87893341  0.78922664  0.96314908
   0.31683874  0.89023319  0.73425588
   0.31388751  0.84969414  0.60628476
   0.33893841  0.91252327  0.07929481
   0.33076216  0.87387307  0.93606911
   0.99558837  0.55918680  0.42968956
   0.99011481  0.51896509  0.30707308
   0.79345256  0.32079588  0.76453351
   0.83623646  0.31990195  0.63987076
   0.74306767  0.34299503  0.09502717
   0.78846755  0.34273875  0.95961640
   0.45292657  0.98658327  0.41116411
   0.49927715  0.98132226  0.29208232
   0.61761419  0.44329009  0.33814759
   0.84596717  0.08731228  0.63761013
   0.79213968  0.21618558  0.12161651
   0.13929043  0.16915380  0.50793782
   0.70232116  0.12740652  0.50981519
   0.03156629  0.47656489  0.85163646
   0.17464884  0.69381145  0.53179630
   0.49781246  0.02221171  0.83827090
   0.18881434  0.16964915  0.80528722
   0.64163213  0.19194592  0.82214957
   0.19063074  0.61339723  0.85968996
   0.81097681  0.83136313  0.18250513
   0.34773666  0.80771547  0.15413937
   0.82962693  0.37020312  0.17914858
   0.86411964  0.83410763  0.48518131
   0.30508228  0.86146859  0.45132403
   0.97866108  0.53088253  0.15326230
   0.83959262  0.30431117  0.48879174
   0.49984926  0.96978259  0.13784732
   0.70362087  0.33654282  0.49496874
   0.28290606  0.02156921  0.79087788
   0.63803082  0.33478479  0.20309486
   0.96257269  0.68982155  0.48368496
   0.35474766  0.95313043  0.45602577
   0.35065121  0.02478206  0.12727502
   0.71089097  0.97575898  0.18379991
   0.34897368  0.66142394  0.75737475
   0.73287198  0.27681427  0.02015082
   0.97875226  0.31628171  0.18742286
   0.31325224  0.70550457  0.18528833
   0.97554514  0.38465646  0.85604987
   0.64728399  0.97103797  0.85092479
   0.03153517  0.62524185  0.14956874
   0.64162405  0.03983743  0.51950102
   0.02819126  0.69316748  0.82156893
   0.30244069  0.62939306  0.58050287
   0.04419422  0.31860723  0.51953170
   0.70563763  0.43735055  0.37040980
   0.61979150  0.44222991  0.00306004
   0.79299666  0.21187746  0.68346239
Direct configuration=    12
   0.05805313  0.25800814  0.31550691
   0.03256638  0.30140913  0.95032737
   0.10165438  0.26209650  0.71758626
   0.68619166  0.05418237  0.31316031
   0.66419906  0.03351787  0.95521076
   0.63809401  0.10090817  0.71730646
   0.02391332  0.39678643  0.65394867
   0.27276439  0.67148318  0.34691652
   0.32359941  0.63774700  0.99152263
   0.28847214  0.59445815  0.79176744
   0.58587378  0.01584944  0.64668829
   0.29416827  0.03568847  0.35689440
   0.22675798  0.07665017  0.59545693
   0.27027470  0.08098249  0.99813261
   0.66616031  0.28735312  0.44578656
   0.73499536  0.20038999  0.56897696
   0.00903724  0.63299305  0.71136461
   0.03412113  0.56581626  0.94917751
   0.65545542  0.26794775  0.03061709
   0.04105846  0.67351923  0.37901197
   0.08390612  0.69595805  0.62349496
   0.36523020  0.99916389  0.68893484
   0.40549864  0.02589587  0.92795551
   0.09096958  0.64390082  0.02580209
   0.70348313  0.96043749  0.62333179
   0.77145148  0.92157763  0.38631655
   0.72756758  0.91539783  0.98257740
   0.35987985  0.69581029  0.52846885
   0.29920706  0.77456219  0.35329277
   0.00452325  0.37322782  0.28562557
   0.97375298  0.44325757  0.05657758
   0.33649185  0.72921608  0.94140222
   0.96103895  0.34563661  0.61803299
   0.92270911  0.31422020  0.38697764
   0.63259721  0.99200847  0.29029867
   0.59176282  0.96675360  0.04847946
   0.91629860  0.36516424  0.98575237
   0.94772526  0.74981033  0.68539368
   0.97215117  0.70587225  0.04756672
   0.90287264  0.74325046  0.28024807
   0.30736400  0.94199669  0.65821971
   0.32760663  0.96427214  0.02139049
   0.35687263  0.89496202  0.25341543
   0.98632802  0.61067602  0.35163625
   0.75927307  0.29671133  0.70841877
   0.68671523  0.36339905  0.01440100
   0.74552998  0.35580148  0.28397181
   0.41114799  0.97663575  0.32936797
   0.58643350  0.42269813  0.25493187
   0.62978410  0.47842402  0.23947367
   0.64196041  0.42531782  0.51271700
   0.83291588  0.17851916  0.20793772
   0.85708280  0.12375369  0.69174000
   0.83628385  0.05022181  0.58651794
   0.10889359  0.21566538  0.23424256
   0.15005830  0.16936767  0.35323231
   0.08454194  0.26165499  0.89184472
   0.12390762  0.21487008  0.03157197
   0.67866764  0.10511460  0.23540632
   0.68838918  0.14211333  0.35932972
   0.65397705  0.08465772  0.89328262
   0.66230509  0.12327520  0.03600450
   0.01474451  0.44805450  0.57524859
   0.02004027  0.48853542  0.69788977
   0.22956893  0.66156593  0.27268008
   0.17894437  0.67582801  0.38375874
   0.28518803  0.62058419  0.95539017
   0.23467637  0.63616371  0.08399037
   0.54442500  0.00584017  0.56535338
   0.49828188  0.01079703  0.68420153
   0.24342707  0.07646708  0.41958423
   0.20403957  0.12375311  0.28125761
   0.21916635  0.12304780  0.07861875
   0.17805720  0.16939171  0.95984913
   0.69564110  0.22874387  0.44493119
   0.68004898  0.19696781  0.29828945
   0.01860855  0.58217985  0.77317755
   0.01080028  0.54325056  0.63112462
   0.66215004  0.21660535  0.10116535
   0.65425470  0.17836255  0.97442439
   0.08317243  0.68060199  0.44679617
   0.13264774  0.66825683  0.31156852
   0.40580218  0.00923252  0.75202114
   0.45307137  0.00159095  0.61345502
   0.13510190  0.64790150  0.11419825
   0.18736063  0.63061664  0.00809600
   0.75542808  0.92147836  0.56217773
   0.79626166  0.87624295  0.70470194
   0.78046528  0.87591422  0.90561388
   0.82264314  0.83186047  0.02897292
   0.32656653  0.75348051  0.51340430
   0.32419106  0.79412018  0.66911608
   0.99187542  0.42552069  0.23013060
   0.99948437  0.46414036  0.37358601
   0.33366488  0.77922686  0.87289848
   0.33839883  0.81927446  0.99965008
   0.92238616  0.33153593  0.56221585
   0.87737010  0.33645211  0.70449743
   0.59175477  0.98255938  0.22488201
   0.54441111  0.99058136  0.36318851
   0.87603071  0.35355826  0.90472581
   0.82997788  0.35772518  0.02564966
   0.89480335  0.78948926  0.76217838
   0.85252973  0.83354438  0.63878183
   0.91951337  0.74416129  0.10570309
   0.87892943  0.78922896  0.96315978
   0.31685953  0.89020946  0.73434223
   0.31391446  0.84965696  0.60637148
   0.33892740  0.91258482  0.07916617
   0.33077974  0.87386106  0.93612848
   0.99558424  0.55918870  0.42968377
   0.99011420  0.51896309  0.30705657
   0.79340213  0.32081022  0.76453609
   0.83622933  0.31990519  0.63992494
   0.74312504  0.34296955  0.09513566
   0.78847541  0.34271711  0.95966274
   0.45289066  0.98656065  0.41113637
   0.49923949  0.98134535  0.29213185
   0.61766393  0.44328968  0.33834868
   0.84597164  0.08734659  0.63763951
   0.79209347  0.21624062  0.12163000
   0.13929079  0.16915664  0.50793859
   0.70231573  0.12740910  0.50980705
   0.03156613  0.47656711  0.85164997
   0.17465445  0.69381072  0.53183659
   0.49781389  0.02221449  0.83830260
   0.18881386  0.16965255  0.80527808
   0.64163524  0.19194456  0.82214670
   0.19063023  0.61339756  0.85967130
   0.81097630  0.83136400  0.18251293
   0.34773161  0.80771492  0.15413093
   0.82963028  0.37019634  0.17914764
   0.86411854  0.83410765  0.48517940
   0.30508789  0.86146384  0.45136025
   0.97866208  0.53088552  0.15326742
   0.83959409  0.30431069  0.48880527
   0.49985439  0.96976604  0.13775577
   0.70381806  0.33653194  0.49499321
   0.28275635  0.02165672  0.79075188
   0.63810124  0.33467597  0.20259727
   0.96257553  0.68982688  0.48366943
   0.35475205  0.95297513  0.45619985
   0.35085587  0.02480183  0.12732806
   0.71087201  0.97577448  0.18386558
   0.34886002  0.66149437  0.75700598
   0.73281009  0.27686648  0.02044729
   0.97877075  0.31626698  0.18745381
   0.31324634  0.70548390  0.18546121
   0.97554879  0.38466722  0.85604798
   0.64727446  0.97104269  0.85094154
   0.03154007  0.62524327  0.14954483
   0.64162683  0.03982047  0.51949640
   0.02819086  0.69317425  0.82155674
   0.30239745  0.62929085  0.58015424
   0.04419444  0.31859828  0.51951505
   0.70559877  0.43738523  0.37041712
   0.61977914  0.44222369  0.00309409
   0.79300034  0.21186119  0.68348463
Direct configuration=    13
   0.05805799  0.25801043  0.31550716
   0.03256191  0.30140584  0.95032168
   0.10164978  0.26210342  0.71759433
   0.68619321  0.05419266  0.31312869
   0.66418595  0.03352343  0.95521080
   0.63809524  0.10090281  0.71729587
   0.02391419  0.39678200  0.65395880
   0.27278350  0.67146372  0.34713363
   0.32361990  0.63785491  0.99107082
   0.28843618  0.59444981  0.79187979
   0.58586567  0.01586172  0.64671546
   0.29425922  0.03558854  0.35692500
   0.22664714  0.07673404  0.59515281
   0.27027357  0.08097784  0.99831298
   0.66613816  0.28744293  0.44598659
   0.73505832  0.20034463  0.56925929
   0.00904082  0.63299893  0.71136434
   0.03412217  0.56581680  0.94918579
   0.65531873  0.26791489  0.02994610
   0.04106253  0.67352632  0.37897680
   0.08390681  0.69595759  0.62354745
   0.36511790  0.99920377  0.68887785
   0.40550734  0.02599436  0.92773136
   0.09098101  0.64389350  0.02586059
   0.70348899  0.96044542  0.62334378
   0.77145236  0.92157111  0.38627378
   0.72756685  0.91539426  0.98258073
   0.35990923  0.69590212  0.52802069
   0.29913346  0.77457180  0.35331672
   0.00451977  0.37322992  0.28562434
   0.97374720  0.44327310  0.05660250
   0.33656300  0.72912137  0.94170157
   0.96102281  0.34562620  0.61800704
   0.92270964  0.31423634  0.38699959
   0.63261034  0.99200013  0.29031951
   0.59175838  0.96675677  0.04844774
   0.91626957  0.36516508  0.98568032
   0.94771043  0.74981603  0.68542205
   0.97215727  0.70586955  0.04759796
   0.90286811  0.74325535  0.28022712
   0.30737595  0.94196128  0.65832074
   0.32766036  0.96433826  0.02134197
   0.35686594  0.89494693  0.25332490
   0.98632015  0.61068212  0.35166966
   0.75921169  0.29685632  0.70849556
   0.68671355  0.36338420  0.01450294
   0.74559061  0.35576869  0.28392355
   0.41118712  0.97664928  0.32935734
   0.58653160  0.42260598  0.25503780
   0.62975860  0.47847011  0.23965728
   0.64207634  0.42520746  0.51270847
   0.83282457  0.17858572  0.20771106
   0.85710589  0.12377772  0.69179024
   0.83628847  0.05027301  0.58652636
   0.10891034  0.21564647  0.23425472
   0.15004222  0.16937989  0.35321692
   0.08454670  0.26165031  0.89183145
   0.12389962  0.21486875  0.03153873
   0.67868030  0.10512678  0.23546540
   0.68838209  0.14218556  0.35933389
   0.65397659  0.08467108  0.89332210
   0.66231066  0.12326823  0.03597902
   0.01474430  0.44806941  0.57523945
   0.02004246  0.48852683  0.69789972
   0.22951014  0.66156019  0.27264771
   0.17897916  0.67584430  0.38380893
   0.28517010  0.62063909  0.95533525
   0.23473319  0.63618095  0.08411433
   0.54443883  0.00585440  0.56531481
   0.49828713  0.01080784  0.68428584
   0.24346510  0.07644979  0.41936953
   0.20405780  0.12373160  0.28125951
   0.21915228  0.12306497  0.07866291
   0.17801563  0.16940593  0.95981523
   0.69562187  0.22875727  0.44484057
   0.68004094  0.19698170  0.29827535
   0.01861126  0.58217579  0.77315407
   0.01079973  0.54325138  0.63113731
   0.66214382  0.21650754  0.10121725
   0.65425582  0.17834458  0.97444793
   0.08318644  0.68059776  0.44680118
   0.13269061  0.66824960  0.31157870
   0.40571331  0.00923116  0.75184411
   0.45304077  0.00154589  0.61360205
   0.13510930  0.64788746  0.11415149
   0.18743735  0.63062197  0.00819864
   0.75543336  0.92147516  0.56219218
   0.79626008  0.87624800  0.70466327
   0.78047702  0.87589922  0.90560454
   0.82264379  0.83185621  0.02901300
   0.32654866  0.75351272  0.51315133
   0.32422488  0.79412042  0.66952786
   0.99187581  0.42552219  0.23013805
   0.99948715  0.46413563  0.37357129
   0.33366399  0.77925589  0.87310744
   0.33840785  0.81921795  0.99977704
   0.92238005  0.33152982  0.56221856
   0.87735177  0.33641925  0.70448656
   0.59175816  0.98255763  0.22481967
   0.54439424  0.99060514  0.36335089
   0.87603701  0.35356107  0.90482235
   0.82995263  0.35771545  0.02570801
   0.89481448  0.78948697  0.76215540
   0.85252232  0.83355605  0.63876596
   0.91951198  0.74416515  0.10570321
   0.87893192  0.78922937  0.96315513
   0.31688517  0.89019189  0.73445577
   0.31396775  0.84954795  0.60662362
   0.33892093  0.91267534  0.07899627
   0.33079754  0.87386814  0.93617279
   0.99557495  0.55920769  0.42968730
   0.99011216  0.51895173  0.30702314
   0.79339890  0.32088291  0.76460961
   0.83619408  0.31990949  0.63994303
   0.74316636  0.34291480  0.09473883
   0.78848656  0.34268135  0.95975848
   0.45281323  0.98651085  0.41099157
   0.49916066  0.98138031  0.29219619
   0.61770090  0.44324482  0.33835316
   0.84593928  0.08725033  0.63746905
   0.79212367  0.21622485  0.12194774
   0.13929443  0.16916136  0.50793598
   0.70230672  0.12741914  0.50978547
   0.03156516  0.47657231  0.85165872
   0.17466887  0.69380654  0.53187539
   0.49781962  0.02222892  0.83846921
   0.18881454  0.16966015  0.80521581
   0.64164058  0.19194696  0.82215799
   0.19063558  0.61340267  0.85968031
   0.81097614  0.83136519  0.18251928
   0.34773135  0.80771145  0.15424002
   0.82963091  0.37017384  0.17904151
   0.86411577  0.83410829  0.48518065
   0.30510588  0.86144220  0.45152097
   0.97866321  0.53089164  0.15326727
   0.83958956  0.30431355  0.48887977
   0.49985932  0.96974489  0.13768323
   0.70407201  0.33654584  0.49501993
   0.28258603  0.02177044  0.79081169
   0.63818972  0.33455736  0.20183985
   0.96258351  0.68983823  0.48362692
   0.35472434  0.95277676  0.45638971
   0.35116197  0.02475561  0.12740356
   0.71084532  0.97579756  0.18398496
   0.34866501  0.66161521  0.75642285
   0.73268974  0.27695546  0.02095700
   0.97879454  0.31624271  0.18749499
   0.31326718  0.70547660  0.18575161
   0.97555392  0.38468061  0.85604201
   0.64725116  0.97105753  0.85097422
   0.03155189  0.62524142  0.14951469
   0.64163849  0.03979282  0.51948065
   0.02819460  0.69318552  0.82152392
   0.30233903  0.62910989  0.57959893
   0.04419564  0.31858099  0.51950427
   0.70552567  0.43743463  0.37042258
   0.61975565  0.44220479  0.00321913
   0.79297376  0.21187177  0.68354528
Direct configuration=    14
   0.05805924  0.25801102  0.31550723
   0.03256075  0.30140499  0.95032021
   0.10164859  0.26210521  0.71759642
   0.68619361  0.05419533  0.31312050
   0.66418256  0.03352487  0.95521081
   0.63809556  0.10090142  0.71729313
   0.02391442  0.39678085  0.65396143
   0.27278845  0.67145868  0.34718986
   0.32362521  0.63788285  0.99095380
   0.28842686  0.59444765  0.79190889
   0.58586357  0.01586490  0.64672250
   0.29428277  0.03556267  0.35693293
   0.22661843  0.07675576  0.59507404
   0.27027328  0.08097664  0.99835969
   0.66613243  0.28746619  0.44603839
   0.73507463  0.20033288  0.56933242
   0.00904174  0.63300045  0.71136426
   0.03412244  0.56581694  0.94918793
   0.65528332  0.26790638  0.02977232
   0.04106359  0.67352816  0.37896770
   0.08390699  0.69595747  0.62356105
   0.36508882  0.99921410  0.68886309
   0.40550960  0.02601986  0.92767330
   0.09098397  0.64389160  0.02587575
   0.70349051  0.96044747  0.62334689
   0.77145259  0.92156942  0.38626270
   0.72756666  0.91539334  0.98258159
   0.35991683  0.69592590  0.52790461
   0.29911441  0.77457429  0.35332292
   0.00451887  0.37323046  0.28562402
   0.97374570  0.44327712  0.05660896
   0.33658143  0.72909684  0.94177910
   0.96101863  0.34562350  0.61800032
   0.92270977  0.31424052  0.38700528
   0.63261375  0.99199797  0.29032490
   0.59175723  0.96675759  0.04843953
   0.91626205  0.36516530  0.98566166
   0.94770659  0.74981751  0.68542939
   0.97215885  0.70586885  0.04760605
   0.90286693  0.74325662  0.28022169
   0.30737905  0.94195211  0.65834691
   0.32767427  0.96435538  0.02132940
   0.35686421  0.89494302  0.25330146
   0.98631811  0.61068370  0.35167831
   0.75919579  0.29689387  0.70851544
   0.68671312  0.36338036  0.01452935
   0.74560631  0.35576019  0.28391105
   0.41119726  0.97665279  0.32935459
   0.58655701  0.42258212  0.25506524
   0.62975199  0.47848204  0.23970484
   0.64210637  0.42517888  0.51270626
   0.83280093  0.17860296  0.20765235
   0.85711187  0.12378395  0.69180325
   0.83628967  0.05028626  0.58652853
   0.10891468  0.21564157  0.23425787
   0.15003805  0.16938305  0.35321293
   0.08454794  0.26164909  0.89182802
   0.12389755  0.21486840  0.03153012
   0.67868358  0.10512994  0.23548070
   0.68838025  0.14220427  0.35933497
   0.65397648  0.08467454  0.89333232
   0.66231210  0.12326642  0.03597242
   0.01474425  0.44807327  0.57523709
   0.02004303  0.48852460  0.69790230
   0.22949491  0.66155870  0.27263933
   0.17898818  0.67584851  0.38382193
   0.28516546  0.62065331  0.95532102
   0.23474791  0.63618541  0.08414644
   0.54444241  0.00585808  0.56530482
   0.49828849  0.01081064  0.68430767
   0.24347495  0.07644532  0.41931392
   0.20406253  0.12372602  0.28126000
   0.21914864  0.12306942  0.07867434
   0.17800486  0.16940962  0.95980645
   0.69561690  0.22876074  0.44481710
   0.68003886  0.19698530  0.29827170
   0.01861197  0.58217474  0.77314798
   0.01079959  0.54325160  0.63114060
   0.66214221  0.21648221  0.10123069
   0.65425611  0.17833993  0.97445403
   0.08319006  0.68059667  0.44680248
   0.13270171  0.66824773  0.31158134
   0.40569029  0.00923080  0.75179826
   0.45303284  0.00153421  0.61364013
   0.13511121  0.64788382  0.11413938
   0.18745722  0.63062335  0.00822522
   0.75543473  0.92147433  0.56219592
   0.79625967  0.87624931  0.70465326
   0.78048006  0.87589534  0.90560212
   0.82264396  0.83185511  0.02902338
   0.32654403  0.75352106  0.51308581
   0.32423364  0.79412049  0.66963451
   0.99187591  0.42552258  0.23013997
   0.99948787  0.46413440  0.37356748
   0.33366376  0.77926341  0.87316156
   0.33841019  0.81920331  0.99980992
   0.92237847  0.33152823  0.56221926
   0.87734702  0.33641074  0.70448374
   0.59175903  0.98255718  0.22480352
   0.54438987  0.99061129  0.36339295
   0.87603865  0.35356180  0.90484735
   0.82994610  0.35771293  0.02572313
   0.89481736  0.78948638  0.76214945
   0.85252040  0.83355908  0.63876185
   0.91951162  0.74416616  0.10570324
   0.87893256  0.78922948  0.96315392
   0.31689181  0.89018733  0.73448517
   0.31398155  0.84951972  0.60668892
   0.33891925  0.91269878  0.07895227
   0.33080215  0.87386997  0.93618427
   0.99557254  0.55921261  0.42968821
   0.99011163  0.51894879  0.30701448
   0.79339806  0.32090173  0.76462866
   0.83618495  0.31991061  0.63994771
   0.74317707  0.34290062  0.09463605
   0.78848944  0.34267209  0.95978328
   0.45279318  0.98649795  0.41095406
   0.49914024  0.98138936  0.29221285
   0.61771048  0.44323320  0.33835432
   0.84593089  0.08722540  0.63742490
   0.79213150  0.21622077  0.12203003
   0.13929537  0.16916258  0.50793530
   0.70230439  0.12742174  0.50977988
   0.03156491  0.47657365  0.85166098
   0.17467261  0.69380545  0.53188543
   0.49782110  0.02223266  0.83851236
   0.18881471  0.16966212  0.80519968
   0.64164196  0.19194759  0.82216091
   0.19063697  0.61340399  0.85968264
   0.81097610  0.83136549  0.18252093
   0.34773128  0.80771055  0.15426827
   0.82963107  0.37016802  0.17901402
   0.86411506  0.83410845  0.48518097
   0.30511054  0.86143660  0.45156260
   0.97866350  0.53089322  0.15326723
   0.83958838  0.30431429  0.48889906
   0.49986060  0.96973942  0.13766445
   0.70413778  0.33654944  0.49502685
   0.28254192  0.02179990  0.79082718
   0.63821264  0.33452665  0.20164369
   0.96258557  0.68984117  0.48361591
   0.35471717  0.95272538  0.45643888
   0.35124125  0.02474364  0.12742312
   0.71083841  0.97580354  0.18401587
   0.34861451  0.66164651  0.75627182
   0.73265856  0.27697851  0.02108901
   0.97880070  0.31623643  0.18750566
   0.31327258  0.70547471  0.18582683
   0.97555525  0.38468407  0.85604046
   0.64724513  0.97106137  0.85098268
   0.03155495  0.62524094  0.14950689
   0.64164151  0.03978566  0.51947657
   0.02819556  0.69318843  0.82151542
   0.30232389  0.62906303  0.57945510
   0.04419595  0.31857651  0.51950148
   0.70550673  0.43744742  0.37042399
   0.61974956  0.44219990  0.00325151
   0.79296687  0.21187450  0.68356099
Direct configuration=    15
   0.05806677  0.25801073  0.31550801
   0.03255377  0.30140448  0.95032401
   0.10164894  0.26210986  0.71758073
   0.68619162  0.05422388  0.31310183
   0.66416937  0.03354026  0.95520406
   0.63809834  0.10089722  0.71730122
   0.02391521  0.39677642  0.65396494
   0.27281789  0.67144594  0.34732769
   0.32362045  0.63798189  0.99060100
   0.28840259  0.59442647  0.79196371
   0.58585527  0.01587534  0.64674809
   0.29435351  0.03548340  0.35698992
   0.22653024  0.07681845  0.59477759
   0.27027672  0.08096442  0.99848801
   0.66610648  0.28756472  0.44610799
   0.73514069  0.20027827  0.56956956
   0.00904626  0.63300262  0.71137146
   0.03412278  0.56581804  0.94918226
   0.65517193  0.26787061  0.02924754
   0.04107438  0.67353497  0.37894494
   0.08390824  0.69595845  0.62360734
   0.36497400  0.99924500  0.68882561
   0.40551278  0.02611615  0.92751532
   0.09101130  0.64388616  0.02593224
   0.70350486  0.96044690  0.62334380
   0.77145130  0.92156345  0.38625120
   0.72756458  0.91539417  0.98259219
   0.35994826  0.69598444  0.52755493
   0.29901599  0.77461785  0.35321538
   0.00451625  0.37323138  0.28561901
   0.97374219  0.44328761  0.05664121
   0.33664178  0.72901632  0.94196377
   0.96100286  0.34561534  0.61799222
   0.92270872  0.31425203  0.38701458
   0.63263082  0.99199257  0.29035077
   0.59175414  0.96675897  0.04840119
   0.91623832  0.36516386  0.98560860
   0.94769792  0.74981933  0.68545126
   0.97217099  0.70586356  0.04761738
   0.90286072  0.74326223  0.28021002
   0.30738042  0.94191392  0.65847549
   0.32772178  0.96441803  0.02129278
   0.35685127  0.89494206  0.25313108
   0.98631279  0.61068939  0.35169823
   0.75915409  0.29696050  0.70861484
   0.68670651  0.36337788  0.01458784
   0.74568352  0.35574824  0.28395086
   0.41121547  0.97666138  0.32938063
   0.58666012  0.42249670  0.25515936
   0.62972618  0.47851850  0.23988663
   0.64222029  0.42507881  0.51273724
   0.83280136  0.17859084  0.20761302
   0.85710736  0.12372306  0.69172675
   0.83626467  0.05021898  0.58638087
   0.10892628  0.21562823  0.23425473
   0.15003743  0.16937813  0.35322037
   0.08454331  0.26165130  0.89182313
   0.12388662  0.21486985  0.03150101
   0.67869482  0.10514528  0.23554571
   0.68837428  0.14222417  0.35933377
   0.65397783  0.08467536  0.89335986
   0.66232039  0.12324357  0.03596996
   0.01474541  0.44807978  0.57523492
   0.02004526  0.48852213  0.69791600
   0.22944607  0.66155467  0.27265185
   0.17898531  0.67586657  0.38388098
   0.28516170  0.62069969  0.95523993
   0.23477265  0.63619651  0.08417148
   0.54445251  0.00586964  0.56526961
   0.49826016  0.01081311  0.68436723
   0.24350315  0.07642706  0.41912359
   0.20407550  0.12371919  0.28124331
   0.21914851  0.12307641  0.07871652
   0.17797592  0.16941792  0.95976680
   0.69559062  0.22880170  0.44478709
   0.68004361  0.19699076  0.29830053
   0.01861436  0.58217206  0.77313555
   0.01079858  0.54325321  0.63114210
   0.66212138  0.21644513  0.10114813
   0.65425428  0.17829349  0.97444310
   0.08320901  0.68059086  0.44678369
   0.13273222  0.66824255  0.31157513
   0.40565055  0.00923882  0.75159847
   0.45301897  0.00148057  0.61360605
   0.13513229  0.64787117  0.11412166
   0.18750685  0.63062655  0.00829167
   0.75543153  0.92147911  0.56219850
   0.79626263  0.87624936  0.70462701
   0.78047779  0.87589207  0.90559881
   0.82264586  0.83185109  0.02904458
   0.32655273  0.75352431  0.51307102
   0.32424736  0.79411192  0.66980311
   0.99187360  0.42552576  0.23013699
   0.99949053  0.46413228  0.37355221
   0.33367296  0.77928885  0.87335538
   0.33841523  0.81918500  0.99993238
   0.92236288  0.33152252  0.56224033
   0.87735841  0.33639324  0.70452752
   0.59174722  0.98255500  0.22476558
   0.54434355  0.99062984  0.36350046
   0.87603549  0.35355733  0.90488131
   0.82995818  0.35770804  0.02579790
   0.89481800  0.78949044  0.76213780
   0.85252166  0.83356418  0.63874913
   0.91950731  0.74417045  0.10571562
   0.87893856  0.78922858  0.96314003
   0.31691138  0.89016624  0.73457752
   0.31402117  0.84945736  0.60688994
   0.33892605  0.91274689  0.07887700
   0.33081185  0.87387951  0.93621932
   0.99556499  0.55922352  0.42969467
   0.99011032  0.51894548  0.30700819
   0.79341546  0.32097360  0.76471171
   0.83616180  0.31991778  0.63992615
   0.74317990  0.34285440  0.09425014
   0.78850584  0.34265143  0.95982264
   0.45276539  0.98646861  0.41094279
   0.49909531  0.98141148  0.29222333
   0.61773224  0.44317586  0.33826708
   0.84595593  0.08733674  0.63755055
   0.79205611  0.21629100  0.12213749
   0.13929852  0.16916763  0.50793032
   0.70229591  0.12743708  0.50975588
   0.03156412  0.47657764  0.85166497
   0.17468856  0.69380252  0.53191688
   0.49782773  0.02224712  0.83867100
   0.18881319  0.16966971  0.80514759
   0.64164707  0.19195179  0.82218815
   0.19064819  0.61341410  0.85974281
   0.81097552  0.83136626  0.18253363
   0.34773523  0.80770427  0.15442694
   0.82962784  0.37014837  0.17893245
   0.86411256  0.83410955  0.48517726
   0.30513294  0.86140321  0.45178601
   0.97866363  0.53089851  0.15325537
   0.83957892  0.30431670  0.48896532
   0.49986220  0.96972914  0.13768366
   0.70430996  0.33656924  0.49501343
   0.28243526  0.02188370  0.79099575
   0.63826673  0.33445237  0.20109000
   0.96259327  0.68985127  0.48357642
   0.35468235  0.95259495  0.45652477
   0.35146017  0.02467982  0.12747760
   0.71082151  0.97581803  0.18410176
   0.34845071  0.66174852  0.75576765
   0.73258144  0.27702283  0.02151700
   0.97881456  0.31621847  0.18753110
   0.31330472  0.70547327  0.18604893
   0.97555831  0.38469180  0.85603148
   0.64722628  0.97107579  0.85100745
   0.03156457  0.62523718  0.14948967
   0.64165384  0.03976549  0.51946499
   0.02819893  0.69319731  0.82148947
   0.30228486  0.62890522  0.57907302
   0.04419562  0.31856346  0.51950116
   0.70544525  0.43748309  0.37042389
   0.61972867  0.44218168  0.00338777
   0.79293225  0.21189972  0.68362206
Direct configuration=    16
   0.05806816  0.25801068  0.31550816
   0.03255248  0.30140439  0.95032471
   0.10164900  0.26211072  0.71757784
   0.68619125  0.05422914  0.31309839
   0.66416694  0.03354309  0.95520281
   0.63809885  0.10089644  0.71730272
   0.02391535  0.39677560  0.65396559
   0.27282332  0.67144359  0.34735310
   0.32361958  0.63800015  0.99053595
   0.28839811  0.59442257  0.79197381
   0.58585374  0.01587726  0.64675281
   0.29436655  0.03546878  0.35700043
   0.22651399  0.07683001  0.59472293
   0.27027735  0.08096217  0.99851167
   0.66610170  0.28758288  0.44612082
   0.73515287  0.20026820  0.56961328
   0.00904709  0.63300302  0.71137279
   0.03412284  0.56581824  0.94918122
   0.65515139  0.26786401  0.02915080
   0.04107637  0.67353623  0.37894074
   0.08390847  0.69595863  0.62361588
   0.36495284  0.99925070  0.68881870
   0.40551337  0.02613390  0.92748619
   0.09101634  0.64388515  0.02594265
   0.70350751  0.96044680  0.62334323
   0.77145106  0.92156235  0.38624908
   0.72756420  0.91539433  0.98259415
   0.35995406  0.69599523  0.52749046
   0.29899784  0.77462588  0.35319556
   0.00451577  0.37323155  0.28561809
   0.97374154  0.44328954  0.05664715
   0.33665290  0.72900147  0.94199782
   0.96099995  0.34561383  0.61799073
   0.92270853  0.31425415  0.38701629
   0.63263396  0.99199158  0.29035554
   0.59175357  0.96675923  0.04839412
   0.91623395  0.36516359  0.98559881
   0.94769632  0.74981967  0.68545529
   0.97217323  0.70586258  0.04761946
   0.90285958  0.74326326  0.28020787
   0.30738067  0.94190688  0.65849920
   0.32773053  0.96442958  0.02128602
   0.35684889  0.89494189  0.25309967
   0.98631181  0.61069044  0.35170190
   0.75914640  0.29697279  0.70863317
   0.68670529  0.36337742  0.01459863
   0.74569775  0.35574604  0.28395820
   0.41121883  0.97666296  0.32938543
   0.58667914  0.42248095  0.25517671
   0.62972142  0.47852522  0.23992014
   0.64224130  0.42506037  0.51274295
   0.83280144  0.17858860  0.20760577
   0.85710653  0.12371184  0.69171264
   0.83626006  0.05020657  0.58635364
   0.10892842  0.21562577  0.23425415
   0.15003732  0.16937723  0.35322174
   0.08454246  0.26165170  0.89182223
   0.12388460  0.21487011  0.03149564
   0.67869689  0.10514811  0.23555770
   0.68837318  0.14222784  0.35933355
   0.65397808  0.08467551  0.89336494
   0.66232192  0.12323936  0.03596950
   0.01474562  0.44808097  0.57523452
   0.02004568  0.48852167  0.69791852
   0.22943707  0.66155393  0.27265416
   0.17898478  0.67586990  0.38389187
   0.28516101  0.62070824  0.95522498
   0.23477721  0.63619856  0.08417609
   0.54445437  0.00587178  0.56526312
   0.49825494  0.01081357  0.68437821
   0.24350835  0.07642369  0.41908850
   0.20407789  0.12371793  0.28124023
   0.21914849  0.12307769  0.07872430
   0.17797058  0.16941945  0.95975948
   0.69558577  0.22880925  0.44478156
   0.68004448  0.19699176  0.29830584
   0.01861480  0.58217157  0.77313326
   0.01079839  0.54325351  0.63114237
   0.66211754  0.21643830  0.10113291
   0.65425394  0.17828492  0.97444109
   0.08321250  0.68058979  0.44678022
   0.13273785  0.66824159  0.31157398
   0.40564322  0.00924030  0.75156164
   0.45301641  0.00147068  0.61359976
   0.13513618  0.64786884  0.11411839
   0.18751600  0.63062714  0.00830393
   0.75543094  0.92147999  0.56219898
   0.79626317  0.87624937  0.70462217
   0.78047737  0.87589147  0.90559820
   0.82264621  0.83185034  0.02904848
   0.32655433  0.75352491  0.51306829
   0.32424989  0.79411034  0.66983419
   0.99187317  0.42552635  0.23013644
   0.99949102  0.46413189  0.37354939
   0.33367466  0.77929354  0.87339111
   0.33841616  0.81918163  0.99995496
   0.92236000  0.33152147  0.56224422
   0.87736051  0.33639002  0.70453559
   0.59174504  0.98255460  0.22475858
   0.54433501  0.99063326  0.36352028
   0.87603491  0.35355651  0.90488757
   0.82996041  0.35770714  0.02581168
   0.89481812  0.78949119  0.76213565
   0.85252190  0.83356513  0.63874678
   0.91950652  0.74417124  0.10571791
   0.87893967  0.78922841  0.96313746
   0.31691498  0.89016235  0.73459454
   0.31402847  0.84944587  0.60692700
   0.33892730  0.91275576  0.07886313
   0.33081364  0.87388127  0.93622579
   0.99556359  0.55922553  0.42969586
   0.99011008  0.51894487  0.30700703
   0.79341866  0.32098685  0.76472703
   0.83615753  0.31991911  0.63992218
   0.74318042  0.34284587  0.09417900
   0.78850887  0.34264762  0.95982990
   0.45276027  0.98646320  0.41094072
   0.49908702  0.98141556  0.29222527
   0.61773625  0.44316529  0.33825100
   0.84596054  0.08735727  0.63757371
   0.79204221  0.21630395  0.12215730
   0.13929910  0.16916856  0.50792940
   0.70229435  0.12743991  0.50975146
   0.03156398  0.47657837  0.85166571
   0.17469150  0.69380197  0.53192268
   0.49782895  0.02224979  0.83870025
   0.18881291  0.16967111  0.80513798
   0.64164801  0.19195257  0.82219318
   0.19065025  0.61341597  0.85975391
   0.81097541  0.83136640  0.18253597
   0.34773595  0.80770311  0.15445619
   0.82962725  0.37014474  0.17891741
   0.86411210  0.83410975  0.48517658
   0.30513707  0.86139705  0.45182720
   0.97866365  0.53089948  0.15325319
   0.83957717  0.30431715  0.48897753
   0.49986249  0.96972725  0.13768720
   0.70434170  0.33657289  0.49501095
   0.28241560  0.02189915  0.79102682
   0.63827671  0.33443867  0.20098792
   0.96259469  0.68985313  0.48356913
   0.35467593  0.95257091  0.45654061
   0.35150053  0.02466806  0.12748765
   0.71081839  0.97582071  0.18411759
   0.34842051  0.66176733  0.75567470
   0.73256722  0.27703100  0.02159591
   0.97881712  0.31621516  0.18753579
   0.31331064  0.70547300  0.18608988
   0.97555888  0.38469322  0.85602983
   0.64722280  0.97107844  0.85101202
   0.03156634  0.62523649  0.14948649
   0.64165611  0.03976177  0.51946285
   0.02819955  0.69319894  0.82148468
   0.30227767  0.62887612  0.57900258
   0.04419556  0.31856105  0.51950110
   0.70543392  0.43748967  0.37042387
   0.61972482  0.44217832  0.00341290
   0.79292586  0.21190437  0.68363332
Direct configuration=    17
   0.05807922  0.25800682  0.31550710
   0.03254478  0.30140567  0.95033118
   0.10165158  0.26211375  0.71755751
   0.68618741  0.05426190  0.31310976
   0.66415595  0.03355610  0.95520378
   0.63810262  0.10089339  0.71732594
   0.02391554  0.39677391  0.65395993
   0.27284513  0.67143282  0.34738715
   0.32358309  0.63808524  0.99026274
   0.28838594  0.59439588  0.79199559
   0.58584690  0.01588649  0.64677043
   0.29440508  0.03542121  0.35707317
   0.22645475  0.07686437  0.59447144
   0.27028447  0.08094651  0.99859532
   0.66609291  0.28765254  0.44608465
   0.73516071  0.20025177  0.56963648
   0.00905239  0.63300116  0.71138348
   0.03412303  0.56581920  0.94916681
   0.65506708  0.26782705  0.02878066
   0.04109284  0.67354214  0.37892745
   0.08391197  0.69595800  0.62362876
   0.36486434  0.99927859  0.68882647
   0.40550679  0.02621687  0.92730128
   0.09105347  0.64388011  0.02598342
   0.70352051  0.96044491  0.62334080
   0.77144751  0.92155746  0.38626092
   0.72756111  0.91539885  0.98260851
   0.35999590  0.69600982  0.52724183
   0.29889997  0.77468680  0.35311173
   0.00451363  0.37323212  0.28560976
   0.97373848  0.44329638  0.05666947
   0.33670190  0.72895795  0.94205817
   0.96098985  0.34560940  0.61800652
   0.92270397  0.31425974  0.38700325
   0.63263825  0.99198535  0.29036522
   0.59174972  0.96676046  0.04836836
   0.91622541  0.36516202  0.98558116
   0.94769552  0.74981626  0.68546422
   0.97218412  0.70585969  0.04762219
   0.90285246  0.74326870  0.28020940
   0.30736982  0.94187636  0.65863395
   0.32777574  0.96447211  0.02126984
   0.35683590  0.89495131  0.25291956
   0.98630865  0.61069644  0.35170710
   0.75913182  0.29698261  0.70876848
   0.68668956  0.36339100  0.01460160
   0.74577922  0.35574342  0.28393658
   0.41120457  0.97665823  0.32942581
   0.58676864  0.42239820  0.25521782
   0.62969079  0.47854895  0.24008750
   0.64233900  0.42497983  0.51274208
   0.83283088  0.17855546  0.20762080
   0.85712102  0.12372313  0.69173951
   0.83625884  0.05022863  0.58633542
   0.10893214  0.21561988  0.23424233
   0.15005227  0.16935737  0.35323794
   0.08452970  0.26166059  0.89181466
   0.12387190  0.21487296  0.03147591
   0.67870332  0.10516497  0.23558574
   0.68837140  0.14220631  0.35935068
   0.65397941  0.08466789  0.89336371
   0.66233342  0.12320457  0.03600185
   0.01474818  0.44807669  0.57524022
   0.02004706  0.48852591  0.69792641
   0.22942997  0.66155556  0.27272385
   0.17895273  0.67588640  0.38394835
   0.28517645  0.62074463  0.95512435
   0.23477801  0.63620642  0.08413027
   0.54443808  0.00588354  0.56530158
   0.49821299  0.01080792  0.68440382
   0.24353735  0.07639512  0.41893720
   0.20408556  0.12372573  0.28119145
   0.21915555  0.12307974  0.07873700
   0.17796334  0.16941448  0.95971466
   0.69559407  0.22885749  0.44495280
   0.68005309  0.19700482  0.29833308
   0.01861647  0.58217295  0.77313138
   0.01079690  0.54325540  0.63113466
   0.66208671  0.21645261  0.10096788
   0.65424929  0.17822436  0.97439887
   0.08323338  0.68058529  0.44676433
   0.13274598  0.66823921  0.31156315
   0.40562276  0.00925913  0.75141085
   0.45302163  0.00141827  0.61346503
   0.13517451  0.64785961  0.11414598
   0.18753050  0.63062680  0.00831507
   0.75542867  0.92148531  0.56218198
   0.79626763  0.87624620  0.70462008
   0.78046646  0.87589629  0.90560041
   0.82264859  0.83184782  0.02904084
   0.32655537  0.75353631  0.51313478
   0.32424937  0.79408283  0.66981095
   0.99187035  0.42552805  0.23013657
   0.99949375  0.46413269  0.37354273
   0.33369443  0.77927895  0.87357041
   0.33841913  0.81920932  0.00009963
   0.92234113  0.33151652  0.56228082
   0.87738398  0.33638301  0.70460102
   0.59172587  0.98255643  0.22477676
   0.54428306  0.99064336  0.36351155
   0.87602262  0.35354470  0.90485831
   0.82999204  0.35770022  0.02585174
   0.89480952  0.78950063  0.76213805
   0.85252909  0.83356499  0.63873895
   0.91950691  0.74417184  0.10572141
   0.87894509  0.78922833  0.96312593
   0.31693034  0.89013245  0.73468795
   0.31405244  0.84943677  0.60705170
   0.33893858  0.91277678  0.07881193
   0.33081753  0.87388907  0.93627240
   0.99555832  0.55922579  0.42970309
   0.99010906  0.51895168  0.30702146
   0.79342854  0.32103774  0.76477890
   0.83616211  0.31993447  0.63989325
   0.74316410  0.34281416  0.09400685
   0.78853510  0.34264776  0.95982261
   0.45278651  0.98645290  0.41103366
   0.49907441  0.98142552  0.29220540
   0.61777068  0.44310675  0.33821260
   0.84594352  0.08730788  0.63747650
   0.79193505  0.21639196  0.12221146
   0.13930133  0.16917359  0.50792752
   0.70228733  0.12745840  0.50973265
   0.03156374  0.47658079  0.85167034
   0.17470728  0.69380202  0.53196002
   0.49783371  0.02226078  0.83880730
   0.18880823  0.16967856  0.80510607
   0.64165255  0.19195585  0.82222836
   0.19066730  0.61342966  0.85985165
   0.81097461  0.83136665  0.18255506
   0.34774186  0.80769586  0.15463597
   0.82962210  0.37013187  0.17890773
   0.86411042  0.83411130  0.48516484
   0.30516223  0.86135447  0.45208673
   0.97866324  0.53090350  0.15323616
   0.83956329  0.30431723  0.48901353
   0.49986096  0.96972602  0.13777179
   0.70444731  0.33659215  0.49495275
   0.28235627  0.02196093  0.79125379
   0.63830407  0.33439072  0.20061505
   0.96260216  0.68986197  0.48353712
   0.35463953  0.95249964  0.45654166
   0.35163652  0.02460060  0.12752260
   0.71081094  0.97582856  0.18416825
   0.34828636  0.66185034  0.75523118
   0.73252078  0.27704164  0.02190308
   0.97882095  0.31620428  0.18754759
   0.31334875  0.70547441  0.18624601
   0.97555909  0.38469573  0.85601728
   0.64721153  0.97109123  0.85102839
   0.03157378  0.62523162  0.14948030
   0.64166941  0.03975064  0.51945612
   0.02820193  0.69320552  0.82146742
   0.30225563  0.62874136  0.57879040
   0.04419253  0.31855298  0.51950816
   0.70538501  0.43751283  0.37042038
   0.61970674  0.44216282  0.00355013
   0.79288375  0.21194584  0.68370078
Direct configuration=    18
   0.05808830  0.25800365  0.31550623
   0.03253845  0.30140672  0.95033648
   0.10165369  0.26211624  0.71754082
   0.68618426  0.05428879  0.31311910
   0.66414692  0.03356678  0.95520458
   0.63810571  0.10089089  0.71734501
   0.02391570  0.39677253  0.65395528
   0.27286303  0.67142397  0.34741510
   0.32355313  0.63815509  0.99003845
   0.28837596  0.59437398  0.79201347
   0.58584128  0.01589407  0.64678490
   0.29443671  0.03538216  0.35713289
   0.22640613  0.07689257  0.59426498
   0.27029031  0.08093365  0.99866398
   0.66608569  0.28770972  0.44605495
   0.73516715  0.20023829  0.56965553
   0.00905674  0.63299964  0.71139225
   0.03412318  0.56581998  0.94915499
   0.65499786  0.26779671  0.02847681
   0.04110637  0.67354699  0.37891654
   0.08391485  0.69595749  0.62363934
   0.36479168  0.99930149  0.68883285
   0.40550140  0.02628498  0.92714948
   0.09108396  0.64387597  0.02601688
   0.70353118  0.96044336  0.62333880
   0.77144460  0.92155345  0.38627065
   0.72755858  0.91540257  0.98262030
   0.36003026  0.69602179  0.52703773
   0.29881962  0.77473681  0.35304292
   0.00451188  0.37323259  0.28560292
   0.97373597  0.44330200  0.05668778
   0.33674212  0.72892223  0.94210772
   0.96098156  0.34560577  0.61801948
   0.92270022  0.31426432  0.38699253
   0.63264177  0.99198023  0.29037317
   0.59174656  0.96676146  0.04834721
   0.91621840  0.36516073  0.98556667
   0.94769486  0.74981347  0.68547154
   0.97219306  0.70585733  0.04762442
   0.90284662  0.74327316  0.28021066
   0.30736091  0.94185131  0.65874457
   0.32781284  0.96450702  0.02125655
   0.35682523  0.89495905  0.25277171
   0.98630605  0.61070137  0.35171138
   0.75911986  0.29699067  0.70887956
   0.68667664  0.36340214  0.01460405
   0.74584611  0.35574127  0.28391884
   0.41119286  0.97665434  0.32945897
   0.58684212  0.42233027  0.25525157
   0.62966565  0.47856844  0.24022489
   0.64241920  0.42491371  0.51274137
   0.83285506  0.17852826  0.20763314
   0.85713292  0.12373240  0.69176157
   0.83625783  0.05024673  0.58632046
   0.10893520  0.21561505  0.23423262
   0.15006454  0.16934108  0.35325124
   0.08451923  0.26166789  0.89180844
   0.12386147  0.21487529  0.03145972
   0.67870860  0.10517882  0.23560876
   0.68836995  0.14218864  0.35936475
   0.65398049  0.08466164  0.89336270
   0.66234285  0.12317600  0.03602841
   0.01475028  0.44807317  0.57524491
   0.02004819  0.48852938  0.69793288
   0.22942414  0.66155689  0.27278107
   0.17892643  0.67589995  0.38399472
   0.28518912  0.62077451  0.95504174
   0.23477867  0.63621286  0.08409264
   0.54442471  0.00589320  0.56533316
   0.49817855  0.01080328  0.68442483
   0.24356116  0.07637166  0.41881298
   0.20409185  0.12373213  0.28115141
   0.21916136  0.12308142  0.07874742
   0.17795739  0.16941041  0.95967786
   0.69560089  0.22889710  0.44509337
   0.68006016  0.19701553  0.29835544
   0.01861784  0.58217408  0.77312984
   0.01079569  0.54325695  0.63112832
   0.66206141  0.21646436  0.10083239
   0.65424548  0.17817464  0.97436421
   0.08325051  0.68058160  0.44675129
   0.13275266  0.66823726  0.31155426
   0.40560596  0.00927458  0.75128706
   0.45302591  0.00137524  0.61335443
   0.13520597  0.64785203  0.11416863
   0.18754241  0.63062652  0.00832423
   0.75542681  0.92148969  0.56216803
   0.79627129  0.87624360  0.70461837
   0.78045750  0.87590024  0.90560223
   0.82265055  0.83184574  0.02903456
   0.32655623  0.75354567  0.51318936
   0.32424894  0.79406024  0.66979187
   0.99186804  0.42552945  0.23013667
   0.99949600  0.46413335  0.37353726
   0.33371066  0.77926697  0.87371760
   0.33842157  0.81923204  0.00021839
   0.92232564  0.33151245  0.56231086
   0.87740326  0.33637726  0.70465473
   0.59171013  0.98255793  0.22479168
   0.54424041  0.99065164  0.36350439
   0.87601252  0.35353501  0.90483430
   0.83001801  0.35769454  0.02588462
   0.89480246  0.78950839  0.76214002
   0.85253499  0.83356487  0.63873252
   0.91950724  0.74417234  0.10572428
   0.87894954  0.78922826  0.96311646
   0.31694294  0.89010790  0.73476463
   0.31407211  0.84942931  0.60715407
   0.33894785  0.91279403  0.07876991
   0.33082072  0.87389548  0.93631066
   0.99555399  0.55922600  0.42970903
   0.99010822  0.51895728  0.30703330
   0.79343664  0.32107952  0.76482148
   0.83616586  0.31994708  0.63986951
   0.74315070  0.34278813  0.09386553
   0.78855664  0.34264787  0.95981662
   0.45280805  0.98644444  0.41110996
   0.49906406  0.98143369  0.29218909
   0.61779895  0.44305869  0.33818107
   0.84592955  0.08726734  0.63739669
   0.79184708  0.21646422  0.12225592
   0.13930316  0.16917773  0.50792598
   0.70228156  0.12747358  0.50971722
   0.03156354  0.47658277  0.85167413
   0.17472024  0.69380205  0.53199067
   0.49783762  0.02226980  0.83889519
   0.18880439  0.16968468  0.80507987
   0.64165627  0.19195855  0.82225725
   0.19068129  0.61344090  0.85993189
   0.81097396  0.83136686  0.18257073
   0.34774671  0.80768990  0.15478356
   0.82961788  0.37012130  0.17889978
   0.86410903  0.83411258  0.48515520
   0.30518288  0.86131952  0.45229979
   0.97866290  0.53090680  0.15322218
   0.83955189  0.30431730  0.48904307
   0.49985970  0.96972501  0.13784123
   0.70453400  0.33660796  0.49490497
   0.28230757  0.02201165  0.79144012
   0.63832653  0.33435135  0.20030895
   0.96260829  0.68986922  0.48351083
   0.35460964  0.95244114  0.45654252
   0.35174817  0.02454523  0.12755130
   0.71080483  0.97583501  0.18420984
   0.34817623  0.66191849  0.75486709
   0.73248266  0.27705037  0.02215525
   0.97882410  0.31619536  0.18755728
   0.31338004  0.70547556  0.18637419
   0.97555927  0.38469780  0.85600698
   0.64720228  0.97110173  0.85104183
   0.03157988  0.62522761  0.14947521
   0.64168033  0.03974149  0.51945059
   0.02820389  0.69321092  0.82145324
   0.30223754  0.62863073  0.57861621
   0.04419005  0.31854634  0.51951395
   0.70534486  0.43753185  0.37041751
   0.61969190  0.44215010  0.00366280
   0.79284918  0.21197989  0.68375615
Direct configuration=    19
   0.05810538  0.25799593  0.31550449
   0.03252552  0.30141223  0.95034095
   0.10165421  0.26212128  0.71753311
   0.68617954  0.05431542  0.31318126
   0.66413649  0.03356428  0.95522709
   0.63811001  0.10088836  0.71736757
   0.02391566  0.39677166  0.65394294
   0.27288196  0.67140515  0.34738123
   0.32348202  0.63826449  0.98971761
   0.28837452  0.59433302  0.79203857
   0.58582413  0.01590506  0.64678805
   0.29446428  0.03534284  0.35721283
   0.22635665  0.07690425  0.59400979
   0.27030604  0.08091109  0.99874944
   0.66610345  0.28776804  0.44595260
   0.73513346  0.20025485  0.56956981
   0.00906428  0.63299703  0.71140286
   0.03412466  0.56581970  0.94914162
   0.65490488  0.26777162  0.02806779
   0.04112979  0.67355309  0.37889909
   0.08392472  0.69595363  0.62361535
   0.36472802  0.99934471  0.68891271
   0.40548262  0.02638270  0.92681027
   0.09113681  0.64386892  0.02605084
   0.70353718  0.96044794  0.62335083
   0.77144068  0.92154814  0.38627037
   0.72755165  0.91541320  0.98264301
   0.36009346  0.69601187  0.52676942
   0.29871903  0.77480850  0.35315023
   0.00450932  0.37323255  0.28559069
   0.97373047  0.44330923  0.05669405
   0.33680141  0.72890082  0.94210002
   0.96097252  0.34560176  0.61805680
   0.92268706  0.31426911  0.38698538
   0.63262142  0.99196907  0.29036824
   0.59173758  0.96676602  0.04835974
   0.91622227  0.36515725  0.98557105
   0.94769666  0.74980720  0.68547588
   0.97220061  0.70585982  0.04763334
   0.90283850  0.74327965  0.28021215
   0.30733361  0.94183014  0.65892040
   0.32787868  0.96452451  0.02125892
   0.35681786  0.89497170  0.25262293
   0.98630397  0.61070812  0.35170877
   0.75913361  0.29697350  0.70911766
   0.68664632  0.36343482  0.01456069
   0.74594900  0.35574013  0.28374618
   0.41116725  0.97663518  0.32956121
   0.58694146  0.42221330  0.25523475
   0.62961503  0.47858974  0.24042892
   0.64253218  0.42482361  0.51266888
   0.83277198  0.17860135  0.20739144
   0.85713433  0.12369704  0.69172064
   0.83624371  0.05023108  0.58623433
   0.10894020  0.21560580  0.23422420
   0.15008607  0.16931696  0.35324752
   0.08450257  0.26167973  0.89178184
   0.12385005  0.21487366  0.03143175
   0.67871132  0.10518849  0.23559169
   0.68836838  0.14218275  0.35938059
   0.65398251  0.08464901  0.89335260
   0.66235849  0.12312514  0.03607047
   0.01475404  0.44806435  0.57525289
   0.02004910  0.48853580  0.69793089
   0.22944651  0.66156096  0.27287154
   0.17889309  0.67591608  0.38404857
   0.28520024  0.62081105  0.95489864
   0.23477471  0.63622973  0.08404056
   0.54436514  0.00590806  0.56545237
   0.49814368  0.01079184  0.68446073
   0.24359209  0.07633205  0.41865652
   0.20410958  0.12374286  0.28106356
   0.21916897  0.12308808  0.07870163
   0.17796438  0.16939408  0.95963065
   0.69561667  0.22896445  0.44534459
   0.68006651  0.19704332  0.29834510
   0.01861896  0.58217880  0.77312671
   0.01079371  0.54325978  0.63112080
   0.66202406  0.21647543  0.10066802
   0.65423874  0.17810865  0.97432056
   0.08327280  0.68057931  0.44675228
   0.13274246  0.66823791  0.31155733
   0.40555594  0.00930676  0.75113261
   0.45304007  0.00131932  0.61323397
   0.13525716  0.64784388  0.11424064
   0.18754367  0.63062572  0.00832048
   0.75543394  0.92148654  0.56215833
   0.79627414  0.87624075  0.70463410
   0.78044486  0.87590681  0.90560504
   0.82264966  0.83184641  0.02901336
   0.32651653  0.75358691  0.51310164
   0.32424417  0.79402483  0.66977200
   0.99186548  0.42553023  0.23015056
   0.99950011  0.46413637  0.37354726
   0.33374383  0.77922053  0.87386957
   0.33842741  0.81927683  0.00044485
   0.92231638  0.33150600  0.56233975
   0.87742435  0.33636871  0.70469261
   0.59168590  0.98256428  0.22484322
   0.54420166  0.99066404  0.36343542
   0.87601141  0.35351975  0.90479404
   0.83005320  0.35767939  0.02589424
   0.89479550  0.78951608  0.76214649
   0.85254210  0.83356612  0.63872641
   0.91951688  0.74416694  0.10571554
   0.87895166  0.78923137  0.96311571
   0.31695840  0.89006894  0.73490396
   0.31409641  0.84942453  0.60730227
   0.33895499  0.91282738  0.07861916
   0.33082177  0.87390966  0.93640436
   0.99554868  0.55922527  0.42971914
   0.99010557  0.51896978  0.30704220
   0.79343084  0.32111111  0.76481110
   0.83619435  0.31997724  0.63985918
   0.74314487  0.34276046  0.09390895
   0.78858859  0.34266882  0.95979912
   0.45285794  0.98643122  0.41116570
   0.49906073  0.98143723  0.29217288
   0.61787550  0.44298466  0.33827285
   0.84593617  0.08730012  0.63740765
   0.79184330  0.21644034  0.12264917
   0.13930688  0.16918249  0.50793330
   0.70227551  0.12749548  0.50972840
   0.03156382  0.47658531  0.85168309
   0.17473755  0.69380650  0.53205889
   0.49783638  0.02227709  0.83894014
   0.18879536  0.16969430  0.80504740
   0.64165996  0.19195674  0.82228729
   0.19070913  0.61345685  0.86004310
   0.81097431  0.83136641  0.18258723
   0.34775434  0.80768492  0.15502155
   0.82961324  0.37011104  0.17897490
   0.86410818  0.83411476  0.48513099
   0.30521485  0.86126321  0.45260568
   0.97866294  0.53091074  0.15321053
   0.83953094  0.30431492  0.48905385
   0.49985385  0.96972716  0.13795640
   0.70463407  0.33662613  0.49478390
   0.28225636  0.02208202  0.79175843
   0.63834770  0.33429256  0.19993397
   0.96262001  0.68987918  0.48347606
   0.35455989  0.95239192  0.45649610
   0.35186388  0.02445715  0.12758522
   0.71080080  0.97584413  0.18425027
   0.34801510  0.66201469  0.75428652
   0.73241275  0.27706783  0.02239641
   0.97881899  0.31618780  0.18756332
   0.31343518  0.70548181  0.18653829
   0.97555513  0.38469712  0.85598887
   0.64719504  0.97111717  0.85105871
   0.03159047  0.62522108  0.14947555
   0.64169999  0.03973603  0.51944029
   0.02820818  0.69321685  0.82144010
   0.30222068  0.62846764  0.57844898
   0.04418203  0.31854019  0.51952751
   0.70529014  0.43755332  0.37041115
   0.61966874  0.44213268  0.00385120
   0.79278803  0.21204721  0.68387144
Direct configuration=    20
   0.05811354  0.25799223  0.31550365
   0.03251933  0.30141486  0.95034309
   0.10165445  0.26212370  0.71752942
   0.68617729  0.05432815  0.31321098
   0.66413150  0.03356308  0.95523785
   0.63811206  0.10088716  0.71737836
   0.02391564  0.39677124  0.65393704
   0.27289102  0.67139615  0.34736504
   0.32344802  0.63831680  0.98956421
   0.28837383  0.59431344  0.79205058
   0.58581594  0.01591031  0.64678956
   0.29447746  0.03532404  0.35725105
   0.22633300  0.07690984  0.59388777
   0.27031356  0.08090031  0.99879029
   0.66611194  0.28779592  0.44590367
   0.73511736  0.20026277  0.56952883
   0.00906789  0.63299578  0.71140793
   0.03412536  0.56581957  0.94913522
   0.65486042  0.26775962  0.02787223
   0.04114098  0.67355601  0.37889075
   0.08392943  0.69595178  0.62360388
   0.36469759  0.99936537  0.68895089
   0.40547365  0.02642943  0.92664809
   0.09116207  0.64386555  0.02606708
   0.70354005  0.96045013  0.62335658
   0.77143880  0.92154560  0.38627023
   0.72754833  0.91541828  0.98265387
   0.36012368  0.69600712  0.52664113
   0.29867094  0.77484278  0.35320153
   0.00450810  0.37323253  0.28558484
   0.97372785  0.44331269  0.05669704
   0.33682976  0.72889058  0.94209634
   0.96096819  0.34559985  0.61807464
   0.92268077  0.31427140  0.38698196
   0.63261169  0.99196373  0.29036588
   0.59173328  0.96676820  0.04836573
   0.91622412  0.36515558  0.98557315
   0.94769753  0.74980420  0.68547795
   0.97220423  0.70586102  0.04763760
   0.90283462  0.74328276  0.28021287
   0.30732056  0.94182001  0.65900447
   0.32791016  0.96453288  0.02126005
   0.35681433  0.89497775  0.25255179
   0.98630298  0.61071135  0.35170753
   0.75914018  0.29696529  0.70923150
   0.68663182  0.36345045  0.01453996
   0.74599819  0.35573959  0.28366363
   0.41115500  0.97662602  0.32961010
   0.58698895  0.42215737  0.25522670
   0.62959083  0.47859992  0.24052646
   0.64258619  0.42478053  0.51263422
   0.83273226  0.17863629  0.20727588
   0.85713500  0.12368013  0.69170107
   0.83623696  0.05022359  0.58619315
   0.10894260  0.21560137  0.23422018
   0.15009637  0.16930543  0.35324574
   0.08449461  0.26168540  0.89176912
   0.12384459  0.21487288  0.03141838
   0.67871262  0.10519312  0.23558353
   0.68836762  0.14217993  0.35938816
   0.65398348  0.08464297  0.89334777
   0.66236596  0.12310082  0.03609058
   0.01475584  0.44806012  0.57525671
   0.02004953  0.48853886  0.69792993
   0.22945720  0.66156290  0.27291479
   0.17887715  0.67592380  0.38407432
   0.28520556  0.62082852  0.95483023
   0.23477282  0.63623780  0.08401565
   0.54433665  0.00591517  0.56550937
   0.49812701  0.01078637  0.68447789
   0.24360687  0.07631311  0.41858171
   0.20411805  0.12374799  0.28102156
   0.21917261  0.12309127  0.07867973
   0.17796773  0.16938627  0.95960808
   0.69562421  0.22899665  0.44546470
   0.68006954  0.19705660  0.29834015
   0.01861949  0.58218105  0.77312521
   0.01079276  0.54326113  0.63111720
   0.66200621  0.21648072  0.10058943
   0.65423552  0.17807710  0.97429969
   0.08328346  0.68057822  0.44675276
   0.13273758  0.66823823  0.31155880
   0.40553203  0.00932214  0.75105877
   0.45304684  0.00129259  0.61317638
   0.13528164  0.64783999  0.11427506
   0.18754427  0.63062533  0.00831869
   0.75543735  0.92148504  0.56215370
   0.79627551  0.87623939  0.70464162
   0.78043881  0.87590995  0.90560639
   0.82264924  0.83184673  0.02900322
   0.32649755  0.75360663  0.51305971
   0.32424188  0.79400790  0.66976250
   0.99186426  0.42553060  0.23015720
   0.99950208  0.46413781  0.37355204
   0.33375968  0.77919832  0.87394224
   0.33843020  0.81929824  0.00055312
   0.92231195  0.33150291  0.56235356
   0.87743444  0.33636462  0.70471073
   0.59167431  0.98256731  0.22486786
   0.54418313  0.99066996  0.36340244
   0.87601087  0.35351245  0.90477480
   0.83007003  0.35767215  0.02589885
   0.89479217  0.78951976  0.76214959
   0.85254550  0.83356671  0.63872349
   0.91952149  0.74416436  0.10571136
   0.87895268  0.78923286  0.96311535
   0.31696580  0.89005032  0.73497058
   0.31410803  0.84942225  0.60737313
   0.33895841  0.91284332  0.07854708
   0.33082228  0.87391644  0.93644916
   0.99554614  0.55922492  0.42972397
   0.99010430  0.51897575  0.30704645
   0.79342807  0.32112621  0.76480614
   0.83620797  0.31999166  0.63985425
   0.74314208  0.34274723  0.09392971
   0.78860387  0.34267883  0.95979075
   0.45288180  0.98642490  0.41119235
   0.49905914  0.98143893  0.29216513
   0.61791210  0.44294926  0.33831673
   0.84593933  0.08731580  0.63741289
   0.79184149  0.21642892  0.12283720
   0.13930866  0.16918477  0.50793680
   0.70227262  0.12750595  0.50973374
   0.03156395  0.47658652  0.85168737
   0.17474583  0.69380863  0.53209150
   0.49783579  0.02228057  0.83896164
   0.18879104  0.16969891  0.80503188
   0.64166172  0.19195588  0.82230166
   0.19072244  0.61346448  0.86009627
   0.81097447  0.83136619  0.18259511
   0.34775799  0.80768254  0.15513534
   0.82961102  0.37010614  0.17901081
   0.86410778  0.83411580  0.48511942
   0.30523014  0.86123628  0.45275193
   0.97866296  0.53091262  0.15320496
   0.83952092  0.30431378  0.48905900
   0.49985106  0.96972819  0.13801146
   0.70468192  0.33663482  0.49472601
   0.28223187  0.02211566  0.79191061
   0.63835782  0.33426444  0.19975469
   0.96262561  0.68988395  0.48345944
   0.35453611  0.95236839  0.45647391
   0.35191920  0.02441504  0.12760145
   0.71079888  0.97584848  0.18426961
   0.34793807  0.66206068  0.75400895
   0.73237932  0.27707618  0.02251171
   0.97881655  0.31618418  0.18756622
   0.31346155  0.70548479  0.18661674
   0.97555316  0.38469680  0.85598021
   0.64719157  0.97112455  0.85106678
   0.03159554  0.62521796  0.14947571
   0.64170940  0.03973342  0.51943537
   0.02821024  0.69321968  0.82143382
   0.30221261  0.62838967  0.57836902
   0.04417819  0.31853726  0.51953399
   0.70526398  0.43756359  0.37040811
   0.61965766  0.44212435  0.00394128
   0.79275879  0.21207940  0.68392656
Direct configuration=    21
   0.05812862  0.25798427  0.31550617
   0.03250522  0.30142338  0.95033664
   0.10164942  0.26213168  0.71753918
   0.68617497  0.05432618  0.31331242
   0.66412540  0.03353895  0.95527544
   0.63811497  0.10088551  0.71738006
   0.02391562  0.39676859  0.65392764
   0.27291210  0.67137030  0.34731119
   0.32337182  0.63842443  0.98928347
   0.28838913  0.59426430  0.79208386
   0.58577995  0.01591802  0.64676948
   0.29449363  0.03529946  0.35727037
   0.22631668  0.07688239  0.59376279
   0.27033593  0.08088017  0.99884953
   0.66615895  0.28782727  0.44580180
   0.73510384  0.20028530  0.56955514
   0.00907497  0.63299750  0.71140788
   0.03412842  0.56581757  0.94913473
   0.65478659  0.26776958  0.02754876
   0.04115600  0.67355899  0.37886726
   0.08394497  0.69594772  0.62357487
   0.36467677  0.99940794  0.68904853
   0.40544264  0.02651625  0.92631988
   0.09120497  0.64385890  0.02607407
   0.70353813  0.96045911  0.62337930
   0.77143778  0.92154115  0.38624273
   0.72754056  0.91543097  0.98267505
   0.36017080  0.69600285  0.52639596
   0.29859502  0.77490403  0.35344949
   0.00450594  0.37323068  0.28557646
   0.97372215  0.44331650  0.05669039
   0.33688245  0.72888605  0.94205779
   0.96096426  0.34559587  0.61811259
   0.92266219  0.31427483  0.38700472
   0.63257785  0.99195412  0.29037346
   0.59171855  0.96677553  0.04842487
   0.91623830  0.36514921  0.98558957
   0.94769811  0.74979983  0.68548161
   0.97220833  0.70586655  0.04765161
   0.90283217  0.74328659  0.28019625
   0.30728430  0.94182706  0.65915908
   0.32797524  0.96451801  0.02124997
   0.35681704  0.89498953  0.25250770
   0.98630343  0.61071452  0.35170269
   0.75918267  0.29692944  0.70946722
   0.68660350  0.36349207  0.01447996
   0.74607817  0.35574648  0.28345411
   0.41115368  0.97659845  0.32977260
   0.58707542  0.42204678  0.25518963
   0.62953671  0.47861579  0.24069207
   0.64268373  0.42470618  0.51255424
   0.83274321  0.17862670  0.20723379
   0.85714161  0.12368412  0.69170811
   0.83623306  0.05025165  0.58616688
   0.10895338  0.21558617  0.23421266
   0.15011026  0.16929539  0.35320776
   0.08448596  0.26168899  0.89174626
   0.12384624  0.21485997  0.03138414
   0.67871310  0.10518301  0.23556552
   0.68836312  0.14223195  0.35935927
   0.65398755  0.08462368  0.89335444
   0.66237628  0.12305991  0.03607951
   0.01475855  0.44805859  0.57525856
   0.02005032  0.48853904  0.69792225
   0.22947671  0.66156419  0.27292632
   0.17888628  0.67592953  0.38409127
   0.28517803  0.62085123  0.95472130
   0.23477438  0.63626391  0.08402007
   0.54427412  0.00592269  0.56558079
   0.49811860  0.01077437  0.68455597
   0.24361183  0.07629104  0.41849338
   0.20414764  0.12374808  0.28093996
   0.21917956  0.12309878  0.07858514
   0.17797502  0.16937665  0.95957213
   0.69558161  0.22907003  0.44540929
   0.68006666  0.19709099  0.29829068
   0.01862015  0.58218471  0.77311985
   0.01079120  0.54326450  0.63112093
   0.66198297  0.21645055  0.10055614
   0.65423067  0.17805064  0.97431028
   0.08329138  0.68057927  0.44676149
   0.13272733  0.66824378  0.31160319
   0.40547447  0.00935502  0.75091427
   0.45305510  0.00126326  0.61320116
   0.13530502  0.64783665  0.11434870
   0.18755474  0.63062974  0.00835862
   0.75544850  0.92147486  0.56217681
   0.79627403  0.87624036  0.70465983
   0.78043303  0.87591339  0.90560982
   0.82264193  0.83185173  0.02899924
   0.32644561  0.75363743  0.51288106
   0.32424051  0.79399591  0.66987555
   0.99186225  0.42553331  0.23017135
   0.99950542  0.46414166  0.37357326
   0.33379353  0.77917630  0.87396881
   0.33843869  0.81930079  0.00074027
   0.92232772  0.33149714  0.56233812
   0.87744560  0.33635843  0.70468042
   0.59165232  0.98257375  0.22489210
   0.54418309  0.99068929  0.36340287
   0.87604172  0.35350505  0.90478774
   0.83008876  0.35765884  0.02591631
   0.89479827  0.78951635  0.76214925
   0.85254546  0.83357229  0.63872202
   0.91953113  0.74415949  0.10570633
   0.87894977  0.78923823  0.96312754
   0.31697157  0.89003156  0.73509876
   0.31412981  0.84938441  0.60755756
   0.33896348  0.91287416  0.07839070
   0.33081953  0.87393337  0.93656995
   0.99554218  0.55923286  0.42972801
   0.99010065  0.51898180  0.30703451
   0.79342282  0.32112425  0.76474231
   0.83622072  0.32001627  0.63985567
   0.74317366  0.34273154  0.09408310
   0.78860382  0.34270694  0.95976498
   0.45289717  0.98640134  0.41111100
   0.49906539  0.98143391  0.29216360
   0.61798636  0.44288123  0.33846002
   0.84592800  0.08726901  0.63731877
   0.79174457  0.21647878  0.12304413
   0.13931605  0.16918485  0.50794396
   0.70227042  0.12752139  0.50978508
   0.03156435  0.47658946  0.85169296
   0.17475554  0.69381637  0.53216606
   0.49782315  0.02227915  0.83890368
   0.18878118  0.16970675  0.80499859
   0.64166124  0.19194340  0.82229705
   0.19075128  0.61347084  0.86012234
   0.81097728  0.83136506  0.18258641
   0.34776425  0.80768738  0.15534416
   0.82961249  0.37009946  0.17912908
   0.86410813  0.83411790  0.48509448
   0.30525352  0.86119477  0.45292314
   0.97866388  0.53091532  0.15321039
   0.83950287  0.30431339  0.48905381
   0.49984159  0.96972920  0.13806051
   0.70475122  0.33663409  0.49458252
   0.28220236  0.02217149  0.79217586
   0.63836176  0.33421152  0.19950245
   0.96263953  0.68989076  0.48343368
   0.35448865  0.95235993  0.45641718
   0.35197426  0.02434028  0.12762001
   0.71079691  0.97585828  0.18428993
   0.34780018  0.66213545  0.75347066
   0.73232782  0.27708597  0.02262424
   0.97880351  0.31618340  0.18756561
   0.31351733  0.70549240  0.18672175
   0.97554489  0.38469428  0.85596756
   0.64718893  0.97113760  0.85107692
   0.03160954  0.62521317  0.14948056
   0.64172678  0.03973589  0.51942310
   0.02821842  0.69322081  0.82143537
   0.30220547  0.62825820  0.57826825
   0.04416690  0.31853620  0.51954570
   0.70522525  0.43757654  0.37039885
   0.61963455  0.44211162  0.00412977
   0.79269472  0.21215344  0.68406417
Direct configuration=    22
   0.05813920  0.25797868  0.31550794
   0.03249531  0.30142936  0.95033211
   0.10164589  0.26213729  0.71754603
   0.68617334  0.05432479  0.31338366
   0.66412111  0.03352200  0.95530183
   0.63811702  0.10088435  0.71738125
   0.02391560  0.39676673  0.65392103
   0.27292690  0.67135215  0.34727337
   0.32331831  0.63850001  0.98908633
   0.28839987  0.59422979  0.79210723
   0.58575467  0.01592344  0.64675537
   0.29450499  0.03528219  0.35728393
   0.22630523  0.07686311  0.59367503
   0.27035164  0.08086602  0.99889113
   0.66619196  0.28784929  0.44573026
   0.73509435  0.20030112  0.56957361
   0.00907994  0.63299870  0.71140785
   0.03413057  0.56581616  0.94913438
   0.65473474  0.26777657  0.02732162
   0.04116654  0.67356108  0.37885076
   0.08395588  0.69594487  0.62355450
   0.36466215  0.99943784  0.68911709
   0.40542086  0.02657722  0.92608939
   0.09123509  0.64385424  0.02607898
   0.70353679  0.96046541  0.62339525
   0.77143707  0.92153802  0.38622342
   0.72753510  0.91543988  0.98268992
   0.36020389  0.69599985  0.52622378
   0.29854171  0.77494704  0.35362362
   0.00450442  0.37322938  0.28557058
   0.97371815  0.44331918  0.05668573
   0.33691945  0.72888287  0.94203071
   0.96096150  0.34559307  0.61813924
   0.92264915  0.31427724  0.38702071
   0.63255409  0.99194737  0.29037879
   0.59170821  0.96678067  0.04846639
   0.91624826  0.36514473  0.98560111
   0.94769852  0.74979676  0.68548418
   0.97221121  0.70587044  0.04766144
   0.90283046  0.74328927  0.28018459
   0.30725883  0.94183201  0.65926765
   0.32802094  0.96450758  0.02124289
   0.35681895  0.89499779  0.25247674
   0.98630374  0.61071674  0.35169929
   0.75921252  0.29690427  0.70963276
   0.68658361  0.36352130  0.01443783
   0.74613434  0.35575132  0.28330697
   0.41115276  0.97657908  0.32988672
   0.58713614  0.42196911  0.25516359
   0.62949870  0.47862694  0.24080837
   0.64275223  0.42465397  0.51249808
   0.83275091  0.17861996  0.20720423
   0.85714625  0.12368692  0.69171305
   0.83623032  0.05027135  0.58614843
   0.10896095  0.21557549  0.23420739
   0.15012002  0.16928834  0.35318109
   0.08447988  0.26169152  0.89173021
   0.12384740  0.21485091  0.03136010
   0.67871344  0.10517591  0.23555286
   0.68835996  0.14226848  0.35933899
   0.65399040  0.08461014  0.89335912
   0.66238353  0.12303118  0.03607174
   0.01476045  0.44805751  0.57525985
   0.02005087  0.48853916  0.69791686
   0.22949041  0.66156509  0.27293442
   0.17889269  0.67593356  0.38410317
   0.28515869  0.62086717  0.95464482
   0.23477548  0.63628225  0.08402318
   0.54423021  0.00592797  0.56563094
   0.49811270  0.01076593  0.68461080
   0.24361531  0.07627554  0.41843135
   0.20416842  0.12374814  0.28088266
   0.21918444  0.12310406  0.07851871
   0.17798013  0.16936990  0.95954689
   0.69555169  0.22912156  0.44537038
   0.68006463  0.19711514  0.29825594
   0.01862062  0.58218728  0.77311608
   0.01079009  0.54326686  0.63112354
   0.66196665  0.21642937  0.10053276
   0.65422727  0.17803207  0.97431772
   0.08329695  0.68058000  0.44676762
   0.13272013  0.66824768  0.31163436
   0.40543405  0.00937811  0.75081280
   0.45306090  0.00124266  0.61321856
   0.13532145  0.64783431  0.11440040
   0.18756209  0.63063284  0.00838666
   0.75545633  0.92146771  0.56219304
   0.79627300  0.87624103  0.70467262
   0.78042897  0.87591580  0.90561222
   0.82263680  0.83185524  0.02899643
   0.32640913  0.75365905  0.51275561
   0.32423954  0.79398748  0.66995493
   0.99186084  0.42553522  0.23018128
   0.99950776  0.46414436  0.37358817
   0.33381731  0.77916083  0.87398747
   0.33844466  0.81930258  0.00087170
   0.92233880  0.33149309  0.56232728
   0.87745344  0.33635408  0.70465914
   0.59163687  0.98257827  0.22490912
   0.54418306  0.99070286  0.36340317
   0.87606338  0.35349985  0.90479683
   0.83010192  0.35764950  0.02592858
   0.89480256  0.78951395  0.76214902
   0.85254542  0.83357621  0.63872098
   0.91953789  0.74415607  0.10570279
   0.87894773  0.78924200  0.96313610
   0.31697562  0.89001839  0.73518877
   0.31414511  0.84935784  0.60768707
   0.33896705  0.91289581  0.07828088
   0.33081759  0.87394526  0.93665477
   0.99553940  0.55923843  0.42973085
   0.99009809  0.51898605  0.30702612
   0.79341913  0.32112287  0.76469748
   0.83622967  0.32003355  0.63985667
   0.74319584  0.34272051  0.09419081
   0.78860379  0.34272667  0.95974688
   0.45290796  0.98638479  0.41105388
   0.49906978  0.98143039  0.29216252
   0.61803851  0.44283346  0.33856065
   0.84592005  0.08723615  0.63725267
   0.79167651  0.21651380  0.12318945
   0.13932124  0.16918491  0.50794898
   0.70226888  0.12753224  0.50982113
   0.03156463  0.47659153  0.85169688
   0.17476236  0.69382181  0.53221841
   0.49781427  0.02227815  0.83886298
   0.18877426  0.16971226  0.80497521
   0.64166089  0.19193463  0.82229381
   0.19077153  0.61347531  0.86014065
   0.81097925  0.83136427  0.18258029
   0.34776864  0.80769078  0.15549081
   0.82961353  0.37009477  0.17921213
   0.86410838  0.83411937  0.48507697
   0.30526994  0.86116561  0.45304337
   0.97866452  0.53091721  0.15321420
   0.83949020  0.30431311  0.48905016
   0.49983494  0.96972991  0.13809496
   0.70479988  0.33663358  0.49448176
   0.28218163  0.02221070  0.79236213
   0.63836453  0.33417436  0.19932531
   0.96264930  0.68989554  0.48341559
   0.35445532  0.95235399  0.45637735
   0.35201293  0.02428779  0.12763304
   0.71079553  0.97586517  0.18430420
   0.34770336  0.66218795  0.75309266
   0.73229165  0.27709285  0.02270326
   0.97879436  0.31618284  0.18756518
   0.31355650  0.70549775  0.18679549
   0.97553908  0.38469251  0.85595867
   0.64718707  0.97114676  0.85108404
   0.03161938  0.62520981  0.14948398
   0.64173900  0.03973763  0.51941449
   0.02822417  0.69322160  0.82143645
   0.30220045  0.62816587  0.57819748
   0.04415898  0.31853545  0.51955393
   0.70519806  0.43758564  0.37039235
   0.61961832  0.44210268  0.00426213
   0.79264973  0.21220543  0.68416080
Direct configuration=    23
   0.05815377  0.25796951  0.31551081
   0.03248504  0.30143504  0.95031484
   0.10163704  0.26214873  0.71755403
   0.68617383  0.05431158  0.31350801
   0.66411449  0.03349159  0.95533859
   0.63812202  0.10087740  0.71738904
   0.02391483  0.39676326  0.65391357
   0.27296611  0.67131509  0.34723983
   0.32322426  0.63862210  0.98877281
   0.28842583  0.59416272  0.79216310
   0.58570228  0.01592976  0.64673322
   0.29451550  0.03526454  0.35724872
   0.22630853  0.07680531  0.59363154
   0.27037910  0.08085015  0.99893001
   0.66625224  0.28788207  0.44560850
   0.73506049  0.20035299  0.56958965
   0.00908802  0.63300313  0.71140065
   0.03413448  0.56581445  0.94913737
   0.65466372  0.26778859  0.02705850
   0.04117094  0.67356191  0.37881748
   0.08397462  0.69594318  0.62355585
   0.36462658  0.99947346  0.68914869
   0.40536971  0.02667717  0.92586058
   0.09126641  0.64384659  0.02606301
   0.70353985  0.96047038  0.62341564
   0.77143606  0.92153253  0.38621062
   0.72752990  0.91545182  0.98270474
   0.36023352  0.69601779  0.52591261
   0.29844024  0.77502900  0.35380019
   0.00450127  0.37322858  0.28556451
   0.97371343  0.44331970  0.05668878
   0.33697567  0.72887010  0.94199610
   0.96096964  0.34558874  0.61817347
   0.92263176  0.31427821  0.38704089
   0.63253034  0.99194255  0.29042514
   0.59168562  0.96678702  0.04851645
   0.91627559  0.36513675  0.98563212
   0.94769979  0.74979275  0.68548853
   0.97222013  0.70587400  0.04767435
   0.90283316  0.74329007  0.28016096
   0.30721504  0.94185631  0.65941991
   0.32808739  0.96449175  0.02117262
   0.35682316  0.89501694  0.25244962
   0.98630597  0.61071959  0.35169230
   0.75926557  0.29685538  0.70981871
   0.68657239  0.36356536  0.01440181
   0.74620070  0.35577335  0.28319185
   0.41116851  0.97654068  0.33007083
   0.58723841  0.42185762  0.25517136
   0.62943944  0.47864549  0.24097047
   0.64286105  0.42457312  0.51248310
   0.83276551  0.17860920  0.20717941
   0.85713392  0.12364247  0.69164144
   0.83620515  0.05022586  0.58601034
   0.10897378  0.21555932  0.23417936
   0.15013806  0.16928009  0.35313647
   0.08447390  0.26168893  0.89173403
   0.12385466  0.21483199  0.03132536
   0.67871688  0.10516744  0.23559393
   0.68835636  0.14232686  0.35929558
   0.65399597  0.08457717  0.89336928
   0.66239099  0.12299876  0.03603228
   0.01476287  0.44806108  0.57526150
   0.02005234  0.48853582  0.69791591
   0.22949804  0.66156759  0.27289117
   0.17892731  0.67593435  0.38411632
   0.28511003  0.62088926  0.95457120
   0.23477684  0.63631232  0.08404097
   0.54419702  0.00592911  0.56561481
   0.49810011  0.01074746  0.68468789
   0.24360584  0.07626225  0.41838798
   0.20419883  0.12374557  0.28081471
   0.21920060  0.12310277  0.07842829
   0.17798137  0.16937214  0.95948521
   0.69551205  0.22916682  0.44519763
   0.68005009  0.19716151  0.29818038
   0.01862228  0.58218936  0.77311667
   0.01078814  0.54327122  0.63113059
   0.66194434  0.21640111  0.10052023
   0.65422155  0.17802249  0.97434481
   0.08329760  0.68058258  0.44676806
   0.13273064  0.66825620  0.31171097
   0.40540537  0.00941783  0.75065803
   0.45306301  0.00122618  0.61327014
   0.13532567  0.64783396  0.11446869
   0.18758648  0.63064229  0.00846786
   0.75545944  0.92146372  0.56221292
   0.79627084  0.87624335  0.70468666
   0.78042356  0.87592045  0.90562625
   0.82262811  0.83186080  0.02900317
   0.32638454  0.75366013  0.51277044
   0.32424435  0.79397805  0.67012310
   0.99185798  0.42553904  0.23018187
   0.99950903  0.46414882  0.37359870
   0.33385635  0.77917171  0.87401083
   0.33845559  0.81927479  0.00100275
   0.92235824  0.33148758  0.56229729
   0.87746826  0.33635681  0.70462662
   0.59161016  0.98258617  0.22492292
   0.54418064  0.99072794  0.36348149
   0.87610431  0.35349419  0.90483559
   0.83011682  0.35764282  0.02598132
   0.89481145  0.78950852  0.76214588
   0.85254489  0.83358106  0.63872287
   0.91953966  0.74415889  0.10570129
   0.87894423  0.78924708  0.96314572
   0.31697276  0.89001890  0.73531795
   0.31416343  0.84930962  0.60788148
   0.33898649  0.91289835  0.07825305
   0.33081225  0.87395113  0.93679175
   0.99553614  0.55925047  0.42972602
   0.99009530  0.51898750  0.30702301
   0.79342896  0.32111245  0.76467902
   0.83621348  0.32004553  0.63982162
   0.74324672  0.34271022  0.09423396
   0.78858299  0.34275095  0.95968765
   0.45289923  0.98635594  0.41098630
   0.49908711  0.98142054  0.29216360
   0.61808550  0.44276107  0.33862438
   0.84594396  0.08731580  0.63733458
   0.79157164  0.21655644  0.12341243
   0.13933524  0.16918027  0.50793282
   0.70226379  0.12755422  0.50985507
   0.03156480  0.47659546  0.85169544
   0.17476980  0.69382967  0.53227943
   0.49779187  0.02227479  0.83879310
   0.18876331  0.16971945  0.80492837
   0.64165831  0.19191117  0.82227843
   0.19080289  0.61347681  0.86011750
   0.81098290  0.83136303  0.18255975
   0.34777479  0.80770307  0.15569579
   0.82962113  0.37008476  0.17932567
   0.86410832  0.83412218  0.48505915
   0.30529044  0.86112923  0.45315607
   0.97866524  0.53092011  0.15322123
   0.83947506  0.30431715  0.48905425
   0.49982397  0.96972814  0.13807743
   0.70487098  0.33660714  0.49433122
   0.28216262  0.02226069  0.79258445
   0.63835299  0.33412366  0.19911288
   0.96266616  0.68990046  0.48339119
   0.35440283  0.95236856  0.45633267
   0.35204177  0.02421821  0.12763519
   0.71079164  0.97587458  0.18432283
   0.34756304  0.66225618  0.75254107
   0.73224607  0.27711124  0.02276103
   0.97877704  0.31618502  0.18756528
   0.31361949  0.70550288  0.18684786
   0.97552873  0.38469044  0.85595262
   0.64718110  0.97115984  0.85108330
   0.03163880  0.62520666  0.14948730
   0.64175004  0.03974225  0.51940956
   0.02823801  0.69321880  0.82145071
   0.30219621  0.62804735  0.57808401
   0.04414548  0.31853796  0.51956118
   0.70516898  0.43759599  0.37037674
   0.61959069  0.44209180  0.00448036
   0.79258152  0.21228226  0.68432090
Direct configuration=    24
   0.05815525  0.25796858  0.31551111
   0.03248399  0.30143562  0.95031308
   0.10163613  0.26214990  0.71755485
   0.68617388  0.05431023  0.31352069
   0.66411381  0.03348849  0.95534234
   0.63812253  0.10087669  0.71738983
   0.02391476  0.39676291  0.65391281
   0.27297011  0.67131131  0.34723640
   0.32321467  0.63863455  0.98874084
   0.28842848  0.59415587  0.79216880
   0.58569694  0.01593040  0.64673096
   0.29451657  0.03526274  0.35724513
   0.22630887  0.07679942  0.59362711
   0.27038190  0.08084853  0.99893398
   0.66625838  0.28788542  0.44559609
   0.73505704  0.20035828  0.56959129
   0.00908884  0.63300358  0.71139991
   0.03413488  0.56581428  0.94913767
   0.65465648  0.26778982  0.02703167
   0.04117139  0.67356200  0.37881408
   0.08397653  0.69594301  0.62355599
   0.36462295  0.99947709  0.68915191
   0.40536450  0.02668736  0.92583724
   0.09126961  0.64384581  0.02606138
   0.70354016  0.96047089  0.62341772
   0.77143596  0.92153198  0.38620932
   0.72752937  0.91545303  0.98270625
   0.36023654  0.69601962  0.52588087
   0.29842989  0.77503736  0.35381820
   0.00450095  0.37322850  0.28556390
   0.97371295  0.44331975  0.05668909
   0.33698141  0.72886880  0.94199257
   0.96097047  0.34558830  0.61817696
   0.92262999  0.31427831  0.38704295
   0.63252792  0.99194206  0.29042987
   0.59168332  0.96678766  0.04852155
   0.91627838  0.36513594  0.98563529
   0.94769991  0.74979235  0.68548897
   0.97222104  0.70587436  0.04767566
   0.90283343  0.74329015  0.28015855
   0.30721057  0.94185879  0.65943544
   0.32809417  0.96449013  0.02116545
   0.35682359  0.89501889  0.25244685
   0.98630619  0.61071988  0.35169159
   0.75927099  0.29685039  0.70983767
   0.68657125  0.36356986  0.01439814
   0.74620747  0.35577559  0.28318011
   0.41117011  0.97653676  0.33008961
   0.58724884  0.42184624  0.25517215
   0.62943340  0.47864738  0.24098700
   0.64287215  0.42456487  0.51248157
   0.83276700  0.17860810  0.20717688
   0.85713266  0.12363794  0.69163414
   0.83620258  0.05022122  0.58599626
   0.10897509  0.21555767  0.23417650
   0.15013990  0.16927925  0.35313191
   0.08447329  0.26168867  0.89173442
   0.12385540  0.21483006  0.03132182
   0.67871724  0.10516658  0.23559812
   0.68835599  0.14233282  0.35929115
   0.65399653  0.08457380  0.89337031
   0.66239175  0.12299545  0.03602826
   0.01476312  0.44806144  0.57526166
   0.02005249  0.48853548  0.69791582
   0.22949881  0.66156785  0.27288676
   0.17893084  0.67593443  0.38411766
   0.28510506  0.62089152  0.95456369
   0.23477698  0.63631539  0.08404278
   0.54419363  0.00592923  0.56561316
   0.49809882  0.01074557  0.68469575
   0.24360487  0.07626089  0.41838355
   0.20420193  0.12374531  0.28080778
   0.21920225  0.12310264  0.07841906
   0.17798150  0.16937237  0.95947892
   0.69550800  0.22917143  0.44518001
   0.68004861  0.19716624  0.29817268
   0.01862245  0.58218958  0.77311673
   0.01078794  0.54327167  0.63113131
   0.66194207  0.21639823  0.10051896
   0.65422096  0.17802152  0.97434758
   0.08329767  0.68058284  0.44676810
   0.13273171  0.66825707  0.31171878
   0.40540244  0.00942188  0.75064225
   0.45306322  0.00122450  0.61327540
   0.13532610  0.64783393  0.11447565
   0.18758897  0.63064325  0.00847614
   0.75545975  0.92146331  0.56221495
   0.79627062  0.87624358  0.70468810
   0.78042301  0.87592092  0.90562768
   0.82262722  0.83186136  0.02900386
   0.32638204  0.75366024  0.51277195
   0.32424484  0.79397709  0.67014025
   0.99185769  0.42553943  0.23018193
   0.99950916  0.46414927  0.37359978
   0.33386033  0.77917282  0.87401321
   0.33845670  0.81927196  0.00101612
   0.92236022  0.33148701  0.56229424
   0.87746977  0.33635709  0.70462331
   0.59160744  0.98258698  0.22492433
   0.54418039  0.99073049  0.36348948
   0.87610849  0.35349362  0.90483954
   0.83011834  0.35764214  0.02598670
   0.89481235  0.78950797  0.76214556
   0.85254484  0.83358155  0.63872307
   0.91953984  0.74415918  0.10570114
   0.87894388  0.78924760  0.96314670
   0.31697246  0.89001895  0.73533113
   0.31416530  0.84930470  0.60790131
   0.33898847  0.91289861  0.07825021
   0.33081171  0.87395173  0.93680572
   0.99553581  0.55925170  0.42972553
   0.99009501  0.51898765  0.30702269
   0.79342996  0.32111139  0.76467714
   0.83621183  0.32004675  0.63981804
   0.74325191  0.34270917  0.09423836
   0.78858087  0.34275343  0.95968161
   0.45289833  0.98635300  0.41097941
   0.49908888  0.98141953  0.29216371
   0.61809029  0.44275369  0.33863088
   0.84594640  0.08732393  0.63734293
   0.79156095  0.21656079  0.12343517
   0.13933667  0.16917980  0.50793118
   0.70226327  0.12755646  0.50985853
   0.03156482  0.47659586  0.85169530
   0.17477056  0.69383047  0.53228565
   0.49778958  0.02227445  0.83878598
   0.18876219  0.16972018  0.80492360
   0.64165805  0.19190878  0.82227687
   0.19080608  0.61347696  0.86011513
   0.81098327  0.83136290  0.18255766
   0.34777541  0.80770433  0.15571669
   0.82962191  0.37008374  0.17933725
   0.86410831  0.83412246  0.48505733
   0.30529253  0.86112552  0.45316756
   0.97866532  0.53092041  0.15322195
   0.83947351  0.30431756  0.48905467
   0.49982285  0.96972796  0.13807564
   0.70487823  0.33660444  0.49431587
   0.28216069  0.02226579  0.79260713
   0.63835181  0.33411849  0.19909121
   0.96266788  0.68990096  0.48338871
   0.35439748  0.95237005  0.45632812
   0.35204472  0.02421111  0.12763541
   0.71079125  0.97587554  0.18432473
   0.34754873  0.66226314  0.75248481
   0.73224142  0.27711312  0.02276693
   0.97877527  0.31618524  0.18756529
   0.31362591  0.70550340  0.18685320
   0.97552767  0.38469023  0.85595200
   0.64718049  0.97116117  0.85108322
   0.03164079  0.62520634  0.14948764
   0.64175117  0.03974272  0.51940906
   0.02823943  0.69321852  0.82145216
   0.30219577  0.62803526  0.57807244
   0.04414410  0.31853822  0.51956192
   0.70516602  0.43759704  0.37037515
   0.61958787  0.44209069  0.00450261
   0.79257456  0.21229010  0.68433723
Direct configuration=    25
   0.05816792  0.25795910  0.31550916
   0.03248008  0.30143582  0.95029493
   0.10162626  0.26216151  0.71756156
   0.68617664  0.05429894  0.31363502
   0.66410654  0.03346192  0.95536899
   0.63812929  0.10086357  0.71740944
   0.02391301  0.39676099  0.65390659
   0.27301962  0.67126940  0.34722493
   0.32311543  0.63875093  0.98843555
   0.28845609  0.59408440  0.79224202
   0.58564759  0.01593592  0.64672224
   0.29451712  0.03525558  0.35717839
   0.22632299  0.07673075  0.59363432
   0.27040741  0.08084072  0.99894939
   0.66631431  0.28791693  0.44546029
   0.73500211  0.20042878  0.56955712
   0.00909722  0.63300724  0.71139118
   0.03413867  0.56581376  0.94914049
   0.65459541  0.26779233  0.02686015
   0.04116921  0.67356178  0.37878218
   0.08399253  0.69594313  0.62357855
   0.36457975  0.99950190  0.68911546
   0.40530389  0.02678458  0.92572822
   0.09128710  0.64383799  0.02603421
   0.70354626  0.96047230  0.62343307
   0.77143402  0.92152635  0.38621945
   0.72752703  0.91546237  0.98271296
   0.36025263  0.69604597  0.52555960
   0.29832526  0.77511927  0.35392961
   0.00449707  0.37322976  0.28555991
   0.97370948  0.44331836  0.05669879
   0.33703369  0.72884964  0.94196528
   0.96098764  0.34558344  0.61819548
   0.92261928  0.31427643  0.38704479
   0.63251862  0.99194143  0.29049599
   0.59165785  0.96679186  0.04854584
   0.91631230  0.36512857  0.98567529
   0.94770263  0.74978844  0.68549245
   0.97223161  0.70587677  0.04768542
   0.90283892  0.74328843  0.28014198
   0.30716855  0.94188744  0.65956246
   0.32815333  0.96447461  0.02105904
   0.35682951  0.89503928  0.25245056
   0.98630932  0.61072329  0.35168256
   0.75931867  0.29680043  0.70993762
   0.68658139  0.36360602  0.01439698
   0.74625476  0.35580517  0.28316747
   0.41118936  0.97649438  0.33023653
   0.58734557  0.42174784  0.25521607
   0.62937800  0.47866562  0.24112788
   0.64297393  0.42448850  0.51251322
   0.83275099  0.17862582  0.20711297
   0.85713335  0.12364995  0.69164012
   0.83619349  0.05023582  0.58594341
   0.10898602  0.21554492  0.23413987
   0.15016063  0.16927138  0.35309412
   0.08446887  0.26168343  0.89175285
   0.12386120  0.21481375  0.03129299
   0.67872254  0.10516690  0.23567644
   0.68835519  0.14236751  0.35926121
   0.65400191  0.08453746  0.89337581
   0.66239783  0.12297440  0.03600238
   0.01476517  0.44806531  0.57526409
   0.02005398  0.48853313  0.69792030
   0.22950258  0.66157412  0.27283543
   0.17896951  0.67593391  0.38414148
   0.28506110  0.62091183  0.95451547
   0.23477530  0.63634091  0.08405058
   0.54418599  0.00592719  0.56556555
   0.49808502  0.01072290  0.68472105
   0.24359449  0.07624926  0.41837729
   0.20422387  0.12374331  0.28076744
   0.21922289  0.12309528  0.07835770
   0.17798226  0.16937836  0.95940846
   0.69549544  0.22918671  0.44501811
   0.68002694  0.19721078  0.29809357
   0.01862475  0.58219135  0.77312207
   0.01078577  0.54327588  0.63113579
   0.66191908  0.21639499  0.10048575
   0.65421420  0.17801481  0.97436064
   0.08329679  0.68058644  0.44676776
   0.13275634  0.66826484  0.31179221
   0.40539499  0.00946256  0.75052476
   0.45305958  0.00121640  0.61329238
   0.13532438  0.64783562  0.11452937
   0.18761114  0.63065294  0.00854897
   0.75545615  0.92146585  0.56221796
   0.79626958  0.87624547  0.70469714
   0.78041788  0.87592651  0.90564675
   0.82262147  0.83186498  0.02900899
   0.32637380  0.75365363  0.51291911
   0.32425471  0.79396425  0.67028874
   0.99185495  0.42554195  0.23017482
   0.99950847  0.46415272  0.37359695
   0.33389875  0.77919102  0.87407256
   0.33846897  0.81924160  0.00110541
   0.92237281  0.33148380  0.56227567
   0.87748080  0.33636595  0.70460757
   0.59158362  0.98259635  0.22494315
   0.54416727  0.99075198  0.36357498
   0.87613994  0.35348818  0.90488081
   0.83012909  0.35764091  0.02604115
   0.89481783  0.78950527  0.76214390
   0.85254564  0.83358367  0.63872669
   0.91953710  0.74416672  0.10569561
   0.87894133  0.78925124  0.96314760
   0.31696337  0.89003088  0.73544615
   0.31417488  0.84927437  0.60804181
   0.33901448  0.91288157  0.07831725
   0.33080574  0.87394404  0.93692572
   0.99553397  0.55926150  0.42971807
   0.99009354  0.51898804  0.30703204
   0.79344854  0.32109959  0.76471024
   0.83618635  0.32005032  0.63977134
   0.74329583  0.34270733  0.09416642
   0.78856373  0.34277104  0.95961728
   0.45288820  0.98632695  0.41097434
   0.49910346  0.98140827  0.29217002
   0.61811370  0.44269148  0.33863327
   0.84593891  0.08729034  0.63726501
   0.79149711  0.21656333  0.12369211
   0.13935450  0.16917203  0.50789334
   0.70225500  0.12758465  0.50985289
   0.03156494  0.47659965  0.85169049
   0.17477763  0.69383603  0.53231896
   0.49776354  0.02227226  0.83874981
   0.18875218  0.16972622  0.80486591
   0.64165488  0.19188076  0.82226468
   0.19083461  0.61347802  0.86008799
   0.81098603  0.83136195  0.18254071
   0.34778025  0.80771897  0.15588038
   0.82963294  0.37007132  0.17942009
   0.86410741  0.83412569  0.48505122
   0.30530951  0.86109501  0.45324967
   0.97866554  0.53092311  0.15322626
   0.83946266  0.30432347  0.48905786
   0.49981409  0.96972468  0.13801962
   0.70494685  0.33656075  0.49419143
   0.28215223  0.02230267  0.79275786
   0.63833081  0.33407681  0.19892776
   0.96268379  0.68990410  0.48336923
   0.35434807  0.95239755  0.45631205
   0.35205603  0.02415589  0.12762242
   0.71078607  0.97588178  0.18434475
   0.34742505  0.66231832  0.75201060
   0.73220660  0.27713861  0.02279509
   0.97875968  0.31618800  0.18756869
   0.31368428  0.70550659  0.18685695
   0.97551870  0.38468973  0.85595176
   0.64717069  0.97117194  0.85107156
   0.03166109  0.62520496  0.14948662
   0.64175346  0.03974648  0.51941640
   0.02825523  0.69321373  0.82147283
   0.30219213  0.62794258  0.57795262
   0.04413215  0.31854255  0.51956304
   0.70514782  0.43760516  0.37035680
   0.61956051  0.44208288  0.00471245
   0.79251213  0.21235747  0.68448748
Direct configuration=    26
   0.05818220  0.25794841  0.31550697
   0.03247567  0.30143604  0.95027447
   0.10161513  0.26217460  0.71756912
   0.68617975  0.05428620  0.31376393
   0.66409833  0.03343197  0.95539902
   0.63813692  0.10084878  0.71743154
   0.02391104  0.39675882  0.65389957
   0.27307544  0.67122215  0.34721199
   0.32300355  0.63888215  0.98809136
   0.28848722  0.59400382  0.79232456
   0.58559196  0.01594213  0.64671242
   0.29451774  0.03524750  0.35710314
   0.22633890  0.07665333  0.59364245
   0.27043617  0.08083191  0.99896677
   0.66637737  0.28795247  0.44530718
   0.73494019  0.20050826  0.56951859
   0.00910667  0.63301137  0.71138134
   0.03414293  0.56581319  0.94914367
   0.65452657  0.26779515  0.02666677
   0.04116675  0.67356154  0.37874622
   0.08401056  0.69594328  0.62360399
   0.36453105  0.99952986  0.68907437
   0.40523555  0.02689419  0.92560530
   0.09130682  0.64382917  0.02600357
   0.70355313  0.96047390  0.62345038
   0.77143184  0.92152001  0.38623088
   0.72752440  0.91547290  0.98272052
   0.36027078  0.69607568  0.52519738
   0.29820729  0.77521162  0.35405522
   0.00449270  0.37323117  0.28555542
   0.97370556  0.44331678  0.05670972
   0.33709265  0.72882804  0.94193453
   0.96100700  0.34557796  0.61821635
   0.92260720  0.31427431  0.38704688
   0.63250813  0.99194071  0.29057054
   0.59162914  0.96679660  0.04857322
   0.91635054  0.36512027  0.98572039
   0.94770570  0.74978404  0.68549638
   0.97224353  0.70587950  0.04769643
   0.90284510  0.74328651  0.28012330
   0.30712118  0.94191975  0.65970567
   0.32822003  0.96445711  0.02093906
   0.35683619  0.89506227  0.25245475
   0.98631284  0.61072715  0.35167238
   0.75937243  0.29674410  0.71005030
   0.68659282  0.36364678  0.01439566
   0.74630808  0.35583852  0.28315321
   0.41121106  0.97644659  0.33040216
   0.58745462  0.42163689  0.25526558
   0.62931554  0.47868619  0.24128672
   0.64308869  0.42440239  0.51254891
   0.83273294  0.17864580  0.20704092
   0.85713412  0.12366350  0.69164686
   0.83618323  0.05025227  0.58588383
   0.10899835  0.21553054  0.23409858
   0.15018401  0.16926251  0.35305151
   0.08446388  0.26167753  0.89177362
   0.12386775  0.21479536  0.03126048
   0.67872851  0.10516727  0.23576474
   0.68835429  0.14240662  0.35922744
   0.65400797  0.08449649  0.89338201
   0.66240468  0.12295067  0.03597320
   0.01476747  0.44806966  0.57526682
   0.02005566  0.48853047  0.69792535
   0.22950683  0.66158120  0.27277755
   0.17901311  0.67593332  0.38416833
   0.28501154  0.62093473  0.95446111
   0.23477340  0.63636967  0.08405938
   0.54417737  0.00592488  0.56551188
   0.49806947  0.01069735  0.68474958
   0.24358278  0.07623615  0.41837022
   0.20424861  0.12374106  0.28072195
   0.21924615  0.12308699  0.07828851
   0.17798311  0.16938511  0.95932901
   0.69548129  0.22920393  0.44483558
   0.68000252  0.19726100  0.29800438
   0.01862735  0.58219336  0.77312810
   0.01078331  0.54328064  0.63114084
   0.66189315  0.21639134  0.10044831
   0.65420657  0.17800725  0.97437536
   0.08329579  0.68059050  0.44676738
   0.13278410  0.66827359  0.31187500
   0.40538658  0.00950843  0.75039231
   0.45305548  0.00120728  0.61331152
   0.13532243  0.64783754  0.11458994
   0.18763614  0.63066388  0.00863109
   0.75545209  0.92146871  0.56222136
   0.79626840  0.87624759  0.70470733
   0.78041210  0.87593280  0.90566825
   0.82261499  0.83186905  0.02901477
   0.32636452  0.75364618  0.51308503
   0.32426584  0.79394976  0.67045616
   0.99185186  0.42554480  0.23016680
   0.99950769  0.46415662  0.37359376
   0.33394207  0.77921155  0.87413947
   0.33848280  0.81920736  0.00120607
   0.92238700  0.33148017  0.56225475
   0.87749325  0.33637594  0.70458983
   0.59155676  0.98260692  0.22496436
   0.54415247  0.99077621  0.36367138
   0.87617540  0.35348204  0.90492733
   0.83014122  0.35763952  0.02610253
   0.89482400  0.78950223  0.76214204
   0.85254654  0.83358606  0.63873077
   0.91953401  0.74417522  0.10568938
   0.87893846  0.78925535  0.96314862
   0.31695311  0.89004434  0.73557582
   0.31418568  0.84924017  0.60820022
   0.33904380  0.91286236  0.07839282
   0.33079902  0.87393537  0.93706101
   0.99553190  0.55927255  0.42970966
   0.99009188  0.51898848  0.30704258
   0.79346949  0.32108629  0.76474756
   0.83615762  0.32005434  0.63971868
   0.74334535  0.34270524  0.09408531
   0.78854439  0.34279089  0.95954475
   0.45287678  0.98629759  0.41096862
   0.49911988  0.98139558  0.29217713
   0.61814009  0.44262134  0.33863597
   0.84593047  0.08725248  0.63717717
   0.79142514  0.21656619  0.12398178
   0.13937461  0.16916327  0.50785068
   0.70224567  0.12761643  0.50984652
   0.03156507  0.47660392  0.85168507
   0.17478561  0.69384230  0.53235651
   0.49773417  0.02226980  0.83870904
   0.18874089  0.16973303  0.80480087
   0.64165131  0.19184917  0.82225095
   0.19086677  0.61347921  0.86005739
   0.81098914  0.83136087  0.18252161
   0.34778570  0.80773548  0.15606493
   0.82964538  0.37005731  0.17951348
   0.86410640  0.83412933  0.48504433
   0.30532865  0.86106061  0.45334225
   0.97866578  0.53092615  0.15323111
   0.83945043  0.30433013  0.48906145
   0.49980421  0.96972098  0.13795646
   0.70502420  0.33651149  0.49405114
   0.28214269  0.02234424  0.79292779
   0.63830713  0.33402982  0.19874348
   0.96270174  0.68990764  0.48334728
   0.35429237  0.95242856  0.45629393
   0.35206878  0.02409364  0.12760778
   0.71078023  0.97588881  0.18436731
   0.34728562  0.66238053  0.75147597
   0.73216735  0.27716735  0.02282684
   0.97874210  0.31619112  0.18757253
   0.31375009  0.70551018  0.18686118
   0.97550860  0.38468917  0.85595148
   0.64715964  0.97118407  0.85105842
   0.03168397  0.62520340  0.14948546
   0.64175604  0.03975072  0.51942468
   0.02827305  0.69320833  0.82149613
   0.30218803  0.62783809  0.57781752
   0.04411868  0.31854743  0.51956432
   0.70512731  0.43761430  0.37033611
   0.61952965  0.44207406  0.00494904
   0.79244176  0.21243343  0.68465688
Direct configuration=    27
   0.05819244  0.25793837  0.31548982
   0.03247894  0.30142831  0.95027479
   0.10160669  0.26218249  0.71758356
   0.68618554  0.05429308  0.31383758
   0.66408997  0.03341593  0.95541246
   0.63814538  0.10082569  0.71746270
   0.02390750  0.39676261  0.65389339
   0.27312985  0.67117663  0.34720545
   0.32290361  0.63898270  0.98781532
   0.28850969  0.59393781  0.79241681
   0.58557308  0.01594982  0.64674388
   0.29449988  0.03525671  0.35702095
   0.22635593  0.07658901  0.59366047
   0.27045396  0.08083800  0.99895145
   0.66641423  0.28797431  0.44513116
   0.73488148  0.20057150  0.56945439
   0.00911612  0.63300931  0.71137902
   0.03414614  0.56581516  0.94914472
   0.65447868  0.26778562  0.02661147
   0.04116967  0.67356258  0.37873518
   0.08401637  0.69594337  0.62362108
   0.36451377  0.99954779  0.68899379
   0.40517154  0.02697438  0.92558779
   0.09131158  0.64382157  0.02598576
   0.70355356  0.96047768  0.62346470
   0.77142887  0.92151596  0.38625142
   0.72752343  0.91547991  0.98272075
   0.36028478  0.69608433  0.52492718
   0.29813676  0.77526059  0.35424916
   0.00448837  0.37323463  0.28555417
   0.97370224  0.44331601  0.05671107
   0.33713816  0.72880760  0.94190897
   0.96102604  0.34556963  0.61819487
   0.92260943  0.31426993  0.38702688
   0.63250915  0.99194157  0.29062417
   0.59160527  0.96680089  0.04858175
   0.91638175  0.36511409  0.98576012
   0.94770987  0.74978137  0.68550067
   0.97224769  0.70588676  0.04770338
   0.90285063  0.74328375  0.28012749
   0.30708723  0.94193988  0.65979020
   0.32827197  0.96442108  0.02083600
   0.35685025  0.89507330  0.25256691
   0.98631688  0.61073153  0.35165832
   0.75940342  0.29670424  0.71003782
   0.68663079  0.36366766  0.01443081
   0.74633188  0.35586464  0.28319098
   0.41121976  0.97640295  0.33044740
   0.58751539  0.42155480  0.25531799
   0.62926621  0.47870155  0.24139292
   0.64316158  0.42434092  0.51255734
   0.83271701  0.17866065  0.20702462
   0.85712486  0.12365695  0.69161986
   0.83617344  0.05025574  0.58582342
   0.10900507  0.21552387  0.23407730
   0.15020317  0.16925803  0.35302247
   0.08446094  0.26167347  0.89177587
   0.12386505  0.21479039  0.03123664
   0.67873301  0.10517743  0.23583368
   0.68835589  0.14240008  0.35922374
   0.65401202  0.08447176  0.89339113
   0.66241238  0.12294211  0.03602323
   0.01476873  0.44806762  0.57526711
   0.02005584  0.48853567  0.69792666
   0.22952603  0.66159588  0.27278249
   0.17903401  0.67593564  0.38421694
   0.28499962  0.62094887  0.95439766
   0.23476537  0.63638350  0.08403753
   0.54417113  0.00592348  0.56553925
   0.49807193  0.01067373  0.68466967
   0.24358676  0.07621591  0.41839642
   0.20425639  0.12373875  0.28072895
   0.21926128  0.12308343  0.07826851
   0.17799672  0.16937827  0.95928739
   0.69549444  0.22921828  0.44474438
   0.67997802  0.19728133  0.29794316
   0.01862977  0.58219735  0.77313171
   0.01078117  0.54328390  0.63113765
   0.66186598  0.21643054  0.10035876
   0.65419856  0.17798532  0.97434255
   0.08330161  0.68059540  0.44678540
   0.13280657  0.66827616  0.31189810
   0.40535839  0.00954712  0.75038551
   0.45304408  0.00120458  0.61324409
   0.13533442  0.64784063  0.11462066
   0.18762896  0.63066795  0.00862162
   0.75544867  0.92147147  0.56221501
   0.79626932  0.87624815  0.70471316
   0.78040983  0.87593770  0.90567815
   0.82261651  0.83186874  0.02900261
   0.32632941  0.75368227  0.51314045
   0.32428103  0.79393611  0.67052698
   0.99185077  0.42554322  0.23016741
   0.99950576  0.46415670  0.37358430
   0.33397703  0.77918799  0.87426455
   0.33849898  0.81921108  0.00131835
   0.92238667  0.33148259  0.56227218
   0.87748184  0.33638531  0.70459712
   0.59154756  0.98261892  0.22500321
   0.54412878  0.99078182  0.36364529
   0.87617912  0.35347639  0.90495489
   0.83014792  0.35764104  0.02610293
   0.89482223  0.78950513  0.76214332
   0.85254860  0.83358510  0.63873548
   0.91953754  0.74417887  0.10566984
   0.87893747  0.78925721  0.96313455
   0.31693804  0.89005654  0.73566398
   0.31418044  0.84925982  0.60823289
   0.33906041  0.91285109  0.07844600
   0.33079427  0.87391823  0.93713756
   0.99553285  0.55927348  0.42971230
   0.99009120  0.51899336  0.30705572
   0.79348539  0.32107136  0.76479910
   0.83616000  0.32006115  0.63972202
   0.74335027  0.34272199  0.09398022
   0.78856828  0.34280309  0.95952807
   0.45289580  0.98627796  0.41103545
   0.49910574  0.98138404  0.29218904
   0.61816708  0.44258444  0.33869235
   0.84593036  0.08725630  0.63715259
   0.79137301  0.21656556  0.12413748
   0.13939555  0.16915262  0.50779336
   0.70223401  0.12765308  0.50979136
   0.03156577  0.47660624  0.85168510
   0.17479644  0.69384413  0.53235645
   0.49770739  0.02227006  0.83873500
   0.18873352  0.16973795  0.80472206
   0.64164783  0.19182036  0.82224858
   0.19088879  0.61348658  0.86008915
   0.81098926  0.83136033  0.18252699
   0.34778788  0.80774790  0.15614691
   0.82965829  0.37004243  0.17954746
   0.86410428  0.83413278  0.48505506
   0.30534184  0.86103537  0.45342316
   0.97866557  0.53092796  0.15323470
   0.83944407  0.30433394  0.48903440
   0.49980161  0.96971873  0.13790636
   0.70509231  0.33645502  0.49397586
   0.28214770  0.02235905  0.79298007
   0.63828093  0.33399969  0.19863208
   0.96271264  0.68990834  0.48333634
   0.35425158  0.95246455  0.45633592
   0.35206926  0.02406038  0.12758043
   0.71077377  0.97588809  0.18439365
   0.34719259  0.66242010  0.75114995
   0.73215734  0.27719224  0.02286931
   0.97873541  0.31619160  0.18758457
   0.31379316  0.70551735  0.18682399
   0.97550571  0.38469176  0.85595564
   0.64714373  0.97118856  0.85103393
   0.03170052  0.62520396  0.14947672
   0.64174495  0.03975042  0.51945378
   0.02828782  0.69320297  0.82151957
   0.30218102  0.62777642  0.57770263
   0.04411313  0.31855157  0.51955602
   0.70512105  0.43762079  0.37031838
   0.61950590  0.44207063  0.00512344
   0.79239458  0.21247559  0.68477643
Direct configuration=    28
   0.05821542  0.25791583  0.31545135
   0.03248629  0.30141097  0.95027551
   0.10158773  0.26220023  0.71761597
   0.68619855  0.05430851  0.31400291
   0.66407120  0.03337992  0.95544263
   0.63816436  0.10077385  0.71753264
   0.02389955  0.39677110  0.65387952
   0.27325199  0.67107447  0.34719076
   0.32267928  0.63920840  0.98719570
   0.28856014  0.59378966  0.79262388
   0.58553069  0.01596707  0.64681450
   0.29445979  0.03527738  0.35683647
   0.22639416  0.07644464  0.59370092
   0.27049391  0.08085168  0.99891706
   0.66649695  0.28802333  0.44473606
   0.73474970  0.20071345  0.56931027
   0.00913733  0.63300468  0.71137383
   0.03415334  0.56581959  0.94914709
   0.65437119  0.26776423  0.02648734
   0.04117622  0.67356492  0.37871040
   0.08402942  0.69594359  0.62365945
   0.36447500  0.99958803  0.68881294
   0.40502786  0.02715439  0.92554848
   0.09132228  0.64380453  0.02594578
   0.70355452  0.96048617  0.62349685
   0.77142221  0.92150689  0.38629751
   0.72752126  0.91549566  0.98272127
   0.36031622  0.69610376  0.52432068
   0.29797845  0.77537053  0.35468448
   0.00447864  0.37324239  0.28555136
   0.97369480  0.44331430  0.05671410
   0.33724033  0.72876174  0.94185161
   0.96106877  0.34555094  0.61814666
   0.92261443  0.31426010  0.38698199
   0.63251145  0.99194351  0.29074453
   0.59155168  0.96681051  0.04860089
   0.91645181  0.36510022  0.98584930
   0.94771925  0.74977536  0.68551032
   0.97225703  0.70590305  0.04771899
   0.90286303  0.74327756  0.28013688
   0.30701103  0.94198507  0.65997995
   0.32838855  0.96434020  0.02060466
   0.35688182  0.89509806  0.25281868
   0.98632595  0.61074136  0.35162675
   0.75947300  0.29661476  0.71000981
   0.68671601  0.36371452  0.01450969
   0.74638532  0.35592328  0.28327575
   0.41123930  0.97630500  0.33054893
   0.58765178  0.42137054  0.25543565
   0.62915548  0.47873603  0.24163129
   0.64332522  0.42420294  0.51257625
   0.83268126  0.17869400  0.20698803
   0.85710407  0.12364223  0.69155926
   0.83615144  0.05026352  0.58568782
   0.10902018  0.21550889  0.23402954
   0.15024616  0.16924797  0.35295727
   0.08445434  0.26166435  0.89178094
   0.12385900  0.21477922  0.03118311
   0.67874311  0.10520023  0.23598842
   0.68835949  0.14238539  0.35921541
   0.65402113  0.08441627  0.89341161
   0.66242968  0.12292290  0.03613551
   0.01477154  0.44806305  0.57526778
   0.02005622  0.48854735  0.69792961
   0.22956912  0.66162885  0.27279357
   0.17908091  0.67594086  0.38432605
   0.28497286  0.62098061  0.95425525
   0.23474736  0.63641454  0.08398848
   0.54415712  0.00592035  0.56560068
   0.49807746  0.01062071  0.68449032
   0.24359570  0.07617046  0.41845523
   0.20427384  0.12373355  0.28074467
   0.21929524  0.12307544  0.07822362
   0.17802726  0.16936294  0.95919395
   0.69552397  0.22925050  0.44453967
   0.67992303  0.19732695  0.29780575
   0.01863521  0.58220632  0.77313982
   0.01077637  0.54329122  0.63113048
   0.66180498  0.21651855  0.10015776
   0.65418061  0.17793608  0.97426892
   0.08331467  0.68060640  0.44682585
   0.13285702  0.66828192  0.31194994
   0.40529511  0.00963397  0.75037026
   0.45301848  0.00119853  0.61309274
   0.13536134  0.64784756  0.11468961
   0.18761285  0.63067711  0.00860038
   0.75544098  0.92147766  0.56220077
   0.79627137  0.87624941  0.70472625
   0.78040474  0.87594868  0.90570038
   0.82261991  0.83186804  0.02897531
   0.32625062  0.75376327  0.51326484
   0.32431514  0.79390546  0.67068597
   0.99184832  0.42553966  0.23016879
   0.99950141  0.46415687  0.37356306
   0.33405549  0.77913510  0.87454529
   0.33853530  0.81921943  0.00157038
   0.92238591  0.33148803  0.56231133
   0.87745623  0.33640633  0.70461350
   0.59152689  0.98264585  0.22509041
   0.54407562  0.99079442  0.36358674
   0.87618749  0.35346370  0.90501676
   0.83016295  0.35764444  0.02610382
   0.89481825  0.78951164  0.76214620
   0.85255321  0.83358294  0.63874606
   0.91954545  0.74418706  0.10562598
   0.87893525  0.78926140  0.96310295
   0.31690421  0.89008391  0.73586186
   0.31416868  0.84930391  0.60830620
   0.33909771  0.91282579  0.07856538
   0.33078361  0.87387974  0.93730938
   0.99553499  0.55927555  0.42971821
   0.99008968  0.51900434  0.30708521
   0.79352108  0.32103785  0.76491478
   0.83616534  0.32007645  0.63972952
   0.74336131  0.34275958  0.09374434
   0.78862190  0.34283049  0.95949064
   0.45293848  0.98623391  0.41118545
   0.49907400  0.98135813  0.29221576
   0.61822766  0.44250161  0.33881890
   0.84593009  0.08726489  0.63709741
   0.79125601  0.21656414  0.12448695
   0.13944253  0.16912870  0.50766471
   0.70220783  0.12773533  0.50966753
   0.03156733  0.47661144  0.85168516
   0.17482075  0.69384822  0.53235630
   0.49764728  0.02227065  0.83879329
   0.18871698  0.16974901  0.80454517
   0.64164002  0.19175567  0.82224326
   0.19093823  0.61350314  0.86016041
   0.81098952  0.83135912  0.18253905
   0.34779280  0.80777577  0.15633093
   0.82968726  0.37000902  0.17962372
   0.86409952  0.83414053  0.48507913
   0.30537144  0.86097870  0.45360476
   0.97866509  0.53093203  0.15324277
   0.83942982  0.30434247  0.48897368
   0.49979579  0.96971367  0.13779392
   0.70524520  0.33632827  0.49380688
   0.28215894  0.02239230  0.79309742
   0.63822213  0.33393206  0.19838204
   0.96273711  0.68990993  0.48331181
   0.35416002  0.95254532  0.45643019
   0.35207033  0.02398573  0.12751904
   0.71075929  0.97588647  0.18445275
   0.34698378  0.66250894  0.75041817
   0.73213489  0.27724811  0.02296464
   0.97872041  0.31619267  0.18761158
   0.31388983  0.70553346  0.18674051
   0.97549924  0.38469755  0.85596498
   0.64710803  0.97119863  0.85097897
   0.03173767  0.62520523  0.14945711
   0.64172006  0.03974974  0.51951909
   0.02832099  0.69319094  0.82157219
   0.30216529  0.62763798  0.57744473
   0.04410068  0.31856085  0.51953739
   0.70510699  0.43763537  0.37027858
   0.61945257  0.44206294  0.00551490
   0.79228869  0.21257024  0.68504480
Direct configuration=    29
   0.05822535  0.25790294  0.31541972
   0.03248557  0.30140064  0.95031554
   0.10158131  0.26220661  0.71761000
   0.68621013  0.05432612  0.31408079
   0.66405782  0.03336248  0.95547432
   0.63817634  0.10073171  0.71756807
   0.02389297  0.39677916  0.65387952
   0.27334281  0.67100605  0.34714491
   0.32255123  0.63936910  0.98681414
   0.28859459  0.59369099  0.79271509
   0.58553275  0.01598228  0.64689991
   0.29444204  0.03528019  0.35668604
   0.22641366  0.07635887  0.59370603
   0.27051682  0.08087196  0.99886570
   0.66652808  0.28805460  0.44440295
   0.73474018  0.20074187  0.56942632
   0.00915314  0.63300130  0.71137179
   0.03415767  0.56582524  0.94914565
   0.65430554  0.26780021  0.02640152
   0.04120364  0.67357104  0.37873536
   0.08402869  0.69594425  0.62367787
   0.36448137  0.99962158  0.68870863
   0.40492700  0.02725670  0.92551854
   0.09133470  0.64379597  0.02597945
   0.70354609  0.96049644  0.62351969
   0.77141876  0.92150372  0.38628467
   0.72751931  0.91550481  0.98271817
   0.36032278  0.69611701  0.52399619
   0.29787228  0.77543905  0.35495810
   0.00447423  0.37324076  0.28556023
   0.97368967  0.44331475  0.05670442
   0.33731010  0.72871212  0.94186674
   0.96107662  0.34553162  0.61807732
   0.92262641  0.31425947  0.38702419
   0.63250697  0.99194296  0.29078889
   0.59152644  0.96682746  0.04868132
   0.91646343  0.36508447  0.98585358
   0.94772260  0.74977618  0.68552568
   0.97226185  0.70591729  0.04771658
   0.90287363  0.74327499  0.28011987
   0.30696549  0.94200890  0.66009328
   0.32846758  0.96426019  0.02047637
   0.35689901  0.89511459  0.25300572
   0.98633591  0.61074245  0.35160912
   0.75951401  0.29657294  0.70997220
   0.68678294  0.36373728  0.01453220
   0.74639905  0.35594715  0.28323168
   0.41126051  0.97624240  0.33053300
   0.58771306  0.42126489  0.25554321
   0.62908290  0.47876474  0.24176300
   0.64340512  0.42412527  0.51252555
   0.83267959  0.17868581  0.20708320
   0.85709061  0.12366056  0.69154819
   0.83614268  0.05028453  0.58561823
   0.10902935  0.21550463  0.23399857
   0.15026462  0.16925150  0.35291566
   0.08445425  0.26165665  0.89176908
   0.12386778  0.21476449  0.03113984
   0.67874732  0.10519697  0.23603028
   0.68834978  0.14240832  0.35915498
   0.65403016  0.08440108  0.89350370
   0.66243910  0.12290712  0.03622919
   0.01476988  0.44806552  0.57525380
   0.02005499  0.48855415  0.69791846
   0.22960260  0.66164642  0.27280779
   0.17910531  0.67594189  0.38434082
   0.28494549  0.62098736  0.95412861
   0.23472906  0.63643100  0.08396668
   0.54414885  0.00590876  0.56559829
   0.49807777  0.01060612  0.68451072
   0.24358851  0.07615417  0.41849615
   0.20428655  0.12371707  0.28078808
   0.21930747  0.12307995  0.07824001
   0.17804555  0.16935133  0.95917137
   0.69548463  0.22931566  0.44422498
   0.67989087  0.19733031  0.29773263
   0.01864051  0.58220845  0.77314302
   0.01077483  0.54329831  0.63113437
   0.66176676  0.21651669  0.10006258
   0.65417228  0.17791774  0.97425806
   0.08333183  0.68060967  0.44683387
   0.13287286  0.66828404  0.31195133
   0.40522298  0.00969095  0.75042370
   0.45299542  0.00120941  0.61308165
   0.13537007  0.64785301  0.11468337
   0.18759734  0.63068715  0.00858629
   0.75543874  0.92147559  0.56224388
   0.79627182  0.87625158  0.70473255
   0.78040755  0.87595326  0.90568958
   0.82262181  0.83186796  0.02897797
   0.32620349  0.75381089  0.51327454
   0.32433901  0.79393208  0.67079970
   0.99184503  0.42554218  0.23016776
   0.99949906  0.46415744  0.37356625
   0.33410179  0.77908857  0.87466905
   0.33856352  0.81921429  0.00172002
   0.92238647  0.33149280  0.56229964
   0.87744203  0.33642481  0.70466072
   0.59151919  0.98265857  0.22508659
   0.54404842  0.99079275  0.36351174
   0.87619662  0.35346361  0.90505255
   0.83019647  0.35765937  0.02613064
   0.89482055  0.78951207  0.76213477
   0.85254994  0.83358536  0.63875418
   0.91955248  0.74418767  0.10563605
   0.87893775  0.78926007  0.96308150
   0.31687390  0.89009826  0.73592629
   0.31416302  0.84932334  0.60844129
   0.33912105  0.91280321  0.07867220
   0.33077838  0.87389038  0.93741200
   0.99553744  0.55927923  0.42972140
   0.99008829  0.51900838  0.30708215
   0.79355239  0.32100861  0.76491929
   0.83618106  0.32007833  0.63974663
   0.74336016  0.34280724  0.09378039
   0.78865901  0.34282579  0.95948846
   0.45293631  0.98619547  0.41120290
   0.49905291  0.98133562  0.29214535
   0.61827663  0.44244840  0.33902408
   0.84591485  0.08723638  0.63700414
   0.79116068  0.21659680  0.12454229
   0.13947635  0.16910983  0.50759004
   0.70219684  0.12778941  0.50963725
   0.03156888  0.47661472  0.85168968
   0.17484212  0.69385377  0.53238796
   0.49760501  0.02226188  0.83875369
   0.18870925  0.16975334  0.80442764
   0.64162954  0.19170798  0.82219687
   0.19096357  0.61351354  0.86020144
   0.81098982  0.83135794  0.18254657
   0.34779929  0.80779104  0.15644535
   0.82970868  0.36998207  0.17960992
   0.86409629  0.83414566  0.48510257
   0.30538070  0.86095794  0.45364094
   0.97866486  0.53093457  0.15325687
   0.83942431  0.30435226  0.48894559
   0.49979245  0.96971370  0.13778146
   0.70535895  0.33623420  0.49371192
   0.28218157  0.02238835  0.79308745
   0.63818647  0.33389311  0.19822267
   0.96274726  0.68990951  0.48330357
   0.35410867  0.95260292  0.45656155
   0.35206925  0.02395464  0.12749199
   0.71074866  0.97588203  0.18450682
   0.34687239  0.66256451  0.75000186
   0.73212431  0.27729230  0.02303937
   0.97872603  0.31618719  0.18763955
   0.31394049  0.70555136  0.18668986
   0.97550546  0.38470318  0.85597446
   0.64707780  0.97119460  0.85094299
   0.03175679  0.62520794  0.14944030
   0.64169349  0.03974649  0.51957682
   0.02833965  0.69318357  0.82161079
   0.30215113  0.62755276  0.57733573
   0.04410458  0.31856238  0.51950937
   0.70510847  0.43764478  0.37025343
   0.61941794  0.44206028  0.00575562
   0.79222452  0.21260890  0.68523506
Direct configuration=    30
   0.05823175  0.25789463  0.31539932
   0.03248510  0.30139398  0.95034137
   0.10157717  0.26221072  0.71760615
   0.68621760  0.05433748  0.31413104
   0.66404919  0.03335122  0.95549476
   0.63818407  0.10070452  0.71759093
   0.02388873  0.39678436  0.65387952
   0.27340141  0.67096191  0.34711533
   0.32246861  0.63947279  0.98656794
   0.28861682  0.59362732  0.79277395
   0.58553407  0.01599210  0.64695502
   0.29443059  0.03528201  0.35658898
   0.22642625  0.07630353  0.59370932
   0.27053160  0.08088505  0.99883255
   0.66654816  0.28807478  0.44418802
   0.73473404  0.20076021  0.56950121
   0.00916334  0.63299911  0.71137048
   0.03416046  0.56582888  0.94914472
   0.65426318  0.26782343  0.02634615
   0.04122133  0.67357500  0.37875145
   0.08402821  0.69594468  0.62368976
   0.36448548  0.99964322  0.68864132
   0.40486192  0.02732271  0.92549922
   0.09134272  0.64379044  0.02600117
   0.70354066  0.96050307  0.62353442
   0.77141653  0.92150167  0.38627638
   0.72751805  0.91551072  0.98271616
   0.36032701  0.69612556  0.52378682
   0.29780377  0.77548326  0.35513465
   0.00447139  0.37323970  0.28556595
   0.97368637  0.44331504  0.05669817
   0.33735512  0.72868010  0.94187650
   0.96108169  0.34551915  0.61803258
   0.92263413  0.31425907  0.38705142
   0.63250408  0.99194261  0.29081752
   0.59151016  0.96683839  0.04873323
   0.91647093  0.36507431  0.98585635
   0.94772476  0.74977671  0.68553559
   0.97226497  0.70592648  0.04771503
   0.90288047  0.74327333  0.28010889
   0.30693611  0.94202428  0.66016641
   0.32851858  0.96420856  0.02039359
   0.35691010  0.89512526  0.25312640
   0.98634234  0.61074315  0.35159774
   0.75954047  0.29654596  0.70994794
   0.68682612  0.36375196  0.01454673
   0.74640790  0.35596256  0.28320323
   0.41127420  0.97620200  0.33052272
   0.58775260  0.42119673  0.25561262
   0.62903607  0.47878326  0.24184799
   0.64345667  0.42407516  0.51249284
   0.83267851  0.17868053  0.20714460
   0.85708193  0.12367239  0.69154105
   0.83613702  0.05029810  0.58557332
   0.10903526  0.21550189  0.23397859
   0.15027654  0.16925379  0.35288881
   0.08445419  0.26165168  0.89176143
   0.12387345  0.21475499  0.03111192
   0.67875003  0.10519487  0.23605728
   0.68834352  0.14242312  0.35911599
   0.65403598  0.08439128  0.89356313
   0.66244517  0.12289694  0.03628964
   0.01476881  0.44806712  0.57524479
   0.02005420  0.48855854  0.69791126
   0.22962420  0.66165776  0.27281697
   0.17912105  0.67594255  0.38435035
   0.28492783  0.62099172  0.95404689
   0.23471725  0.63644162  0.08395261
   0.54414351  0.00590128  0.56559675
   0.49807796  0.01059670  0.68452388
   0.24358387  0.07614365  0.41852255
   0.20429476  0.12370643  0.28081609
   0.21931536  0.12308286  0.07825058
   0.17805735  0.16934384  0.95915680
   0.69545924  0.22935771  0.44402193
   0.67987012  0.19733248  0.29768545
   0.01864392  0.58220982  0.77314509
   0.01077384  0.54330288  0.63113687
   0.66174211  0.21651549  0.10000116
   0.65416691  0.17790591  0.97425104
   0.08334289  0.68061177  0.44683904
   0.13288308  0.66828541  0.31195223
   0.40517644  0.00972771  0.75045818
   0.45298054  0.00121643  0.61307450
   0.13537571  0.64785653  0.11467934
   0.18758734  0.63069363  0.00857720
   0.75543729  0.92147426  0.56227170
   0.79627210  0.87625298  0.70473661
   0.78040936  0.87595621  0.90568261
   0.82262304  0.83186791  0.02897968
   0.32617308  0.75384161  0.51328080
   0.32435441  0.79394925  0.67087309
   0.99184291  0.42554381  0.23016709
   0.99949753  0.46415780  0.37356830
   0.33413167  0.77905855  0.87474890
   0.33858172  0.81921098  0.00181658
   0.92238683  0.33149588  0.56229211
   0.87743288  0.33643674  0.70469119
   0.59151423  0.98266677  0.22508412
   0.54403087  0.99079167  0.36346334
   0.87620252  0.35346355  0.90507564
   0.83021810  0.35766901  0.02614795
   0.89482203  0.78951236  0.76212740
   0.85254784  0.83358692  0.63875942
   0.91955702  0.74418806  0.10564255
   0.87893936  0.78925921  0.96306765
   0.31685434  0.89010752  0.73596787
   0.31415938  0.84933588  0.60852845
   0.33913611  0.91278863  0.07874113
   0.33077501  0.87389725  0.93747822
   0.99553902  0.55928161  0.42972346
   0.99008740  0.51901098  0.30708018
   0.79357260  0.32098974  0.76492220
   0.83619120  0.32007955  0.63975767
   0.74335943  0.34283799  0.09380365
   0.78868296  0.34282276  0.95948706
   0.45293491  0.98617066  0.41121416
   0.49903930  0.98132109  0.29209992
   0.61830823  0.44241406  0.33915647
   0.84590501  0.08721799  0.63694396
   0.79109917  0.21661787  0.12457800
   0.13949817  0.16909766  0.50754187
   0.70218976  0.12782431  0.50961771
   0.03156988  0.47661684  0.85169259
   0.17485591  0.69385735  0.53240838
   0.49757773  0.02225622  0.83872813
   0.18870426  0.16975613  0.80435181
   0.64162278  0.19167721  0.82216694
   0.19097991  0.61352026  0.86022791
   0.81099001  0.83135717  0.18255143
   0.34780347  0.80780089  0.15651918
   0.82972250  0.36996468  0.17960102
   0.86409421  0.83414898  0.48511769
   0.30538668  0.86094454  0.45366428
   0.97866470  0.53093621  0.15326596
   0.83942075  0.30435857  0.48892747
   0.49979030  0.96971372  0.13777342
   0.70543235  0.33617351  0.49365064
   0.28219617  0.02238580  0.79308102
   0.63816346  0.33386798  0.19811984
   0.96275380  0.68990924  0.48329826
   0.35407554  0.95264008  0.45664631
   0.35206855  0.02393458  0.12747453
   0.71074180  0.97587916  0.18454170
   0.34680053  0.66260037  0.74973323
   0.73211749  0.27732081  0.02308760
   0.97872965  0.31618365  0.18765760
   0.31397318  0.70556290  0.18665719
   0.97550947  0.38470681  0.85598058
   0.64705829  0.97119200  0.85091977
   0.03176913  0.62520969  0.14942945
   0.64167635  0.03974440  0.51961407
   0.02835169  0.69317881  0.82163569
   0.30214199  0.62749777  0.57726540
   0.04410709  0.31856336  0.51949130
   0.70510942  0.43765086  0.37023720
   0.61939560  0.44205857  0.00591094
   0.79218311  0.21263385  0.68535783
Direct configuration=    31
   0.05823710  0.25788563  0.31537282
   0.03248389  0.30138483  0.95038676
   0.10157483  0.26221342  0.71758495
   0.68622902  0.05434694  0.31419229
   0.66403809  0.03334167  0.95554348
   0.63819565  0.10066767  0.71763909
   0.02388268  0.39679133  0.65388419
   0.27348228  0.67090452  0.34705181
   0.32236621  0.63961227  0.98624753
   0.28864834  0.59354257  0.79280974
   0.58553749  0.01600360  0.64701625
   0.29442134  0.03527643  0.35646047
   0.22643571  0.07623979  0.59370079
   0.27054753  0.08090755  0.99877897
   0.66656071  0.28810143  0.44386937
   0.73470684  0.20079197  0.56951520
   0.00917753  0.63299750  0.71136634
   0.03416434  0.56583404  0.94914605
   0.65421188  0.26786599  0.02627122
   0.04124848  0.67358090  0.37877744
   0.08402628  0.69594635  0.62370967
   0.36448020  0.99967390  0.68855320
   0.40477272  0.02740350  0.92548993
   0.09135475  0.64378508  0.02605725
   0.70353436  0.96050907  0.62355194
   0.77141120  0.92150042  0.38627363
   0.72751739  0.91551626  0.98270713
   0.36031925  0.69614714  0.52356188
   0.29769950  0.77555030  0.35529663
   0.00446813  0.37323833  0.28557453
   0.97368264  0.44331608  0.05669129
   0.33741724  0.72862846  0.94191354
   0.96108403  0.34550380  0.61798284
   0.92264532  0.31425840  0.38709272
   0.63249601  0.99194189  0.29083841
   0.59149663  0.96685478  0.04878716
   0.91647001  0.36505888  0.98583562
   0.94772715  0.74977894  0.68554792
   0.97227263  0.70593714  0.04770735
   0.90288924  0.74327194  0.28009839
   0.30689970  0.94204247  0.66024953
   0.32858595  0.96414233  0.02029856
   0.35691850  0.89514048  0.25327097
   0.98635358  0.61074098  0.35158573
   0.75957503  0.29652222  0.70992639
   0.68687472  0.36377365  0.01453084
   0.74640933  0.35597915  0.28315419
   0.41129346  0.97614946  0.33046658
   0.58779863  0.42112179  0.25574545
   0.62897592  0.47880703  0.24196890
   0.64351814  0.42401162  0.51246850
   0.83261919  0.17871825  0.20715587
   0.85705797  0.12365736  0.69148231
   0.83611940  0.05027222  0.58545134
   0.10904417  0.21550053  0.23394502
   0.15028822  0.16925920  0.35285789
   0.08445464  0.26164505  0.89174833
   0.12388716  0.21473934  0.03107461
   0.67875262  0.10518591  0.23606519
   0.68833161  0.14245126  0.35907400
   0.65404301  0.08438395  0.89365686
   0.66244982  0.12288056  0.03634547
   0.01476550  0.44807406  0.57523391
   0.02005290  0.48856193  0.69790078
   0.22964886  0.66166434  0.27280368
   0.17914114  0.67594399  0.38433488
   0.28489710  0.62099597  0.95394407
   0.23470439  0.63645482  0.08394647
   0.54414243  0.00588736  0.56557180
   0.49806972  0.01059312  0.68457357
   0.24357396  0.07613353  0.41853004
   0.20430378  0.12369107  0.28084956
   0.21932733  0.12308503  0.07828287
   0.17806857  0.16933757  0.95913492
   0.69545415  0.22938274  0.44386976
   0.67984439  0.19734002  0.29760932
   0.01864947  0.58221010  0.77314516
   0.01077374  0.54330930  0.63114350
   0.66170930  0.21649483  0.09993834
   0.65415907  0.17789875  0.97423989
   0.08336560  0.68061287  0.44684325
   0.13289230  0.66828757  0.31194201
   0.40513201  0.00977587  0.75049210
   0.45295758  0.00123328  0.61313550
   0.13537172  0.64786321  0.11466515
   0.18758191  0.63070641  0.00858734
   0.75543409  0.92147430  0.56230388
   0.79627093  0.87625628  0.70474219
   0.78041273  0.87595913  0.90567768
   0.82262469  0.83186826  0.02898714
   0.32615052  0.75386689  0.51331139
   0.32437834  0.79397213  0.67099044
   0.99183923  0.42554622  0.23016545
   0.99949502  0.46416071  0.37357050
   0.33416824  0.77903421  0.87481491
   0.33860443  0.81919537  0.00188493
   0.92238260  0.33150067  0.56228756
   0.87743170  0.33645317  0.70472263
   0.59150400  0.98267730  0.22508766
   0.54401496  0.99078762  0.36342173
   0.87621630  0.35346885  0.90509027
   0.83024453  0.35768054  0.02615607
   0.89482586  0.78951110  0.76211345
   0.85254407  0.83358942  0.63876514
   0.91956227  0.74418914  0.10565157
   0.87894196  0.78925673  0.96306228
   0.31682770  0.89012636  0.73603876
   0.31415357  0.84934666  0.60863404
   0.33915963  0.91275973  0.07886583
   0.33077303  0.87391312  0.93756594
   0.99554117  0.55928624  0.42971777
   0.99008697  0.51901174  0.30707827
   0.79360163  0.32096503  0.76491010
   0.83620719  0.32007380  0.63975628
   0.74337251  0.34288154  0.09389558
   0.78871377  0.34280615  0.95950446
   0.45291657  0.98613554  0.41118219
   0.49902785  0.98130317  0.29204647
   0.61833643  0.44236923  0.33930589
   0.84590883  0.08727513  0.63696992
   0.79108544  0.21659787  0.12467898
   0.13952629  0.16908138  0.50749786
   0.70218356  0.12787080  0.50961574
   0.03157093  0.47662018  0.85169150
   0.17487703  0.69386249  0.53244655
   0.49754139  0.02224632  0.83868182
   0.18869936  0.16975658  0.80428133
   0.64161162  0.19163259  0.82211007
   0.19099643  0.61352611  0.86023371
   0.81099067  0.83135596  0.18255463
   0.34781326  0.80781091  0.15663848
   0.82974319  0.36994270  0.17959025
   0.86409156  0.83415355  0.48513624
   0.30538977  0.86093561  0.45368087
   0.97866405  0.53093899  0.15327577
   0.83941956  0.30437062  0.48892410
   0.49978612  0.96971211  0.13776166
   0.70553842  0.33608925  0.49357514
   0.28222332  0.02236805  0.79304048
   0.63813337  0.33384384  0.19796742
   0.96276076  0.68990798  0.48329571
   0.35403745  0.95268759  0.45678703
   0.35206656  0.02391792  0.12746548
   0.71073294  0.97587496  0.18459519
   0.34672007  0.66264735  0.74939995
   0.73209842  0.27736721  0.02313802
   0.97874244  0.31617518  0.18768498
   0.31400754  0.70558136  0.18663223
   0.97552012  0.38471001  0.85598715
   0.64703210  0.97118249  0.85089618
   0.03178143  0.62521379  0.14941760
   0.64165122  0.03974165  0.51966726
   0.02836515  0.69317313  0.82166817
   0.30212861  0.62742435  0.57721701
   0.04411694  0.31856154  0.51946002
   0.70511566  0.43766004  0.37021467
   0.61936580  0.44205675  0.00611294
   0.79213331  0.21264959  0.68553324
Direct configuration=    32
   0.05823854  0.25788320  0.31536567
   0.03248357  0.30138236  0.95039899
   0.10157420  0.26221415  0.71757923
   0.68623210  0.05434949  0.31420881
   0.66403510  0.03333909  0.95555661
   0.63819877  0.10065774  0.71765207
   0.02388105  0.39679321  0.65388545
   0.27350408  0.67088905  0.34703468
   0.32233861  0.63964986  0.98616115
   0.28865684  0.59351973  0.79281938
   0.58553841  0.01600670  0.64703276
   0.29441884  0.03527492  0.35642583
   0.22643826  0.07622260  0.59369849
   0.27055183  0.08091362  0.99876452
   0.66656409  0.28810861  0.44378347
   0.73469950  0.20080053  0.56951898
   0.00918135  0.63299706  0.71136522
   0.03416539  0.56583543  0.94914641
   0.65419806  0.26787746  0.02625103
   0.04125579  0.67358249  0.37878445
   0.08402576  0.69594680  0.62371504
   0.36447877  0.99968217  0.68852945
   0.40474867  0.02742528  0.92548742
   0.09135800  0.64378363  0.02607237
   0.70353266  0.96051069  0.62355666
   0.77140976  0.92150009  0.38627289
   0.72751721  0.91551775  0.98270469
   0.36031716  0.69615295  0.52350124
   0.29767140  0.77556837  0.35534029
   0.00446725  0.37323796  0.28557684
   0.97368163  0.44331636  0.05668943
   0.33743398  0.72861454  0.94192352
   0.96108466  0.34549966  0.61796944
   0.92264834  0.31425822  0.38710386
   0.63249383  0.99194170  0.29084404
   0.59149298  0.96685920  0.04880170
   0.91646976  0.36505472  0.98583003
   0.94772779  0.74977955  0.68555124
   0.97227470  0.70594002  0.04770528
   0.90289160  0.74327157  0.28009555
   0.30688988  0.94204738  0.66027194
   0.32860411  0.96412447  0.02027295
   0.35692076  0.89514458  0.25330994
   0.98635661  0.61074040  0.35158249
   0.75958435  0.29651582  0.70992058
   0.68688782  0.36377949  0.01452655
   0.74640971  0.35598363  0.28314097
   0.41129865  0.97613529  0.33045145
   0.58781104  0.42110159  0.25578126
   0.62895971  0.47881344  0.24200150
   0.64353471  0.42399450  0.51246194
   0.83260320  0.17872842  0.20715891
   0.85705151  0.12365330  0.69146647
   0.83611465  0.05026525  0.58541845
   0.10904657  0.21550017  0.23393597
   0.15029137  0.16926066  0.35284955
   0.08445476  0.26164326  0.89174479
   0.12389086  0.21473512  0.03106456
   0.67875332  0.10518350  0.23606732
   0.68832839  0.14245884  0.35906268
   0.65404491  0.08438197  0.89368213
   0.66245108  0.12287614  0.03636052
   0.01476461  0.44807593  0.57523098
   0.02005255  0.48856284  0.69789795
   0.22965551  0.66166612  0.27280010
   0.17914656  0.67594438  0.38433071
   0.28488882  0.62099712  0.95391635
   0.23470093  0.63645837  0.08394482
   0.54414213  0.00588360  0.56556508
   0.49806750  0.01059216  0.68458696
   0.24357129  0.07613081  0.41853206
   0.20430621  0.12368693  0.28085858
   0.21933056  0.12308562  0.07829158
   0.17807159  0.16933588  0.95912902
   0.69545277  0.22938949  0.44382874
   0.67983746  0.19734206  0.29758880
   0.01865097  0.58221018  0.77314518
   0.01077371  0.54331104  0.63114529
   0.66170045  0.21648926  0.09992140
   0.65415696  0.17789682  0.97423689
   0.08337172  0.68061316  0.44684438
   0.13289478  0.66828815  0.31193925
   0.40512003  0.00978885  0.75050125
   0.45295139  0.00123782  0.61315195
   0.13537064  0.64786501  0.11466133
   0.18758044  0.63070985  0.00859007
   0.75543322  0.92147431  0.56231255
   0.79627062  0.87625716  0.70474369
   0.78041364  0.87595992  0.90567635
   0.82262513  0.83186836  0.02898916
   0.32614444  0.75387371  0.51331963
   0.32438479  0.79397829  0.67102208
   0.99183824  0.42554687  0.23016500
   0.99949434  0.46416149  0.37357109
   0.33417810  0.77902764  0.87483271
   0.33861055  0.81919117  0.00190335
   0.92238146  0.33150196  0.56228634
   0.87743138  0.33645760  0.70473111
   0.59150124  0.98268013  0.22508861
   0.54401068  0.99078653  0.36341051
   0.87622001  0.35347028  0.90509422
   0.83025166  0.35768365  0.02615826
   0.89482689  0.78951076  0.76210969
   0.85254305  0.83359009  0.63876668
   0.91956368  0.74418943  0.10565400
   0.87894266  0.78925606  0.96306083
   0.31682052  0.89013144  0.73605787
   0.31415201  0.84934956  0.60866251
   0.33916597  0.91275194  0.07889945
   0.33077250  0.87391740  0.93758959
   0.99554175  0.55928748  0.42971623
   0.99008685  0.51901194  0.30707775
   0.79360946  0.32095837  0.76490684
   0.83621150  0.32007225  0.63975590
   0.74337604  0.34289328  0.09392036
   0.78872207  0.34280168  0.95950914
   0.45291163  0.98612608  0.41117357
   0.49902477  0.98129833  0.29203207
   0.61834404  0.44235715  0.33934618
   0.84590985  0.08729053  0.63697692
   0.79108174  0.21659248  0.12470620
   0.13953387  0.16907699  0.50748599
   0.70218189  0.12788333  0.50961521
   0.03157121  0.47662109  0.85169121
   0.17488272  0.69386388  0.53245684
   0.49753160  0.02224365  0.83866933
   0.18869804  0.16975670  0.80426234
   0.64160861  0.19162056  0.82209474
   0.19100089  0.61352769  0.86023527
   0.81099085  0.83135563  0.18255549
   0.34781590  0.80781361  0.15667063
   0.82974877  0.36993678  0.17958734
   0.86409085  0.83415479  0.48514124
   0.30539060  0.86093321  0.45368534
   0.97866388  0.53093974  0.15327842
   0.83941924  0.30437387  0.48892319
   0.49978500  0.96971168  0.13775849
   0.70556701  0.33606654  0.49355479
   0.28223063  0.02236326  0.79302956
   0.63812526  0.33383733  0.19792633
   0.96276264  0.68990764  0.48329502
   0.35402718  0.95270040  0.45682496
   0.35206602  0.02391343  0.12746304
   0.71073055  0.97587383  0.18460961
   0.34669839  0.66266002  0.74931011
   0.73209327  0.27737972  0.02315161
   0.97874588  0.31617289  0.18769235
   0.31401680  0.70558634  0.18662551
   0.97552300  0.38471087  0.85598892
   0.64702504  0.97117992  0.85088982
   0.03178475  0.62521490  0.14941441
   0.64164445  0.03974091  0.51968160
   0.02836878  0.69317160  0.82167693
   0.30212500  0.62740456  0.57720397
   0.04411959  0.31856105  0.51945158
   0.70511734  0.43766252  0.37020859
   0.61935776  0.44205626  0.00616739
   0.79211988  0.21265383  0.68558053
Direct configuration=    33
   0.05824076  0.25787769  0.31534491
   0.03248524  0.30137294  0.95043557
   0.10157410  0.26221397  0.71755443
   0.68624247  0.05434740  0.31425918
   0.66402700  0.03333679  0.95562620
   0.63820985  0.10063038  0.71771676
   0.02387591  0.39679885  0.65389131
   0.27356924  0.67084266  0.34696145
   0.32225519  0.63975861  0.98589767
   0.28868401  0.59345274  0.79281826
   0.58553325  0.01601190  0.64704956
   0.29441401  0.03526472  0.35633445
   0.22643755  0.07618268  0.59367246
   0.27056046  0.08093539  0.99871649
   0.66656580  0.28812376  0.44351123
   0.73465100  0.20084046  0.56941744
   0.00919344  0.63299669  0.71135831
   0.03416890  0.56583924  0.94915144
   0.65416307  0.26790351  0.02619811
   0.04127532  0.67358650  0.37879798
   0.08402629  0.69594959  0.62373980
   0.36445535  0.99970861  0.68845837
   0.40467528  0.02748560  0.92550486
   0.09136517  0.64378102  0.02613127
   0.70353042  0.96051072  0.62356888
   0.77140190  0.92150044  0.38629263
   0.72751786  0.91551962  0.98269067
   0.36029850  0.69618136  0.52337272
   0.29757719  0.77562897  0.35541403
   0.00446465  0.37323954  0.28558150
   0.97367955  0.44331754  0.05668940
   0.33748701  0.72857148  0.94196115
   0.96108805  0.34549170  0.61795725
   0.92265569  0.31425489  0.38711465
   0.63248379  0.99194210  0.29085118
   0.59148946  0.96687190  0.04880163
   0.91646911  0.36504294  0.98580293
   0.94773034  0.74978177  0.68555561
   0.97228516  0.70594632  0.04769732
   0.90289785  0.74327083  0.28010046
   0.30686239  0.94206109  0.66032053
   0.32865809  0.96408070  0.02021548
   0.35692120  0.89515555  0.25341972
   0.98636833  0.61073652  0.35157475
   0.75961273  0.29650588  0.70991658
   0.68691302  0.36380277  0.01447568
   0.74640393  0.35599805  0.28313840
   0.41131073  0.97609280  0.33036594
   0.58784257  0.42105716  0.25592965
   0.62891399  0.47882847  0.24211984
   0.64358276  0.42394285  0.51248635
   0.83254458  0.17875978  0.20719138
   0.85703873  0.12367549  0.69146521
   0.83611215  0.05028392  0.58537244
   0.10905570  0.21550014  0.23390457
   0.15029781  0.16926507  0.35283247
   0.08445494  0.26163838  0.89173113
   0.12390365  0.21472376  0.03103499
   0.67875491  0.10517579  0.23606243
   0.68831692  0.14247930  0.35905615
   0.65404856  0.08437475  0.89375063
   0.66245077  0.12286303  0.03636974
   0.01476036  0.44808487  0.57522891
   0.02005141  0.48856445  0.69789315
   0.22967117  0.66166234  0.27276427
   0.17916260  0.67594832  0.38430549
   0.28486353  0.62100334  0.95384279
   0.23469800  0.63646719  0.08394423
   0.54414650  0.00587121  0.56554750
   0.49805431  0.01059426  0.68460250
   0.24356491  0.07612036  0.41850305
   0.20430943  0.12367803  0.28086789
   0.21934442  0.12308334  0.07831919
   0.17807797  0.16933313  0.95910544
   0.69547833  0.22937588  0.44383579
   0.67982053  0.19735858  0.29751968
   0.01865645  0.58221046  0.77314280
   0.01077477  0.54331535  0.63114876
   0.66167201  0.21647953  0.09987391
   0.65414756  0.17789302  0.97420446
   0.08339691  0.68061338  0.44685426
   0.13290288  0.66829121  0.31192551
   0.40510919  0.00982663  0.75050016
   0.45293029  0.00125459  0.61323268
   0.13535971  0.64787294  0.11465816
   0.18758328  0.63072327  0.00861189
   0.75542820  0.92147835  0.56231830
   0.79626840  0.87626092  0.70474947
   0.78041575  0.87596176  0.90568555
   0.82262719  0.83186877  0.02899458
   0.32613828  0.75388661  0.51335922
   0.32440809  0.79397985  0.67111642
   0.99183476  0.42554770  0.23016503
   0.99949137  0.46416601  0.37356667
   0.33420620  0.77902324  0.87486396
   0.33862678  0.81917297  0.00190676
   0.92237289  0.33150676  0.56230333
   0.87744095  0.33646897  0.70472722
   0.59148737  0.98268914  0.22511588
   0.54400515  0.99078178  0.36341620
   0.87623357  0.35347860  0.90507893
   0.83026152  0.35768608  0.02613281
   0.89482977  0.78950945  0.76210144
   0.85254076  0.83359133  0.63876976
   0.91956764  0.74419170  0.10564915
   0.87894420  0.78925375  0.96307040
   0.31680080  0.89015472  0.73615424
   0.31414468  0.84935816  0.60870626
   0.33918794  0.91272316  0.07901757
   0.33077443  0.87392247  0.93766313
   0.99554392  0.55929110  0.42970478
   0.99008737  0.51901151  0.30708163
   0.79363445  0.32094180  0.76490378
   0.83622711  0.32006237  0.63974670
   0.74340385  0.34292339  0.09399299
   0.78874970  0.34277852  0.95954435
   0.45289092  0.98610056  0.41113206
   0.49901971  0.98128740  0.29203359
   0.61834866  0.44232510  0.33940819
   0.84588881  0.08726831  0.63689046
   0.79108440  0.21657928  0.12473868
   0.13955433  0.16906490  0.50747500
   0.70217939  0.12792168  0.50962701
   0.03157155  0.47662442  0.85168221
   0.17490291  0.69386640  0.53248262
   0.49750311  0.02223648  0.83865562
   0.18869618  0.16975296  0.80424600
   0.64159793  0.19158077  0.82203932
   0.19100866  0.61352981  0.86021301
   0.81099174  0.83135453  0.18255560
   0.34782809  0.80781860  0.15677923
   0.82976855  0.36992214  0.17959733
   0.86408886  0.83415883  0.48515140
   0.30538922  0.86093349  0.45371001
   0.97866274  0.53094273  0.15328090
   0.83942280  0.30438654  0.48893558
   0.49978012  0.96970684  0.13772873
   0.70565911  0.33599700  0.49349740
   0.28225905  0.02233602  0.79297835
   0.63809959  0.33383076  0.19778018
   0.96276818  0.68990574  0.48329676
   0.35400265  0.95273483  0.45695802
   0.35206179  0.02390944  0.12746931
   0.71072422  0.97587034  0.18465734
   0.34664716  0.66269699  0.74906294
   0.73207505  0.27741697  0.02318938
   0.97876281  0.31616248  0.18771763
   0.31403398  0.70560472  0.18663013
   0.97553608  0.38471034  0.85598999
   0.64700642  0.97116690  0.85088165
   0.03179008  0.62522055  0.14941054
   0.64162421  0.03973955  0.51972605
   0.02837699  0.69316782  0.82169962
   0.30211324  0.62734460  0.57720259
   0.04413275  0.31855692  0.51942099
   0.70512560  0.43767225  0.37018911
   0.61933329  0.44205502  0.00632913
   0.79208327  0.21265086  0.68573771
Direct configuration=    34
   0.05824207  0.25787444  0.31533270
   0.03248622  0.30136740  0.95045709
   0.10157404  0.26221386  0.71753984
   0.68624858  0.05434618  0.31428882
   0.66402224  0.03333544  0.95566715
   0.63821637  0.10061427  0.71775483
   0.02387289  0.39680216  0.65389476
   0.27360760  0.67081536  0.34691834
   0.32220609  0.63982262  0.98574259
   0.28870000  0.59341332  0.79281760
   0.58553021  0.01601497  0.64705944
   0.29441116  0.03525872  0.35628068
   0.22643714  0.07615918  0.59365714
   0.27056555  0.08094821  0.99868822
   0.66656681  0.28813267  0.44335099
   0.73462244  0.20086396  0.56935768
   0.00920055  0.63299647  0.71135424
   0.03417097  0.56584148  0.94915441
   0.65414248  0.26791883  0.02616697
   0.04128682  0.67358886  0.37880594
   0.08402660  0.69595124  0.62375438
   0.36444157  0.99972417  0.68841653
   0.40463208  0.02752110  0.92551513
   0.09136938  0.64377949  0.02616593
   0.70352909  0.96051074  0.62357608
   0.77139727  0.92150065  0.38630424
   0.72751825  0.91552072  0.98268242
   0.36028752  0.69619808  0.52329708
   0.29752174  0.77566464  0.35545742
   0.00446311  0.37324047  0.28558425
   0.97367833  0.44331824  0.05668938
   0.33751822  0.72854614  0.94198331
   0.96109004  0.34548701  0.61795008
   0.92266002  0.31425293  0.38712100
   0.63247788  0.99194234  0.29085537
   0.59148739  0.96687937  0.04880160
   0.91646872  0.36503601  0.98578698
   0.94773184  0.74978308  0.68555818
   0.97229131  0.70595003  0.04769264
   0.90290153  0.74327040  0.28010335
   0.30684621  0.94206916  0.66034912
   0.32868986  0.96405493  0.02018166
   0.35692145  0.89516200  0.25348434
   0.98637523  0.61073424  0.35157020
   0.75962943  0.29650003  0.70991423
   0.68692785  0.36381647  0.01444573
   0.74640053  0.35600654  0.28313690
   0.41131785  0.97606779  0.33031562
   0.58786113  0.42103101  0.25601698
   0.62888708  0.47883732  0.24218950
   0.64361104  0.42391246  0.51250072
   0.83251008  0.17877823  0.20721050
   0.85703121  0.12368854  0.69146447
   0.83611068  0.05029490  0.58534536
   0.10906107  0.21550012  0.23388609
   0.15030160  0.16926766  0.35282242
   0.08445504  0.26163550  0.89172308
   0.12391118  0.21471707  0.03101758
   0.67875584  0.10517125  0.23605956
   0.68831016  0.14249133  0.35905231
   0.65405071  0.08437050  0.89379095
   0.66245059  0.12285532  0.03637516
   0.01475787  0.44809013  0.57522770
   0.02005074  0.48856540  0.69789032
   0.22968039  0.66166012  0.27274318
   0.17917205  0.67595065  0.38429065
   0.28484864  0.62100701  0.95379950
   0.23469628  0.63647238  0.08394389
   0.54414908  0.00586392  0.56553715
   0.49804654  0.01059550  0.68461164
   0.24356115  0.07611421  0.41848598
   0.20431133  0.12367279  0.28087337
   0.21935258  0.12308200  0.07833544
   0.17808172  0.16933151  0.95909156
   0.69549337  0.22936787  0.44383994
   0.67981057  0.19736830  0.29747899
   0.01865967  0.58221063  0.77314140
   0.01077539  0.54331789  0.63115081
   0.66165526  0.21647379  0.09984596
   0.65414203  0.17789078  0.97418537
   0.08341173  0.68061350  0.44686007
   0.13290764  0.66829300  0.31191742
   0.40510281  0.00984887  0.75049952
   0.45291787  0.00126445  0.61328020
   0.13535327  0.64787760  0.11465630
   0.18758495  0.63073117  0.00862473
   0.75542524  0.92148073  0.56232168
   0.79626710  0.87626313  0.70475288
   0.78041699  0.87596284  0.90569096
   0.82262840  0.83186902  0.02899778
   0.32613466  0.75389420  0.51338252
   0.32442181  0.79398077  0.67117195
   0.99183272  0.42554818  0.23016504
   0.99948963  0.46416867  0.37356407
   0.33422274  0.77902065  0.87488235
   0.33863633  0.81916226  0.00190877
   0.92236785  0.33150958  0.56231333
   0.87744658  0.33647566  0.70472494
   0.59147920  0.98269444  0.22513193
   0.54400190  0.99077898  0.36341955
   0.87624154  0.35348349  0.90506994
   0.83026732  0.35768751  0.02611783
   0.89483146  0.78950868  0.76209659
   0.85253941  0.83359206  0.63877157
   0.91956997  0.74419303  0.10564630
   0.87894511  0.78925240  0.96307604
   0.31678919  0.89016842  0.73621096
   0.31414037  0.84936323  0.60873201
   0.33920086  0.91270623  0.07908709
   0.33077557  0.87392546  0.93770641
   0.99554519  0.55929323  0.42969804
   0.99008767  0.51901125  0.30708392
   0.79364915  0.32093205  0.76490198
   0.83623629  0.32005656  0.63974128
   0.74342021  0.34294112  0.09403574
   0.78876596  0.34276490  0.95956507
   0.45287874  0.98608555  0.41110762
   0.49901674  0.98128096  0.29203448
   0.61835138  0.44230623  0.33944470
   0.84587642  0.08725524  0.63683958
   0.79108597  0.21657151  0.12475780
   0.13956637  0.16905778  0.50746852
   0.70217792  0.12794425  0.50963396
   0.03157175  0.47662638  0.85167691
   0.17491479  0.69386788  0.53249780
   0.49748634  0.02223225  0.83864754
   0.18869509  0.16975076  0.80423638
   0.64159165  0.19155735  0.82200670
   0.19101324  0.61353106  0.86019990
   0.81099227  0.83135388  0.18255566
   0.34783526  0.80782153  0.15684314
   0.82978019  0.36991352  0.17960321
   0.86408769  0.83416122  0.48515738
   0.30538841  0.86093366  0.45372453
   0.97866206  0.53094449  0.15328236
   0.83942490  0.30439401  0.48894287
   0.49977724  0.96970400  0.13771122
   0.70571332  0.33595608  0.49346363
   0.28227577  0.02231999  0.79294821
   0.63808448  0.33382689  0.19769417
   0.96277145  0.68990463  0.48329777
   0.35398821  0.95275508  0.45703634
   0.35205930  0.02390709  0.12747300
   0.71072049  0.97586829  0.18468543
   0.34661701  0.66271875  0.74891746
   0.73206432  0.27743890  0.02321161
   0.97877277  0.31615635  0.18773251
   0.31404409  0.70561554  0.18663285
   0.97554378  0.38471002  0.85599062
   0.64699547  0.97115924  0.85087684
   0.03179322  0.62522388  0.14940827
   0.64161230  0.03973875  0.51975221
   0.02838183  0.69316560  0.82171297
   0.30210632  0.62730930  0.57720178
   0.04414049  0.31855448  0.51940298
   0.70513046  0.43767798  0.37017765
   0.61931889  0.44205428  0.00642432
   0.79206172  0.21264911  0.68583023
Direct configuration=    35
   0.05824433  0.25787039  0.31531320
   0.03249276  0.30135635  0.95047691
   0.10157396  0.26221179  0.71752270
   0.68625817  0.05433449  0.31433479
   0.66401646  0.03333524  0.95576357
   0.63822618  0.10059667  0.71782074
   0.02386859  0.39680777  0.65389735
   0.27365945  0.67077116  0.34684093
   0.32212664  0.63990783  0.98550020
   0.28872348  0.59336035  0.79282197
   0.58551412  0.01601367  0.64703469
   0.29440626  0.03524663  0.35622120
   0.22642930  0.07613665  0.59360039
   0.27057096  0.08096644  0.99864484
   0.66656984  0.28813060  0.44313052
   0.73459442  0.20088506  0.56928994
   0.00921187  0.63299590  0.71134442
   0.03417428  0.56584432  0.94916021
   0.65411989  0.26791740  0.02612919
   0.04130037  0.67359101  0.37880705
   0.08403307  0.69595499  0.62378517
   0.36441499  0.99975177  0.68836859
   0.40457174  0.02756854  0.92553751
   0.09136871  0.64377846  0.02621353
   0.70352720  0.96050761  0.62358850
   0.77138827  0.92150244  0.38632846
   0.72751864  0.91552087  0.98266912
   0.36026464  0.69622785  0.52323059
   0.29744465  0.77571313  0.35553252
   0.00446109  0.37324476  0.28558600
   0.97367735  0.44331947  0.05669492
   0.33756727  0.72851997  0.94200363
   0.96109674  0.34548591  0.61797514
   0.92266278  0.31424719  0.38710439
   0.63246634  0.99194534  0.29086301
   0.59148838  0.96689034  0.04876559
   0.91647880  0.36502962  0.98576972
   0.94773478  0.74978523  0.68555389
   0.97230198  0.70595506  0.04768973
   0.90290710  0.74326974  0.28011494
   0.30682316  0.94208164  0.66037608
   0.32873778  0.96402556  0.02016294
   0.35691700  0.89516597  0.25359755
   0.98638758  0.61073025  0.35156307
   0.75965478  0.29649534  0.70992426
   0.68693863  0.36384212  0.01437212
   0.74639400  0.35602404  0.28319981
   0.41132268  0.97603021  0.33020928
   0.58787396  0.42100437  0.25616216
   0.62885059  0.47884506  0.24231349
   0.64365198  0.42386606  0.51255373
   0.83250198  0.17875697  0.20736745
   0.85701019  0.12369117  0.69143250
   0.83610461  0.05029335  0.58527560
   0.10907089  0.21549995  0.23386511
   0.15030464  0.16927001  0.35281906
   0.08445621  0.26163101  0.89170483
   0.12391870  0.21471364  0.03099113
   0.67875704  0.10516895  0.23606828
   0.68829755  0.14250288  0.35905767
   0.65405180  0.08435679  0.89383792
   0.66244696  0.12284927  0.03635488
   0.01475289  0.44809766  0.57523311
   0.02004937  0.48856911  0.69789106
   0.22969468  0.66165093  0.27270985
   0.17918602  0.67595849  0.38427240
   0.28483575  0.62101598  0.95372763
   0.23470344  0.63647531  0.08392651
   0.54415163  0.00585545  0.56555460
   0.49803480  0.01060015  0.68457163
   0.24355938  0.07609864  0.41843616
   0.20431024  0.12367071  0.28085400
   0.21936566  0.12307942  0.07833484
   0.17808847  0.16932687  0.95908414
   0.69549194  0.22936412  0.44380391
   0.67980388  0.19738440  0.29743592
   0.01866559  0.58221231  0.77313901
   0.01077734  0.54331977  0.63114582
   0.66162829  0.21649449  0.09979439
   0.65412948  0.17788149  0.97412891
   0.08343338  0.68061406  0.44688064
   0.13291868  0.66829859  0.31191148
   0.40509749  0.00987971  0.75048006
   0.45289935  0.00127499  0.61329926
   0.13534770  0.64788616  0.11467189
   0.18758651  0.63074275  0.00862755
   0.75541913  0.92148607  0.56232102
   0.79626519  0.87626638  0.70475991
   0.78041790  0.87596399  0.90570869
   0.82263096  0.83186940  0.02900188
   0.32612045  0.75391808  0.51337236
   0.32444264  0.79396499  0.67120274
   0.99182943  0.42554891  0.23016846
   0.99948622  0.46417276  0.37355669
   0.33424863  0.77901440  0.87490987
   0.33865082  0.81915029  0.00192240
   0.92236332  0.33151332  0.56233234
   0.87745776  0.33648131  0.70468665
   0.59146397  0.98270044  0.22515960
   0.54400240  0.99077312  0.36346366
   0.87624772  0.35349195  0.90502227
   0.83026719  0.35768161  0.02607763
   0.89483224  0.78950802  0.76210065
   0.85253841  0.83359242  0.63877438
   0.91957529  0.74419449  0.10563558
   0.87894608  0.78925102  0.96308760
   0.31677553  0.89018837  0.73631607
   0.31413298  0.84937397  0.60875432
   0.33921919  0.91268819  0.07916989
   0.33078143  0.87391310  0.93777540
   0.99554866  0.55929388  0.42969086
   0.99008816  0.51901297  0.30708579
   0.79367317  0.32092212  0.76492001
   0.83625425  0.32004819  0.63975296
   0.74345086  0.34295592  0.09404575
   0.78879559  0.34273847  0.95960452
   0.45286673  0.98607213  0.41110085
   0.49901071  0.98127409  0.29208302
   0.61834818  0.44228593  0.33948688
   0.84586497  0.08727718  0.63681414
   0.79103963  0.21661988  0.12462329
   0.13958078  0.16904951  0.50748249
   0.70217755  0.12797819  0.50965277
   0.03157164  0.47662959  0.85166277
   0.17493621  0.69386618  0.53249543
   0.49746356  0.02222910  0.83867946
   0.18869694  0.16974275  0.80425638
   0.64158028  0.19152027  0.82194937
   0.19101401  0.61353323  0.86017654
   0.81099333  0.83135281  0.18255492
   0.34784858  0.80782357  0.15691116
   0.82980080  0.36990375  0.17962177
   0.86408618  0.83416507  0.48515892
   0.30538313  0.86094133  0.45376566
   0.97866066  0.53094759  0.15328035
   0.83943356  0.30440554  0.48895065
   0.49977187  0.96969657  0.13767540
   0.70579337  0.33589827  0.49341649
   0.28230404  0.02228709  0.79289869
   0.63806025  0.33383534  0.19754227
   0.96277806  0.68990198  0.48330095
   0.35397393  0.95277896  0.45716266
   0.35205020  0.02391279  0.12748814
   0.71071587  0.97586493  0.18472731
   0.34658420  0.66274854  0.74873363
   0.73205476  0.27746398  0.02324914
   0.97879192  0.31614405  0.18775925
   0.31404598  0.70563673  0.18666480
   0.97555875  0.38470536  0.85598465
   0.64698481  0.97114386  0.85088510
   0.03179295  0.62523146  0.14941462
   0.64159703  0.03973875  0.51978973
   0.02838633  0.69316330  0.82172642
   0.30209525  0.62725917  0.57721587
   0.04415505  0.31854900  0.51937310
   0.70513801  0.43769009  0.37016152
   0.61929730  0.44205363  0.00656210
   0.79203398  0.21262974  0.68598777
Direct configuration=    36
   0.05824599  0.25786742  0.31529890
   0.03249756  0.30134824  0.95049145
   0.10157390  0.26221027  0.71751013
   0.68626520  0.05432591  0.31436850
   0.66401223  0.03333509  0.95583427
   0.63823337  0.10058377  0.71786907
   0.02386543  0.39681189  0.65389925
   0.27369747  0.67073876  0.34678417
   0.32206839  0.63997031  0.98532249
   0.28874070  0.59332151  0.79282517
   0.58550232  0.01601272  0.64701653
   0.29440266  0.03523776  0.35617760
   0.22642355  0.07612013  0.59355878
   0.27057493  0.08097981  0.99861304
   0.66657206  0.28812908  0.44296888
   0.73457388  0.20090053  0.56924028
   0.00922017  0.63299549  0.71133723
   0.03417671  0.56584641  0.94916446
   0.65410332  0.26791635  0.02610148
   0.04131031  0.67359258  0.37880786
   0.08403781  0.69595774  0.62380776
   0.36439551  0.99977200  0.68833344
   0.40452750  0.02760332  0.92555393
   0.09136822  0.64377771  0.02624842
   0.70352580  0.96050532  0.62359761
   0.77138167  0.92150376  0.38634622
   0.72751893  0.91552098  0.98265938
   0.36024786  0.69624969  0.52318185
   0.29738812  0.77574868  0.35558758
   0.00445961  0.37324791  0.28558730
   0.97367662  0.44332036  0.05669899
   0.33760323  0.72850078  0.94201854
   0.96110165  0.34548511  0.61799350
   0.92266481  0.31424298  0.38709220
   0.63245788  0.99194754  0.29086861
   0.59148910  0.96689838  0.04873919
   0.91648618  0.36502494  0.98575707
   0.94773694  0.74978680  0.68555075
   0.97230981  0.70595875  0.04768760
   0.90291119  0.74326926  0.28012344
   0.30680627  0.94209078  0.66039584
   0.32877291  0.96400402  0.02014921
   0.35691374  0.89516888  0.25368056
   0.98639664  0.61072733  0.35155784
   0.75967336  0.29649190  0.70993161
   0.68694654  0.36386092  0.01431815
   0.74638922  0.35603687  0.28324594
   0.41132622  0.97600266  0.33013132
   0.58788336  0.42098484  0.25626861
   0.62882384  0.47885073  0.24240441
   0.64368200  0.42383203  0.51259261
   0.83249604  0.17874139  0.20748253
   0.85699478  0.12369310  0.69140906
   0.83610016  0.05029221  0.58522446
   0.10907809  0.21549983  0.23384973
   0.15030687  0.16927174  0.35281660
   0.08445706  0.26162771  0.89169145
   0.12392422  0.21471113  0.03097173
   0.67875792  0.10516727  0.23607467
   0.68828831  0.14251135  0.35906160
   0.65405261  0.08434673  0.89387235
   0.66244430  0.12284483  0.03634002
   0.01474924  0.44810318  0.57523708
   0.02004836  0.48857183  0.69789160
   0.22970516  0.66164419  0.27268541
   0.17919626  0.67596424  0.38425902
   0.28482630  0.62102256  0.95367494
   0.23470868  0.63647747  0.08391377
   0.54415350  0.00584924  0.56556740
   0.49802619  0.01060356  0.68454230
   0.24355808  0.07608722  0.41839963
   0.20430944  0.12366918  0.28083979
   0.21937525  0.12307753  0.07833439
   0.17809342  0.16932346  0.95907871
   0.69549088  0.22936137  0.44377750
   0.67979898  0.19739621  0.29740434
   0.01866992  0.58221354  0.77313725
   0.01077877  0.54332115  0.63114216
   0.66160851  0.21650967  0.09975659
   0.65412027  0.17787468  0.97408752
   0.08344926  0.68061447  0.44689572
   0.13292677  0.66830269  0.31190713
   0.40509359  0.00990232  0.75046579
   0.45288578  0.00128271  0.61331323
   0.13534362  0.64789244  0.11468333
   0.18758764  0.63075124  0.00862962
   0.75541465  0.92148997  0.56232053
   0.79626379  0.87626876  0.70476507
   0.78041856  0.87596484  0.90572168
   0.82263284  0.83186968  0.02900488
   0.32611003  0.75393559  0.51336492
   0.32445791  0.79395341  0.67122532
   0.99182703  0.42554944  0.23017096
   0.99948372  0.46417577  0.37355127
   0.33426761  0.77900982  0.87493004
   0.33866145  0.81914151  0.00193240
   0.92236000  0.33151606  0.56234629
   0.87746596  0.33648546  0.70465858
   0.59145279  0.98270483  0.22517988
   0.54400278  0.99076883  0.36349601
   0.87625225  0.35349815  0.90498733
   0.83026710  0.35767728  0.02604816
   0.89483282  0.78950754  0.76210362
   0.85253768  0.83359268  0.63877645
   0.91957919  0.74419556  0.10562773
   0.87894679  0.78925001  0.96309608
   0.31676551  0.89020301  0.73639314
   0.31412756  0.84938184  0.60877069
   0.33923263  0.91267496  0.07923060
   0.33078573  0.87390404  0.93782599
   0.99555120  0.55929436  0.42968560
   0.99008852  0.51901422  0.30708716
   0.79369079  0.32091485  0.76493323
   0.83626742  0.32004205  0.63976153
   0.74347333  0.34296677  0.09405309
   0.78881732  0.34271910  0.95963345
   0.45285792  0.98606229  0.41109590
   0.49900630  0.98126905  0.29211861
   0.61834583  0.44227104  0.33951781
   0.84585657  0.08729326  0.63679549
   0.79100564  0.21665535  0.12452467
   0.13959135  0.16904344  0.50749273
   0.70217728  0.12800308  0.50966657
   0.03157156  0.47663194  0.85165240
   0.17495192  0.69386493  0.53249370
   0.49744686  0.02222678  0.83870285
   0.18869830  0.16973688  0.80427105
   0.64157195  0.19149308  0.82190733
   0.19101457  0.61353482  0.86015942
   0.81099411  0.83135202  0.18255438
   0.34785835  0.80782506  0.15696102
   0.82981591  0.36989658  0.17963537
   0.86408508  0.83416789  0.48516005
   0.30537925  0.86094695  0.45379582
   0.97865963  0.53094986  0.15327888
   0.83943992  0.30441399  0.48895636
   0.49976793  0.96969112  0.13764914
   0.70585206  0.33585588  0.49338193
   0.28232477  0.02226296  0.79286238
   0.63804248  0.33384154  0.19743090
   0.96278290  0.68990004  0.48330329
   0.35396346  0.95279646  0.45725529
   0.35204352  0.02391697  0.12749924
   0.71071248  0.97586247  0.18475801
   0.34656016  0.66277038  0.74859885
   0.73204775  0.27748237  0.02327665
   0.97880597  0.31613504  0.18777886
   0.31404736  0.70565227  0.18668823
   0.97556973  0.38470195  0.85598027
   0.64697699  0.97113258  0.85089116
   0.03179276  0.62523701  0.14941927
   0.64158584  0.03973876  0.51981724
   0.02838962  0.69316161  0.82173628
   0.30208713  0.62722241  0.57722620
   0.04416572  0.31854499  0.51935120
   0.70514355  0.43769897  0.37014969
   0.61928148  0.44205315  0.00666312
   0.79201365  0.21261554  0.68610328
Direct configuration=    37
   0.05825130  0.25786288  0.31527540
   0.03250834  0.30133526  0.95049582
   0.10157354  0.26220634  0.71749441
   0.68627498  0.05430853  0.31441852
   0.66400644  0.03332917  0.95597343
   0.63824185  0.10057025  0.71792459
   0.02386161  0.39681900  0.65389666
   0.27374912  0.67068107  0.34670004
   0.32197826  0.64005934  0.98504127
   0.28876522  0.59326801  0.79285857
   0.58548019  0.01600582  0.64697187
   0.29439786  0.03521954  0.35612731
   0.22641018  0.07610491  0.59345741
   0.27058360  0.08099300  0.99856035
   0.66657980  0.28811660  0.44275676
   0.73457368  0.20089886  0.56925146
   0.00923401  0.63299388  0.71132292
   0.03418011  0.56584983  0.94916600
   0.65408464  0.26790162  0.02603963
   0.04132646  0.67359438  0.37880916
   0.08405340  0.69596214  0.62384490
   0.36437664  0.99981033  0.68830404
   0.40446991  0.02765003  0.92554587
   0.09136139  0.64377795  0.02629282
   0.70351791  0.96050266  0.62361958
   0.77137167  0.92150709  0.38635570
   0.72751760  0.91552118  0.98265260
   0.36022006  0.69628372  0.52313017
   0.29731196  0.77579569  0.35569849
   0.00445874  0.37325240  0.28559138
   0.97367586  0.44332206  0.05670601
   0.33766095  0.72848693  0.94202879
   0.96110955  0.34548731  0.61804301
   0.92266510  0.31423748  0.38707822
   0.63244144  0.99195428  0.29088564
   0.59148870  0.96691331  0.04870224
   0.91650745  0.36502238  0.98574514
   0.94773985  0.74978988  0.68554065
   0.97232029  0.70596618  0.04769268
   0.90291999  0.74326784  0.28012531
   0.30678060  0.94210534  0.66042879
   0.32882932  0.96397469  0.02016633
   0.35690270  0.89516797  0.25382035
   0.98641209  0.61072330  0.35154978
   0.75970278  0.29648589  0.70996158
   0.68695896  0.36388915  0.01422577
   0.74638554  0.35606028  0.28333644
   0.41133143  0.97596131  0.33000599
   0.58787408  0.42096267  0.25641890
   0.62878622  0.47885736  0.24255268
   0.64372410  0.42377987  0.51264654
   0.83241836  0.17877107  0.20755864
   0.85696888  0.12370899  0.69138527
   0.83609658  0.05030255  0.58515553
   0.10908902  0.21550000  0.23383813
   0.15030941  0.16927129  0.35282434
   0.08446216  0.26162011  0.89166751
   0.12392912  0.21471316  0.03094692
   0.67875839  0.10516868  0.23610657
   0.68827140  0.14252187  0.35905877
   0.65405293  0.08432566  0.89392294
   0.66243953  0.12284304  0.03632304
   0.01474234  0.44810966  0.57524407
   0.02004580  0.48857973  0.69789177
   0.22972746  0.66163108  0.27265870
   0.17921337  0.67597581  0.38424128
   0.28481899  0.62103233  0.95356911
   0.23472070  0.63647421  0.08386197
   0.54414832  0.00584301  0.56561071
   0.49801108  0.01061371  0.68449667
   0.24355380  0.07606770  0.41833260
   0.20430806  0.12366970  0.28079246
   0.21938518  0.12307887  0.07830064
   0.17810107  0.16931659  0.95909858
   0.69544713  0.22938186  0.44361811
   0.67979661  0.19740400  0.29736092
   0.01867807  0.58221595  0.77313672
   0.01078225  0.54332241  0.63113105
   0.66158017  0.21654376  0.09969601
   0.65410272  0.17786396  0.97402644
   0.08346475  0.68061639  0.44692864
   0.13294246  0.66831370  0.31192055
   0.40506529  0.00993570  0.75045488
   0.45286819  0.00128800  0.61324601
   0.13534914  0.64790182  0.11471038
   0.18758358  0.63076175  0.00859908
   0.75540845  0.92149325  0.56233964
   0.79626343  0.87627094  0.70477608
   0.78041948  0.87596554  0.90573751
   0.82263552  0.83187031  0.02901465
   0.32607546  0.75398000  0.51330254
   0.32447609  0.79393963  0.67118860
   0.99182299  0.42555362  0.23017765
   0.99947936  0.46417973  0.37354945
   0.33430042  0.77898715  0.87495487
   0.33868098  0.81913138  0.00200482
   0.92237041  0.33151710  0.56232702
   0.87747507  0.33648884  0.70460535
   0.59143879  0.98270644  0.22517745
   0.54400262  0.99075834  0.36355903
   0.87625139  0.35350712  0.90491622
   0.83027660  0.35766782  0.02603038
   0.89483224  0.78950728  0.76211796
   0.85253631  0.83359358  0.63878140
   0.91958720  0.74419535  0.10562979
   0.87894899  0.78924895  0.96310122
   0.31675453  0.89021076  0.73648636
   0.31412249  0.84939209  0.60884276
   0.33925159  0.91266685  0.07930160
   0.33079550  0.87388377  0.93790777
   0.99555746  0.55929210  0.42968498
   0.99008829  0.51901887  0.30707886
   0.79372045  0.32090522  0.76497006
   0.83629069  0.32003544  0.63979660
   0.74349585  0.34297164  0.09402961
   0.78885193  0.34268637  0.95966480
   0.45284876  0.98605640  0.41111851
   0.49899939  0.98126002  0.29217462
   0.61835035  0.44225194  0.33964416
   0.84583517  0.08729911  0.63672999
   0.79102440  0.21665720  0.12447231
   0.13960384  0.16903700  0.50752445
   0.70217810  0.12804112  0.50969261
   0.03157151  0.47663548  0.85163762
   0.17498035  0.69385925  0.53246346
   0.49742369  0.02222501  0.83875162
   0.18870557  0.16972283  0.80430911
   0.64155583  0.19145056  0.82182341
   0.19100896  0.61354025  0.86014839
   0.81099568  0.83135064  0.18255460
   0.34787542  0.80782497  0.15698779
   0.82984232  0.36988598  0.17963289
   0.86408363  0.83417242  0.48515613
   0.30536794  0.86096470  0.45385390
   0.97865792  0.53095370  0.15327502
   0.83945544  0.30442562  0.48895459
   0.49976088  0.96968246  0.13764378
   0.70593617  0.33579617  0.49332888
   0.28235512  0.02222302  0.79281010
   0.63801611  0.33386216  0.19723390
   0.96279349  0.68989642  0.48330582
   0.35395564  0.95281517  0.45739676
   0.35202611  0.02393198  0.12752292
   0.71070816  0.97585826  0.18480360
   0.34653172  0.66280003  0.74842795
   0.73203086  0.27751853  0.02328496
   0.97882904  0.31611876  0.18781313
   0.31403535  0.70568203  0.18674751
   0.97558904  0.38469264  0.85596958
   0.64697257  0.97111328  0.85091651
   0.03178824  0.62524756  0.14943862
   0.64157309  0.03974025  0.51985452
   0.02839232  0.69316059  0.82174232
   0.30207487  0.62717205  0.57723043
   0.04418292  0.31853791  0.51931652
   0.70514963  0.43771702  0.37013602
   0.61925671  0.44205338  0.00681296
   0.79198482  0.21257917  0.68630999
Direct configuration=    38
   0.05825751  0.25785756  0.31524789
   0.03252097  0.30132007  0.95050094
   0.10157312  0.26220173  0.71747600
   0.68628641  0.05428818  0.31447707
   0.66399967  0.03332224  0.95613634
   0.63825178  0.10055442  0.71798959
   0.02385713  0.39682733  0.65389361
   0.27380959  0.67061355  0.34660156
   0.32187276  0.64016355  0.98471209
   0.28879392  0.59320539  0.79289767
   0.58545429  0.01599774  0.64691958
   0.29439224  0.03519821  0.35606844
   0.22639453  0.07608709  0.59333876
   0.27059375  0.08100843  0.99849868
   0.66658886  0.28810199  0.44250845
   0.73457344  0.20089690  0.56926455
   0.00925021  0.63299200  0.71130616
   0.03418410  0.56585385  0.94916781
   0.65406278  0.26788437  0.02596722
   0.04134537  0.67359649  0.37881069
   0.08407164  0.69596728  0.62388838
   0.36435456  0.99985519  0.68826963
   0.40440250  0.02770471  0.92553645
   0.09135341  0.64377823  0.02634478
   0.70350868  0.96049954  0.62364530
   0.77135998  0.92151098  0.38636679
   0.72751604  0.91552141  0.98264466
   0.36018752  0.69632355  0.52306968
   0.29722279  0.77585073  0.35582832
   0.00445771  0.37325766  0.28559616
   0.97367496  0.44332404  0.05671423
   0.33772852  0.72847072  0.94204080
   0.96111879  0.34548989  0.61810096
   0.92266545  0.31423105  0.38706185
   0.63242218  0.99196216  0.29090557
   0.59148822  0.96693077  0.04865899
   0.91653234  0.36501940  0.98573118
   0.94774325  0.74979350  0.68552884
   0.97233256  0.70597488  0.04769862
   0.90293030  0.74326618  0.28012750
   0.30675055  0.94212237  0.66046736
   0.32889535  0.96394035  0.02018636
   0.35688978  0.89516689  0.25398397
   0.98643018  0.61071858  0.35154035
   0.75973722  0.29647885  0.70999665
   0.68697349  0.36392219  0.01411762
   0.74638122  0.35608767  0.28344238
   0.41133752  0.97591291  0.32985930
   0.58786322  0.42093672  0.25659482
   0.62874218  0.47886513  0.24272624
   0.64377339  0.42371880  0.51270967
   0.83232744  0.17880582  0.20764774
   0.85693857  0.12372760  0.69135742
   0.83609239  0.05031465  0.58507485
   0.10910182  0.21550019  0.23382456
   0.15031238  0.16927076  0.35283340
   0.08446813  0.26161122  0.89163950
   0.12393485  0.21471553  0.03091788
   0.67875893  0.10517034  0.23614392
   0.68825161  0.14253417  0.35905546
   0.65405330  0.08430100  0.89398215
   0.66243396  0.12284094  0.03630317
   0.01473427  0.44811724  0.57525225
   0.02004279  0.48858898  0.69789197
   0.22975356  0.66161573  0.27262744
   0.17923339  0.67598934  0.38422050
   0.28481043  0.62104377  0.95344522
   0.23473477  0.63647039  0.08380132
   0.54414227  0.00583572  0.56566140
   0.49799340  0.01062560  0.68444327
   0.24354878  0.07604484  0.41825414
   0.20430644  0.12367032  0.28073705
   0.21939680  0.12308044  0.07826113
   0.17811003  0.16930855  0.95912185
   0.69539592  0.22940585  0.44343154
   0.67979384  0.19741312  0.29731010
   0.01868760  0.58221878  0.77313609
   0.01078633  0.54332387  0.63111804
   0.66154699  0.21658366  0.09962510
   0.65408218  0.17785142  0.97395494
   0.08348289  0.68061864  0.44696717
   0.13296082  0.66832659  0.31193625
   0.40503215  0.00997478  0.75044210
   0.45284761  0.00129418  0.61316731
   0.13535561  0.64791280  0.11474205
   0.18757882  0.63077406  0.00856333
   0.75540120  0.92149708  0.56236200
   0.79626300  0.87627349  0.70478896
   0.78042055  0.87596636  0.90575604
   0.82263867  0.83187104  0.02902610
   0.32603499  0.75403199  0.51322953
   0.32449738  0.79392348  0.67114561
   0.99181827  0.42555852  0.23018547
   0.99947425  0.46418436  0.37354732
   0.33433882  0.77896062  0.87498394
   0.33870384  0.81911952  0.00208959
   0.92238260  0.33151832  0.56230448
   0.87748573  0.33649280  0.70454305
   0.59142241  0.98270833  0.22517460
   0.54400245  0.99074606  0.36363281
   0.87625039  0.35351763  0.90483299
   0.83028773  0.35765674  0.02600957
   0.89483157  0.78950698  0.76213475
   0.85253471  0.83359463  0.63878720
   0.91959658  0.74419510  0.10563221
   0.87895156  0.78924771  0.96310724
   0.31674167  0.89021984  0.73659549
   0.31411655  0.84940409  0.60892712
   0.33927378  0.91265736  0.07938472
   0.33080694  0.87386003  0.93800350
   0.99556479  0.55928946  0.42968426
   0.99008802  0.51902432  0.30706913
   0.79375518  0.32089396  0.76501317
   0.83631793  0.32002770  0.63983765
   0.74352221  0.34297733  0.09400211
   0.78889244  0.34264806  0.95970149
   0.45283804  0.98604951  0.41114499
   0.49899131  0.98124946  0.29224018
   0.61835563  0.44222957  0.33979206
   0.84581013  0.08730597  0.63665330
   0.79104635  0.21665935  0.12441103
   0.13961848  0.16902947  0.50756157
   0.70217906  0.12808566  0.50972309
   0.03157145  0.47663962  0.85162033
   0.17501363  0.69385259  0.53242806
   0.49739657  0.02222294  0.83880870
   0.18871408  0.16970638  0.80435367
   0.64153696  0.19140078  0.82172517
   0.19100239  0.61354662  0.86013548
   0.81099752  0.83134903  0.18255487
   0.34789541  0.80782487  0.15701913
   0.82987323  0.36987357  0.17962998
   0.86408193  0.83417772  0.48515155
   0.30535470  0.86098548  0.45392188
   0.97865593  0.53095821  0.15327050
   0.83947361  0.30443924  0.48895253
   0.49975264  0.96967231  0.13763749
   0.70603463  0.33572627  0.49326678
   0.28239064  0.02217626  0.79274891
   0.63798525  0.33388629  0.19700329
   0.96280588  0.68989219  0.48330879
   0.35394648  0.95283707  0.45756236
   0.35200572  0.02394955  0.12755064
   0.71070309  0.97585335  0.18485696
   0.34649843  0.66283473  0.74822789
   0.73201109  0.27756086  0.02329469
   0.97885604  0.31609971  0.18785325
   0.31402129  0.70571687  0.18681690
   0.97561164  0.38468174  0.85595705
   0.64696739  0.97109069  0.85094619
   0.03178294  0.62525990  0.14946127
   0.64155818  0.03974201  0.51989817
   0.02839547  0.69315939  0.82174938
   0.30206053  0.62711309  0.57723539
   0.04420305  0.31852962  0.51927592
   0.70515675  0.43773814  0.37012003
   0.61922771  0.44205365  0.00698835
   0.79195108  0.21253659  0.68655195
Direct configuration=    39
   0.05826718  0.25785348  0.31522971
   0.03253080  0.30131107  0.95048473
   0.10157536  0.26219492  0.71744456
   0.68629252  0.05428072  0.31451755
   0.66399052  0.03330587  0.95627969
   0.63825684  0.10053973  0.71801659
   0.02385610  0.39683311  0.65388539
   0.27385962  0.67054326  0.34654996
   0.32180075  0.64025875  0.98444238
   0.28881689  0.59315029  0.79293280
   0.58544799  0.01598669  0.64691366
   0.29439081  0.03517190  0.35602591
   0.22637800  0.07607766  0.59322736
   0.27060851  0.08100669  0.99843312
   0.66659291  0.28810099  0.44232956
   0.73454266  0.20091137  0.56917404
   0.00926604  0.63298946  0.71128844
   0.03418657  0.56585843  0.94916049
   0.65404228  0.26788705  0.02584148
   0.04136499  0.67359935  0.37883208
   0.08409571  0.69596988  0.62391722
   0.36433692  0.99989885  0.68824046
   0.40436335  0.02774579  0.92546888
   0.09135087  0.64378165  0.02639452
   0.70349257  0.96049852  0.62367929
   0.77135018  0.92151503  0.38636485
   0.72751323  0.91552148  0.98265660
   0.36015569  0.69636266  0.52299964
   0.29714110  0.77590381  0.35586621
   0.00445976  0.37325848  0.28560784
   0.97367415  0.44332662  0.05671473
   0.33778913  0.72845964  0.94206534
   0.96112544  0.34548953  0.61813069
   0.92266932  0.31422960  0.38706959
   0.63240116  0.99197200  0.29093064
   0.59147819  0.96694896  0.04864930
   0.91654999  0.36501931  0.98570326
   0.94774302  0.74979899  0.68552102
   0.97234059  0.70598494  0.04771497
   0.90294283  0.74326335  0.28011619
   0.30672679  0.94213065  0.66053657
   0.32895628  0.96391453  0.02023766
   0.35686609  0.89516709  0.25408929
   0.98644692  0.61071486  0.35153851
   0.75977108  0.29646522  0.71004278
   0.68699428  0.36395037  0.01403522
   0.74638629  0.35610965  0.28344089
   0.41135415  0.97587619  0.32977770
   0.58783386  0.42092564  0.25674082
   0.62870866  0.47887281  0.24288446
   0.64381114  0.42366627  0.51274941
   0.83225908  0.17881862  0.20776965
   0.85690511  0.12374072  0.69132336
   0.83608372  0.05030769  0.58496740
   0.10911003  0.21550169  0.23382288
   0.15031890  0.16926414  0.35284222
   0.08447941  0.26159925  0.89162435
   0.12394150  0.21471648  0.03092351
   0.67875626  0.10516694  0.23618904
   0.68823781  0.14254250  0.35905730
   0.65405332  0.08428279  0.89404210
   0.66243231  0.12283635  0.03634914
   0.01472591  0.44812467  0.57525206
   0.02003861  0.48859702  0.69788264
   0.22978338  0.66159768  0.27257698
   0.17925639  0.67599781  0.38418438
   0.28479279  0.62104916  0.95332872
   0.23473642  0.63646248  0.08372395
   0.54412209  0.00583150  0.56567918
   0.49796123  0.01064319  0.68448777
   0.24353400  0.07603293  0.41816599
   0.20430988  0.12366768  0.28067721
   0.21940107  0.12308377  0.07821820
   0.17810985  0.16931019  0.95914440
   0.69538686  0.22939846  0.44337822
   0.67978204  0.19740756  0.29720311
   0.01869759  0.58221903  0.77313312
   0.01079235  0.54332753  0.63111564
   0.66152812  0.21657458  0.09957121
   0.65406209  0.17785810  0.97393689
   0.08348998  0.68062395  0.44700467
   0.13297448  0.66834347  0.31197309
   0.40498764  0.01000970  0.75045045
   0.45283121  0.00130158  0.61309451
   0.13536696  0.64792072  0.11475742
   0.18757348  0.63078222  0.00851582
   0.75539627  0.92149582  0.56240172
   0.79626460  0.87627411  0.70480400
   0.78042201  0.87596602  0.90576011
   0.82264076  0.83187192  0.02903914
   0.32599627  0.75407166  0.51322227
   0.32450685  0.79393606  0.67111268
   0.99181429  0.42556752  0.23019415
   0.99946850  0.46419097  0.37355911
   0.33437728  0.77893540  0.87496070
   0.33872570  0.81910165  0.00215763
   0.92241274  0.33151619  0.56223569
   0.87749514  0.33649800  0.70451923
   0.59141674  0.98270595  0.22514927
   0.54399330  0.99072636  0.36364602
   0.87625531  0.35352694  0.90480297
   0.83032823  0.35764763  0.02604163
   0.89483188  0.78950698  0.76213803
   0.85253385  0.83359608  0.63879243
   0.91960487  0.74419511  0.10565167
   0.87895573  0.78924672  0.96310886
   0.31673800  0.89020460  0.73665153
   0.31411482  0.84940836  0.60903798
   0.33929573  0.91265025  0.07948778
   0.33081778  0.87385837  0.93808261
   0.99557331  0.55928675  0.42967761
   0.99008748  0.51902807  0.30705691
   0.79378663  0.32087848  0.76505080
   0.83633995  0.32002117  0.63984581
   0.74351584  0.34297309  0.09401642
   0.78892302  0.34262158  0.95972492
   0.45282142  0.98604555  0.41111520
   0.49899306  0.98123501  0.29224527
   0.61836646  0.44220291  0.34002813
   0.84579092  0.08733964  0.63661192
   0.79104072  0.21668928  0.12431282
   0.13962767  0.16902617  0.50759550
   0.70217831  0.12812483  0.50973785
   0.03157200  0.47664328  0.85161606
   0.17504786  0.69384641  0.53239045
   0.49737441  0.02222033  0.83880839
   0.18872851  0.16968675  0.80438886
   0.64151599  0.19135789  0.82161602
   0.19098823  0.61355549  0.86013192
   0.81099948  0.83134728  0.18256278
   0.34791926  0.80781690  0.15703509
   0.82990397  0.36986154  0.17958202
   0.86408031  0.83418220  0.48515066
   0.30533669  0.86101503  0.45401442
   0.97865399  0.53096317  0.15326156
   0.83949496  0.30444962  0.48895369
   0.49974431  0.96966598  0.13772179
   0.70610823  0.33567221  0.49321398
   0.28241037  0.02214322  0.79270513
   0.63795792  0.33391834  0.19678170
   0.96282153  0.68988805  0.48330794
   0.35394838  0.95284360  0.45768172
   0.35198078  0.02397355  0.12758368
   0.71069925  0.97584767  0.18490514
   0.34647332  0.66285883  0.74808792
   0.73200590  0.27759695  0.02326441
   0.97887860  0.31608207  0.18788085
   0.31399445  0.70575149  0.18688457
   0.97563233  0.38466947  0.85595329
   0.64697207  0.97107308  0.85098244
   0.03177645  0.62527130  0.14949361
   0.64155089  0.03974472  0.51992625
   0.02839764  0.69316060  0.82174465
   0.30205237  0.62707251  0.57719945
   0.04421814  0.31852375  0.51924377
   0.70515758  0.43776211  0.37011376
   0.61920046  0.44205626  0.00713951
   0.79192146  0.21248539  0.68679547
Direct configuration=    40
   0.05827734  0.25784919  0.31521059
   0.03254113  0.30130162  0.95046770
   0.10157771  0.26218776  0.71741151
   0.68629894  0.05427288  0.31456009
   0.66398090  0.03328866  0.95643038
   0.63826215  0.10052429  0.71804497
   0.02385503  0.39683918  0.65387674
   0.27391220  0.67046938  0.34649572
   0.32172505  0.64035881  0.98415888
   0.28884104  0.59309238  0.79296973
   0.58544137  0.01597507  0.64690745
   0.29438931  0.03514424  0.35598121
   0.22636063  0.07606774  0.59311027
   0.27062403  0.08100487  0.99836420
   0.66659718  0.28809994  0.44214152
   0.73451030  0.20092657  0.56907890
   0.00928269  0.63298678  0.71126981
   0.03418917  0.56586324  0.94915280
   0.65402073  0.26788987  0.02570930
   0.04138561  0.67360235  0.37885456
   0.08412101  0.69597261  0.62394754
   0.36431837  0.99994474  0.68820979
   0.40432221  0.02778897  0.92539785
   0.09134820  0.64378525  0.02644679
   0.70347565  0.96049745  0.62371501
   0.77133989  0.92151928  0.38636281
   0.72751027  0.91552154  0.98266916
   0.36012224  0.69640378  0.52292602
   0.29705522  0.77595961  0.35590604
   0.00446191  0.37325935  0.28562011
   0.97367330  0.44332933  0.05671525
   0.33785285  0.72844800  0.94209114
   0.96113242  0.34548916  0.61816194
   0.92267338  0.31422807  0.38707774
   0.63237907  0.99198234  0.29095700
   0.59146764  0.96696807  0.04863912
   0.91656854  0.36501922  0.98567392
   0.94774278  0.74980476  0.68551280
   0.97234902  0.70599552  0.04773217
   0.90295601  0.74326037  0.28010429
   0.30670181  0.94213935  0.66060932
   0.32902033  0.96388739  0.02029159
   0.35684119  0.89516731  0.25420000
   0.98646451  0.61071094  0.35153658
   0.75980667  0.29645089  0.71009128
   0.68701614  0.36398000  0.01394861
   0.74639161  0.35613275  0.28343933
   0.41137163  0.97583759  0.32969192
   0.58780301  0.42091399  0.25689429
   0.62867343  0.47888089  0.24305079
   0.64385083  0.42361105  0.51279119
   0.83218724  0.17883208  0.20789780
   0.85686995  0.12375451  0.69128755
   0.83607461  0.05030037  0.58485446
   0.10911867  0.21550326  0.23382112
   0.15032575  0.16925718  0.35285148
   0.08449126  0.26158667  0.89160841
   0.12394849  0.21471748  0.03092943
   0.67875346  0.10516336  0.23623647
   0.68822331  0.14255125  0.35905924
   0.65405335  0.08426365  0.89410511
   0.66243057  0.12283153  0.03639746
   0.01471712  0.44813249  0.57525186
   0.02003421  0.48860546  0.69787283
   0.22981473  0.66157872  0.27252393
   0.17928058  0.67600671  0.38414641
   0.28477425  0.62105484  0.95320627
   0.23473815  0.63645416  0.08364261
   0.54410087  0.00582705  0.56569787
   0.49792741  0.01066169  0.68453456
   0.24351846  0.07602042  0.41807332
   0.20431349  0.12366492  0.28061431
   0.21940556  0.12308727  0.07817308
   0.17810965  0.16931191  0.95916811
   0.69537733  0.22939070  0.44332218
   0.67976964  0.19740171  0.29709064
   0.01870808  0.58221930  0.77313000
   0.01079867  0.54333138  0.63111312
   0.66150829  0.21656503  0.09951458
   0.65404097  0.17786512  0.97391791
   0.08349744  0.68062954  0.44704408
   0.13298884  0.66836121  0.31201181
   0.40494084  0.01004640  0.75045923
   0.45281397  0.00130935  0.61301799
   0.13537889  0.64792904  0.11477358
   0.18756787  0.63079079  0.00846588
   0.75539109  0.92149450  0.56244348
   0.79626628  0.87627476  0.70481980
   0.78042355  0.87596567  0.90576440
   0.82264296  0.83187284  0.02905286
   0.32595556  0.75411337  0.51321464
   0.32451680  0.79394928  0.67107807
   0.99181010  0.42557699  0.23020327
   0.99946246  0.46419792  0.37357150
   0.33441772  0.77890890  0.87493627
   0.33874869  0.81908287  0.00222915
   0.92244443  0.33151395  0.56216338
   0.87750503  0.33650346  0.70449419
   0.59141080  0.98270345  0.22512265
   0.54398369  0.99070564  0.36365991
   0.87626048  0.35353673  0.90477142
   0.83037081  0.35763806  0.02607532
   0.89483222  0.78950698  0.76214148
   0.85253294  0.83359761  0.63879792
   0.91961358  0.74419512  0.10567213
   0.87896012  0.78924569  0.96311055
   0.31673415  0.89018859  0.73671043
   0.31411300  0.84941286  0.60915452
   0.33931880  0.91264278  0.07959612
   0.33082918  0.87385662  0.93816576
   0.99558226  0.55928390  0.42967062
   0.99008691  0.51903202  0.30704406
   0.79381970  0.32086220  0.76509035
   0.83636310  0.32001432  0.63985438
   0.74350915  0.34296863  0.09403145
   0.78895517  0.34259376  0.95974955
   0.45280394  0.98604138  0.41108389
   0.49899491  0.98121982  0.29225062
   0.61837784  0.44217489  0.34027628
   0.84577072  0.08737504  0.63656841
   0.79103480  0.21672074  0.12420958
   0.13963733  0.16902270  0.50763116
   0.70217753  0.12816600  0.50975336
   0.03157258  0.47664713  0.85161158
   0.17508385  0.69383991  0.53235090
   0.49735111  0.02221758  0.83880806
   0.18874368  0.16966610  0.80442586
   0.64149394  0.19131280  0.82150129
   0.19097335  0.61356481  0.86012818
   0.81100154  0.83134543  0.18257111
   0.34794432  0.80780851  0.15705187
   0.82993628  0.36984890  0.17953160
   0.86407860  0.83418690  0.48514973
   0.30531776  0.86104609  0.45411169
   0.97865195  0.53096839  0.15325215
   0.83951739  0.30446053  0.48895490
   0.49973556  0.96965932  0.13781040
   0.70618560  0.33561539  0.49315849
   0.28243111  0.02210849  0.79265912
   0.63792919  0.33395203  0.19654878
   0.96283799  0.68988370  0.48330704
   0.35395037  0.95285045  0.45780720
   0.35195457  0.02399877  0.12761841
   0.71069521  0.97584170  0.18495579
   0.34644692  0.66288416  0.74794077
   0.73200043  0.27763489  0.02323258
   0.97890231  0.31606352  0.18790986
   0.31396624  0.70578788  0.18695570
   0.97565408  0.38465657  0.85594933
   0.64697699  0.97105458  0.85102055
   0.03176963  0.62528329  0.14952760
   0.64154322  0.03974757  0.51995577
   0.02839992  0.69316187  0.82173968
   0.30204379  0.62702985  0.57716167
   0.04423401  0.31851757  0.51920997
   0.70515845  0.43778731  0.37010717
   0.61917181  0.44205901  0.00729841
   0.79189033  0.21243157  0.68705144
Direct configuration=    41
   0.05828543  0.25784741  0.31520420
   0.03254867  0.30129602  0.95044754
   0.10158163  0.26217996  0.71738627
   0.68630153  0.05427285  0.31458891
   0.66396967  0.03327921  0.95651623
   0.63826671  0.10050835  0.71807542
   0.02385585  0.39684208  0.65386889
   0.27395210  0.67041302  0.34646981
   0.32167644  0.64043030  0.98397241
   0.28885861  0.59304918  0.79297311
   0.58544267  0.01596412  0.64692277
   0.29438537  0.03512498  0.35595253
   0.22634716  0.07606183  0.59303598
   0.27063246  0.08099983  0.99831297
   0.66660028  0.28810409  0.44202463
   0.73448501  0.20093560  0.56900579
   0.00929555  0.63298459  0.71125548
   0.03419087  0.56586689  0.94914905
   0.65400334  0.26789571  0.02559746
   0.04139749  0.67360510  0.37888072
   0.08414019  0.69597377  0.62396981
   0.36429089  0.99997614  0.68816993
   0.40430093  0.02782049  0.92535540
   0.09135135  0.64378995  0.02649012
   0.70346568  0.96049324  0.62373908
   0.77133106  0.92152214  0.38638148
   0.72750979  0.91551949  0.98268509
   0.36009613  0.69643541  0.52285900
   0.29699440  0.77600014  0.35591376
   0.00446411  0.37326144  0.28562853
   0.97367322  0.44333148  0.05671569
   0.33789850  0.72843459  0.94211535
   0.96114442  0.34548696  0.61816231
   0.92268209  0.31422630  0.38706314
   0.63236402  0.99199058  0.29097756
   0.59145531  0.96698052  0.04862717
   0.91658048  0.36502015  0.98564670
   0.94774210  0.74980900  0.68550796
   0.97235614  0.70600247  0.04774671
   0.90296505  0.74325766  0.28010871
   0.30668757  0.94213775  0.66067778
   0.32906787  0.96387064  0.02033961
   0.35681989  0.89516706  0.25428061
   0.98647707  0.61070826  0.35153911
   0.75983360  0.29643386  0.71012052
   0.68702751  0.36400587  0.01389481
   0.74639770  0.35614745  0.28339388
   0.41138521  0.97581338  0.32965432
   0.58778199  0.42091405  0.25702403
   0.62865051  0.47888178  0.24319315
   0.64388050  0.42356919  0.51285051
   0.83213924  0.17883644  0.20799757
   0.85684809  0.12378634  0.69129202
   0.83607479  0.05032385  0.58480573
   0.10912572  0.21550195  0.23383021
   0.15033186  0.16925122  0.35285087
   0.08450021  0.26157881  0.89159668
   0.12395329  0.21471813  0.03094732
   0.67874943  0.10515733  0.23627064
   0.68821534  0.14255609  0.35906274
   0.65405314  0.08425159  0.89415420
   0.66242921  0.12282678  0.03645011
   0.01471092  0.44813915  0.57525122
   0.02003105  0.48861034  0.69786856
   0.22983469  0.66156180  0.27246217
   0.17930059  0.67600988  0.38411079
   0.28475982  0.62105995  0.95313179
   0.23473630  0.63644894  0.08358814
   0.54408058  0.00582518  0.56570549
   0.49790025  0.01067324  0.68455814
   0.24350901  0.07601093  0.41800151
   0.20431719  0.12366120  0.28057068
   0.21941041  0.12308595  0.07814219
   0.17810933  0.16931531  0.95916896
   0.69537299  0.22938610  0.44327550
   0.67975783  0.19739294  0.29701155
   0.01871587  0.58221927  0.77312239
   0.01080412  0.54333425  0.63111219
   0.66149737  0.21655177  0.09945956
   0.65402381  0.17786723  0.97389638
   0.08350762  0.68063573  0.44707094
   0.13299664  0.66837410  0.31202874
   0.40492016  0.01007143  0.75043835
   0.45279483  0.00131968  0.61300277
   0.13538333  0.64793580  0.11478683
   0.18756279  0.63079640  0.00843693
   0.75538497  0.92149523  0.56246329
   0.79626704  0.87627554  0.70483082
   0.78042384  0.87596528  0.90577156
   0.82264533  0.83187276  0.02905877
   0.32592309  0.75414185  0.51321939
   0.32452200  0.79395806  0.67109213
   0.99180791  0.42558175  0.23021017
   0.99945677  0.46420476  0.37357901
   0.33444856  0.77889898  0.87490925
   0.33876444  0.81907264  0.00223156
   0.92246127  0.33151373  0.56213966
   0.87751560  0.33650806  0.70448296
   0.59140561  0.98270285  0.22512681
   0.54397814  0.99068867  0.36364954
   0.87627419  0.35354236  0.90476939
   0.83040139  0.35762633  0.02608200
   0.89483269  0.78950778  0.76213629
   0.85253345  0.83359843  0.63879966
   0.91961885  0.74419774  0.10567584
   0.87896285  0.78924579  0.96311576
   0.31673575  0.89017980  0.73677441
   0.31410916  0.84941959  0.60919463
   0.33933354  0.91263800  0.07966859
   0.33083814  0.87385717  0.93822054
   0.99558943  0.55928278  0.42966089
   0.99008664  0.51903455  0.30703897
   0.79384404  0.32084754  0.76511980
   0.83637986  0.32001074  0.63984873
   0.74350501  0.34296417  0.09404881
   0.78898053  0.34258205  0.95978579
   0.45279493  0.98603808  0.41103407
   0.49899365  0.98120836  0.29225678
   0.61837627  0.44215564  0.34042141
   0.84574209  0.08735151  0.63646301
   0.79101942  0.21675236  0.12413858
   0.13964357  0.16902108  0.50764828
   0.70217597  0.12819485  0.50975859
   0.03157291  0.47665032  0.85160966
   0.17511261  0.69383620  0.53232622
   0.49733364  0.02221773  0.83880722
   0.18875670  0.16965027  0.80444542
   0.64147739  0.19128081  0.82143152
   0.19095872  0.61357172  0.86011406
   0.81100313  0.83134401  0.18258183
   0.34796690  0.80779588  0.15708021
   0.82996200  0.36984174  0.17950702
   0.86407711  0.83419017  0.48515332
   0.30530163  0.86107256  0.45421119
   0.97865046  0.53097257  0.15324262
   0.83953564  0.30446656  0.48895236
   0.49972973  0.96965281  0.13788173
   0.70623482  0.33557655  0.49311914
   0.28243770  0.02209041  0.79263120
   0.63790719  0.33397808  0.19638429
   0.96285189  0.68988065  0.48330574
   0.35395496  0.95284910  0.45788001
   0.35193475  0.02401938  0.12764698
   0.71069252  0.97583645  0.18499492
   0.34642785  0.66289959  0.74784615
   0.73200492  0.27765568  0.02318685
   0.97891742  0.31605157  0.18791815
   0.31394055  0.70581524  0.18700059
   0.97566912  0.38464730  0.85595367
   0.64698317  0.97104384  0.85104687
   0.03176566  0.62529177  0.14955393
   0.64153953  0.03974932  0.51997312
   0.02840251  0.69316384  0.82173274
   0.30204227  0.62700225  0.57712606
   0.04424341  0.31851499  0.51919014
   0.70515613  0.43780779  0.37010403
   0.61914955  0.44206312  0.00741781
   0.79186695  0.21238899  0.68724554
Direct configuration=    42
   0.05828914  0.25784660  0.31520127
   0.03255213  0.30129346  0.95043828
   0.10158343  0.26217637  0.71737468
   0.68630273  0.05427284  0.31460215
   0.66396451  0.03327487  0.95655568
   0.63826881  0.10050102  0.71808941
   0.02385622  0.39684342  0.65386529
   0.27397044  0.67038712  0.34645791
   0.32165410  0.64046316  0.98388672
   0.28886668  0.59302933  0.79297466
   0.58544327  0.01595909  0.64692981
   0.29438355  0.03511613  0.35593934
   0.22634098  0.07605912  0.59300184
   0.27063634  0.08099752  0.99828942
   0.66660171  0.28810599  0.44197092
   0.73447339  0.20093975  0.56897219
   0.00930146  0.63298359  0.71124889
   0.03419165  0.56586857  0.94914733
   0.65399535  0.26789839  0.02554607
   0.04140295  0.67360636  0.37889274
   0.08414901  0.69597430  0.62398004
   0.36427827  0.99999057  0.68815162
   0.40429116  0.02783497  0.92533589
   0.09135280  0.64379211  0.02651003
   0.70346110  0.96049131  0.62375014
   0.77132701  0.92152346  0.38639006
   0.72750957  0.91551855  0.98269241
   0.36008414  0.69644995  0.52282820
   0.29696645  0.77601876  0.35591731
   0.00446512  0.37326240  0.28563239
   0.97367319  0.44333247  0.05671589
   0.33791948  0.72842843  0.94212648
   0.96114993  0.34548595  0.61816248
   0.92268610  0.31422549  0.38705644
   0.63235710  0.99199436  0.29098701
   0.59144965  0.96698625  0.04862167
   0.91658596  0.36502058  0.98563419
   0.94774179  0.74981095  0.68550574
   0.97235940  0.70600566  0.04775339
   0.90296921  0.74325642  0.28011074
   0.30668103  0.94213702  0.66070924
   0.32908971  0.96386294  0.02036168
   0.35681011  0.89516694  0.25431765
   0.98648285  0.61070702  0.35154028
   0.75984597  0.29642604  0.71013396
   0.68703274  0.36401776  0.01387009
   0.74640050  0.35615420  0.28337299
   0.41139145  0.97580226  0.32963704
   0.58777234  0.42091408  0.25708364
   0.62863998  0.47888220  0.24325857
   0.64389414  0.42354995  0.51287777
   0.83211719  0.17883844  0.20804342
   0.85683804  0.12380096  0.69129407
   0.83607488  0.05033464  0.58478334
   0.10912896  0.21550134  0.23383438
   0.15033466  0.16924849  0.35285059
   0.08450433  0.26157519  0.89159129
   0.12395550  0.21471843  0.03095554
   0.67874758  0.10515456  0.23628635
   0.68821167  0.14255832  0.35906435
   0.65405305  0.08424604  0.89417675
   0.66242858  0.12282460  0.03647431
   0.01470807  0.44814222  0.57525092
   0.02002959  0.48861257  0.69786660
   0.22984387  0.66155403  0.27243378
   0.17930978  0.67601134  0.38409442
   0.28475320  0.62106230  0.95309757
   0.23473545  0.63644653  0.08356311
   0.54407126  0.00582432  0.56570900
   0.49788776  0.01067854  0.68456898
   0.24350467  0.07600656  0.41796851
   0.20431889  0.12365949  0.28055063
   0.21941264  0.12308534  0.07812799
   0.17810917  0.16931688  0.95916936
   0.69537099  0.22938398  0.44325405
   0.67975240  0.19738891  0.29697521
   0.01871945  0.58221926  0.77311889
   0.01080663  0.54333557  0.63111176
   0.66149235  0.21654568  0.09943428
   0.65401592  0.17786820  0.97388649
   0.08351231  0.68063857  0.44708328
   0.13300022  0.66838002  0.31203653
   0.40491066  0.01008293  0.75042876
   0.45278603  0.00132443  0.61299577
   0.13538537  0.64793891  0.11479292
   0.18756046  0.63079898  0.00842363
   0.75538216  0.92149556  0.56247240
   0.79626740  0.87627590  0.70483588
   0.78042398  0.87596511  0.90577484
   0.82264641  0.83187273  0.02906149
   0.32590817  0.75415495  0.51322156
   0.32452439  0.79396209  0.67109859
   0.99180690  0.42558393  0.23021334
   0.99945415  0.46420790  0.37358246
   0.33446273  0.77889442  0.87489684
   0.33877168  0.81906794  0.00223266
   0.92246901  0.33151363  0.56212877
   0.87752046  0.33651017  0.70447780
   0.59140323  0.98270257  0.22512872
   0.54397559  0.99068088  0.36364478
   0.87628049  0.35354495  0.90476846
   0.83041544  0.35762094  0.02608506
   0.89483290  0.78950814  0.76213391
   0.85253369  0.83359881  0.63880046
   0.91962126  0.74419894  0.10567755
   0.87896411  0.78924584  0.96311816
   0.31673649  0.89017577  0.73680381
   0.31410739  0.84942269  0.60921306
   0.33934032  0.91263580  0.07970190
   0.33084225  0.87385742  0.93824571
   0.99559273  0.55928227  0.42965643
   0.99008652  0.51903571  0.30703663
   0.79385522  0.32084080  0.76513333
   0.83638757  0.32000910  0.63984614
   0.74350310  0.34296212  0.09405679
   0.78899219  0.34257666  0.95980244
   0.45279079  0.98603657  0.41101117
   0.49899308  0.98120309  0.29225961
   0.61837554  0.44214679  0.34048810
   0.84572893  0.08734070  0.63641457
   0.79101236  0.21676689  0.12410595
   0.13964644  0.16902034  0.50765615
   0.70217526  0.12820811  0.50976099
   0.03157306  0.47665178  0.85160878
   0.17512583  0.69383450  0.53231488
   0.49732561  0.02221779  0.83880684
   0.18876269  0.16964300  0.80445440
   0.64146979  0.19126611  0.82139945
   0.19095200  0.61357490  0.86010758
   0.81100386  0.83134336  0.18258676
   0.34797728  0.80779008  0.15709324
   0.82997382  0.36983845  0.17949572
   0.86407643  0.83419167  0.48515496
   0.30529422  0.86108472  0.45425691
   0.97864977  0.53097449  0.15323824
   0.83954403  0.30446933  0.48895119
   0.49972705  0.96964982  0.13791451
   0.70625744  0.33555870  0.49310105
   0.28244073  0.02208211  0.79261837
   0.63789708  0.33399005  0.19630871
   0.96285828  0.68987925  0.48330514
   0.35395707  0.95284847  0.45791347
   0.35192565  0.02402885  0.12766011
   0.71069128  0.97583403  0.18501290
   0.34641909  0.66290667  0.74780267
   0.73200697  0.27766523  0.02316583
   0.97892436  0.31604608  0.18792196
   0.31392874  0.70582782  0.18702122
   0.97567603  0.38464304  0.85595567
   0.64698601  0.97103890  0.85105897
   0.03176383  0.62529566  0.14956603
   0.64153784  0.03975012  0.51998110
   0.02840370  0.69316475  0.82172955
   0.30204157  0.62698957  0.57710969
   0.04424773  0.31851380  0.51918103
   0.70515507  0.43781720  0.37010259
   0.61913932  0.44206501  0.00747268
   0.79185621  0.21236942  0.68733474
Direct configuration=    43
   0.05829677  0.25784672  0.31520545
   0.03255916  0.30128942  0.95041376
   0.10158969  0.26216604  0.71735508
   0.68630326  0.05427618  0.31463013
   0.66394944  0.03327231  0.95660212
   0.63827454  0.10048095  0.71813441
   0.02385864  0.39684460  0.65385682
   0.27400846  0.67033505  0.34643981
   0.32161276  0.64052325  0.98374273
   0.28888296  0.59299147  0.79295383
   0.58544655  0.01594590  0.64695843
   0.29437612  0.03510076  0.35591492
   0.22632862  0.07605434  0.59294801
   0.27063847  0.08099078  0.99824502
   0.66660581  0.28811285  0.44188396
   0.73445536  0.20094054  0.56892566
   0.00931391  0.63298156  0.71123543
   0.03419303  0.56587209  0.94914727
   0.65397852  0.26790248  0.02544102
   0.04141057  0.67360969  0.37892803
   0.08416603  0.69597476  0.62400365
   0.36424043  0.00001664  0.68809956
   0.40427998  0.02786368  0.92531271
   0.09135984  0.64379872  0.02655241
   0.70345588  0.96048331  0.62376722
   0.77131786  0.92152578  0.38642770
   0.72751147  0.91551395  0.98271357
   0.36005875  0.69647917  0.52275350
   0.29691622  0.77605345  0.35592108
   0.00446759  0.37326638  0.28563772
   0.97367397  0.44333431  0.05671817
   0.33795910  0.72841155  0.94214966
   0.96116931  0.34548177  0.61813644
   0.92270093  0.31422323  0.38702184
   0.63234577  0.99200226  0.29100628
   0.59143433  0.96699562  0.04860858
   0.91659727  0.36502295  0.98560947
   0.94774142  0.74981415  0.68550224
   0.97236729  0.70601095  0.04776622
   0.90297634  0.74325378  0.28012868
   0.30667316  0.94212815  0.66078429
   0.32913328  0.96385029  0.02041013
   0.35678888  0.89516576  0.25439879
   0.98649354  0.61070503  0.35154588
   0.75987136  0.29640326  0.71015116
   0.68703435  0.36404700  0.01383190
   0.74640692  0.35616516  0.28330152
   0.41140131  0.97578520  0.32962490
   0.58775637  0.42092208  0.25722087
   0.62862213  0.47887683  0.24341273
   0.64392171  0.42351010  0.51296606
   0.83206685  0.17884808  0.20811167
   0.85680962  0.12380910  0.69126648
   0.83606901  0.05033604  0.58470411
   0.10913662  0.21549695  0.23385391
   0.15034099  0.16924290  0.35284265
   0.08451173  0.26157068  0.89157876
   0.12395963  0.21471911  0.03097834
   0.67874199  0.10514784  0.23631646
   0.68820683  0.14255974  0.35906549
   0.65405243  0.08423689  0.89422655
   0.66242568  0.12281880  0.03652501
   0.01470315  0.44814883  0.57525153
   0.02002712  0.48861595  0.69786883
   0.22985695  0.66153644  0.27236163
   0.17932891  0.67601050  0.38405708
   0.28474343  0.62106822  0.95304293
   0.23473306  0.63644310  0.08351852
   0.54405232  0.00582384  0.56571185
   0.49786448  0.01068545  0.68456126
   0.24349996  0.07599607  0.41790993
   0.20432281  0.12365427  0.28051536
   0.21941898  0.12307973  0.07810116
   0.17811124  0.16931974  0.95915466
   0.69536063  0.22938925  0.44317442
   0.67974002  0.19738025  0.29692081
   0.01872656  0.58221937  0.77310747
   0.01081217  0.54333718  0.63110844
   0.66148455  0.21653770  0.09936014
   0.65399895  0.17786101  0.97385014
   0.08352781  0.68064608  0.44710154
   0.13300499  0.66839073  0.31203364
   0.40490454  0.01010324  0.75037761
   0.45276125  0.00133806  0.61301413
   0.13538370  0.64794633  0.11481006
   0.18755408  0.63080317  0.00840727
   0.75537389  0.92149794  0.56248169
   0.79626698  0.87627734  0.70484453
   0.78042356  0.87596444  0.90578737
   0.82264921  0.83187178  0.02906434
   0.32587392  0.75418092  0.51322075
   0.32452627  0.79396609  0.67114240
   0.99180585  0.42558533  0.23021850
   0.99944757  0.46421540  0.37358487
   0.33449162  0.77889402  0.87487732
   0.33878633  0.81906448  0.00219560
   0.92247425  0.33151514  0.56214308
   0.87753399  0.33651486  0.70447371
   0.59139572  0.98270335  0.22515626
   0.54397413  0.99066608  0.36363105
   0.87630359  0.35354651  0.90477697
   0.83043829  0.35760548  0.02607075
   0.89483355  0.78950969  0.76212429
   0.85253472  0.83359981  0.63880024
   0.91962479  0.74420392  0.10567065
   0.87896589  0.78924717  0.96312495
   0.31674217  0.89017461  0.73688611
   0.31410161  0.84943268  0.60921245
   0.33934999  0.91263317  0.07975221
   0.33085129  0.87385680  0.93828857
   0.99559990  0.55928230  0.42964583
   0.99008622  0.51903849  0.30703526
   0.79387833  0.32082516  0.76516032
   0.83640215  0.32000827  0.63983767
   0.74350824  0.34295879  0.09406358
   0.78901605  0.34257406  0.95984796
   0.45278767  0.98603406  0.41096262
   0.49898787  0.98119316  0.29227490
   0.61836351  0.44213268  0.34056954
   0.84571445  0.08736141  0.63637666
   0.79100055  0.21679002  0.12408364
   0.13965191  0.16901934  0.50765733
   0.70217289  0.12823224  0.50976237
   0.03157309  0.47665515  0.85160699
   0.17515492  0.69383217  0.53229561
   0.49730882  0.02222116  0.83881456
   0.18877577  0.16962896  0.80445891
   0.64145473  0.19123842  0.82135911
   0.19093486  0.61358101  0.86007960
   0.81100558  0.83134199  0.18259945
   0.34800172  0.80777196  0.15712603
   0.82999954  0.36983468  0.17949494
   0.86407492  0.83419440  0.48516182
   0.30527637  0.86111318  0.45436369
   0.97864860  0.53097843  0.15322864
   0.83956234  0.30447205  0.48894119
   0.49972281  0.96964041  0.13796442
   0.70629420  0.33552655  0.49306692
   0.28243664  0.02207458  0.79259927
   0.63787652  0.33401234  0.19617135
   0.96287256  0.68987678  0.48330336
   0.35396342  0.95284070  0.45795875
   0.35190884  0.02404868  0.12768702
   0.71068875  0.97582838  0.18505058
   0.34640160  0.66291826  0.74772688
   0.73201729  0.27767698  0.02309413
   0.97893529  0.31603781  0.18791331
   0.31390116  0.70585297  0.18704930
   0.97568845  0.38463556  0.85596695
   0.64699290  0.97103262  0.85107976
   0.03176230  0.62530284  0.14958890
   0.64153589  0.03975073  0.51999385
   0.02840752  0.69316747  0.82172136
   0.30204639  0.62696640  0.57707790
   0.04425397  0.31851377  0.51916967
   0.70514960  0.43783738  0.37010133
   0.61911764  0.44207150  0.00758575
   0.79183508  0.21232740  0.68751572
Direct configuration=    44
   0.05831089  0.25784695  0.31521320
   0.03257218  0.30128195  0.95036832
   0.10160128  0.26214689  0.71731878
   0.68630424  0.05428237  0.31468196
   0.66392154  0.03326757  0.95668815
   0.63828515  0.10044377  0.71821775
   0.02386313  0.39684678  0.65384115
   0.27407890  0.67023858  0.34640629
   0.32153619  0.64063457  0.98347601
   0.28891311  0.59292134  0.79291523
   0.58545263  0.01592148  0.64701144
   0.29436234  0.03507228  0.35586967
   0.22630574  0.07604548  0.59284829
   0.27064241  0.08097831  0.99816277
   0.66661341  0.28812554  0.44172286
   0.73442197  0.20094202  0.56883945
   0.00933696  0.63297782  0.71121048
   0.03419558  0.56587861  0.94914717
   0.65394735  0.26791005  0.02524642
   0.04142467  0.67361587  0.37899341
   0.08419757  0.69597562  0.62404738
   0.36417033  0.00006495  0.68800314
   0.40425928  0.02791686  0.92526976
   0.09137288  0.64381098  0.02663092
   0.70344622  0.96046849  0.62379888
   0.77130090  0.92153007  0.38649741
   0.72751497  0.91550543  0.98275276
   0.36001172  0.69653330  0.52261512
   0.29682317  0.77611771  0.35592807
   0.00447215  0.37327377  0.28564758
   0.97367542  0.44333772  0.05672239
   0.33803250  0.72838029  0.94219259
   0.96120521  0.34547401  0.61808821
   0.92272841  0.31421904  0.38695776
   0.63232479  0.99201690  0.29104198
   0.59140596  0.96701300  0.04858432
   0.91661822  0.36502734  0.98556367
   0.94774074  0.74982009  0.68549576
   0.97238189  0.70602074  0.04778997
   0.90298956  0.74324891  0.28016190
   0.30665860  0.94211173  0.66092331
   0.32921400  0.96382686  0.02049987
   0.35674955  0.89516358  0.25454911
   0.98651335  0.61070134  0.35155625
   0.75991840  0.29636107  0.71018301
   0.68703732  0.36410117  0.01376115
   0.74641880  0.35618546  0.28316911
   0.41141957  0.97575360  0.32960243
   0.58772680  0.42093689  0.25747506
   0.62858905  0.47886689  0.24369831
   0.64397279  0.42343628  0.51312961
   0.83197361  0.17886595  0.20823810
   0.85675697  0.12382419  0.69121536
   0.83605814  0.05033865  0.58455735
   0.10915081  0.21548882  0.23389007
   0.15035270  0.16923256  0.35282795
   0.08452543  0.26156231  0.89155553
   0.12396727  0.21472036  0.03102057
   0.67873163  0.10513539  0.23637225
   0.68819785  0.14256237  0.35906760
   0.65405128  0.08421992  0.89431879
   0.66242030  0.12280805  0.03661891
   0.01469404  0.44816108  0.57525265
   0.02002253  0.48862221  0.69787296
   0.22988119  0.66150385  0.27222796
   0.17936433  0.67600895  0.38398790
   0.28472533  0.62107919  0.95294172
   0.23472863  0.63643674  0.08343593
   0.54401725  0.00582297  0.56571713
   0.49782135  0.01069825  0.68454698
   0.24349124  0.07597662  0.41780141
   0.20433007  0.12364461  0.28045002
   0.21943072  0.12306932  0.07805145
   0.17811507  0.16932503  0.95912744
   0.69534145  0.22939901  0.44302692
   0.67971708  0.19736420  0.29682003
   0.01873974  0.58221956  0.77308632
   0.01082244  0.54334018  0.63110228
   0.66147011  0.21652293  0.09922280
   0.65396753  0.17784770  0.97378280
   0.08355654  0.68066000  0.44713537
   0.13301382  0.66841057  0.31202828
   0.40489319  0.01014086  0.75028286
   0.45271533  0.00136330  0.61304812
   0.13538061  0.64796006  0.11484183
   0.18754227  0.63081093  0.00837696
   0.75535856  0.92150236  0.56249890
   0.79626620  0.87627999  0.70486054
   0.78042278  0.87596320  0.90581058
   0.82265439  0.83187001  0.02906962
   0.32581046  0.75422903  0.51321925
   0.32452975  0.79397349  0.67122356
   0.99180391  0.42558791  0.23022807
   0.99943539  0.46422930  0.37358932
   0.33454512  0.77889328  0.87484118
   0.33881345  0.81905806  0.00212694
   0.92248396  0.33151793  0.56216958
   0.87755906  0.33652355  0.70446613
   0.59138180  0.98270480  0.22520727
   0.54397141  0.99063867  0.36360562
   0.87634638  0.35354940  0.90479273
   0.83048061  0.35757685  0.02604424
   0.89483474  0.78951257  0.76210647
   0.85253663  0.83360166  0.63879983
   0.91963131  0.74421315  0.10565787
   0.87896920  0.78924962  0.96313754
   0.31675270  0.89017247  0.73703857
   0.31409090  0.84945120  0.60921131
   0.33936792  0.91262829  0.07984540
   0.33086803  0.87385565  0.93836795
   0.99561320  0.55928237  0.42962620
   0.99008566  0.51904363  0.30703271
   0.79392112  0.32079618  0.76521033
   0.83642917  0.32000671  0.63982199
   0.74351774  0.34295263  0.09407616
   0.78906027  0.34256925  0.95993229
   0.45278187  0.98602941  0.41087267
   0.49897823  0.98117477  0.29230324
   0.61834122  0.44210653  0.34072041
   0.84568763  0.08739977  0.63630642
   0.79097869  0.21683286  0.12404233
   0.13966203  0.16901749  0.50765951
   0.70216850  0.12827692  0.50976492
   0.03157314  0.47666140  0.85160367
   0.17520880  0.69382784  0.53225991
   0.49727771  0.02222741  0.83882887
   0.18880001  0.16960297  0.80446726
   0.64142685  0.19118713  0.82128438
   0.19090311  0.61359234  0.86002777
   0.81100876  0.83133946  0.18262296
   0.34804699  0.80773840  0.15718677
   0.83004719  0.36982771  0.17949348
   0.86407211  0.83419944  0.48517452
   0.30524332  0.86116591  0.45456150
   0.97864641  0.53098572  0.15321085
   0.83959627  0.30447707  0.48892267
   0.49971495  0.96962298  0.13805688
   0.70636228  0.33546698  0.49300368
   0.28242905  0.02206064  0.79256388
   0.63783844  0.33405364  0.19591691
   0.96289901  0.68987220  0.48330007
   0.35397517  0.95282630  0.45804263
   0.35187772  0.02408541  0.12773686
   0.71068405  0.97581791  0.18512037
   0.34636920  0.66293972  0.74758649
   0.73203639  0.27769875  0.02296130
   0.97895553  0.31602248  0.18789730
   0.31385008  0.70589956  0.18710133
   0.97571146  0.38462172  0.85598784
   0.64700568  0.97102099  0.85111827
   0.03175947  0.62531613  0.14963128
   0.64153229  0.03975185  0.52001749
   0.02841460  0.69317252  0.82170618
   0.30205532  0.62692347  0.57701900
   0.04426553  0.31851370  0.51914862
   0.70513946  0.43787476  0.37009899
   0.61907749  0.44208353  0.00779519
   0.79179594  0.21224957  0.68785095
Direct configuration=    45
   0.05831913  0.25784883  0.31523230
   0.03257807  0.30127988  0.95034280
   0.10161127  0.26213241  0.71730914
   0.68630373  0.05427920  0.31472305
   0.66390329  0.03326942  0.95670710
   0.63829189  0.10042115  0.71827215
   0.02386750  0.39684748  0.65383150
   0.27411408  0.67018971  0.34636300
   0.32149124  0.64067978  0.98337189
   0.28892984  0.59289697  0.79290091
   0.58544582  0.01590328  0.64703784
   0.29435413  0.03505713  0.35583660
   0.22629556  0.07603962  0.59280807
   0.27063623  0.08096952  0.99812729
   0.66662038  0.28813183  0.44164779
   0.73440804  0.20093625  0.56880974
   0.00935041  0.63297589  0.71119783
   0.03419638  0.56588309  0.94914689
   0.65393275  0.26790424  0.02516202
   0.04143657  0.67362113  0.37904779
   0.08421386  0.69597585  0.62407538
   0.36414534  0.00009237  0.68796851
   0.40425497  0.02793964  0.92522352
   0.09137512  0.64382043  0.02666147
   0.70344041  0.96046058  0.62381224
   0.77129378  0.92153222  0.38652162
   0.72751823  0.91549868  0.98278402
   0.35998487  0.69655822  0.52252904
   0.29678333  0.77614838  0.35596149
   0.00447590  0.37327629  0.28564912
   0.97367737  0.44333870  0.05672636
   0.33806673  0.72836833  0.94220335
   0.96122580  0.34546657  0.61803362
   0.92274859  0.31422042  0.38695005
   0.63231590  0.99202429  0.29105813
   0.59138853  0.96702212  0.04860740
   0.91663579  0.36503341  0.98555937
   0.94774228  0.74982107  0.68549285
   0.97238930  0.70602689  0.04779767
   0.90299663  0.74324746  0.28016768
   0.30665704  0.94210670  0.66100209
   0.32925591  0.96381369  0.02054212
   0.35672663  0.89516231  0.25463112
   0.98652216  0.61070122  0.35156172
   0.75994723  0.29633065  0.71019590
   0.68702785  0.36413323  0.01373911
   0.74642436  0.35619336  0.28311990
   0.41141961  0.97574549  0.32960275
   0.58770508  0.42094547  0.25760247
   0.62857535  0.47886096  0.24385864
   0.64399396  0.42339791  0.51321443
   0.83192268  0.17887788  0.20828373
   0.85672922  0.12384057  0.69120159
   0.83605283  0.05034695  0.58447865
   0.10915778  0.21548377  0.23390977
   0.15036052  0.16922605  0.35282128
   0.08453223  0.26156032  0.89154421
   0.12397425  0.21471965  0.03102346
   0.67872492  0.10513670  0.23640289
   0.68819411  0.14255714  0.35905756
   0.65404905  0.08421285  0.89437805
   0.66241190  0.12279824  0.03663682
   0.01469102  0.44816588  0.57525555
   0.02002083  0.48862651  0.69788097
   0.22988999  0.66148905  0.27218594
   0.17937812  0.67600471  0.38395880
   0.28472696  0.62108139  0.95286852
   0.23473040  0.63643240  0.08337307
   0.54401294  0.00582212  0.56571169
   0.49780669  0.01070304  0.68452638
   0.24348821  0.07596583  0.41778584
   0.20433449  0.12363655  0.28042139
   0.21943340  0.12306377  0.07802160
   0.17812346  0.16932221  0.95912097
   0.69532379  0.22941502  0.44291351
   0.67970283  0.19737063  0.29677846
   0.01874722  0.58222000  0.77308032
   0.01082816  0.54333849  0.63109097
   0.66146167  0.21652998  0.09911694
   0.65395335  0.17782762  0.97374587
   0.08357049  0.68066823  0.44713908
   0.13301917  0.66842032  0.31201342
   0.40486647  0.01015979  0.75024368
   0.45269276  0.00137504  0.61301448
   0.13537740  0.64796844  0.11486336
   0.18753406  0.63081172  0.00835956
   0.75535208  0.92150024  0.56253167
   0.79626423  0.87628172  0.70486984
   0.78042419  0.87596067  0.90582228
   0.82265586  0.83186875  0.02908322
   0.32577038  0.75425703  0.51319604
   0.32452137  0.79398255  0.67122119
   0.99180321  0.42559025  0.23022852
   0.99942811  0.46423565  0.37358799
   0.33457300  0.77888487  0.87486136
   0.33883718  0.81905645  0.00215606
   0.92248974  0.33151837  0.56216653
   0.87757403  0.33652866  0.70447748
   0.59137253  0.98270350  0.22521368
   0.54397161  0.99063137  0.36363981
   0.87637278  0.35354106  0.90477866
   0.83050470  0.35756504  0.02606294
   0.89483571  0.78951462  0.76210566
   0.85253415  0.83360607  0.63880342
   0.91963444  0.74421714  0.10567234
   0.87897153  0.78925223  0.96313248
   0.31676091  0.89017236  0.73709697
   0.31408963  0.84945717  0.60929386
   0.33937275  0.91262920  0.07988680
   0.33087851  0.87385629  0.93840492
   0.99562127  0.55928245  0.42962551
   0.99008427  0.51904928  0.30702406
   0.79394769  0.32077967  0.76522845
   0.83643928  0.32000939  0.63983535
   0.74353978  0.34295601  0.09403147
   0.78907366  0.34256545  0.95992799
   0.45277636  0.98603093  0.41091062
   0.49897565  0.98116588  0.29231489
   0.61833585  0.44209539  0.34083121
   0.84567000  0.08740402  0.63624496
   0.79096704  0.21684689  0.12407961
   0.13966864  0.16901575  0.50763590
   0.70216595  0.12829532  0.50977171
   0.03157283  0.47666505  0.85160396
   0.17524222  0.69382493  0.53222949
   0.49726003  0.02223440  0.83883543
   0.18881282  0.16959237  0.80443992
   0.64141112  0.19116275  0.82126704
   0.19088128  0.61359944  0.85999179
   0.81101169  0.83133788  0.18263087
   0.34807212  0.80771678  0.15716135
   0.83007506  0.36982552  0.17950127
   0.86407097  0.83420179  0.48517856
   0.30521755  0.86120329  0.45461527
   0.97864607  0.53098911  0.15320736
   0.83961601  0.30447564  0.48890054
   0.49971250  0.96960661  0.13805611
   0.70638700  0.33544384  0.49297402
   0.28241186  0.02206549  0.79255292
   0.63782159  0.33406529  0.19580043
   0.96291391  0.68987132  0.48329807
   0.35398170  0.95281109  0.45806235
   0.35186842  0.02410304  0.12775633
   0.71068009  0.97581241  0.18515710
   0.34635194  0.66295194  0.74751410
   0.73204527  0.27770752  0.02284168
   0.97896324  0.31601867  0.18787121
   0.31382077  0.70592387  0.18710177
   0.97572247  0.38461742  0.85600048
   0.64701042  0.97101934  0.85113735
   0.03176247  0.62532228  0.14964783
   0.64153124  0.03974968  0.52003226
   0.02842057  0.69317623  0.82169843
   0.30207014  0.62689805  0.57700811
   0.04426981  0.31851630  0.51914806
   0.70512895  0.43789422  0.37010322
   0.61905483  0.44209459  0.00790889
   0.79177287  0.21220918  0.68803376
Direct configuration=    46
   0.05833913  0.25785338  0.31527864
   0.03259233  0.30127486  0.95028089
   0.10163551  0.26209727  0.71728575
   0.68630249  0.05427151  0.31482274
   0.66385901  0.03327393  0.95675307
   0.63830823  0.10036629  0.71840410
   0.02387811  0.39684919  0.65380807
   0.27419941  0.67007115  0.34625800
   0.32138221  0.64078945  0.98311932
   0.28897042  0.59283785  0.79286619
   0.58542929  0.01585910  0.64710188
   0.29433420  0.03502039  0.35575636
   0.22627087  0.07602542  0.59271049
   0.27062123  0.08094821  0.99804121
   0.66663727  0.28814709  0.44146568
   0.73437425  0.20092227  0.56873768
   0.00938302  0.63297122  0.71116715
   0.03419831  0.56589396  0.94914621
   0.65389733  0.26789014  0.02495728
   0.04146541  0.67363389  0.37917968
   0.08425336  0.69597642  0.62414329
   0.36408471  0.00015889  0.68788450
   0.40424452  0.02799489  0.92511134
   0.09138053  0.64384334  0.02673557
   0.70342632  0.96044138  0.62384465
   0.77127650  0.92153741  0.38658033
   0.72752612  0.91548230  0.98285986
   0.35991973  0.69661868  0.52232023
   0.29668669  0.77622279  0.35604254
   0.00448498  0.37328238  0.28565286
   0.97368208  0.44334106  0.05673599
   0.33814977  0.72833933  0.94222945
   0.96127574  0.34544852  0.61790120
   0.92279753  0.31422377  0.38693135
   0.63229433  0.99204222  0.29109732
   0.59134627  0.96704423  0.04866338
   0.91667838  0.36504815  0.98554892
   0.94774601  0.74982344  0.68548579
   0.97240728  0.70604179  0.04781635
   0.90301379  0.74324395  0.28018170
   0.30665324  0.94209449  0.66119318
   0.32935756  0.96378174  0.02064460
   0.35667102  0.89515924  0.25483006
   0.98654355  0.61070093  0.35157501
   0.76001715  0.29625685  0.71022715
   0.68700488  0.36421100  0.01368562
   0.74643787  0.35621253  0.28300054
   0.41141970  0.97572583  0.32960354
   0.58765240  0.42096629  0.25791152
   0.62854212  0.47884658  0.24424757
   0.64404534  0.42330484  0.51342019
   0.83179912  0.17890682  0.20839441
   0.85666192  0.12388029  0.69116819
   0.83603996  0.05036708  0.58428777
   0.10917467  0.21547150  0.23395754
   0.15037947  0.16921025  0.35280509
   0.08454871  0.26155549  0.89151673
   0.12399120  0.21471793  0.03103048
   0.67870864  0.10513990  0.23647723
   0.68818503  0.14254443  0.35903320
   0.65404364  0.08419571  0.89452182
   0.66239151  0.12277444  0.03668024
   0.01468369  0.44817754  0.57526258
   0.02001672  0.48863693  0.69790041
   0.22991134  0.66145314  0.27208402
   0.17941158  0.67599444  0.38388822
   0.28473092  0.62108673  0.95269094
   0.23473470  0.63642189  0.08322059
   0.54400246  0.00582004  0.56569850
   0.49777113  0.01071467  0.68447639
   0.24348086  0.07593965  0.41774808
   0.20434524  0.12361700  0.28035195
   0.21943990  0.12305029  0.07794919
   0.17814380  0.16931535  0.95910526
   0.69528095  0.22945384  0.44263840
   0.67966825  0.19738624  0.29667761
   0.01876538  0.58222105  0.77306574
   0.01084203  0.54333441  0.63106352
   0.66144118  0.21654709  0.09886016
   0.65391896  0.17777893  0.97365629
   0.08360432  0.68068819  0.44714809
   0.13303214  0.66844398  0.31197736
   0.40480166  0.01020573  0.75014866
   0.45263803  0.00140354  0.61293288
   0.13536962  0.64798875  0.11491559
   0.18751414  0.63081364  0.00831736
   0.75533634  0.92149509  0.56261117
   0.79625945  0.87628589  0.70489240
   0.78042760  0.87595452  0.90585064
   0.82265942  0.83186570  0.02911621
   0.32567315  0.75432493  0.51313974
   0.32450105  0.79400451  0.67121545
   0.99180151  0.42559592  0.23022963
   0.99941046  0.46425107  0.37358476
   0.33464062  0.77886446  0.87491033
   0.33889474  0.81905254  0.00222670
   0.92250378  0.33151945  0.56215913
   0.87761035  0.33654106  0.70450501
   0.59135005  0.98270034  0.22522924
   0.54397212  0.99061367  0.36372275
   0.87643682  0.35352083  0.90474452
   0.83056313  0.35753640  0.02610830
   0.89483805  0.78951958  0.76210368
   0.85252815  0.83361676  0.63881211
   0.91964204  0.74422683  0.10570745
   0.87897720  0.78925854  0.96312021
   0.31678081  0.89017211  0.73723864
   0.31408656  0.84947165  0.60949410
   0.33938446  0.91263139  0.07998721
   0.33090395  0.87385783  0.93849462
   0.99564083  0.55928264  0.42962383
   0.99008090  0.51906297  0.30700307
   0.79401214  0.32073963  0.76527243
   0.83646380  0.32001587  0.63986773
   0.74359325  0.34296423  0.09392306
   0.78910614  0.34255623  0.95991756
   0.45276298  0.98603460  0.41100265
   0.49896939  0.98114431  0.29234316
   0.61832282  0.44206837  0.34109998
   0.84562723  0.08741432  0.63609585
   0.79093879  0.21688092  0.12417004
   0.13968466  0.16901154  0.50757863
   0.70215974  0.12833993  0.50978817
   0.03157208  0.47667390  0.85160467
   0.17532329  0.69381787  0.53215570
   0.49721715  0.02225137  0.83885133
   0.18884388  0.16956664  0.80437360
   0.64137298  0.19110359  0.82122499
   0.19082831  0.61361666  0.85990451
   0.81101881  0.83133405  0.18265007
   0.34813307  0.80766433  0.15709969
   0.83014266  0.36982021  0.17952017
   0.86406820  0.83420749  0.48518838
   0.30515504  0.86129397  0.45474572
   0.97864523  0.53099735  0.15319890
   0.83966390  0.30447217  0.48884684
   0.49970656  0.96956689  0.13805424
   0.70644696  0.33538770  0.49290206
   0.28237014  0.02207726  0.79252635
   0.63778072  0.33409356  0.19551788
   0.96295005  0.68986917  0.48329322
   0.35399755  0.95277420  0.45811021
   0.35184587  0.02414579  0.12780358
   0.71067050  0.97579908  0.18524621
   0.34631006  0.66298160  0.74733849
   0.73206682  0.27772881  0.02255151
   0.97898193  0.31600943  0.18780791
   0.31374968  0.70598285  0.18710286
   0.97574918  0.38460700  0.85603114
   0.64702192  0.97101533  0.85118361
   0.03176977  0.62533721  0.14968797
   0.64152871  0.03974443  0.52006811
   0.02843506  0.69318523  0.82167961
   0.30210609  0.62683639  0.57698168
   0.04428020  0.31852260  0.51914670
   0.70510346  0.43794145  0.37011348
   0.61899987  0.44212142  0.00818471
   0.79171692  0.21211119  0.68847722
Direct configuration=    47
   0.05835033  0.25785478  0.31530507
   0.03259798  0.30127395  0.95025626
   0.10164847  0.26208047  0.71727445
   0.68630121  0.05426374  0.31487288
   0.66384158  0.03326844  0.95679015
   0.63831365  0.10034622  0.71844489
   0.02388408  0.39685029  0.65379998
   0.27423303  0.67002141  0.34618787
   0.32133988  0.64083079  0.98303484
   0.28899090  0.59281881  0.79284508
   0.58542271  0.01583818  0.64713402
   0.29432620  0.03500195  0.35571882
   0.22626010  0.07601723  0.59269499
   0.27061219  0.08093423  0.99800683
   0.66664352  0.28815785  0.44137393
   0.73434093  0.20092809  0.56864826
   0.00939925  0.63296838  0.71115552
   0.03419891  0.56589956  0.94914616
   0.65388017  0.26788585  0.02486243
   0.04148139  0.67364004  0.37923737
   0.08427275  0.69597613  0.62416280
   0.36405959  0.00018952  0.68785903
   0.40423772  0.02801427  0.92503918
   0.09137240  0.64385594  0.02675484
   0.70341562  0.96043536  0.62386384
   0.77127030  0.92153877  0.38660443
   0.72752904  0.91547484  0.98289820
   0.35988718  0.69664204  0.52222545
   0.29663817  0.77626272  0.35605271
   0.00449044  0.37328229  0.28564982
   0.97368422  0.44334241  0.05673242
   0.33818244  0.72833087  0.94223829
   0.96129254  0.34544034  0.61784527
   0.92281681  0.31422623  0.38693700
   0.63228226  0.99204809  0.29110197
   0.59132848  0.96705157  0.04869209
   0.91669960  0.36505623  0.98555351
   0.94774827  0.74982389  0.68548442
   0.97241282  0.70605103  0.04782461
   0.90302032  0.74324404  0.28018560
   0.30665595  0.94210151  0.66126503
   0.32940109  0.96376683  0.02067495
   0.35664294  0.89516044  0.25490118
   0.98655237  0.61070296  0.35157978
   0.76005498  0.29622216  0.71024061
   0.68699909  0.36424037  0.01367450
   0.74644588  0.35621755  0.28296963
   0.41141090  0.97572508  0.32961509
   0.58762473  0.42097182  0.25803960
   0.62853045  0.47884720  0.24441324
   0.64406200  0.42326521  0.51349774
   0.83177548  0.17889188  0.20850023
   0.85662866  0.12388837  0.69114243
   0.83602980  0.05036160  0.58417190
   0.10918081  0.21546938  0.23395407
   0.15039043  0.16920177  0.35278824
   0.08455847  0.26155107  0.89151271
   0.12400159  0.21471518  0.03102510
   0.67870113  0.10513867  0.23650133
   0.68817981  0.14255128  0.35901953
   0.65403672  0.08418699  0.89457025
   0.66237954  0.12276226  0.03669688
   0.01468168  0.44818190  0.57526325
   0.02001546  0.48864032  0.69790290
   0.22992459  0.66143670  0.27204738
   0.17942449  0.67598933  0.38387418
   0.28472686  0.62108560  0.95261510
   0.23473535  0.63641628  0.08314446
   0.54399909  0.00581707  0.56571529
   0.49775909  0.01072069  0.68446087
   0.24347857  0.07592894  0.41773422
   0.20434938  0.12360671  0.28033275
   0.21943835  0.12304441  0.07793242
   0.17815364  0.16931231  0.95908388
   0.69528136  0.22945540  0.44258479
   0.67964898  0.19740303  0.29659185
   0.01877355  0.58222183  0.77306075
   0.01084893  0.54333331  0.63105885
   0.66143268  0.21654287  0.09877389
   0.65390810  0.17776295  0.97363772
   0.08361602  0.68069883  0.44716952
   0.13303667  0.66845555  0.31197346
   0.40476663  0.01022951  0.75013600
   0.45262221  0.00141748  0.61290079
   0.13536974  0.64799684  0.11492582
   0.18751128  0.63081099  0.00828453
   0.75533375  0.92148893  0.56264249
   0.79625674  0.87628643  0.70491256
   0.78043034  0.87595027  0.90586840
   0.82266223  0.83186345  0.02912563
   0.32563744  0.75434967  0.51313916
   0.32448807  0.79401189  0.67122681
   0.99180131  0.42560013  0.23023335
   0.99940311  0.46425887  0.37358606
   0.33466710  0.77885389  0.87493895
   0.33892649  0.81904271  0.00226495
   0.92252366  0.33152020  0.56213146
   0.87762359  0.33654326  0.70450468
   0.59134251  0.98270138  0.22525322
   0.54396834  0.99060882  0.36375265
   0.87646120  0.35350870  0.90475378
   0.83059215  0.35752542  0.02612676
   0.89483894  0.78952309  0.76210441
   0.85252552  0.83362167  0.63881997
   0.91964904  0.74422868  0.10572021
   0.87898012  0.78926108  0.96312239
   0.31679172  0.89016938  0.73730563
   0.31408222  0.84948204  0.60956475
   0.33938958  0.91263264  0.08005093
   0.33091788  0.87386078  0.93854633
   0.99564891  0.55928184  0.42962015
   0.99007961  0.51906875  0.30700012
   0.79403687  0.32071888  0.76526871
   0.83647935  0.32001737  0.63986744
   0.74360527  0.34297918  0.09385454
   0.78912643  0.34255183  0.95987771
   0.45275444  0.98603446  0.41104009
   0.49897082  0.98113571  0.29236222
   0.61832453  0.44205176  0.34127670
   0.84561366  0.08744158  0.63605906
   0.79089065  0.21691946  0.12417262
   0.13969295  0.16900791  0.50754928
   0.70215636  0.12835486  0.50979709
   0.03157176  0.47667803  0.85161153
   0.17536265  0.69381302  0.53210728
   0.49719680  0.02226033  0.83883425
   0.18885586  0.16955847  0.80433625
   0.64135356  0.19107862  0.82120302
   0.19080018  0.61362635  0.85987008
   0.81102273  0.83133194  0.18266074
   0.34816386  0.80763759  0.15706358
   0.83017454  0.36981821  0.17953272
   0.86406676  0.83421026  0.48519043
   0.30512327  0.86133754  0.45481043
   0.97864498  0.53100158  0.15319440
   0.83968572  0.30447038  0.48884169
   0.49970524  0.96954478  0.13803449
   0.70646834  0.33536930  0.49287584
   0.28234472  0.02208861  0.79252504
   0.63776721  0.33409723  0.19540258
   0.96296611  0.68986942  0.48329258
   0.35400229  0.95275475  0.45811422
   0.35184528  0.02416143  0.12781723
   0.71066357  0.97579453  0.18528379
   0.34629179  0.66299876  0.74725300
   0.73207575  0.27774143  0.02240639
   0.97899070  0.31600852  0.18777187
   0.31371893  0.70600809  0.18708042
   0.97576125  0.38460507  0.85603499
   0.64702288  0.97101581  0.85120636
   0.03177655  0.62534387  0.14970127
   0.64152690  0.03973888  0.52009190
   0.02844334  0.69319008  0.82167207
   0.30213059  0.62680538  0.57697599
   0.04428617  0.31852596  0.51915332
   0.70508892  0.43796011  0.37012474
   0.61897391  0.44213765  0.00831271
   0.79168844  0.21206933  0.68867752
Direct configuration=    48
   0.05836088  0.25785610  0.31533000
   0.03260331  0.30127310  0.95023303
   0.10166070  0.26206462  0.71726380
   0.68629999  0.05425642  0.31492017
   0.66382515  0.03326327  0.95682513
   0.63831876  0.10032729  0.71848335
   0.02388971  0.39685133  0.65379234
   0.27426473  0.66997449  0.34612172
   0.32129996  0.64086977  0.98295516
   0.28901022  0.59280085  0.79282517
   0.58541651  0.01581845  0.64716434
   0.29431865  0.03498457  0.35568340
   0.22624994  0.07600951  0.59268038
   0.27060367  0.08092104  0.99797439
   0.66664942  0.28816801  0.44128740
   0.73430950  0.20093357  0.56856391
   0.00941455  0.63296570  0.71114455
   0.03419948  0.56590483  0.94914611
   0.65386398  0.26788181  0.02477296
   0.04149647  0.67364585  0.37929179
   0.08429103  0.69597585  0.62418120
   0.36403589  0.00021842  0.68783500
   0.40423131  0.02803255  0.92497112
   0.09136474  0.64386783  0.02677301
   0.70340553  0.96042968  0.62388195
   0.77126445  0.92154006  0.38662716
   0.72753179  0.91546780  0.98293436
   0.35985648  0.69666408  0.52213605
   0.29659240  0.77630039  0.35606229
   0.00449559  0.37328221  0.28564695
   0.97368623  0.44334369  0.05672906
   0.33821326  0.72832290  0.94224663
   0.96130838  0.34543262  0.61779253
   0.92283500  0.31422855  0.38694233
   0.63227087  0.99205363  0.29110635
   0.59131171  0.96705850  0.04871917
   0.91671960  0.36506386  0.98555783
   0.94775040  0.74982430  0.68548314
   0.97241804  0.70605975  0.04783239
   0.90302649  0.74324412  0.28018928
   0.30665851  0.94210813  0.66133279
   0.32944215  0.96375278  0.02070358
   0.35661646  0.89516157  0.25496826
   0.98656069  0.61070487  0.35158427
   0.76009065  0.29618943  0.71025330
   0.68699364  0.36426808  0.01366400
   0.74645345  0.35622228  0.28294047
   0.41140260  0.97572437  0.32962599
   0.58759863  0.42097703  0.25816042
   0.62851945  0.47884779  0.24456949
   0.64407771  0.42322782  0.51357089
   0.83175318  0.17887779  0.20860003
   0.85659729  0.12389598  0.69111814
   0.83602022  0.05035643  0.58406262
   0.10918661  0.21546738  0.23395080
   0.15040076  0.16919377  0.35277234
   0.08456768  0.26154689  0.89150891
   0.12401138  0.21471258  0.03102003
   0.67869404  0.10513751  0.23652406
   0.68817489  0.14255773  0.35900664
   0.65403019  0.08417878  0.89461594
   0.66236825  0.12275078  0.03671257
   0.01467979  0.44818602  0.57526388
   0.02001427  0.48864352  0.69790524
   0.22993709  0.66142120  0.27201281
   0.17943666  0.67598450  0.38386093
   0.28472303  0.62108453  0.95254356
   0.23473596  0.63641099  0.08307265
   0.54399592  0.00581426  0.56573112
   0.49774774  0.01072636  0.68444624
   0.24347641  0.07591885  0.41772115
   0.20435329  0.12359699  0.28031465
   0.21943688  0.12303886  0.07791661
   0.17816293  0.16930945  0.95906372
   0.69528175  0.22945686  0.44253422
   0.67963081  0.19741887  0.29651096
   0.01878126  0.58222256  0.77305605
   0.01085543  0.54333227  0.63105445
   0.66142466  0.21653889  0.09869252
   0.65389787  0.17774787  0.97362020
   0.08362706  0.68070887  0.44718973
   0.13304095  0.66846647  0.31196979
   0.40473358  0.01025194  0.75012407
   0.45260729  0.00143064  0.61287052
   0.13536985  0.64800448  0.11493547
   0.18750858  0.63080849  0.00825357
   0.75533131  0.92148312  0.56267204
   0.79625419  0.87628694  0.70493158
   0.78043292  0.87594625  0.90588515
   0.82266488  0.83186133  0.02913451
   0.32560376  0.75437300  0.51313861
   0.32447582  0.79401885  0.67123752
   0.99180112  0.42560411  0.23023686
   0.99939618  0.46426623  0.37358728
   0.33469208  0.77884392  0.87496594
   0.33895644  0.81903343  0.00230103
   0.92254242  0.33152091  0.56210538
   0.87763608  0.33654534  0.70450436
   0.59133540  0.98270237  0.22527584
   0.54396478  0.99060425  0.36378085
   0.87648420  0.35349725  0.90476252
   0.83061952  0.35751506  0.02614417
   0.89483979  0.78952639  0.76210510
   0.85252303  0.83362629  0.63882739
   0.91965565  0.74423043  0.10573225
   0.87898286  0.78926347  0.96312445
   0.31680202  0.89016680  0.73736883
   0.31407813  0.84949184  0.60963139
   0.33939440  0.91263381  0.08011104
   0.33093102  0.87386355  0.93859510
   0.99565654  0.55928108  0.42961667
   0.99007838  0.51907421  0.30699733
   0.79406020  0.32069931  0.76526521
   0.83649402  0.32001878  0.63986716
   0.74361660  0.34299327  0.09378991
   0.78914557  0.34254769  0.95984013
   0.45274640  0.98603432  0.41107540
   0.49897217  0.98112760  0.29238019
   0.61832614  0.44203610  0.34144338
   0.84560087  0.08746730  0.63602435
   0.79084524  0.21695580  0.12417505
   0.13970077  0.16900448  0.50752160
   0.70215316  0.12836894  0.50980551
   0.03157147  0.47668192  0.85161801
   0.17539978  0.69380844  0.53206160
   0.49717760  0.02226878  0.83881815
   0.18886717  0.16955077  0.80430101
   0.64133524  0.19105507  0.82118231
   0.19077365  0.61363549  0.85983761
   0.81102644  0.83132995  0.18267081
   0.34819290  0.80761237  0.15702952
   0.83020460  0.36981631  0.17954456
   0.86406539  0.83421286  0.48519236
   0.30509330  0.86137864  0.45487147
   0.97864474  0.53100557  0.15319015
   0.83970630  0.30446870  0.48883684
   0.49970400  0.96952393  0.13801586
   0.70648851  0.33535194  0.49285112
   0.28232074  0.02209931  0.79252380
   0.63775447  0.33410068  0.19529382
   0.96298126  0.68986965  0.48329198
   0.35400676  0.95273641  0.45811801
   0.35184474  0.02417618  0.12783011
   0.71065703  0.97579024  0.18531923
   0.34627456  0.66301494  0.74717236
   0.73208418  0.27775334  0.02226951
   0.97899897  0.31600766  0.18773788
   0.31368992  0.70603190  0.18705926
   0.97577264  0.38460325  0.85603863
   0.64702378  0.97101627  0.85122781
   0.03178295  0.62535016  0.14971381
   0.64152519  0.03973364  0.52011434
   0.02845114  0.69319466  0.82166496
   0.30215370  0.62677613  0.57697062
   0.04429181  0.31852914  0.51915957
   0.70507520  0.43797771  0.37013535
   0.61894944  0.44215295  0.00843343
   0.79166158  0.21202985  0.68886646
Direct configuration=    49
   0.05837431  0.25785615  0.31535423
   0.03261022  0.30127180  0.95021105
   0.10167406  0.26204852  0.71725292
   0.68629788  0.05424848  0.31496966
   0.66381068  0.03325132  0.95688185
   0.63832162  0.10031265  0.71850212
   0.02389633  0.39685269  0.65378739
   0.27429478  0.66992850  0.34604086
   0.32126636  0.64090480  0.98289102
   0.28903225  0.59278482  0.79279041
   0.58541533  0.01579860  0.64720185
   0.29431071  0.03496547  0.35564987
   0.22623998  0.07600020  0.59268077
   0.27059385  0.08090366  0.99794736
   0.66665579  0.28818014  0.44118928
   0.73427526  0.20094085  0.56847423
   0.00943196  0.63296244  0.71113476
   0.03420002  0.56591067  0.94914793
   0.65384446  0.26788065  0.02467123
   0.04151188  0.67365166  0.37933862
   0.08431190  0.69597624  0.62419948
   0.36400662  0.00024860  0.68781485
   0.40421974  0.02805009  0.92491200
   0.09134985  0.64388229  0.02678345
   0.70339423  0.96042350  0.62390270
   0.77125953  0.92154005  0.38665458
   0.72753407  0.91546048  0.98297321
   0.35982140  0.69668397  0.52204426
   0.29654125  0.77634369  0.35605812
   0.00450192  0.37328134  0.28563915
   0.97368860  0.44334540  0.05672141
   0.33824162  0.72831624  0.94225751
   0.96132414  0.34542735  0.61775724
   0.92285048  0.31422951  0.38693861
   0.63225864  0.99205795  0.29110472
   0.59129665  0.96706304  0.04874484
   0.91673922  0.36507169  0.98556391
   0.94775255  0.74982496  0.68548420
   0.97242329  0.70606952  0.04783998
   0.90303199  0.74324542  0.28019485
   0.30666547  0.94212267  0.66139224
   0.32948297  0.96373784  0.02071933
   0.35658743  0.89516434  0.25503340
   0.98656934  0.61070790  0.35158767
   0.76013175  0.29615517  0.71025958
   0.68699479  0.36429161  0.01365963
   0.74646326  0.35622375  0.28291823
   0.41138723  0.97573028  0.32964676
   0.58757384  0.42097981  0.25828803
   0.62850980  0.47885149  0.24473507
   0.64409083  0.42318980  0.51365299
   0.83171178  0.17888106  0.20866429
   0.85656916  0.12391987  0.69112010
   0.83601525  0.05037251  0.58396974
   0.10919330  0.21546702  0.23392852
   0.15041079  0.16918685  0.35274494
   0.08457909  0.26154061  0.89150827
   0.12402262  0.21470932  0.03100943
   0.67868704  0.10513236  0.23654526
   0.68816717  0.14257695  0.35898606
   0.65401944  0.08416698  0.89464547
   0.66235509  0.12273981  0.03673622
   0.01467875  0.44819000  0.57526064
   0.02001394  0.48864558  0.69790452
   0.22995250  0.66140323  0.27197161
   0.17945138  0.67597823  0.38385146
   0.28471242  0.62108290  0.95248627
   0.23473452  0.63640529  0.08300468
   0.54398986  0.00580858  0.56576497
   0.49773724  0.01073333  0.68443937
   0.24347533  0.07590769  0.41770855
   0.20435673  0.12358598  0.28030622
   0.21943271  0.12303244  0.07790944
   0.17817227  0.16930693  0.95903023
   0.69528267  0.22945667  0.44248955
   0.67961238  0.19743623  0.29641077
   0.01878929  0.58222357  0.77305187
   0.01086256  0.54333265  0.63105665
   0.66141575  0.21652595  0.09863553
   0.65389023  0.17773764  0.97361265
   0.08363733  0.68072000  0.44722363
   0.13304415  0.66847824  0.31197638
   0.40470519  0.01027643  0.75011048
   0.45259614  0.00144597  0.61286288
   0.13537227  0.64801119  0.11492976
   0.18750888  0.63080430  0.00821265
   0.75532922  0.92147731  0.56269388
   0.79625180  0.87628575  0.70495935
   0.78043491  0.87594215  0.90590889
   0.82266945  0.83185785  0.02914088
   0.32557360  0.75439431  0.51314415
   0.32446171  0.79402471  0.67127472
   0.99180134  0.42560842  0.23024105
   0.99939008  0.46427423  0.37359277
   0.33471355  0.77883651  0.87498659
   0.33899030  0.81901828  0.00231305
   0.92256762  0.33152194  0.56207166
   0.87764878  0.33654436  0.70449151
   0.59132784  0.98270537  0.22531219
   0.54395843  0.99060149  0.36379665
   0.87650619  0.35348495  0.90479305
   0.83064834  0.35750499  0.02615269
   0.89484075  0.78953070  0.76210678
   0.85252193  0.83362994  0.63883699
   0.91966379  0.74423197  0.10573717
   0.87898674  0.78926487  0.96313531
   0.31681337  0.89016597  0.73743979
   0.31406950  0.84950543  0.60966536
   0.33939921  0.91263624  0.08017802
   0.33094755  0.87386401  0.93865875
   0.99566346  0.55928083  0.42961057
   0.99007732  0.51907916  0.30699935
   0.79408263  0.32067806  0.76524045
   0.83651392  0.32001727  0.63984852
   0.74361367  0.34301838  0.09372476
   0.78917206  0.34254456  0.95978568
   0.45273859  0.98603172  0.41108289
   0.49897339  0.98111859  0.29239308
   0.61832713  0.44201846  0.34162233
   0.84557669  0.08745408  0.63592878
   0.79081623  0.21696864  0.12423308
   0.13970983  0.16899919  0.50749454
   0.70214878  0.12838047  0.50980843
   0.03157105  0.47668618  0.85162832
   0.17544001  0.69380295  0.53200938
   0.49715665  0.02227885  0.83878276
   0.18887694  0.16954557  0.80426432
   0.64131435  0.19103146  0.82115836
   0.19074290  0.61364619  0.85980554
   0.81103099  0.83132746  0.18268308
   0.34822783  0.80758244  0.15701201
   0.83023665  0.36981419  0.17955775
   0.86406337  0.83421602  0.48519464
   0.30505990  0.86142215  0.45495358
   0.97864453  0.53101033  0.15318528
   0.83972813  0.30446701  0.48884869
   0.49970413  0.96950028  0.13800166
   0.70650760  0.33533734  0.49283104
   0.28229262  0.02211319  0.79253384
   0.63774515  0.33409731  0.19519032
   0.96299639  0.68987101  0.48329327
   0.35400842  0.95271694  0.45811101
   0.35185240  0.02418778  0.12783656
   0.71064811  0.97578690  0.18535343
   0.34625681  0.66303544  0.74708519
   0.73208884  0.27777149  0.02212425
   0.97900893  0.31600917  0.18769850
   0.31366133  0.70605620  0.18702005
   0.97578488  0.38460363  0.85603132
   0.64702032  0.97101739  0.85125403
   0.03179199  0.62535689  0.14972418
   0.64152226  0.03972512  0.52014594
   0.02846030  0.69320022  0.82165834
   0.30218427  0.62674364  0.57695851
   0.04430028  0.31853206  0.51917120
   0.70505931  0.43799315  0.37015171
   0.61892251  0.44217269  0.00856716
   0.79163026  0.21199131  0.68906258
Direct configuration=    50
   0.05838711  0.25785618  0.31537733
   0.03261681  0.30127055  0.95019010
   0.10168680  0.26203317  0.71724255
   0.68629586  0.05424090  0.31501686
   0.66379689  0.03323993  0.95693593
   0.63832434  0.10029870  0.71852002
   0.02390263  0.39685398  0.65378267
   0.27432344  0.66988464  0.34596375
   0.32123433  0.64093820  0.98282986
   0.28905326  0.59276953  0.79275727
   0.58541421  0.01577968  0.64723761
   0.29430314  0.03494727  0.35561790
   0.22623048  0.07599133  0.59268115
   0.27058447  0.08088708  0.99792158
   0.66666186  0.28819172  0.44109572
   0.73424261  0.20094780  0.56838870
   0.00944857  0.63295933  0.71112543
   0.03420053  0.56591623  0.94914966
   0.65382586  0.26787954  0.02457422
   0.04152657  0.67365721  0.37938328
   0.08433180  0.69597660  0.62421692
   0.36397871  0.00027738  0.68779564
   0.40420870  0.02806683  0.92485563
   0.09133566  0.64389608  0.02679341
   0.70338346  0.96041762  0.62392249
   0.77125484  0.92154004  0.38668073
   0.72753625  0.91545349  0.98301027
   0.35978795  0.69670293  0.52195673
   0.29649247  0.77638497  0.35605414
   0.00450795  0.37328051  0.28563172
   0.97369086  0.44334703  0.05671412
   0.33826867  0.72830988  0.94226788
   0.96133916  0.34542233  0.61772359
   0.92286524  0.31423043  0.38693506
   0.63224698  0.99206207  0.29110315
   0.59128229  0.96706738  0.04876933
   0.91675792  0.36507916  0.98556970
   0.94775460  0.74982559  0.68548522
   0.97242830  0.70607884  0.04784721
   0.90303724  0.74324666  0.28020015
   0.30667211  0.94213654  0.66144893
   0.32952189  0.96372360  0.02073435
   0.35655974  0.89516699  0.25509552
   0.98657758  0.61071080  0.35159091
   0.76017093  0.29612250  0.71026556
   0.68699590  0.36431405  0.01365547
   0.74647262  0.35622515  0.28289703
   0.41137257  0.97573591  0.32966657
   0.58755020  0.42098247  0.25840972
   0.62850059  0.47885503  0.24489298
   0.64410334  0.42315354  0.51373128
   0.83167230  0.17888417  0.20872557
   0.85654234  0.12394266  0.69112198
   0.83601051  0.05038785  0.58388118
   0.10919969  0.21546669  0.23390727
   0.15042036  0.16918025  0.35271880
   0.08458996  0.26153461  0.89150765
   0.12403334  0.21470622  0.03099932
   0.67868037  0.10512746  0.23656547
   0.68815982  0.14259527  0.35896642
   0.65400920  0.08415573  0.89467363
   0.66234254  0.12272935  0.03675877
   0.01467777  0.44819379  0.57525756
   0.02001364  0.48864755  0.69790384
   0.22996720  0.66138609  0.27193232
   0.17946541  0.67597226  0.38384243
   0.28470231  0.62108135  0.95243164
   0.23473314  0.63639985  0.08293986
   0.54398407  0.00580316  0.56579725
   0.49772723  0.01073998  0.68443281
   0.24347429  0.07589705  0.41769653
   0.20436000  0.12357547  0.28029819
   0.21942874  0.12302632  0.07790260
   0.17818118  0.16930452  0.95899830
   0.69528355  0.22945648  0.44244695
   0.67959480  0.19745278  0.29631523
   0.01879695  0.58222454  0.77304788
   0.01086936  0.54333301  0.63105875
   0.66140726  0.21651361  0.09858117
   0.65388294  0.17772787  0.97360545
   0.08364712  0.68073062  0.44725596
   0.13304721  0.66848947  0.31198266
   0.40467811  0.01029979  0.75009753
   0.45258551  0.00146060  0.61285559
   0.13537457  0.64801760  0.11492430
   0.18750917  0.63080030  0.00817362
   0.75532722  0.92147177  0.56271470
   0.79624952  0.87628461  0.70498584
   0.78043681  0.87593823  0.90593152
   0.82267381  0.83185453  0.02914695
   0.32554484  0.75441462  0.51314944
   0.32444826  0.79403030  0.67131020
   0.99180155  0.42561253  0.23024506
   0.99938427  0.46428186  0.37359799
   0.33473403  0.77882944  0.87500629
   0.33902259  0.81900383  0.00232452
   0.92259166  0.33152292  0.56203951
   0.87766088  0.33654343  0.70447925
   0.59132062  0.98270824  0.22534685
   0.54395237  0.99059885  0.36381172
   0.87652717  0.35347322  0.90482216
   0.83067582  0.35749538  0.02616082
   0.89484166  0.78953480  0.76210838
   0.85252087  0.83363342  0.63884614
   0.91967155  0.74423344  0.10574186
   0.87899044  0.78926620  0.96314567
   0.31682419  0.89016518  0.73750745
   0.31406128  0.84951839  0.60969776
   0.33940380  0.91263855  0.08024189
   0.33096331  0.87386445  0.93871945
   0.99567006  0.55928059  0.42960475
   0.99007631  0.51908389  0.30700128
   0.79410403  0.32065780  0.76521685
   0.83653290  0.32001583  0.63983073
   0.74361088  0.34304232  0.09366263
   0.78919731  0.34254157  0.95973375
   0.45273116  0.98602924  0.41109004
   0.49897455  0.98111000  0.29240537
   0.61832807  0.44200164  0.34179299
   0.84555364  0.08744147  0.63583764
   0.79078857  0.21698089  0.12428841
   0.13971847  0.16899415  0.50746873
   0.70214461  0.12839146  0.50981121
   0.03157064  0.47669024  0.85163816
   0.17547837  0.69379772  0.53195959
   0.49713668  0.02228845  0.83874900
   0.18888626  0.16954061  0.80422933
   0.64129443  0.19100895  0.82113552
   0.19071357  0.61365639  0.85977496
   0.81103532  0.83132509  0.18269479
   0.34826114  0.80755390  0.15699531
   0.83026720  0.36981217  0.17957033
   0.86406143  0.83421904  0.48519680
   0.30502805  0.86146365  0.45503188
   0.97864433  0.53101487  0.15318063
   0.83974895  0.30446539  0.48885999
   0.49970425  0.96947773  0.13798812
   0.70652580  0.33532342  0.49281188
   0.28226581  0.02212642  0.79254342
   0.63773627  0.33409409  0.19509162
   0.96301081  0.68987231  0.48329450
   0.35401001  0.95269837  0.45810434
   0.35185971  0.02419884  0.12784271
   0.71063960  0.97578372  0.18538605
   0.34623987  0.66305499  0.74700207
   0.73209328  0.27778879  0.02198572
   0.97901842  0.31601061  0.18766094
   0.31363406  0.70607937  0.18698266
   0.97579656  0.38460399  0.85602435
   0.64701702  0.97101846  0.85127904
   0.03180061  0.62536330  0.14973407
   0.64151947  0.03971699  0.52017607
   0.02846904  0.69320552  0.82165203
   0.30221342  0.62671266  0.57694697
   0.04430837  0.31853486  0.51918229
   0.70504415  0.43800787  0.37016730
   0.61889683  0.44219152  0.00869468
   0.79160040  0.21195455  0.68924960
Direct configuration=    51
   0.05840413  0.25785436  0.31539168
   0.03262819  0.30126675  0.95016869
   0.10170024  0.26201814  0.71723411
   0.68629265  0.05423641  0.31506611
   0.66378377  0.03322403  0.95701241
   0.63832443  0.10028818  0.71851764
   0.02391026  0.39685558  0.65378065
   0.27435336  0.66983976  0.34587568
   0.32120769  0.64096769  0.98277654
   0.28907707  0.59275348  0.79270468
   0.58542040  0.01576099  0.64728304
   0.29429377  0.03492730  0.35559066
   0.22622177  0.07598083  0.59268157
   0.27057331  0.08086565  0.99790806
   0.66667125  0.28820183  0.44098833
   0.73422178  0.20094607  0.56834912
   0.00946838  0.63295603  0.71111618
   0.03420118  0.56592238  0.94915573
   0.65380068  0.26787815  0.02446282
   0.04153947  0.67366294  0.37941605
   0.08435536  0.69597962  0.62425046
   0.36394226  0.00030928  0.68777751
   0.40418928  0.02808684  0.92483895
   0.09131777  0.64391378  0.02680022
   0.70337507  0.96040754  0.62394210
   0.77125134  0.92153829  0.38671260
   0.72753773  0.91544595  0.98305060
   0.35974765  0.69672112  0.52186180
   0.29644072  0.77642959  0.35606134
   0.00451551  0.37328090  0.28561815
   0.97369426  0.44334921  0.05670769
   0.33829382  0.72830278  0.94228432
   0.96136018  0.34542262  0.61772180
   0.92287814  0.31422821  0.38690298
   0.63223685  0.99206599  0.29110497
   0.59127056  0.96706925  0.04879661
   0.91677400  0.36508577  0.98557260
   0.94775623  0.74982750  0.68549022
   0.97243626  0.70608777  0.04785278
   0.90304265  0.74324910  0.28020702
   0.30668534  0.94215284  0.66150648
   0.32956201  0.96370802  0.02073613
   0.35652977  0.89517087  0.25517538
   0.98658727  0.61071381  0.35159239
   0.76021513  0.29608717  0.71025288
   0.68700277  0.36433612  0.01364853
   0.74648426  0.35622318  0.28287314
   0.41135055  0.97574942  0.32969760
   0.58753390  0.42098285  0.25855482
   0.62849094  0.47885673  0.24508480
   0.64411545  0.42311421  0.51384515
   0.83160820  0.17890763  0.20875360
   0.85650697  0.12394613  0.69109693
   0.83599992  0.05038551  0.58374561
   0.10920977  0.21546619  0.23387336
   0.15042642  0.16917748  0.35268211
   0.08460269  0.26152724  0.89150295
   0.12404482  0.21470371  0.03097978
   0.67867397  0.10512077  0.23659601
   0.68814801  0.14262081  0.35893254
   0.65399431  0.08413836  0.89468804
   0.66232779  0.12272087  0.03679185
   0.01467788  0.44819787  0.57525084
   0.02001498  0.48864925  0.69790507
   0.22998333  0.66136460  0.27187607
   0.17948643  0.67596274  0.38382065
   0.28468886  0.62108172  0.95239558
   0.23472976  0.63639356  0.08288764
   0.54397569  0.00579321  0.56583602
   0.49771564  0.01074828  0.68443605
   0.24347413  0.07588261  0.41769343
   0.20436267  0.12356378  0.28029735
   0.21942321  0.12301798  0.07789367
   0.17819048  0.16930113  0.95896026
   0.69526452  0.22947165  0.44234401
   0.67958143  0.19746515  0.29623183
   0.01880554  0.58222593  0.77304592
   0.01087661  0.54333484  0.63106371
   0.66139427  0.21650299  0.09853280
   0.65387651  0.17771771  0.97359337
   0.08365853  0.68074124  0.44729273
   0.13305068  0.66850054  0.31199180
   0.40466029  0.01032385  0.75005264
   0.45257369  0.00147695  0.61286903
   0.13537626  0.64802366  0.11490253
   0.18750692  0.63079641  0.00812895
   0.75532134  0.92146907  0.56273418
   0.79624784  0.87628147  0.70501840
   0.78043670  0.87593509  0.90596336
   0.82268036  0.83184942  0.02915864
   0.32551267  0.75443815  0.51313217
   0.32443234  0.79403984  0.67136397
   0.99180209  0.42561592  0.23024468
   0.99937976  0.46428908  0.37360724
   0.33475027  0.77882667  0.87501078
   0.33905957  0.81898514  0.00230443
   0.92261389  0.33152365  0.56201272
   0.87767874  0.33653973  0.70446097
   0.59130915  0.98271177  0.22538121
   0.54394385  0.99059840  0.36382198
   0.87655220  0.35346103  0.90485593
   0.83070397  0.35748584  0.02616385
   0.89484378  0.78953907  0.76211375
   0.85252182  0.83363546  0.63885753
   0.91967860  0.74423671  0.10574261
   0.87899655  0.78926597  0.96316138
   0.31683488  0.89017151  0.73757455
   0.31404788  0.84953419  0.60971908
   0.33940810  0.91264295  0.08029736
   0.33098384  0.87385794  0.93879098
   0.99567599  0.55928296  0.42960043
   0.99007506  0.51908887  0.30700393
   0.79413084  0.32063805  0.76517163
   0.83655713  0.32000991  0.63979913
   0.74359567  0.34307846  0.09361110
   0.78922649  0.34254055  0.95967676
   0.45272571  0.98602498  0.41106574
   0.49897147  0.98109817  0.29239556
   0.61832100  0.44198686  0.34193397
   0.84553846  0.08746530  0.63578970
   0.79077714  0.21696864  0.12439374
   0.13972890  0.16898680  0.50744232
   0.70213745  0.12840260  0.50979478
   0.03156982  0.47669499  0.85164863
   0.17552107  0.69379227  0.53191224
   0.49711393  0.02230153  0.83870456
   0.18889419  0.16953837  0.80419311
   0.64127123  0.19098536  0.82111455
   0.19067916  0.61366783  0.85973644
   0.81104120  0.83132179  0.18270770
   0.34830410  0.80751811  0.15700747
   0.83030041  0.36980908  0.17957861
   0.86405817  0.83422304  0.48520214
   0.30499044  0.86150923  0.45513015
   0.97864430  0.53102040  0.15317784
   0.83977290  0.30446244  0.48887770
   0.49970660  0.96945242  0.13799766
   0.70654632  0.33530977  0.49279850
   0.28223584  0.02214158  0.79256899
   0.63772960  0.33408396  0.19499576
   0.96302523  0.68987502  0.48329797
   0.35400726  0.95268033  0.45808989
   0.35187587  0.02420593  0.12784086
   0.71062849  0.97578085  0.18541934
   0.34622103  0.66307982  0.74691799
   0.73209724  0.27780927  0.02185656
   0.97903107  0.31601444  0.18761817
   0.31360666  0.70610472  0.18692588
   0.97581008  0.38460697  0.85600332
   0.64700773  0.97101848  0.85131330
   0.03181172  0.62537046  0.14974358
   0.64151448  0.03970409  0.52021828
   0.02847904  0.69321228  0.82164666
   0.30225199  0.62667800  0.57691185
   0.04432210  0.31853656  0.51919916
   0.70502697  0.43801962  0.37019069
   0.61886686  0.44221682  0.00884835
   0.79156485  0.21191634  0.68944904
Direct configuration=    52
   0.05841569  0.25785313  0.31540143
   0.03263592  0.30126417  0.95015415
   0.10170936  0.26200794  0.71722838
   0.68629046  0.05423337  0.31509955
   0.66377486  0.03321324  0.95706433
   0.63832448  0.10028104  0.71851603
   0.02391544  0.39685667  0.65377928
   0.27437368  0.66980929  0.34581589
   0.32118960  0.64098771  0.98274035
   0.28909324  0.59274259  0.79266898
   0.58542461  0.01574829  0.64731388
   0.29428741  0.03491374  0.35557217
   0.22621586  0.07597370  0.59268185
   0.27056574  0.08085111  0.99789888
   0.66667762  0.28820869  0.44091544
   0.73420764  0.20094490  0.56832225
   0.00948184  0.63295378  0.71110991
   0.03420162  0.56592656  0.94915986
   0.65378360  0.26787721  0.02438719
   0.04154823  0.67366682  0.37943830
   0.08437135  0.69598167  0.62427322
   0.36391753  0.00033094  0.68776520
   0.40417609  0.02810042  0.92482762
   0.09130563  0.64392580  0.02680485
   0.70336938  0.96040070  0.62395542
   0.77124896  0.92153711  0.38673423
   0.72753874  0.91544082  0.98307797
   0.35972030  0.69673347  0.52179736
   0.29640560  0.77645987  0.35606622
   0.00452065  0.37328116  0.28560893
   0.97369657  0.44335070  0.05670332
   0.33831090  0.72829796  0.94229548
   0.96137445  0.34542283  0.61772059
   0.92288689  0.31422670  0.38688121
   0.63222997  0.99206866  0.29110621
   0.59126260  0.96707052  0.04881513
   0.91678492  0.36509026  0.98557457
   0.94775733  0.74982879  0.68549362
   0.97244166  0.70609382  0.04785656
   0.90304632  0.74325076  0.28021168
   0.30669431  0.94216391  0.66154554
   0.32958924  0.96369744  0.02073733
   0.35650942  0.89517350  0.25522959
   0.98659384  0.61071586  0.35159340
   0.76024513  0.29606319  0.71024427
   0.68700744  0.36435110  0.01364382
   0.74649217  0.35622185  0.28285693
   0.41133560  0.97575859  0.32971867
   0.58752284  0.42098311  0.25865333
   0.62848439  0.47885788  0.24521501
   0.64412366  0.42308751  0.51392245
   0.83156469  0.17892355  0.20877262
   0.85648296  0.12394848  0.69107993
   0.83599272  0.05038392  0.58365359
   0.10921662  0.21546585  0.23385034
   0.15043053  0.16917561  0.35265719
   0.08461133  0.26152224  0.89149976
   0.12405262  0.21470200  0.03096651
   0.67866963  0.10511622  0.23661675
   0.68814000  0.14263815  0.35890953
   0.65398421  0.08412657  0.89469782
   0.66231778  0.12271511  0.03681430
   0.01467796  0.44820063  0.57524628
   0.02001589  0.48865040  0.69790591
   0.22999428  0.66135001  0.27183788
   0.17950070  0.67595627  0.38380587
   0.28467973  0.62108197  0.95237111
   0.23472747  0.63638929  0.08285219
   0.54397000  0.00578646  0.56586233
   0.49770778  0.01075392  0.68443825
   0.24347401  0.07587281  0.41769133
   0.20436449  0.12355584  0.28029678
   0.21941946  0.12301232  0.07788762
   0.17819680  0.16929882  0.95893443
   0.69525160  0.22948195  0.44227414
   0.67957236  0.19747356  0.29617522
   0.01881138  0.58222688  0.77304459
   0.01088153  0.54333609  0.63106707
   0.66138545  0.21649577  0.09849997
   0.65387215  0.17771081  0.97358517
   0.08366627  0.68074846  0.44731769
   0.13305304  0.66850805  0.31199801
   0.40464818  0.01034018  0.75002217
   0.45256567  0.00148805  0.61287816
   0.13537740  0.64802777  0.11488775
   0.18750540  0.63079377  0.00809863
   0.75531734  0.92146723  0.56274741
   0.79624671  0.87627933  0.70504050
   0.78043662  0.87593295  0.90598498
   0.82268481  0.83184595  0.02916658
   0.32549083  0.75445413  0.51312045
   0.32442153  0.79404632  0.67140047
   0.99180246  0.42561822  0.23024442
   0.99937671  0.46429398  0.37361351
   0.33476130  0.77882478  0.87501384
   0.33908467  0.81897245  0.00229080
   0.92262898  0.33152415  0.56199453
   0.87769087  0.33653723  0.70444857
   0.59130136  0.98271417  0.22540453
   0.54393806  0.99059810  0.36382895
   0.87656920  0.35345275  0.90487886
   0.83072308  0.35747936  0.02616590
   0.89484523  0.78954197  0.76211740
   0.85252247  0.83363684  0.63886526
   0.91968340  0.74423892  0.10574312
   0.87900070  0.78926582  0.96317205
   0.31684214  0.89017581  0.73762010
   0.31403879  0.84954491  0.60973356
   0.33941102  0.91264594  0.08033502
   0.33099778  0.87385351  0.93883953
   0.99568001  0.55928457  0.42959750
   0.99007421  0.51909225  0.30700572
   0.79414903  0.32062464  0.76514093
   0.83657358  0.32000588  0.63977767
   0.74358534  0.34310299  0.09357613
   0.78924629  0.34253986  0.95963807
   0.45272202  0.98602209  0.41104925
   0.49896938  0.98109015  0.29238890
   0.61831619  0.44197682  0.34202967
   0.84552815  0.08748147  0.63575715
   0.79076939  0.21696032  0.12446525
   0.13973598  0.16898181  0.50742440
   0.70213259  0.12841017  0.50978364
   0.03156925  0.47669822  0.85165575
   0.17555006  0.69378857  0.53188009
   0.49709848  0.02231040  0.83867438
   0.18889957  0.16953685  0.80416852
   0.64125549  0.19096935  0.82110031
   0.19065580  0.61367560  0.85971029
   0.81104518  0.83131955  0.18271645
   0.34833327  0.80749381  0.15701573
   0.83032294  0.36980698  0.17958422
   0.86405596  0.83422576  0.48520576
   0.30496491  0.86154018  0.45519686
   0.97864428  0.53102416  0.15317595
   0.83978915  0.30446043  0.48888973
   0.49970819  0.96943524  0.13800414
   0.70656025  0.33530050  0.49278941
   0.28221550  0.02215187  0.79258635
   0.63772507  0.33407708  0.19493069
   0.96303502  0.68987686  0.48330032
   0.35400539  0.95266809  0.45808007
   0.35188684  0.02421074  0.12783960
   0.71062094  0.97577889  0.18544194
   0.34620825  0.66309667  0.74686091
   0.73209992  0.27782317  0.02176888
   0.97903966  0.31601704  0.18758913
   0.31358806  0.70612193  0.18688733
   0.97581925  0.38460900  0.85598903
   0.64700142  0.97101849  0.85133656
   0.03181926  0.62537532  0.14975003
   0.64151110  0.03969533  0.52024694
   0.02848584  0.69321687  0.82164302
   0.30227817  0.62665448  0.57688801
   0.04433142  0.31853771  0.51921061
   0.70501530  0.43802760  0.37020657
   0.61884651  0.44223399  0.00895267
   0.79154071  0.21189040  0.68958441
Direct configuration=    53
   0.05843212  0.25785052  0.31539395
   0.03265020  0.30125829  0.95013871
   0.10171944  0.26199853  0.71722191
   0.68628683  0.05423587  0.31513940
   0.66376394  0.03320187  0.95712882
   0.63832224  0.10027351  0.71850486
   0.02392279  0.39685819  0.65377893
   0.27439812  0.66977594  0.34574644
   0.32117424  0.64100291  0.98270385
   0.28911093  0.59273145  0.79262544
   0.58543306  0.01573515  0.64735017
   0.29427889  0.03489763  0.35555878
   0.22621071  0.07596491  0.59267293
   0.27055600  0.08083098  0.99790917
   0.66668811  0.28821269  0.44082425
   0.73419915  0.20094000  0.56832425
   0.00949967  0.63295177  0.71110264
   0.03420228  0.56593148  0.94917015
   0.65375740  0.26787297  0.02430096
   0.04155552  0.67367187  0.37945176
   0.08439129  0.69598755  0.62431817
   0.36388959  0.00035863  0.68775462
   0.40415369  0.02811834  0.92485265
   0.09129412  0.64394304  0.02680982
   0.70336640  0.96038840  0.62396956
   0.77124769  0.92153427  0.38675875
   0.72753805  0.91543526  0.98311023
   0.35968290  0.69674854  0.52171731
   0.29636850  0.77649250  0.35609604
   0.00452821  0.37328321  0.28559449
   0.97370045  0.44335319  0.05670239
   0.33832612  0.72829227  0.94231152
   0.96139481  0.34542845  0.61774972
   0.92289595  0.31422291  0.38683508
   0.63222424  0.99207176  0.29111857
   0.59125729  0.96706913  0.04884098
   0.91679286  0.36509329  0.98557191
   0.94775850  0.74983178  0.68550207
   0.97245140  0.70609914  0.04785872
   0.90305144  0.74325346  0.28021464
   0.30671166  0.94217083  0.66159772
   0.32961904  0.96368518  0.02072629
   0.35648605  0.89517870  0.25530928
   0.98660290  0.61071733  0.35159186
   0.76028011  0.29603565  0.71020802
   0.68701358  0.36437127  0.01362461
   0.74650153  0.35621843  0.28283547
   0.41131383  0.97577676  0.32975169
   0.58752150  0.42097911  0.25877778
   0.62847529  0.47885476  0.24539354
   0.64413107  0.42305718  0.51404179
   0.83154203  0.17891502  0.20886610
   0.85645671  0.12395618  0.69107378
   0.83598642  0.05039241  0.58354417
   0.10922832  0.21546491  0.23382138
   0.15043107  0.16917696  0.35263035
   0.08462161  0.26151666  0.89148640
   0.12406158  0.21470113  0.03093943
   0.67866469  0.10511580  0.23665169
   0.68812804  0.14264916  0.35888000
   0.65396981  0.08411035  0.89470184
   0.66230495  0.12271024  0.03684005
   0.01467983  0.44820414  0.57524297
   0.02001893  0.48865295  0.69791097
   0.23000644  0.66133056  0.27178278
   0.17952241  0.67594541  0.38377095
   0.28467502  0.62108406  0.95234990
   0.23472416  0.63638185  0.08282345
   0.54396720  0.00577478  0.56588078
   0.49769608  0.01076082  0.68444819
   0.24347346  0.07585794  0.41770106
   0.20436469  0.12354775  0.28029650
   0.21941534  0.12300295  0.07787199
   0.17820374  0.16929393  0.95891293
   0.69522378  0.22950521  0.44216103
   0.67956866  0.19747802  0.29614655
   0.01881889  0.58222862  0.77304826
   0.01088663  0.54333832  0.63106870
   0.66136857  0.21650152  0.09844804
   0.65386647  0.17769719  0.97356150
   0.08367661  0.68075485  0.44734013
   0.13305902  0.66851351  0.31199380
   0.40463770  0.01035804  0.74996555
   0.45255355  0.00149846  0.61287831
   0.13537348  0.64803332  0.11486605
   0.18749584  0.63079287  0.00806569
   0.75530963  0.92146701  0.56276859
   0.79624612  0.87627561  0.70506387
   0.78043520  0.87593080  0.90601563
   0.82269065  0.83184134  0.02918694
   0.32546055  0.75447679  0.51307786
   0.32440665  0.79406167  0.67142195
   0.99180340  0.42561998  0.23023699
   0.99937511  0.46429760  0.37361858
   0.33476810  0.77882522  0.87499970
   0.33911703  0.81895515  0.00227816
   0.92263938  0.33152368  0.56198356
   0.87771386  0.33653237  0.70444100
   0.59128911  0.98271606  0.22541596
   0.54392783  0.99059968  0.36384171
   0.87659409  0.35344355  0.90487840
   0.83074293  0.35747306  0.02616954
   0.89484905  0.78954400  0.76212885
   0.85252408  0.83363749  0.63887794
   0.91968722  0.74424307  0.10574723
   0.87900759  0.78926461  0.96318145
   0.31684844  0.89018823  0.73765358
   0.31402495  0.84955972  0.60978499
   0.33941498  0.91264821  0.08036118
   0.33101655  0.87384277  0.93887787
   0.99568354  0.55928995  0.42960041
   0.99007286  0.51909716  0.30700651
   0.79417778  0.32061415  0.76509681
   0.83659596  0.31999701  0.63975661
   0.74357224  0.34313714  0.09355058
   0.78926167  0.34254143  0.95960679
   0.45271880  0.98601989  0.41102271
   0.49896283  0.98107840  0.29236066
   0.61830331  0.44196994  0.34209869
   0.84551008  0.08748065  0.63568661
   0.79072217  0.21697938  0.12446559
   0.13974499  0.16897462  0.50740125
   0.70212275  0.12842128  0.50973737
   0.03156806  0.47670231  0.85166092
   0.17558498  0.69378448  0.53185370
   0.49707939  0.02232543  0.83865182
   0.18890390  0.16953817  0.80414134
   0.64123588  0.19095159  0.82109214
   0.19062694  0.61368422  0.85966763
   0.81105150  0.83131579  0.18272721
   0.34837467  0.80746125  0.15703992
   0.83034838  0.36980298  0.17957883
   0.86405189  0.83422986  0.48521466
   0.30493045  0.86157730  0.45526892
   0.97864454  0.53102906  0.15317845
   0.83981084  0.30445456  0.48888713
   0.49971292  0.96941407  0.13803470
   0.70657945  0.33529023  0.49278844
   0.28219328  0.02216309  0.79262443
   0.63772176  0.33406310  0.19486157
   0.96304444  0.68988049  0.48330518
   0.35399776  0.95265867  0.45806593
   0.35190603  0.02421062  0.12782807
   0.71061129  0.97577627  0.18546851
   0.34619221  0.66311891  0.74681313
   0.73210882  0.27783263  0.02171421
   0.97905300  0.31602165  0.18755727
   0.31356892  0.70614283  0.18682930
   0.97583111  0.38461405  0.85596084
   0.64698865  0.97101500  0.85137344
   0.03182877  0.62538114  0.14975799
   0.64150518  0.03968077  0.52028736
   0.02849337  0.69322358  0.82164039
   0.30231583  0.62662668  0.57682566
   0.04434877  0.31853693  0.51922643
   0.70500185  0.43803120  0.37023502
   0.61882041  0.44225945  0.00909418
   0.79150735  0.21186378  0.68973923
Direct configuration=    54
   0.05844371  0.25784868  0.31538868
   0.03266026  0.30125415  0.95012782
   0.10172655  0.26199190  0.71721735
   0.68628426  0.05423764  0.31516750
   0.66375624  0.03319385  0.95717429
   0.63832066  0.10026820  0.71849698
   0.02392796  0.39685926  0.65377869
   0.27441535  0.66975242  0.34569749
   0.32116341  0.64101362  0.98267812
   0.28912340  0.59272360  0.79259475
   0.58543902  0.01572588  0.64737575
   0.29427289  0.03488627  0.35554935
   0.22620708  0.07595871  0.59266663
   0.27054913  0.08081678  0.99791642
   0.66669550  0.28821552  0.44075997
   0.73419316  0.20093654  0.56832566
   0.00951224  0.63295035  0.71109751
   0.03420274  0.56593495  0.94917740
   0.65373894  0.26786999  0.02424017
   0.04156066  0.67367543  0.37946125
   0.08440534  0.69599169  0.62434986
   0.36386989  0.00037816  0.68774717
   0.40413790  0.02813097  0.92487030
   0.09128601  0.64395520  0.02681333
   0.70336429  0.96037973  0.62397953
   0.77124680  0.92153227  0.38677603
   0.72753757  0.91543133  0.98313296
   0.35965653  0.69675917  0.52166088
   0.29634235  0.77651550  0.35611706
   0.00453355  0.37328465  0.28558431
   0.97370318  0.44335495  0.05670173
   0.33833685  0.72828826  0.94232283
   0.96140916  0.34543242  0.61777026
   0.92290233  0.31422023  0.38680256
   0.63222019  0.99207395  0.29112729
   0.59125355  0.96706815  0.04885921
   0.91679845  0.36509542  0.98557004
   0.94775932  0.74983388  0.68550802
   0.97245826  0.70610289  0.04786025
   0.90305506  0.74325537  0.28021672
   0.30672390  0.94217571  0.66163451
   0.32964005  0.96367653  0.02071850
   0.35646957  0.89518237  0.25536547
   0.98660928  0.61071837  0.35159077
   0.76030476  0.29601623  0.71018246
   0.68701791  0.36438548  0.01361106
   0.74650813  0.35621601  0.28282035
   0.41129848  0.97578957  0.32977496
   0.58752056  0.42097629  0.25886552
   0.62846887  0.47885255  0.24551941
   0.64413630  0.42303580  0.51412592
   0.83152606  0.17890900  0.20893201
   0.85643821  0.12396162  0.69106945
   0.83598197  0.05039840  0.58346704
   0.10923656  0.21546425  0.23380097
   0.15043145  0.16917791  0.35261143
   0.08462886  0.26151273  0.89147698
   0.12406789  0.21470051  0.03092033
   0.67866121  0.10511551  0.23667633
   0.68811961  0.14265692  0.35885918
   0.65395967  0.08409892  0.89470467
   0.66229590  0.12270681  0.03685819
   0.01468114  0.44820661  0.57524064
   0.02002108  0.48865475  0.69791453
   0.23001500  0.66131684  0.27174394
   0.17953772  0.67593775  0.38374634
   0.28467170  0.62108554  0.95233495
   0.23472183  0.63637660  0.08280319
   0.54396522  0.00576654  0.56589379
   0.49768784  0.01076569  0.68445521
   0.24347307  0.07584745  0.41770791
   0.20436484  0.12354205  0.28029631
   0.21941243  0.12299635  0.07786097
   0.17820863  0.16929048  0.95889776
   0.69520416  0.22952161  0.44208130
   0.67956606  0.19748117  0.29612633
   0.01882418  0.58222985  0.77305084
   0.01089022  0.54333989  0.63106985
   0.66135667  0.21650558  0.09841143
   0.65386247  0.17768758  0.97354482
   0.08368391  0.68075936  0.44735594
   0.13306324  0.66851736  0.31199083
   0.40463031  0.01037063  0.74992563
   0.45254501  0.00150579  0.61287842
   0.13537072  0.64803723  0.11485075
   0.18748911  0.63079224  0.00804247
   0.75530420  0.92146685  0.56278352
   0.79624571  0.87627298  0.70508034
   0.78043420  0.87592928  0.90603724
   0.82269476  0.83183809  0.02920130
   0.32543921  0.75449277  0.51304783
   0.32439616  0.79407249  0.67143709
   0.99180407  0.42562122  0.23023175
   0.99937398  0.46430015  0.37362215
   0.33477289  0.77882554  0.87498973
   0.33913985  0.81894296  0.00226925
   0.92264671  0.33152335  0.56197583
   0.87773006  0.33652894  0.70443566
   0.59128048  0.98271740  0.22542402
   0.54392063  0.99060079  0.36385071
   0.87661164  0.35343706  0.90487808
   0.83075692  0.35746862  0.02617211
   0.89485174  0.78954542  0.76213693
   0.85252522  0.83363795  0.63888687
   0.91968991  0.74424599  0.10575013
   0.87901244  0.78926376  0.96318807
   0.31685288  0.89019699  0.73767719
   0.31401519  0.84957016  0.60982126
   0.33941776  0.91264982  0.08037962
   0.33102979  0.87383521  0.93890490
   0.99568603  0.55929374  0.42960246
   0.99007191  0.51910061  0.30700707
   0.79419805  0.32060675  0.76506570
   0.83661174  0.31999076  0.63974177
   0.74356300  0.34316122  0.09353257
   0.78927251  0.34254254  0.95958474
   0.45271653  0.98601834  0.41100400
   0.49895822  0.98107011  0.29234074
   0.61829423  0.44196509  0.34214735
   0.84549734  0.08748007  0.63563687
   0.79068888  0.21699281  0.12446583
   0.13975133  0.16896955  0.50738493
   0.70211582  0.12842911  0.50970475
   0.03156722  0.47670520  0.85166457
   0.17560960  0.69378160  0.53183510
   0.49706592  0.02233603  0.83863591
   0.18890696  0.16953911  0.80412218
   0.64122206  0.19093908  0.82108638
   0.19060659  0.61369031  0.85963756
   0.81105595  0.83131314  0.18273479
   0.34840386  0.80743829  0.15705698
   0.83036631  0.36980016  0.17957502
   0.86404903  0.83423275  0.48522094
   0.30490615  0.86160347  0.45531972
   0.97864472  0.53103251  0.15318021
   0.83982613  0.30445042  0.48888529
   0.49971626  0.96939914  0.13805625
   0.70659299  0.33528299  0.49278775
   0.28217761  0.02217100  0.79265127
   0.63771943  0.33405324  0.19481284
   0.96305108  0.68988305  0.48330860
   0.35399238  0.95265203  0.45805596
   0.35191956  0.02421054  0.12781994
   0.71060448  0.97577442  0.18548725
   0.34618090  0.66313458  0.74677945
   0.73211510  0.27783929  0.02167566
   0.97906241  0.31602490  0.18753480
   0.31355542  0.70615756  0.18678839
   0.97583947  0.38461761  0.85594096
   0.64697964  0.97101253  0.85139945
   0.03183548  0.62538524  0.14976361
   0.64150100  0.03967051  0.52031585
   0.02849869  0.69322831  0.82163853
   0.30234238  0.62660709  0.57678171
   0.04436100  0.31853638  0.51923759
   0.70499236  0.43803374  0.37025507
   0.61880200  0.44227740  0.00919394
   0.79148382  0.21184501  0.68984837
Direct configuration=    55
   0.05846688  0.25784499  0.31537813
   0.03268040  0.30124586  0.95010606
   0.10174077  0.26197863  0.71720824
   0.68627913  0.05424117  0.31522369
   0.66374083  0.03317783  0.95726522
   0.63831749  0.10025758  0.71848123
   0.02393831  0.39686140  0.65377820
   0.27444982  0.66970539  0.34559957
   0.32114174  0.64103505  0.98262666
   0.28914835  0.59270789  0.79253336
   0.58545094  0.01570735  0.64742692
   0.29426088  0.03486355  0.35553048
   0.22619982  0.07594632  0.59265405
   0.27053539  0.08078840  0.99793093
   0.66671028  0.28822117  0.44063140
   0.73418119  0.20092963  0.56832849
   0.00953739  0.63294751  0.71108725
   0.03420367  0.56594190  0.94919191
   0.65370201  0.26786401  0.02411859
   0.04157094  0.67368255  0.37948022
   0.08443345  0.69599998  0.62441324
   0.36383049  0.00041722  0.68773226
   0.40410632  0.02815624  0.92490559
   0.09126979  0.64397952  0.02682034
   0.70336009  0.96036240  0.62399947
   0.77124500  0.92152828  0.38681060
   0.72753661  0.91542348  0.98317844
   0.35960379  0.69678043  0.52154802
   0.29629004  0.77656151  0.35615911
   0.00454421  0.37328754  0.28556395
   0.97370864  0.44335847  0.05670042
   0.33835831  0.72828023  0.94234545
   0.96143787  0.34544035  0.61781134
   0.92291510  0.31421489  0.38673752
   0.63221211  0.99207832  0.29114473
   0.59124606  0.96706619  0.04889566
   0.91680965  0.36509970  0.98556629
   0.94776096  0.74983809  0.68551992
   0.97247199  0.70611038  0.04786330
   0.90306228  0.74325919  0.28022090
   0.30674836  0.94218547  0.66170809
   0.32968207  0.96365923  0.02070292
   0.35643662  0.89518972  0.25547784
   0.98662205  0.61072045  0.35158860
   0.76035408  0.29597740  0.71013133
   0.68702657  0.36441392  0.01358398
   0.74652133  0.35621119  0.28279010
   0.41126778  0.97581518  0.32982152
   0.58751867  0.42097066  0.25904099
   0.62845605  0.47884815  0.24577115
   0.64414674  0.42299304  0.51429419
   0.83149411  0.17889697  0.20906382
   0.85640119  0.12397248  0.69106079
   0.83597308  0.05041038  0.58331277
   0.10925306  0.21546293  0.23376014
   0.15043221  0.16917981  0.35257358
   0.08464336  0.26150486  0.89145814
   0.12408052  0.21469929  0.03088213
   0.67865425  0.10511492  0.23672561
   0.68810275  0.14267244  0.35881753
   0.65393937  0.08407605  0.89471033
   0.66227780  0.12269993  0.03689449
   0.01468377  0.44821155  0.57523596
   0.02002537  0.48865834  0.69792166
   0.23003214  0.66128941  0.27166624
   0.17956833  0.67592242  0.38369711
   0.28466506  0.62108849  0.95230504
   0.23471717  0.63636611  0.08276266
   0.54396128  0.00575007  0.56591980
   0.49767135  0.01077543  0.68446923
   0.24347229  0.07582647  0.41772163
   0.20436513  0.12353066  0.28029592
   0.21940661  0.12298314  0.07783894
   0.17821841  0.16928359  0.95886743
   0.69516493  0.22955440  0.44192183
   0.67956085  0.19748746  0.29608590
   0.01883478  0.58223230  0.77305601
   0.01089742  0.54334304  0.63107215
   0.66133286  0.21651369  0.09833820
   0.65385446  0.17766837  0.97351146
   0.08369849  0.68076838  0.44738757
   0.13307167  0.66852506  0.31198489
   0.40461552  0.01039581  0.74984579
   0.45252793  0.00152047  0.61287863
   0.13536519  0.64804506  0.11482016
   0.18747563  0.63079098  0.00799602
   0.75529334  0.92146653  0.56281337
   0.79624488  0.87626772  0.70511328
   0.78043219  0.87592623  0.90608045
   0.82270300  0.83183159  0.02923001
   0.32539652  0.75452473  0.51298778
   0.32437519  0.79409414  0.67146737
   0.99180540  0.42562370  0.23022127
   0.99937172  0.46430526  0.37362930
   0.33478248  0.77882616  0.87496979
   0.33918548  0.81891857  0.00225143
   0.92266137  0.33152268  0.56196036
   0.87776246  0.33652209  0.70442500
   0.59126321  0.98272007  0.22544013
   0.54390621  0.99060301  0.36386870
   0.87664673  0.35342408  0.90487744
   0.83078490  0.35745974  0.02617724
   0.89485713  0.78954828  0.76215308
   0.85252749  0.83363886  0.63890474
   0.91969530  0.74425184  0.10575593
   0.87902216  0.78926207  0.96320132
   0.31686177  0.89021451  0.73772441
   0.31399568  0.84959103  0.60989378
   0.33942334  0.91265303  0.08041651
   0.33105626  0.87382007  0.93895896
   0.99569101  0.55930133  0.42960656
   0.99007001  0.51910752  0.30700818
   0.79423860  0.32059195  0.76500349
   0.83664330  0.31997826  0.63971208
   0.74354452  0.34320937  0.09349655
   0.78929419  0.34254476  0.95954063
   0.45271199  0.98601524  0.41096657
   0.49894898  0.98105353  0.29230091
   0.61827607  0.44195539  0.34224466
   0.84547187  0.08747892  0.63553740
   0.79062230  0.21701969  0.12446631
   0.13976402  0.16895942  0.50735229
   0.70210195  0.12844478  0.50963951
   0.03156555  0.47671098  0.85167186
   0.17565883  0.69377584  0.53179789
   0.49703899  0.02235723  0.83860409
   0.18891307  0.16954097  0.80408386
   0.64119442  0.19091404  0.82107487
   0.19056590  0.61370247  0.85957741
   0.81106486  0.83130783  0.18274996
   0.34846223  0.80739238  0.15709110
   0.83040217  0.36979452  0.17956741
   0.86404330  0.83423853  0.48523350
   0.30485755  0.86165582  0.45542132
   0.97864509  0.53103942  0.15318373
   0.83985671  0.30444214  0.48888162
   0.49972293  0.96936928  0.13809935
   0.70662006  0.33526852  0.49278637
   0.28214627  0.02218681  0.79270495
   0.63771476  0.33403353  0.19471538
   0.96306437  0.68988818  0.48331545
   0.35398162  0.95263876  0.45803602
   0.35194662  0.02421037  0.12780369
   0.71059087  0.97577072  0.18552471
   0.34615828  0.66316594  0.74671208
   0.73212764  0.27785262  0.02159856
   0.97908122  0.31603141  0.18748988
   0.31352843  0.70618703  0.18670657
   0.97585619  0.38462472  0.85590121
   0.64696163  0.97100760  0.85145145
   0.03184890  0.62539344  0.14977483
   0.64149266  0.03964999  0.52037284
   0.02850932  0.69323778  0.82163481
   0.30239548  0.62656790  0.57669381
   0.04438546  0.31853529  0.51925989
   0.70497340  0.43803882  0.37029519
   0.61876519  0.44231330  0.00939346
   0.79143678  0.21180747  0.69006665
Direct configuration=    56
   0.05844976  0.25784771  0.31538592
   0.03266552  0.30125199  0.95012214
   0.10173027  0.26198843  0.71721497
   0.68628292  0.05423856  0.31518218
   0.66375221  0.03318967  0.95719804
   0.63831983  0.10026542  0.71849287
   0.02393067  0.39685982  0.65377856
   0.27442436  0.66974014  0.34567191
   0.32115775  0.64101922  0.98266468
   0.28912992  0.59271950  0.79257871
   0.58544213  0.01572104  0.64738912
   0.29426975  0.03488034  0.35554442
   0.22620518  0.07595547  0.59266335
   0.27054554  0.08080937  0.99792021
   0.66669936  0.28821699  0.44072639
   0.73419003  0.20093474  0.56832640
   0.00951881  0.63294961  0.71109483
   0.03420299  0.56593677  0.94918119
   0.65372929  0.26786843  0.02420841
   0.04156335  0.67367729  0.37946620
   0.08441268  0.69599386  0.62436641
   0.36385960  0.00038836  0.68774327
   0.40412965  0.02813757  0.92487951
   0.09128177  0.64396155  0.02681516
   0.70336319  0.96037521  0.62398474
   0.77124633  0.92153123  0.38678506
   0.72753732  0.91542928  0.98314484
   0.35964275  0.69676473  0.52163140
   0.29632868  0.77652752  0.35612805
   0.00453633  0.37328541  0.28557900
   0.97370461  0.44335587  0.05670139
   0.33834245  0.72828616  0.94232874
   0.96141666  0.34543449  0.61778099
   0.92290567  0.31421884  0.38678557
   0.63221808  0.99207509  0.29113185
   0.59125159  0.96706764  0.04886873
   0.91680138  0.36509654  0.98556906
   0.94775975  0.74983498  0.68551113
   0.97246185  0.70610485  0.04786105
   0.90305694  0.74325637  0.28021781
   0.30673029  0.94217826  0.66165373
   0.32965102  0.96367201  0.02071443
   0.35646096  0.89518429  0.25539482
   0.98661262  0.61071891  0.35159020
   0.76031765  0.29600609  0.71016910
   0.68702017  0.36439291  0.01360399
   0.74651158  0.35621475  0.28281245
   0.41129046  0.97579626  0.32978712
   0.58752007  0.42097482  0.25891135
   0.62846552  0.47885140  0.24558516
   0.64413903  0.42302463  0.51416987
   0.83151771  0.17890586  0.20896644
   0.85642854  0.12396445  0.69106719
   0.83597965  0.05040153  0.58342674
   0.10924087  0.21546391  0.23379030
   0.15043165  0.16917840  0.35260154
   0.08463265  0.26151067  0.89147206
   0.12407119  0.21470019  0.03091035
   0.67865939  0.10511536  0.23668920
   0.68811521  0.14266097  0.35884830
   0.65395436  0.08409294  0.89470615
   0.66229117  0.12270501  0.03686767
   0.01468183  0.44820790  0.57523942
   0.02002220  0.48865568  0.69791639
   0.23001948  0.66130968  0.27172364
   0.17954572  0.67593374  0.38373348
   0.28466997  0.62108631  0.95232713
   0.23472061  0.63637386  0.08279260
   0.54396419  0.00576224  0.56590058
   0.49768353  0.01076823  0.68445887
   0.24347286  0.07584197  0.41771149
   0.20436492  0.12353908  0.28029621
   0.21941091  0.12299290  0.07785522
   0.17821119  0.16928868  0.95888984
   0.69519392  0.22953017  0.44203965
   0.67956470  0.19748281  0.29611577
   0.01882695  0.58223049  0.77305219
   0.01089210  0.54334072  0.63107045
   0.66135045  0.21650770  0.09839230
   0.65386037  0.17768257  0.97353611
   0.08368772  0.68076172  0.44736420
   0.13306544  0.66851937  0.31198928
   0.40462644  0.01037720  0.74990477
   0.45254055  0.00150963  0.61287847
   0.13536927  0.64803927  0.11484276
   0.18748559  0.63079191  0.00803034
   0.75530136  0.92146676  0.56279131
   0.79624549  0.87627160  0.70508894
   0.78043367  0.87592848  0.90604853
   0.82269691  0.83183639  0.02920880
   0.32542806  0.75450112  0.51303214
   0.32439068  0.79407815  0.67144500
   0.99180441  0.42562187  0.23022901
   0.99937339  0.46430149  0.37362402
   0.33477540  0.77882570  0.87498452
   0.33915177  0.81893659  0.00226460
   0.92265054  0.33152317  0.56197179
   0.87773852  0.33652715  0.70443288
   0.59127597  0.98271809  0.22542822
   0.54391686  0.99060137  0.36385541
   0.87662081  0.35343367  0.90487791
   0.83076423  0.35746630  0.02617345
   0.89485315  0.78954617  0.76214115
   0.85252581  0.83363819  0.63889154
   0.91969132  0.74424752  0.10575165
   0.87901498  0.78926332  0.96319153
   0.31685521  0.89020157  0.73768952
   0.31401009  0.84957561  0.60984020
   0.33941922  0.91265066  0.08038925
   0.33103670  0.87383125  0.93891902
   0.99568733  0.55929573  0.42960353
   0.99007142  0.51910242  0.30700736
   0.79420864  0.32060288  0.76504945
   0.83661998  0.31998749  0.63973402
   0.74355817  0.34317379  0.09352316
   0.78927817  0.34254312  0.95957321
   0.45271534  0.98601753  0.41099422
   0.49895580  0.98106578  0.29233034
   0.61828949  0.44196256  0.34217276
   0.84549069  0.08747977  0.63561089
   0.79067149  0.21699983  0.12446595
   0.13975465  0.16896691  0.50737640
   0.70211220  0.12843320  0.50968771
   0.03156679  0.47670671  0.85166647
   0.17562246  0.69378010  0.53182538
   0.49705889  0.02234157  0.83862760
   0.18890856  0.16953959  0.80411217
   0.64121484  0.19093254  0.82108338
   0.19059596  0.61369348  0.85962185
   0.81105828  0.83131175  0.18273875
   0.34841910  0.80742630  0.15706589
   0.83037567  0.36979868  0.17957304
   0.86404753  0.83423426  0.48522423
   0.30489346  0.86161715  0.45534626
   0.97864482  0.53103432  0.15318112
   0.83983412  0.30444826  0.48888433
   0.49971800  0.96939134  0.13806751
   0.70660006  0.33527921  0.49278739
   0.28216942  0.02217513  0.79266529
   0.63771821  0.33404809  0.19478738
   0.96305455  0.68988439  0.48331039
   0.35398957  0.95264857  0.45805075
   0.35192663  0.02421050  0.12781570
   0.71060093  0.97577345  0.18549703
   0.34617499  0.66314277  0.74676185
   0.73211837  0.27784277  0.02165552
   0.97906732  0.31602660  0.18752307
   0.31354837  0.70616526  0.18676702
   0.97584384  0.38461946  0.85593058
   0.64697494  0.97101124  0.85141303
   0.03183899  0.62538738  0.14976654
   0.64149882  0.03966515  0.52033074
   0.02850147  0.69323079  0.82163756
   0.30235625  0.62659685  0.57675875
   0.04436739  0.31853610  0.51924341
   0.70498741  0.43803507  0.37026555
   0.61879239  0.44228678  0.00924605
   0.79147154  0.21183520  0.68990538
Direct configuration=    57
   0.05846716  0.25784707  0.31535349
   0.03268207  0.30124648  0.95011133
   0.10174099  0.26198247  0.71719506
   0.68627805  0.05424545  0.31523061
   0.66373752  0.03318293  0.95724509
   0.63831602  0.10025213  0.71849359
   0.02394067  0.39686198  0.65377678
   0.27444955  0.66970960  0.34560046
   0.32114865  0.64102583  0.98263145
   0.28914347  0.59271481  0.79255509
   0.58544538  0.01570843  0.64741206
   0.29426205  0.03486252  0.35553656
   0.22620014  0.07594614  0.59265854
   0.27053703  0.08078501  0.99795333
   0.66670801  0.28822372  0.44062452
   0.73415702  0.20095053  0.56826519
   0.00953922  0.63294786  0.71108842
   0.03420385  0.56594193  0.94919720
   0.65369896  0.26786768  0.02412559
   0.04157145  0.67368465  0.37948002
   0.08443206  0.69600125  0.62440048
   0.36384181  0.00042005  0.68773419
   0.40410453  0.02815319  0.92488444
   0.09127405  0.64398200  0.02681789
   0.70335833  0.96036231  0.62400611
   0.77124544  0.92152782  0.38680763
   0.72753343  0.91542453  0.98317699
   0.35959815  0.69678488  0.52154339
   0.29629035  0.77656089  0.35614794
   0.00454695  0.37328658  0.28556574
   0.97370875  0.44336030  0.05669744
   0.33835097  0.72828323  0.94233643
   0.96142870  0.34544023  0.61780952
   0.92291638  0.31421833  0.38676239
   0.63220846  0.99207724  0.29115311
   0.59124904  0.96706199  0.04889018
   0.91680901  0.36509746  0.98556477
   0.94776278  0.74983845  0.68552290
   0.97247188  0.70611042  0.04786660
   0.90306373  0.74325942  0.28021862
   0.30675347  0.94217697  0.66171633
   0.32967900  0.96365890  0.02069491
   0.35643622  0.89519541  0.25546534
   0.98662328  0.61072038  0.35158582
   0.76035231  0.29598328  0.71011821
   0.68702340  0.36441593  0.01356435
   0.74651872  0.35621330  0.28279369
   0.41126664  0.97582126  0.32982600
   0.58752521  0.42096133  0.25901562
   0.62845332  0.47885031  0.24576873
   0.64413895  0.42299964  0.51428158
   0.83147026  0.17891747  0.20902721
   0.85640197  0.12396555  0.69106182
   0.83597042  0.05040042  0.58328275
   0.10925388  0.21546475  0.23376007
   0.15043422  0.16917697  0.35258775
   0.08464407  0.26150506  0.89144955
   0.12408172  0.21469848  0.03087733
   0.67865145  0.10512255  0.23671078
   0.68810301  0.14265750  0.35883112
   0.65393908  0.08408280  0.89471622
   0.66227728  0.12269785  0.03687799
   0.01468642  0.44821214  0.57524433
   0.02002690  0.48866043  0.69791951
   0.23003442  0.66128926  0.27166971
   0.17956577  0.67592254  0.38370078
   0.28467582  0.62108544  0.95228269
   0.23471830  0.63635976  0.08274794
   0.54396951  0.00574984  0.56590941
   0.49767037  0.01077340  0.68446163
   0.24346904  0.07582697  0.41771211
   0.20436169  0.12353359  0.28028802
   0.21940703  0.12298018  0.07784247
   0.17821707  0.16928139  0.95887506
   0.69519416  0.22953133  0.44202335
   0.67956117  0.19748713  0.29608808
   0.01883535  0.58223354  0.77306183
   0.01089634  0.54334437  0.63107134
   0.66132868  0.21652081  0.09833359
   0.65385227  0.17766484  0.97350910
   0.08369884  0.68076680  0.44738996
   0.13307657  0.66851977  0.31196838
   0.40460422  0.01039832  0.74989177
   0.45252848  0.00151546  0.61284023
   0.13535816  0.64804801  0.11483737
   0.18746994  0.63079309  0.00799525
   0.75529879  0.92146132  0.56281632
   0.79624482  0.87626776  0.70510880
   0.78043399  0.87592399  0.90608146
   0.82270199  0.83183325  0.02923280
   0.32539663  0.75452562  0.51300286
   0.32437389  0.79409718  0.67141943
   0.99180711  0.42562470  0.23022069
   0.99937366  0.46430437  0.37361928
   0.33477732  0.77882551  0.87496340
   0.33918781  0.81891478  0.00229606
   0.92266478  0.33152156  0.56195502
   0.87776897  0.33651910  0.70443100
   0.59126684  0.98272011  0.22544014
   0.54390133  0.99060175  0.36386509
   0.87664578  0.35342526  0.90484085
   0.83078092  0.35746009  0.02616328
   0.89485873  0.78954699  0.76215957
   0.85252622  0.83363904  0.63891264
   0.91969821  0.74424969  0.10575890
   0.87902159  0.78926326  0.96319747
   0.31686056  0.89021343  0.73771685
   0.31399134  0.84959997  0.60992793
   0.33942744  0.91264479  0.08041584
   0.33105700  0.87382175  0.93891673
   0.99568982  0.55930221  0.42961058
   0.99007032  0.51910862  0.30701508
   0.79423817  0.32059722  0.76501977
   0.83665071  0.31997559  0.63972390
   0.74355672  0.34320453  0.09350049
   0.78928137  0.34254754  0.95956740
   0.45270781  0.98601945  0.41098804
   0.49895059  0.98105548  0.29232409
   0.61828238  0.44195253  0.34228916
   0.84547349  0.08748954  0.63554711
   0.79064632  0.21699395  0.12449689
   0.13976296  0.16895961  0.50735024
   0.70209806  0.12844732  0.50961251
   0.03156536  0.47671097  0.85166951
   0.17565894  0.69377397  0.53179782
   0.49703848  0.02236351  0.83863873
   0.18891108  0.16954368  0.80409120
   0.64119379  0.19091607  0.82107782
   0.19056642  0.61370174  0.85956704
   0.81106657  0.83130614  0.18275761
   0.34846810  0.80739116  0.15707496
   0.83039923  0.36979305  0.17955517
   0.86404193  0.83423937  0.48523894
   0.30485341  0.86165415  0.45541038
   0.97864520  0.53103999  0.15318785
   0.83986014  0.30443626  0.48884855
   0.49972621  0.96936659  0.13809074
   0.70662402  0.33526930  0.49280118
   0.28215163  0.02218391  0.79272306
   0.63772046  0.33402601  0.19470800
   0.96306154  0.68988963  0.48331799
   0.35397627  0.95264748  0.45803795
   0.35194812  0.02420437  0.12779491
   0.71059178  0.97577042  0.18552965
   0.34615730  0.66316635  0.74674443
   0.73211615  0.27785832  0.02162605
   0.97908480  0.31603167  0.18749952
   0.31353246  0.70618652  0.18670203
   0.97585706  0.38462685  0.85589651
   0.64695910  0.97100113  0.85146032
   0.03184789  0.62539295  0.14977580
   0.64149193  0.03964722  0.52037024
   0.02850743  0.69323966  0.82163486
   0.30240172  0.62656826  0.57666102
   0.04439204  0.31853247  0.51925721
   0.70497525  0.43803034  0.37031245
   0.61876442  0.44231761  0.00940770
   0.79143041  0.21181528  0.69006692
Direct configuration=    58
   0.05849455  0.25784607  0.31530242
   0.03270812  0.30123782  0.95009430
   0.10175788  0.26197308  0.71716369
   0.68627037  0.05425629  0.31530687
   0.66371439  0.03317232  0.95731919
   0.63831003  0.10023120  0.71849472
   0.02395643  0.39686539  0.65377398
   0.27448924  0.66966152  0.34548795
   0.32113433  0.64103624  0.98257912
   0.28916480  0.59270742  0.79251789
   0.58545050  0.01568858  0.64744818
   0.29424991  0.03483447  0.35552417
   0.22619220  0.07593143  0.59265096
   0.27052363  0.08074665  0.99800549
   0.66672163  0.28823433  0.44046410
   0.73410503  0.20097540  0.56816880
   0.00957136  0.63294511  0.71107832
   0.03420520  0.56595005  0.94922240
   0.65365119  0.26786651  0.02399515
   0.04158421  0.67369624  0.37950178
   0.08446258  0.69601288  0.62445413
   0.36381380  0.00046994  0.68771989
   0.40406498  0.02817779  0.92489219
   0.09126189  0.64401421  0.02682219
   0.70335068  0.96034200  0.62403976
   0.77124404  0.92152246  0.38684316
   0.72752730  0.91541706  0.98322762
   0.35952790  0.69681660  0.52140479
   0.29622998  0.77661344  0.35617926
   0.00456366  0.37328842  0.28554488
   0.97371527  0.44336729  0.05669123
   0.33836437  0.72827861  0.94234854
   0.96144765  0.34544928  0.61785444
   0.92293324  0.31421752  0.38672590
   0.63219332  0.99208062  0.29118659
   0.59124503  0.96705309  0.04892396
   0.91682104  0.36509889  0.98555802
   0.94776755  0.74984391  0.68554145
   0.97248767  0.70611920  0.04787534
   0.90307443  0.74326422  0.28021989
   0.30678998  0.94217495  0.66181490
   0.32972305  0.96363827  0.02066416
   0.35639725  0.89521291  0.25557639
   0.98664008  0.61072270  0.35157893
   0.76040691  0.29594736  0.71003808
   0.68702849  0.36445217  0.01350192
   0.74652996  0.35621100  0.28276415
   0.41122913  0.97586064  0.32988722
   0.58753332  0.42094009  0.25917983
   0.62843409  0.47884858  0.24605780
   0.64413883  0.42296028  0.51445749
   0.83139552  0.17893575  0.20912293
   0.85636013  0.12396728  0.69105337
   0.83595587  0.05039868  0.58305598
   0.10927435  0.21546608  0.23371246
   0.15043827  0.16917471  0.35256603
   0.08466205  0.26149623  0.89141410
   0.12409830  0.21469578  0.03082532
   0.67863895  0.10513388  0.23674475
   0.68808381  0.14265203  0.35880406
   0.65391500  0.08406681  0.89473209
   0.66225540  0.12268659  0.03689424
   0.01469365  0.44821882  0.57525207
   0.02003429  0.48866790  0.69792441
   0.23005794  0.66125709  0.27158477
   0.17959734  0.67590491  0.38364928
   0.28468505  0.62108406  0.95221271
   0.23471466  0.63633754  0.08267760
   0.54397787  0.00573030  0.56592330
   0.49764964  0.01078153  0.68446597
   0.24346301  0.07580335  0.41771308
   0.20435661  0.12352496  0.28027513
   0.21940092  0.12296016  0.07782240
   0.17822633  0.16926990  0.95885179
   0.69519455  0.22953316  0.44199768
   0.67955560  0.19749394  0.29604447
   0.01884856  0.58223835  0.77307701
   0.01090300  0.54335013  0.63107275
   0.66129441  0.21654145  0.09824114
   0.65383950  0.17763691  0.97346656
   0.08371635  0.68077482  0.44743052
   0.13309409  0.66852040  0.31193547
   0.40456923  0.01043156  0.74987129
   0.45250948  0.00152465  0.61278000
   0.13534065  0.64806178  0.11482887
   0.18744530  0.63079495  0.00794000
   0.75529474  0.92145275  0.56285570
   0.79624376  0.87626172  0.70514008
   0.78043449  0.87591690  0.90613333
   0.82270998  0.83182830  0.02927060
   0.32534715  0.75456419  0.51295674
   0.32434745  0.79412716  0.67137916
   0.99181137  0.42562917  0.23020758
   0.99937408  0.46430890  0.37361182
   0.33478036  0.77882521  0.87493013
   0.33924457  0.81888045  0.00234561
   0.92268721  0.33151902  0.56192862
   0.87781691  0.33650642  0.70442805
   0.59125246  0.98272328  0.22545890
   0.54387687  0.99060235  0.36388034
   0.87668510  0.35341201  0.90478248
   0.83080720  0.35745029  0.02614727
   0.89486750  0.78954829  0.76218859
   0.85252686  0.83364039  0.63894587
   0.91970907  0.74425312  0.10577031
   0.87903199  0.78926315  0.96320682
   0.31686899  0.89023210  0.73775987
   0.31396180  0.84963833  0.61006610
   0.33944038  0.91263556  0.08045772
   0.33108895  0.87380678  0.93891312
   0.99569374  0.55931242  0.42962168
   0.99006860  0.51911838  0.30702724
   0.79428466  0.32058831  0.76497301
   0.83669908  0.31995683  0.63970797
   0.74355443  0.34325293  0.09346478
   0.78928640  0.34255450  0.95955825
   0.45269595  0.98602247  0.41097831
   0.49894239  0.98103927  0.29231426
   0.61827118  0.44193674  0.34247247
   0.84544641  0.08750492  0.63544665
   0.79060669  0.21698469  0.12454562
   0.13977604  0.16894813  0.50730903
   0.70207580  0.12846955  0.50949409
   0.03156311  0.47671768  0.85167430
   0.17571639  0.69376432  0.53175442
   0.49700633  0.02239806  0.83865625
   0.18891506  0.16955011  0.80405819
   0.64116065  0.19089014  0.82106907
   0.19051990  0.61371474  0.85948074
   0.81107963  0.83129731  0.18278730
   0.34854525  0.80733581  0.15708923
   0.83043633  0.36978418  0.17952705
   0.86403310  0.83424742  0.48526211
   0.30479034  0.86171242  0.45551137
   0.97864580  0.53104894  0.15319844
   0.83990112  0.30441736  0.48879219
   0.49973913  0.96932761  0.13812732
   0.70666174  0.33525370  0.49282291
   0.28212360  0.02219775  0.79281404
   0.63772401  0.33399123  0.19458298
   0.96307255  0.68989789  0.48332996
   0.35395533  0.95264576  0.45801778
   0.35198196  0.02419472  0.12776217
   0.71057738  0.97576564  0.18558102
   0.34612943  0.66320349  0.74671700
   0.73211266  0.27788280  0.02157965
   0.97911232  0.31603964  0.18746244
   0.31350740  0.70622000  0.18659968
   0.97587787  0.38463847  0.85584286
   0.64693417  0.97098520  0.85153479
   0.03186191  0.62540173  0.14979038
   0.64148109  0.03961897  0.52043246
   0.02851682  0.69325364  0.82163062
   0.30247333  0.62652322  0.57650710
   0.04443086  0.31852675  0.51927893
   0.70495610  0.43802289  0.37038631
   0.61872037  0.44236616  0.00966225
   0.79136565  0.21178391  0.69032130
Direct configuration=    59
   0.05851119  0.25785210  0.31524771
   0.03272430  0.30123681  0.95008377
   0.10177205  0.26196947  0.71711943
   0.68626299  0.05426307  0.31536882
   0.66369228  0.03317009  0.95734201
   0.63830380  0.10020822  0.71851588
   0.02397154  0.39686826  0.65376996
   0.27451659  0.66963165  0.34539615
   0.32113516  0.64103862  0.98254912
   0.28917624  0.59270778  0.79248028
   0.58544523  0.01567425  0.64745373
   0.29424122  0.03481449  0.35551495
   0.22618482  0.07592061  0.59265940
   0.27051842  0.08071547  0.99805834
   0.66673058  0.28824466  0.44035462
   0.73407944  0.20098963  0.56816053
   0.00959664  0.63294256  0.71107398
   0.03420628  0.56595656  0.94924299
   0.65361621  0.26787803  0.02389476
   0.04159722  0.67370832  0.37953380
   0.08448121  0.69601987  0.62445104
   0.36379236  0.00050689  0.68769133
   0.40404181  0.02819353  0.92486469
   0.09124916  0.64403911  0.02681641
   0.70334233  0.96032722  0.62407470
   0.77124197  0.92151898  0.38687204
   0.72752225  0.91541038  0.98326053
   0.35947250  0.69684542  0.52131256
   0.29618010  0.77665593  0.35615204
   0.00457963  0.37328706  0.28553697
   0.97371913  0.44337449  0.05667743
   0.33836533  0.72828087  0.94232782
   0.96145016  0.34545089  0.61785014
   0.92295050  0.31422281  0.38673905
   0.63217635  0.99208169  0.29121599
   0.59124313  0.96704237  0.04894081
   0.91683655  0.36509878  0.98555387
   0.94777490  0.74984698  0.68555532
   0.97249698  0.70612657  0.04788930
   0.90308377  0.74326707  0.28022719
   0.30681720  0.94217333  0.66188249
   0.32975427  0.96361782  0.02064794
   0.35636856  0.89523050  0.25562519
   0.98665285  0.61072565  0.35157491
   0.76044771  0.29593061  0.70998780
   0.68703198  0.36447611  0.01344266
   0.74653445  0.35621684  0.28275801
   0.41120128  0.97589121  0.32992393
   0.58754250  0.42091236  0.25925590
   0.62841659  0.47885587  0.24624752
   0.64413171  0.42293868  0.51456725
   0.83134626  0.17894029  0.20921688
   0.85633491  0.12397906  0.69107445
   0.83594876  0.05041340  0.58289498
   0.10928896  0.21546800  0.23368093
   0.15044615  0.16916911  0.35255176
   0.08467715  0.26149025  0.89138418
   0.12411192  0.21469134  0.03079923
   0.67862366  0.10513504  0.23672669
   0.68806745  0.14266361  0.35875956
   0.65389998  0.08406322  0.89476211
   0.66223994  0.12267658  0.03688535
   0.01470117  0.44822502  0.57525389
   0.02004021  0.48867408  0.69792177
   0.23007809  0.66123402  0.27153020
   0.17961566  0.67589463  0.38363180
   0.28469163  0.62107749  0.95214806
   0.23471693  0.63631505  0.08259424
   0.54397811  0.00572044  0.56594167
   0.49764026  0.01078438  0.68445628
   0.24345458  0.07578963  0.41768743
   0.20435271  0.12351694  0.28026116
   0.21939498  0.12294503  0.07782424
   0.17823409  0.16925821  0.95882563
   0.69518842  0.22953377  0.44195155
   0.67954531  0.19749546  0.29598075
   0.01885845  0.58224318  0.77308913
   0.01090714  0.54335852  0.63108129
   0.66127299  0.21653895  0.09820773
   0.65382566  0.17762611  0.97345712
   0.08373141  0.68077995  0.44746036
   0.13310531  0.66851875  0.31193078
   0.40454125  0.01045807  0.74989934
   0.45249694  0.00153227  0.61275719
   0.13533104  0.64807398  0.11484010
   0.18743192  0.63079599  0.00788690
   0.75529812  0.92144048  0.56287929
   0.79624264  0.87625730  0.70517118
   0.78043513  0.87591103  0.90616643
   0.82271483  0.83182693  0.02929083
   0.32531251  0.75459253  0.51295258
   0.32433023  0.79414335  0.67135782
   0.99181767  0.42563437  0.23020262
   0.99937675  0.46431460  0.37360787
   0.33478190  0.77882689  0.87492093
   0.33928106  0.81885874  0.00236064
   0.92271537  0.33151735  0.56190802
   0.87785140  0.33649141  0.70440345
   0.59124422  0.98272465  0.22548800
   0.54386671  0.99059833  0.36387852
   0.87670145  0.35340554  0.90475087
   0.83082307  0.35744176  0.02609454
   0.89487260  0.78955054  0.76220695
   0.85252661  0.83364100  0.63897629
   0.91972237  0.74425282  0.10577206
   0.87903709  0.78926516  0.96322248
   0.31687705  0.89023604  0.73782837
   0.31393168  0.84967412  0.61010032
   0.33945383  0.91262365  0.08047914
   0.33111663  0.87379291  0.93892035
   0.99569615  0.55931784  0.42962737
   0.99006802  0.51912561  0.30704476
   0.79430687  0.32058307  0.76497037
   0.83674246  0.31993973  0.63969051
   0.74356084  0.34327383  0.09343130
   0.78929165  0.34256211  0.95955648
   0.45268099  0.98602933  0.41098850
   0.49893810  0.98103121  0.29234963
   0.61827421  0.44191579  0.34268755
   0.84541777  0.08748200  0.63531975
   0.79057121  0.21698574  0.12454584
   0.13978215  0.16894146  0.50728903
   0.70206086  0.12848147  0.50943905
   0.03156196  0.47672272  0.85167799
   0.17575753  0.69375289  0.53170694
   0.49698171  0.02242755  0.83868504
   0.18891691  0.16955554  0.80404878
   0.64113532  0.19087319  0.82105214
   0.19048675  0.61372486  0.85941942
   0.81109074  0.83128889  0.18282293
   0.34860802  0.80729451  0.15708974
   0.83046015  0.36977678  0.17949580
   0.86402572  0.83425373  0.48528662
   0.30474187  0.86175133  0.45560427
   0.97864616  0.53105641  0.15321031
   0.83993506  0.30439932  0.48874213
   0.49975130  0.96929594  0.13812742
   0.70669216  0.33524183  0.49285019
   0.28211213  0.02220226  0.79288802
   0.63773343  0.33396202  0.19447562
   0.96307819  0.68990468  0.48334022
   0.35393649  0.95265568  0.45801218
   0.35200056  0.02418268  0.12774008
   0.71056853  0.97576374  0.18562812
   0.34610948  0.66322929  0.74672091
   0.73209291  0.27791122  0.02155663
   0.97913463  0.31604443  0.18744851
   0.31349269  0.70624363  0.18653851
   0.97589339  0.38464724  0.85581091
   0.64691883  0.97096607  0.85159354
   0.03186969  0.62540743  0.14980171
   0.64147500  0.03959877  0.52046551
   0.02852109  0.69326622  0.82162620
   0.30253076  0.62648845  0.57639014
   0.04446176  0.31852125  0.51928314
   0.70494513  0.43800852  0.37046304
   0.61868876  0.44240384  0.00985977
   0.79130970  0.21177360  0.69051998
Direct configuration=    60
   0.05852011  0.25785533  0.31521837
   0.03273298  0.30123626  0.95007812
   0.10177965  0.26196754  0.71709570
   0.68625903  0.05426670  0.31540205
   0.66368041  0.03316889  0.95735425
   0.63830046  0.10019589  0.71852724
   0.02397964  0.39686980  0.65376781
   0.27453126  0.66961563  0.34534692
   0.32113561  0.64103989  0.98253303
   0.28918238  0.59270797  0.79246010
   0.58544241  0.01566656  0.64745671
   0.29423656  0.03480378  0.35551000
   0.22618087  0.07591481  0.59266393
   0.27051563  0.08069876  0.99808669
   0.66673537  0.28825020  0.44029590
   0.73406571  0.20099726  0.56815610
   0.00961020  0.63294119  0.71107166
   0.03420685  0.56596006  0.94925403
   0.65359746  0.26788420  0.02384092
   0.04160421  0.67371481  0.37955098
   0.08449120  0.69602362  0.62444938
   0.36378086  0.00052670  0.68767602
   0.40402938  0.02820197  0.92484995
   0.09124233  0.64405246  0.02681331
   0.70333786  0.96031930  0.62409344
   0.77124086  0.92151711  0.38688754
   0.72751954  0.91540679  0.98327818
   0.35944280  0.69686088  0.52126309
   0.29615335  0.77667872  0.35613744
   0.00458820  0.37328634  0.28553273
   0.97372120  0.44337836  0.05667003
   0.33836584  0.72828208  0.94231670
   0.96145151  0.34545175  0.61784783
   0.92295975  0.31422565  0.38674610
   0.63216724  0.99208227  0.29123175
   0.59124212  0.96703661  0.04894985
   0.91684487  0.36509872  0.98555164
   0.94777884  0.74984863  0.68556277
   0.97250197  0.70613052  0.04789678
   0.90308878  0.74326860  0.28023110
   0.30683180  0.94217246  0.66191874
   0.32977101  0.96360685  0.02063925
   0.35635317  0.89523994  0.25565136
   0.98665971  0.61072724  0.35157276
   0.76046960  0.29592162  0.70996083
   0.68703385  0.36448896  0.01341088
   0.74653686  0.35621998  0.28275471
   0.41118635  0.97590760  0.32994362
   0.58754742  0.42089748  0.25929669
   0.62840720  0.47885978  0.24634928
   0.64412789  0.42292710  0.51462612
   0.83131983  0.17894272  0.20926727
   0.85632138  0.12398538  0.69108576
   0.83594494  0.05042130  0.58280862
   0.10929679  0.21546903  0.23366401
   0.15045038  0.16916610  0.35254410
   0.08468525  0.26148704  0.89136813
   0.12411923  0.21468897  0.03078523
   0.67861546  0.10513566  0.23671700
   0.68805868  0.14266981  0.35873569
   0.65389193  0.08406130  0.89477821
   0.66223165  0.12267122  0.03688058
   0.01470521  0.44822834  0.57525487
   0.02004338  0.48867739  0.69792035
   0.23008889  0.66122164  0.27150093
   0.17962549  0.67588911  0.38362242
   0.28469517  0.62107397  0.95211339
   0.23471815  0.63630298  0.08254952
   0.54397823  0.00571515  0.56595151
   0.49763522  0.01078592  0.68445108
   0.24345006  0.07578226  0.41767368
   0.20435062  0.12351264  0.28025366
   0.21939179  0.12293691  0.07782523
   0.17823826  0.16925194  0.95881160
   0.69518513  0.22953410  0.44192681
   0.67953979  0.19749628  0.29594658
   0.01886375  0.58224577  0.77309564
   0.01090936  0.54336302  0.63108587
   0.66126150  0.21653762  0.09818980
   0.65381823  0.17762032  0.97345205
   0.08373949  0.68078271  0.44747637
   0.13311132  0.66851786  0.31192827
   0.40452625  0.01047229  0.74991438
   0.45249021  0.00153636  0.61274495
   0.13532589  0.64808053  0.11484612
   0.18742474  0.63079655  0.00785842
   0.75529993  0.92143391  0.56289194
   0.79624205  0.87625493  0.70518785
   0.78043548  0.87590788  0.90618419
   0.82271743  0.83182620  0.02930168
   0.32529392  0.75460773  0.51295035
   0.32432099  0.79415203  0.67134638
   0.99182104  0.42563716  0.23019997
   0.99937819  0.46431766  0.37360575
   0.33478273  0.77882779  0.87491599
   0.33930063  0.81884710  0.00236870
   0.92273047  0.33151645  0.56189697
   0.87786990  0.33648336  0.70439025
   0.59123980  0.98272539  0.22550360
   0.54386126  0.99059617  0.36387754
   0.87671022  0.35340208  0.90473392
   0.83083158  0.35743719  0.02606626
   0.89487533  0.78955174  0.76221680
   0.85252647  0.83364133  0.63899261
   0.91972950  0.74425266  0.10577300
   0.87903983  0.78926623  0.96323088
   0.31688138  0.89023815  0.73786510
   0.31391552  0.84969331  0.61011868
   0.33946104  0.91261727  0.08049063
   0.33113147  0.87378547  0.93892423
   0.99569745  0.55932075  0.42963043
   0.99006771  0.51912948  0.30705416
   0.79431878  0.32058026  0.76496895
   0.83676572  0.31993056  0.63968114
   0.74356427  0.34328504  0.09341334
   0.78929446  0.34256619  0.95955554
   0.45267296  0.98603301  0.41099396
   0.49893580  0.98102689  0.29236861
   0.61827583  0.44190456  0.34280290
   0.84540242  0.08746970  0.63525169
   0.79055218  0.21698630  0.12454597
   0.13978542  0.16893788  0.50727829
   0.70205285  0.12848786  0.50940953
   0.03156134  0.47672542  0.85167997
   0.17577960  0.69374677  0.53168147
   0.49696850  0.02244337  0.83870048
   0.18891791  0.16955846  0.80404373
   0.64112173  0.19086409  0.82104306
   0.19046897  0.61373029  0.85938654
   0.81109671  0.83128437  0.18284204
   0.34864168  0.80727235  0.15709001
   0.83047293  0.36977282  0.17947904
   0.86402177  0.83425711  0.48529976
   0.30471588  0.86177220  0.45565410
   0.97864636  0.53106042  0.15321667
   0.83995325  0.30438965  0.48871528
   0.49975783  0.96927895  0.13812748
   0.70670847  0.33523547  0.49286482
   0.28210597  0.02220468  0.79292770
   0.63773848  0.33394636  0.19441804
   0.96308122  0.68990833  0.48334572
   0.35392639  0.95266101  0.45800917
   0.35201054  0.02417622  0.12772824
   0.71056378  0.97576272  0.18565338
   0.34609879  0.66324312  0.74672301
   0.73208231  0.27792646  0.02154428
   0.97914659  0.31604699  0.18744103
   0.31348480  0.70625630  0.18650570
   0.97590171  0.38465194  0.85579378
   0.64691060  0.97095582  0.85162505
   0.03187386  0.62541048  0.14980778
   0.64147173  0.03958793  0.52048324
   0.02852338  0.69327296  0.82162382
   0.30256156  0.62646981  0.57632741
   0.04447833  0.31851830  0.51928539
   0.70493926  0.43800081  0.37050418
   0.61867181  0.44242405  0.00996570
   0.79127969  0.21176808  0.69062654
Direct configuration=    61
   0.05852895  0.25786110  0.31518260
   0.03274243  0.30123699  0.95006929
   0.10178857  0.26196602  0.71706727
   0.68625401  0.05426982  0.31543839
   0.66366609  0.03316858  0.95736180
   0.63829578  0.10018109  0.71854260
   0.02398971  0.39687160  0.65376491
   0.27454689  0.66959950  0.34528852
   0.32113895  0.64103964  0.98251762
   0.28918844  0.59270886  0.79242378
   0.58543755  0.01565818  0.64745621
   0.29423048  0.03479307  0.35550300
   0.22617639  0.07590850  0.59266637
   0.27051381  0.08068003  0.99812181
   0.66674129  0.28825505  0.44023522
   0.73405477  0.20100334  0.56817237
   0.00962562  0.63293973  0.71106978
   0.03420746  0.56596417  0.94926614
   0.65357650  0.26789154  0.02378347
   0.04161199  0.67372290  0.37957377
   0.08450110  0.69602780  0.62444158
   0.36376556  0.00054864  0.68765284
   0.40401812  0.02821213  0.92483747
   0.09123327  0.64406755  0.02680859
   0.70333371  0.96030921  0.62411523
   0.77123942  0.92151517  0.38690521
   0.72751702  0.91540203  0.98329660
   0.35940928  0.69687923  0.52121485
   0.29612373  0.77670408  0.35611457
   0.00459866  0.37328585  0.28552967
   0.97372357  0.44338284  0.05666242
   0.33836362  0.72828524  0.94229442
   0.96145468  0.34545231  0.61783741
   0.92297216  0.31422954  0.38675468
   0.63215697  0.99208281  0.29125158
   0.59124112  0.96702935  0.04896167
   0.91685575  0.36509812  0.98554842
   0.94778400  0.74985054  0.68557123
   0.97250775  0.70613445  0.04790597
   0.90309505  0.74326994  0.28023665
   0.30684747  0.94217180  0.66195884
   0.32978937  0.96359323  0.02063136
   0.35633697  0.89525042  0.25567465
   0.98666727  0.61072919  0.35157179
   0.76049347  0.29591486  0.70993378
   0.68703636  0.36450269  0.01337322
   0.74653814  0.35622613  0.28275443
   0.41116980  0.97592538  0.32996022
   0.58755597  0.42087796  0.25933399
   0.62839539  0.47886470  0.24646228
   0.64412347  0.42291507  0.51469887
   0.83129029  0.17894429  0.20932547
   0.85630311  0.12397855  0.69108121
   0.83593691  0.05041602  0.58268747
   0.10930549  0.21546977  0.23364852
   0.15045502  0.16916311  0.35253553
   0.08469432  0.26148449  0.89134880
   0.12412767  0.21468567  0.03077235
   0.67860481  0.10513412  0.23669877
   0.68804836  0.14267987  0.35870006
   0.65388383  0.08405965  0.89479873
   0.66222283  0.12266578  0.03687151
   0.01471031  0.44823227  0.57525250
   0.02004694  0.48868145  0.69791841
   0.23010049  0.66120786  0.27146808
   0.17963654  0.67588288  0.38361183
   0.28469853  0.62106911  0.95207630
   0.23472155  0.63628926  0.08249785
   0.54397493  0.00571073  0.56596027
   0.49763088  0.01078739  0.68445107
   0.24344417  0.07577447  0.41765895
   0.20434888  0.12350639  0.28024575
   0.21938826  0.12292790  0.07782747
   0.17824330  0.16924382  0.95879638
   0.69517765  0.22953718  0.44188671
   0.67953183  0.19749741  0.29590362
   0.01886970  0.58224890  0.77310305
   0.01091165  0.54336901  0.63109291
   0.66124959  0.21653309  0.09817207
   0.65380786  0.17761768  0.97344981
   0.08374936  0.68078531  0.44748772
   0.13311720  0.66851674  0.31193555
   0.40451190  0.01048696  0.74992440
   0.45248247  0.00154220  0.61274848
   0.13532274  0.64808765  0.11485242
   0.18741873  0.63079701  0.00782413
   0.75530130  0.92142658  0.56290739
   0.79624151  0.87625212  0.70520935
   0.78043496  0.87590505  0.90620201
   0.82272000  0.83182576  0.02931501
   0.32527133  0.75462614  0.51294247
   0.32431094  0.79416188  0.67134214
   0.99182582  0.42564026  0.23019667
   0.99938065  0.46432159  0.37360628
   0.33478395  0.77882978  0.87491258
   0.33932018  0.81883596  0.00236705
   0.92274722  0.33151511  0.56188826
   0.87788930  0.33647311  0.70437144
   0.59123421  0.98272467  0.22551940
   0.54385882  0.99059254  0.36387823
   0.87671732  0.35339917  0.90472010
   0.83084074  0.35743299  0.02603193
   0.89487799  0.78955337  0.76222666
   0.85252641  0.83364140  0.63901130
   0.91973733  0.74425286  0.10577521
   0.87904261  0.78926770  0.96324241
   0.31688639  0.89023790  0.73791001
   0.31389632  0.84971262  0.61012692
   0.33946982  0.91260986  0.08049662
   0.33114962  0.87377514  0.93893992
   0.99569901  0.55932393  0.42963419
   0.99006740  0.51913400  0.30706407
   0.79433049  0.32057740  0.76497079
   0.83679069  0.31991889  0.63966935
   0.74356863  0.34329264  0.09339436
   0.78929919  0.34257057  0.95954693
   0.45266279  0.98603864  0.41100564
   0.49893323  0.98102227  0.29238985
   0.61827746  0.44189166  0.34292693
   0.84539255  0.08748185  0.63521255
   0.79053024  0.21698899  0.12453864
   0.13978784  0.16893459  0.50727004
   0.70204450  0.12849352  0.50938842
   0.03156090  0.47672852  0.85168168
   0.17580329  0.69373895  0.53165153
   0.49695370  0.02246119  0.83871293
   0.18891921  0.16956135  0.80404061
   0.64110658  0.19085472  0.82103134
   0.19044959  0.61373658  0.85935140
   0.81110386  0.83127885  0.18286537
   0.34868062  0.80724789  0.15708606
   0.83048595  0.36976793  0.17945310
   0.86401722  0.83426088  0.48531681
   0.30468591  0.86179506  0.45570685
   0.97864659  0.53106514  0.15322580
   0.83997463  0.30437810  0.48868919
   0.49976558  0.96926004  0.13812754
   0.70672753  0.33522758  0.49288284
   0.28210234  0.02220518  0.79297017
   0.63774451  0.33393035  0.19435158
   0.96308411  0.68991240  0.48335188
   0.35391462  0.95267018  0.45801001
   0.35201827  0.02416791  0.12771799
   0.71055886  0.97576237  0.18568333
   0.34608759  0.66325757  0.74672942
   0.73206761  0.27794461  0.02153646
   0.97915966  0.31604954  0.18743615
   0.31347699  0.70627012  0.18647723
   0.97591080  0.38465674  0.85577861
   0.64690313  0.97094253  0.85165929
   0.03187765  0.62541366  0.14981502
   0.64146890  0.03957655  0.52049919
   0.02852518  0.69328112  0.82162054
   0.30259666  0.62644846  0.57626167
   0.04449634  0.31851530  0.51928304
   0.70493388  0.43798990  0.37055639
   0.61865347  0.44244664  0.01008723
   0.79124500  0.21176519  0.69074705
Direct configuration=    62
   0.05853724  0.25786652  0.31514899
   0.03275131  0.30123768  0.95006099
   0.10179695  0.26196459  0.71704056
   0.68624929  0.05427274  0.31547252
   0.66365263  0.03316828  0.95736889
   0.63829137  0.10016718  0.71855703
   0.02399916  0.39687329  0.65376219
   0.27456157  0.66958434  0.34523366
   0.32114209  0.64103941  0.98250314
   0.28919413  0.59270970  0.79238965
   0.58543299  0.01565031  0.64745575
   0.29422478  0.03478300  0.35549642
   0.22617219  0.07590258  0.59266866
   0.27051209  0.08066244  0.99815481
   0.66674684  0.28825961  0.44017821
   0.73404450  0.20100905  0.56818767
   0.00964010  0.63293836  0.71106801
   0.03420803  0.56596803  0.94927751
   0.65355681  0.26789844  0.02372951
   0.04161931  0.67373050  0.37959517
   0.08451040  0.69603172  0.62443425
   0.36375118  0.00056925  0.68763106
   0.40400754  0.02822167  0.92482574
   0.09122476  0.64408172  0.02680416
   0.70332981  0.96029973  0.62413570
   0.77123808  0.92151335  0.38692182
   0.72751465  0.91539757  0.98331390
   0.35937780  0.69689647  0.52116953
   0.29609592  0.77672789  0.35609308
   0.00460849  0.37328539  0.28552679
   0.97372579  0.44338705  0.05665527
   0.33836155  0.72828821  0.94227348
   0.96145767  0.34545283  0.61782762
   0.92298382  0.31423320  0.38676275
   0.63214733  0.99208330  0.29127020
   0.59124018  0.96702254  0.04897277
   0.91686597  0.36509755  0.98554539
   0.94778886  0.74985234  0.68557918
   0.97251317  0.70613815  0.04791461
   0.90310093  0.74327120  0.28024185
   0.30686220  0.94217118  0.66199650
   0.32980662  0.96358044  0.02062395
   0.35632177  0.89526025  0.25569653
   0.98667437  0.61073103  0.35157087
   0.76051589  0.29590850  0.70990837
   0.68703871  0.36451559  0.01333784
   0.74653934  0.35623192  0.28275416
   0.41115426  0.97594207  0.32997582
   0.58756400  0.42085963  0.25936903
   0.62838429  0.47886932  0.24656844
   0.64411932  0.42290378  0.51476721
   0.83126254  0.17894576  0.20938014
   0.85628595  0.12397214  0.69107694
   0.83592936  0.05041105  0.58257366
   0.10931367  0.21547047  0.23363397
   0.15045938  0.16916030  0.35252748
   0.08470285  0.26148210  0.89133065
   0.12413560  0.21468257  0.03076025
   0.67859481  0.10513267  0.23668163
   0.68803866  0.14268931  0.35866660
   0.65387623  0.08405810  0.89481800
   0.66221455  0.12266067  0.03686299
   0.01471509  0.44823596  0.57525028
   0.02005028  0.48868526  0.69791660
   0.23011139  0.66119491  0.27143723
   0.17964693  0.67587702  0.38360189
   0.28470170  0.62106456  0.95204145
   0.23472475  0.63627636  0.08244931
   0.54397184  0.00570657  0.56596850
   0.49762681  0.01078877  0.68445106
   0.24343864  0.07576715  0.41764512
   0.20434725  0.12350051  0.28023832
   0.21938495  0.12291944  0.07782957
   0.17824803  0.16923618  0.95878209
   0.69517062  0.22954007  0.44184905
   0.67952435  0.19749847  0.29586326
   0.01887529  0.58225185  0.77311001
   0.01091379  0.54337463  0.63109952
   0.66123841  0.21652885  0.09815541
   0.65379812  0.17761520  0.97344771
   0.08375864  0.68078776  0.44749838
   0.13312273  0.66851569  0.31194240
   0.40449843  0.01050074  0.74993382
   0.45247521  0.00154768  0.61275178
   0.13531978  0.64809433  0.11485835
   0.18741308  0.63079744  0.00779192
   0.75530258  0.92141970  0.56292190
   0.79624101  0.87624948  0.70522955
   0.78043448  0.87590239  0.90621876
   0.82272241  0.83182535  0.02932753
   0.32525010  0.75464343  0.51293506
   0.32430149  0.79417113  0.67133816
   0.99183031  0.42564318  0.23019357
   0.99938296  0.46432528  0.37360677
   0.33478508  0.77883165  0.87490939
   0.33933855  0.81882550  0.00236550
   0.92276296  0.33151386  0.56188009
   0.87790753  0.33646347  0.70435377
   0.59122895  0.98272400  0.22553425
   0.54385654  0.99058913  0.36387889
   0.87672399  0.35339643  0.90470711
   0.83084935  0.35742905  0.02599969
   0.89488049  0.78955491  0.76223592
   0.85252636  0.83364146  0.63902885
   0.91974468  0.74425304  0.10577728
   0.87904522  0.78926909  0.96325323
   0.31689110  0.89023767  0.73795218
   0.31387828  0.84973075  0.61013466
   0.33947807  0.91260291  0.08050226
   0.33116668  0.87376544  0.93895467
   0.99570047  0.55932691  0.42963773
   0.99006710  0.51913825  0.30707338
   0.79434149  0.32057472  0.76497252
   0.83681415  0.31990793  0.63965828
   0.74357272  0.34329979  0.09337653
   0.78930363  0.34257468  0.95953884
   0.45265323  0.98604393  0.41101662
   0.49893081  0.98101794  0.29240980
   0.61827899  0.44187954  0.34304345
   0.84538329  0.08749327  0.63517578
   0.79050963  0.21699152  0.12453176
   0.13979011  0.16893150  0.50726228
   0.70203666  0.12849883  0.50936858
   0.03156048  0.47673143  0.85168329
   0.17582554  0.69373161  0.53162341
   0.49693979  0.02247794  0.83872463
   0.18892044  0.16956407  0.80403768
   0.64109234  0.19084591  0.82102033
   0.19043138  0.61374250  0.85931839
   0.81111057  0.83127367  0.18288728
   0.34871721  0.80722491  0.15708235
   0.83049817  0.36976333  0.17942872
   0.86401294  0.83426442  0.48533282
   0.30465776  0.86181653  0.45575641
   0.97864680  0.53106958  0.15323438
   0.83999471  0.30436725  0.48866467
   0.49977286  0.96924228  0.13812759
   0.70674543  0.33522016  0.49289977
   0.28209892  0.02220564  0.79301005
   0.63775018  0.33391531  0.19428914
   0.96308683  0.68991622  0.48335767
   0.35390356  0.95267880  0.45801081
   0.35202553  0.02416010  0.12770837
   0.71055423  0.97576203  0.18571146
   0.34607708  0.66327114  0.74673545
   0.73205379  0.27796166  0.02152911
   0.97917194  0.31605193  0.18743156
   0.31346966  0.70628311  0.18645048
   0.97591934  0.38466124  0.85576437
   0.64689610  0.97093005  0.85169144
   0.03188121  0.62541664  0.14982181
   0.64146624  0.03956586  0.52051418
   0.02852688  0.69328878  0.82161745
   0.30262963  0.62642841  0.57619992
   0.04451327  0.31851248  0.51928083
   0.70492883  0.43797965  0.37060544
   0.61863624  0.44246787  0.01020139
   0.79121242  0.21176248  0.69086025
Direct configuration=    63
   0.05855384  0.25787736  0.31508179
   0.03276906  0.30123905  0.95004439
   0.10181371  0.26196173  0.71698714
   0.68623986  0.05427859  0.31554079
   0.66362571  0.03316769  0.95738307
   0.63828257  0.10013938  0.71858589
   0.02401806  0.39687666  0.65375675
   0.27459094  0.66955401  0.34512395
   0.32114837  0.64103895  0.98247417
   0.28920551  0.59271137  0.79232140
   0.58542387  0.01563456  0.64745482
   0.29421336  0.03476288  0.35548326
   0.22616379  0.07589074  0.59267324
   0.27050867  0.08062727  0.99822080
   0.66675796  0.28826872  0.44006420
   0.73402395  0.20102047  0.56821825
   0.00966906  0.63293562  0.71106448
   0.03420916  0.56597576  0.94930027
   0.65351744  0.26791223  0.02362157
   0.04163394  0.67374569  0.37963799
   0.08452900  0.69603956  0.62441959
   0.36372243  0.00061048  0.68758751
   0.40398637  0.02824076  0.92480229
   0.09120775  0.64411006  0.02679530
   0.70332201  0.96028077  0.62417663
   0.77123538  0.92150971  0.38695502
   0.72750991  0.91538863  0.98334851
   0.35931484  0.69693095  0.52107889
   0.29604029  0.77677553  0.35605011
   0.00462816  0.37328447  0.28552103
   0.97373023  0.44339547  0.05664097
   0.33835739  0.72829416  0.94223161
   0.96146364  0.34545387  0.61780804
   0.92300713  0.31424052  0.38677888
   0.63212803  0.99208430  0.29130745
   0.59123830  0.96700890  0.04899497
   0.91688641  0.36509643  0.98553933
   0.94779856  0.74985593  0.68559509
   0.97252403  0.70614555  0.04793188
   0.90311270  0.74327372  0.28025227
   0.30689165  0.94216994  0.66207183
   0.32984113  0.96355486  0.02060914
   0.35629135  0.89527993  0.25574028
   0.98668857  0.61073471  0.35156905
   0.76056073  0.29589578  0.70985754
   0.68704342  0.36454138  0.01326709
   0.74654175  0.35624348  0.28275361
   0.41112317  0.97597547  0.33000701
   0.58758006  0.42082295  0.25943910
   0.62836209  0.47887856  0.24678074
   0.64411101  0.42288119  0.51490388
   0.83120704  0.17894871  0.20948948
   0.85625162  0.12395932  0.69106840
   0.83591427  0.05040112  0.58234603
   0.10933002  0.21547187  0.23360486
   0.15046810  0.16915468  0.35251137
   0.08471991  0.26147730  0.89129433
   0.12415147  0.21467638  0.03073605
   0.67857481  0.10512978  0.23664737
   0.68801927  0.14270821  0.35859967
   0.65386102  0.08405500  0.89485655
   0.66219798  0.12265045  0.03684596
   0.01472467  0.44824333  0.57524583
   0.02005696  0.48869289  0.69791297
   0.23013317  0.66116901  0.27137551
   0.17966771  0.67586531  0.38358199
   0.28470802  0.62105544  0.95197175
   0.23473114  0.63625057  0.08235223
   0.54396564  0.00569827  0.56598495
   0.49761865  0.01079154  0.68445104
   0.24342758  0.07575252  0.41761745
   0.20434400  0.12348877  0.28022346
   0.21937832  0.12290251  0.07783377
   0.17825751  0.16922092  0.95875350
   0.69515657  0.22954585  0.44177372
   0.67950941  0.19750060  0.29578255
   0.01888646  0.58225774  0.77312393
   0.01091808  0.54338588  0.63111275
   0.66121603  0.21652035  0.09812209
   0.65377863  0.17761024  0.97344349
   0.08377718  0.68079265  0.44751970
   0.13313378  0.66851357  0.31195608
   0.40447148  0.01052831  0.74995264
   0.45246068  0.00155865  0.61275840
   0.13531386  0.64810771  0.11487020
   0.18740179  0.63079830  0.00772751
   0.75530515  0.92140594  0.56295093
   0.79624000  0.87624420  0.70526994
   0.78043351  0.87589707  0.90625225
   0.82272724  0.83182452  0.02935257
   0.32520765  0.75467802  0.51292024
   0.32428260  0.79418963  0.67133018
   0.99183930  0.42564901  0.23018736
   0.99938758  0.46433267  0.37360776
   0.33478736  0.77883538  0.87490299
   0.33937527  0.81880457  0.00236239
   0.92279443  0.33151135  0.56186374
   0.87794398  0.33644421  0.70431843
   0.59121844  0.98272264  0.22556394
   0.54385196  0.99058231  0.36388020
   0.87673732  0.35339096  0.90468113
   0.83086657  0.35742116  0.02593519
   0.89488548  0.78955799  0.76225446
   0.85252624  0.83364159  0.63906395
   0.91975938  0.74425341  0.10578142
   0.87905045  0.78927185  0.96327488
   0.31690053  0.89023720  0.73803654
   0.31384220  0.84976703  0.61015013
   0.33949456  0.91258900  0.08051352
   0.33120079  0.87374603  0.93898415
   0.99570340  0.55933289  0.42964481
   0.99006652  0.51914674  0.30709199
   0.79436349  0.32056936  0.76497597
   0.83686107  0.31988600  0.63963614
   0.74358091  0.34331408  0.09334088
   0.78931251  0.34258291  0.95952266
   0.45263412  0.98605450  0.41103856
   0.49892598  0.98100928  0.29244970
   0.61828204  0.44185530  0.34327648
   0.84536476  0.08751609  0.63510224
   0.79046841  0.21699657  0.12451800
   0.13979465  0.16892533  0.50724676
   0.70202097  0.12850947  0.50932892
   0.03155965  0.47673725  0.85168650
   0.17587005  0.69371692  0.53156717
   0.49691197  0.02251143  0.83874802
   0.18892290  0.16956951  0.80403182
   0.64106386  0.19082830  0.82099832
   0.19039496  0.61375433  0.85925237
   0.81112401  0.83126331  0.18293110
   0.34879038  0.80717895  0.15707492
   0.83052263  0.36975414  0.17937998
   0.86400439  0.83427150  0.48536486
   0.30460146  0.86185948  0.45585552
   0.97864722  0.53107845  0.15325154
   0.84003488  0.30434555  0.48861565
   0.49978743  0.96920676  0.13812771
   0.70678125  0.33520534  0.49293362
   0.28209210  0.02220657  0.79308983
   0.63776150  0.33388523  0.19416426
   0.96309227  0.68992387  0.48336925
   0.35388145  0.95269604  0.45801239
   0.35204004  0.02414448  0.12768913
   0.71054497  0.97576136  0.18576772
   0.34605605  0.66329828  0.74674751
   0.73202616  0.27799575  0.02151441
   0.97919649  0.31605672  0.18742238
   0.31345498  0.70630908  0.18639699
   0.97593642  0.38467025  0.85573587
   0.64688206  0.97090509  0.85175575
   0.03188833  0.62542262  0.14983541
   0.64146093  0.03954448  0.52054415
   0.02853027  0.69330410  0.82161127
   0.30269558  0.62638830  0.57607641
   0.04454712  0.31850685  0.51927641
   0.70491873  0.43795915  0.37070353
   0.61860179  0.44251032  0.01042971
   0.79114724  0.21175706  0.69108665
Direct configuration=    64
   0.05854672  0.25787271  0.31511064
   0.03276144  0.30123846  0.95005151
   0.10180652  0.26196296  0.71701007
   0.68624391  0.05427608  0.31551149
   0.66363726  0.03316795  0.95737698
   0.63828635  0.10015131  0.71857350
   0.02400995  0.39687521  0.65375909
   0.27457834  0.66956703  0.34517104
   0.32114567  0.64103915  0.98248661
   0.28920062  0.59271065  0.79235070
   0.58542778  0.01564132  0.64745522
   0.29421826  0.03477152  0.35548891
   0.22616739  0.07589582  0.59267127
   0.27051014  0.08064237  0.99819247
   0.66675319  0.28826481  0.44011314
   0.73403277  0.20101557  0.56820512
   0.00965663  0.63293680  0.71106599
   0.03420867  0.56597244  0.94929050
   0.65353434  0.26790631  0.02366790
   0.04162766  0.67373917  0.37961961
   0.08452101  0.69603620  0.62442588
   0.36373477  0.00059278  0.68760621
   0.40399546  0.02823257  0.92481236
   0.09121505  0.64409790  0.02679910
   0.70332536  0.96028891  0.62415906
   0.77123654  0.92151127  0.38694077
   0.72751194  0.91539246  0.98333366
   0.35934187  0.69691615  0.52111779
   0.29606417  0.77675508  0.35606856
   0.00461971  0.37328486  0.28552350
   0.97372832  0.44339185  0.05664711
   0.33835917  0.72829161  0.94224958
   0.96146108  0.34545343  0.61781644
   0.92299712  0.31423738  0.38677196
   0.63213632  0.99208387  0.29129146
   0.59123911  0.96701475  0.04898544
   0.91687764  0.36509691  0.98554193
   0.94779440  0.74985439  0.68558826
   0.97251937  0.70614237  0.04792447
   0.90310765  0.74327264  0.28024780
   0.30687901  0.94217048  0.66203950
   0.32982631  0.96356584  0.02061550
   0.35630440  0.89527149  0.25572150
   0.98668247  0.61073313  0.35156983
   0.76054148  0.29590124  0.70987936
   0.68704140  0.36453031  0.01329746
   0.74654072  0.35623852  0.28275385
   0.41113651  0.97596114  0.32999362
   0.58757316  0.42083869  0.25940902
   0.62837162  0.47887459  0.24668961
   0.64411457  0.42289089  0.51484521
   0.83123086  0.17894744  0.20944254
   0.85626636  0.12396482  0.69107207
   0.83592075  0.05040538  0.58244375
   0.10932300  0.21547127  0.23361735
   0.15046436  0.16915709  0.35251829
   0.08471259  0.26147936  0.89130992
   0.12414466  0.21467904  0.03074644
   0.67858340  0.10513102  0.23666208
   0.68802760  0.14270010  0.35862840
   0.65386755  0.08405633  0.89484000
   0.66220509  0.12265484  0.03685327
   0.01472056  0.44824017  0.57524774
   0.02005409  0.48868962  0.69791453
   0.23012382  0.66118013  0.27140200
   0.17965879  0.67587034  0.38359053
   0.28470531  0.62105936  0.95200167
   0.23472840  0.63626164  0.08239391
   0.54396830  0.00570183  0.56597789
   0.49762215  0.01079035  0.68445105
   0.24343232  0.07575880  0.41762933
   0.20434540  0.12349381  0.28022984
   0.21938117  0.12290978  0.07783196
   0.17825344  0.16922747  0.95876577
   0.69516260  0.22954337  0.44180605
   0.67951582  0.19749969  0.29581719
   0.01888167  0.58225521  0.77311796
   0.01091624  0.54338105  0.63110707
   0.66122563  0.21652400  0.09813640
   0.65378699  0.17761237  0.97344530
   0.08376922  0.68079055  0.44751055
   0.13312903  0.66851448  0.31195021
   0.40448305  0.01051648  0.74994456
   0.45246692  0.00155394  0.61275556
   0.13531640  0.64810197  0.11486511
   0.18740664  0.63079793  0.00775516
   0.75530405  0.92141185  0.56293847
   0.79624043  0.87624647  0.70525260
   0.78043393  0.87589935  0.90623788
   0.82272517  0.83182488  0.02934182
   0.32522587  0.75466317  0.51292660
   0.32429071  0.79418169  0.67133361
   0.99183544  0.42564651  0.23019003
   0.99938560  0.46432950  0.37360734
   0.33478638  0.77883378  0.87490573
   0.33935951  0.81881355  0.00236373
   0.92278092  0.33151242  0.56187076
   0.87792833  0.33645248  0.70433360
   0.59122295  0.98272322  0.22555120
   0.54385392  0.99058524  0.36387964
   0.87673160  0.35339331  0.90469228
   0.83085918  0.35742454  0.02596288
   0.89488334  0.78955667  0.76224650
   0.85252629  0.83364153  0.63904888
   0.91975307  0.74425325  0.10577964
   0.87904821  0.78927066  0.96326559
   0.31689648  0.89023740  0.73800033
   0.31385769  0.84975146  0.61014349
   0.33948748  0.91259497  0.08050869
   0.33118615  0.87375436  0.93897149
   0.99570214  0.55933032  0.42964177
   0.99006677  0.51914309  0.30708400
   0.79435405  0.32057166  0.76497449
   0.83684093  0.31989542  0.63964565
   0.74357739  0.34330794  0.09335618
   0.78930870  0.34257938  0.95952961
   0.45264233  0.98604996  0.41102914
   0.49892806  0.98101300  0.29243257
   0.61828073  0.44186571  0.34317645
   0.84537271  0.08750629  0.63513380
   0.79048611  0.21699440  0.12452391
   0.13979270  0.16892798  0.50725342
   0.70202771  0.12850490  0.50934595
   0.03156001  0.47673475  0.85168512
   0.17585094  0.69372322  0.53159131
   0.49692391  0.02249705  0.83873798
   0.18892184  0.16956718  0.80403434
   0.64107608  0.19083586  0.82100777
   0.19041059  0.61374925  0.85928071
   0.81111824  0.83126776  0.18291229
   0.34875897  0.80719868  0.15707811
   0.83051213  0.36975808  0.17940090
   0.86400806  0.83426846  0.48535111
   0.30462563  0.86184104  0.45581297
   0.97864704  0.53107464  0.15324417
   0.84001764  0.30435487  0.48863669
   0.49978118  0.96922201  0.13812766
   0.70676587  0.33521170  0.49291909
   0.28209503  0.02220617  0.79305558
   0.63775664  0.33389814  0.19421787
   0.96308994  0.68992059  0.48336428
   0.35389094  0.95268864  0.45801171
   0.35203381  0.02415118  0.12769739
   0.71054895  0.97576165  0.18574357
   0.34606508  0.66328663  0.74674233
   0.73203802  0.27798112  0.02152072
   0.97918595  0.31605467  0.18742632
   0.31346128  0.70629793  0.18641995
   0.97592909  0.38466638  0.85574811
   0.64688809  0.97091580  0.85172815
   0.03188527  0.62542005  0.14982957
   0.64146321  0.03955366  0.52053128
   0.02852881  0.69329753  0.82161392
   0.30266727  0.62640552  0.57612943
   0.04453259  0.31850927  0.51927830
   0.70492307  0.43796795  0.37066142
   0.61861658  0.44249209  0.01033170
   0.79117522  0.21175939  0.69098946
Direct configuration=    65
   0.05855222  0.25787934  0.31508561
   0.03276943  0.30123996  0.95003662
   0.10181324  0.26196220  0.71699548
   0.68623945  0.05427654  0.31553100
   0.66362674  0.03316732  0.95738374
   0.63828093  0.10014204  0.71858108
   0.02401842  0.39687634  0.65375605
   0.27458800  0.66955739  0.34512610
   0.32114970  0.64103606  0.98247735
   0.28920448  0.59271105  0.79229627
   0.58542402  0.01563571  0.64745545
   0.29421141  0.03476673  0.35547960
   0.22616459  0.07589172  0.59266095
   0.27050991  0.08063035  0.99822042
   0.66675926  0.28826362  0.44007766
   0.73402461  0.20101953  0.56822376
   0.00966770  0.63293626  0.71106543
   0.03420903  0.56597577  0.94929804
   0.65351864  0.26790575  0.02363813
   0.04163084  0.67374524  0.37963483
   0.08452665  0.69604013  0.62442602
   0.36371949  0.00060864  0.68758417
   0.40399118  0.02824232  0.92482443
   0.09120741  0.64410892  0.02679874
   0.70332527  0.96027859  0.62417278
   0.77123536  0.92151002  0.38695407
   0.72751130  0.91538797  0.98334634
   0.35931817  0.69693001  0.52109647
   0.29604622  0.77677132  0.35605839
   0.00462817  0.37328683  0.28552232
   0.97373079  0.44339459  0.05664854
   0.33835392  0.72829615  0.94222238
   0.96147349  0.34545532  0.61780711
   0.92300917  0.31423913  0.38675984
   0.63213123  0.99208434  0.29130785
   0.59123820  0.96700886  0.04900093
   0.91688554  0.36509532  0.98553544
   0.94779803  0.74985667  0.68559559
   0.97252502  0.70614354  0.04793024
   0.90311322  0.74327300  0.28025202
   0.30688864  0.94216934  0.66207234
   0.32983898  0.96355583  0.02060872
   0.35629571  0.89527656  0.25573912
   0.98668753  0.61073450  0.35157251
   0.76055603  0.29590021  0.70986193
   0.68704422  0.36454040  0.01327058
   0.74653953  0.35624629  0.28275247
   0.41112554  0.97597183  0.32999646
   0.58758645  0.42082225  0.25943512
   0.62836085  0.47887557  0.24678161
   0.64411378  0.42288129  0.51492400
   0.83120360  0.17895243  0.20947229
   0.85625447  0.12396097  0.69107542
   0.83591599  0.05040735  0.58235763
   0.10932914  0.21547068  0.23361199
   0.15046520  0.16915746  0.35251427
   0.08471868  0.26147995  0.89129346
   0.12415083  0.21467621  0.03073728
   0.67857483  0.10512936  0.23665273
   0.68802048  0.14270386  0.35859924
   0.65386253  0.08405239  0.89484984
   0.66219947  0.12265338  0.03684692
   0.01472509  0.44824287  0.57524104
   0.02005648  0.48869357  0.69791517
   0.23013027  0.66116990  0.27137267
   0.17966913  0.67586415  0.38357287
   0.28470822  0.62105571  0.95198037
   0.23473356  0.63625401  0.08236815
   0.54396112  0.00570048  0.56597388
   0.49761860  0.01079236  0.68447249
   0.24342774  0.07575250  0.41763256
   0.20434493  0.12348697  0.28022714
   0.21938005  0.12290289  0.07782904
   0.17825722  0.16922045  0.95876155
   0.69515656  0.22954845  0.44177908
   0.67950863  0.19750364  0.29579183
   0.01888596  0.58225780  0.77312375
   0.01091772  0.54338555  0.63111301
   0.66121672  0.21652401  0.09810820
   0.65377576  0.17761445  0.97343860
   0.08377699  0.68079187  0.44750490
   0.13313341  0.66851350  0.31196603
   0.40447803  0.01052362  0.74992113
   0.45246028  0.00156051  0.61278591
   0.13531840  0.64810572  0.11486078
   0.18740499  0.63079821  0.00773137
   0.75530104  0.92140890  0.56295479
   0.79624053  0.87624405  0.70527023
   0.78043152  0.87589893  0.90624930
   0.82272669  0.83182443  0.02935852
   0.32520357  0.75468080  0.51289520
   0.32428231  0.79419187  0.67134125
   0.99184021  0.42564803  0.23018491
   0.99938857  0.46433238  0.37361179
   0.33478783  0.77883651  0.87489820
   0.33937100  0.81880741  0.00235612
   0.92278765  0.33151045  0.56187431
   0.87793941  0.33644462  0.70432454
   0.59121747  0.98271906  0.22555329
   0.54385566  0.99058116  0.36389022
   0.87673737  0.35339208  0.90468518
   0.83086608  0.35742485  0.02595082
   0.89488515  0.78955776  0.76225347
   0.85252662  0.83364108  0.63906130
   0.91975610  0.74425553  0.10578775
   0.87905063  0.78927166  0.96327440
   0.31689946  0.89023532  0.73802115
   0.31384503  0.84975714  0.61015937
   0.33949454  0.91259017  0.08050379
   0.33120089  0.87374422  0.93899861
   0.99570377  0.55933371  0.42964724
   0.99006645  0.51914712  0.30708675
   0.79436528  0.32056998  0.76496668
   0.83685265  0.31988484  0.63963843
   0.74357908  0.34330771  0.09334926
   0.78931434  0.34258093  0.95950488
   0.45263514  0.98605612  0.41104470
   0.49892563  0.98100861  0.29243045
   0.61827655  0.44185960  0.34321787
   0.84536386  0.08750500  0.63509022
   0.79047392  0.21699557  0.12452184
   0.13979278  0.16892674  0.50725119
   0.70202183  0.12850805  0.50933882
   0.03156014  0.47673721  0.85168474
   0.17586620  0.69371698  0.53157411
   0.49691363  0.02250887  0.83872941
   0.18892397  0.16956787  0.80403115
   0.64106548  0.19083042  0.82100087
   0.19039732  0.61375414  0.85925694
   0.81112409  0.83126340  0.18292811
   0.34878822  0.80718204  0.15706400
   0.83051965  0.36975380  0.17936860
   0.86400480  0.83427106  0.48536603
   0.30460168  0.86185863  0.45582993
   0.97864718  0.53107843  0.15325368
   0.84003439  0.30434596  0.48863047
   0.49978677  0.96920985  0.13814152
   0.70678096  0.33520410  0.49293202
   0.28209684  0.02220320  0.79307786
   0.63775887  0.33389172  0.19417044
   0.96309221  0.68992322  0.48336812
   0.35388245  0.95269894  0.45801948
   0.35203316  0.02414460  0.12769601
   0.71054537  0.97576256  0.18576554
   0.34605880  0.66329508  0.74674725
   0.73202842  0.27799138  0.02152788
   0.97919380  0.31605625  0.18742585
   0.31345694  0.70630739  0.18641297
   0.97593507  0.38466876  0.85574342
   0.64688579  0.97090448  0.85174885
   0.03188694  0.62542218  0.14983663
   0.64146220  0.03954693  0.52053953
   0.02852958  0.69330409  0.82160914
   0.30269261  0.62638979  0.57609262
   0.04454340  0.31850858  0.51926824
   0.70492091  0.43795776  0.37070707
   0.61860442  0.44250800  0.01042432
   0.79114974  0.21176162  0.69107557
Direct configuration=    66
   0.05856875  0.25789923  0.31501054
   0.03279341  0.30124446  0.94999194
   0.10183339  0.26195990  0.71695172
   0.68622607  0.05427793  0.31558953
   0.66359518  0.03316544  0.95740401
   0.63826466  0.10011422  0.71860382
   0.02404384  0.39687971  0.65374693
   0.27461701  0.66952848  0.34499126
   0.32116180  0.64102680  0.98244957
   0.28921606  0.59271226  0.79213300
   0.58541273  0.01561890  0.64745613
   0.29419087  0.03475235  0.35545166
   0.22615616  0.07587940  0.59262999
   0.27050923  0.08059428  0.99830427
   0.66677749  0.28826004  0.43997123
   0.73400012  0.20103139  0.56827968
   0.00970092  0.63293465  0.71106374
   0.03421010  0.56598577  0.94932066
   0.65347153  0.26790410  0.02354880
   0.04164039  0.67376346  0.37968047
   0.08454358  0.69605191  0.62442645
   0.36367366  0.00065623  0.68751807
   0.40397835  0.02827160  0.92486066
   0.09118449  0.64414198  0.02679763
   0.70332503  0.96024765  0.62421396
   0.77123183  0.92150626  0.38699398
   0.72750937  0.91537450  0.98338439
   0.35924709  0.69697159  0.52103249
   0.29599236  0.77682002  0.35602788
   0.00465353  0.37329273  0.28551877
   0.97373820  0.44340279  0.05665283
   0.33833815  0.72830979  0.94214078
   0.96151074  0.34546102  0.61777912
   0.92304534  0.31424441  0.38672351
   0.63211599  0.99208573  0.29135703
   0.59123550  0.96699117  0.04904737
   0.91690923  0.36509053  0.98551595
   0.94780891  0.74986349  0.68561759
   0.97254196  0.70614703  0.04794756
   0.90312996  0.74327409  0.28026468
   0.30691755  0.94216594  0.66217087
   0.32987698  0.96352578  0.02058840
   0.35626961  0.89529176  0.25579197
   0.98670271  0.61073861  0.35158057
   0.76059966  0.29589713  0.70980965
   0.68705267  0.36457068  0.01318995
   0.74653596  0.35626963  0.28274836
   0.41109261  0.97600392  0.33000501
   0.58762631  0.42077290  0.25951343
   0.62832854  0.47887851  0.24705764
   0.64411140  0.42285248  0.51516038
   0.83112179  0.17896740  0.20956153
   0.85621882  0.12394941  0.69108546
   0.83590174  0.05041325  0.58209930
   0.10934756  0.21546890  0.23359590
   0.15046774  0.16915855  0.35250221
   0.08473697  0.26148171  0.89124407
   0.12416936  0.21466773  0.03070981
   0.67854912  0.10512438  0.23662468
   0.68799914  0.14271515  0.35851174
   0.65384746  0.08404059  0.89487936
   0.66218259  0.12264902  0.03682788
   0.01473869  0.44825100  0.57522095
   0.02006363  0.48870541  0.69791710
   0.23014963  0.66113922  0.27128466
   0.17970016  0.67584558  0.38351991
   0.28471695  0.62104479  0.95191646
   0.23474905  0.63623110  0.08229087
   0.54393957  0.00569641  0.56596185
   0.49760794  0.01079839  0.68453683
   0.24341400  0.07573361  0.41764225
   0.20434352  0.12346646  0.28021902
   0.21937672  0.12288223  0.07782026
   0.17826854  0.16919939  0.95874888
   0.69513844  0.22956369  0.44169814
   0.67948704  0.19751551  0.29571574
   0.01889883  0.58226556  0.77314115
   0.01092216  0.54339903  0.63113084
   0.66118997  0.21652405  0.09802361
   0.65374207  0.17762071  0.97341851
   0.08380030  0.68079583  0.44748795
   0.13314654  0.66851057  0.31201352
   0.40446297  0.01054507  0.74985083
   0.45244038  0.00158021  0.61287697
   0.13532439  0.64811696  0.11484778
   0.18740004  0.63079905  0.00766001
   0.75529200  0.92140006  0.56300375
   0.79624081  0.87623681  0.70532312
   0.78042429  0.87589768  0.90628356
   0.82273127  0.83182311  0.02940863
   0.32513668  0.75473367  0.51280100
   0.32425709  0.79422239  0.67136417
   0.99185451  0.42565261  0.23016958
   0.99939749  0.46434103  0.37362513
   0.33479217  0.77884469  0.87487560
   0.33940548  0.81878897  0.00233329
   0.92280785  0.33150452  0.56188499
   0.87797264  0.33642103  0.70429737
   0.59120102  0.98270657  0.22555958
   0.54386085  0.99056893  0.36392197
   0.87675470  0.35338842  0.90466388
   0.83088681  0.35742578  0.02591466
   0.89489059  0.78956105  0.76227437
   0.85252762  0.83363971  0.63909855
   0.91976517  0.74426237  0.10581208
   0.87905790  0.78927465  0.96330085
   0.31690837  0.89022906  0.73808361
   0.31380703  0.84977419  0.61020703
   0.33951572  0.91257578  0.08048910
   0.33124512  0.87371380  0.93907996
   0.99570866  0.55934385  0.42966367
   0.99006547  0.51915918  0.30709500
   0.79439898  0.32056495  0.76494323
   0.83688781  0.31985310  0.63961678
   0.74358415  0.34330702  0.09332848
   0.78933127  0.34258559  0.95943072
   0.45261357  0.98607459  0.41109137
   0.49891837  0.98099544  0.29242407
   0.61826402  0.44184128  0.34334213
   0.84533732  0.08750112  0.63495946
   0.79043738  0.21699909  0.12451566
   0.13979303  0.16892302  0.50724450
   0.70200419  0.12851749  0.50931746
   0.03156053  0.47674459  0.85168360
   0.17591197  0.69369824  0.53152251
   0.49688278  0.02254432  0.83870372
   0.18893038  0.16956994  0.80402159
   0.64103369  0.19081408  0.82098020
   0.19035752  0.61376882  0.85918564
   0.81114165  0.83125030  0.18297560
   0.34887598  0.80713211  0.15702167
   0.83054221  0.36974094  0.17927171
   0.86399503  0.83427884  0.48541080
   0.30452982  0.86191141  0.45588081
   0.97864761  0.53108979  0.15328221
   0.84008466  0.30431924  0.48861181
   0.49980356  0.96917337  0.13818309
   0.70682621  0.33518130  0.49297079
   0.28210229  0.02219427  0.79314468
   0.63776554  0.33387245  0.19402817
   0.96309902  0.68993113  0.48337965
   0.35385700  0.95272987  0.45804277
   0.35203122  0.02412486  0.12769189
   0.71053466  0.97576531  0.18583146
   0.34603998  0.66332042  0.74676199
   0.73199961  0.27802219  0.02154938
   0.97921737  0.31606102  0.18742445
   0.31344393  0.70633575  0.18639202
   0.97595302  0.38467590  0.85572936
   0.64687891  0.97087049  0.85181097
   0.03189195  0.62542856  0.14985782
   0.64145917  0.03952673  0.52056428
   0.02853189  0.69332377  0.82159478
   0.30276863  0.62634258  0.57598220
   0.04457584  0.31850652  0.51923803
   0.70491442  0.43792720  0.37084402
   0.61856797  0.44255571  0.01070220
   0.79107330  0.21176833  0.69133391
Direct configuration=    67
   0.05860179  0.25793901  0.31486039
   0.03284137  0.30125344  0.94990257
   0.10187369  0.26195532  0.71686419
   0.68619931  0.05428071  0.31570660
   0.66353205  0.03316167  0.95744455
   0.63823212  0.10005857  0.71864929
   0.02409468  0.39688644  0.65372870
   0.27467501  0.66947064  0.34472158
   0.32118601  0.64100827  0.98239401
   0.28923922  0.59271469  0.79180646
   0.58539014  0.01558528  0.64745751
   0.29414977  0.03472361  0.35539579
   0.22613931  0.07585477  0.59256806
   0.27050785  0.08052216  0.99847197
   0.66681394  0.28825288  0.43975836
   0.73395115  0.20105513  0.56839152
   0.00976737  0.63293144  0.71106036
   0.03421224  0.56600575  0.94936590
   0.65337731  0.26790078  0.02337015
   0.04165949  0.67379989  0.37977176
   0.08457742  0.69607549  0.62442730
   0.36358199  0.00075139  0.68738586
   0.40395268  0.02833015  0.92493311
   0.09113865  0.64420810  0.02679543
   0.70332455  0.96018577  0.62429631
   0.77122477  0.92149875  0.38707379
   0.72750552  0.91534755  0.98346049
   0.35910493  0.69705475  0.52090453
   0.29588465  0.77691744  0.35596686
   0.00470426  0.37330454  0.28551169
   0.97375301  0.44341921  0.05666141
   0.33830662  0.72833706  0.94197757
   0.96158525  0.34547240  0.61772313
   0.92311766  0.31425496  0.38665083
   0.63208550  0.99208851  0.29145538
   0.59123010  0.96695581  0.04914027
   0.91695662  0.36508096  0.98547698
   0.94783067  0.74987715  0.68566158
   0.97257586  0.70615401  0.04798219
   0.90316344  0.74327627  0.28029000
   0.30697536  0.94215913  0.66236793
   0.32995297  0.96346569  0.02054776
   0.35621742  0.89532217  0.25589767
   0.98673306  0.61074684  0.35159667
   0.76068693  0.29589097  0.70970509
   0.68706957  0.36463124  0.01302867
   0.74652882  0.35631630  0.28274012
   0.41102675  0.97606810  0.33002209
   0.58770603  0.42067421  0.25967005
   0.62826392  0.47888438  0.24760968
   0.64410663  0.42279487  0.51563314
   0.83095819  0.17899735  0.20974001
   0.85614750  0.12392628  0.69110556
   0.83587322  0.05042505  0.58158263
   0.10938441  0.21546535  0.23356372
   0.15047282  0.16916074  0.35247809
   0.08477355  0.26148525  0.89114530
   0.12420640  0.21465078  0.03065486
   0.67849770  0.10511443  0.23656858
   0.68795645  0.14273773  0.35833674
   0.65381732  0.08401697  0.89493841
   0.66214882  0.12264028  0.03678981
   0.01476589  0.44826725  0.57518077
   0.02007794  0.48872911  0.69792094
   0.23018835  0.66107787  0.27110864
   0.17976222  0.67580845  0.38341398
   0.28473440  0.62102293  0.95178864
   0.23478004  0.63618530  0.08213633
   0.54389648  0.00568829  0.56593781
   0.49758663  0.01081045  0.68466551
   0.24338651  0.07569583  0.41766163
   0.20434070  0.12342543  0.28020279
   0.21937004  0.12284091  0.07780270
   0.17829120  0.16915726  0.95872353
   0.69510220  0.22959416  0.44153627
   0.67944385  0.19753925  0.29556355
   0.01892456  0.58228108  0.77317593
   0.01093104  0.54342599  0.63116649
   0.66113647  0.21652413  0.09785443
   0.65367468  0.17763323  0.97337832
   0.08384692  0.68080376  0.44745404
   0.13317280  0.66850471  0.31210849
   0.40443284  0.01058795  0.74971023
   0.45240059  0.00161962  0.61305909
   0.13533637  0.64813944  0.11482178
   0.18739014  0.63080073  0.00751728
   0.75527393  0.92138238  0.56310167
   0.79624136  0.87622233  0.70542891
   0.78040982  0.87589516  0.90635208
   0.82274043  0.83182046  0.02950885
   0.32500290  0.75483943  0.51261260
   0.32420666  0.79428345  0.67141002
   0.99188312  0.42566178  0.23013890
   0.99941534  0.46435833  0.37365182
   0.33480085  0.77886106  0.87483040
   0.33947443  0.81875208  0.00228763
   0.92284824  0.33149267  0.56190634
   0.87803910  0.33637386  0.70424301
   0.59116811  0.98268158  0.22557214
   0.54387123  0.99054447  0.36398546
   0.87678935  0.35338109  0.90462128
   0.83092826  0.35742764  0.02584233
   0.89490146  0.78956762  0.76231617
   0.85252962  0.83363697  0.63917305
   0.91978332  0.74427605  0.10586073
   0.87907244  0.78928064  0.96335375
   0.31692621  0.89021655  0.73820854
   0.31373104  0.84980829  0.61030234
   0.33955808  0.91254700  0.08045972
   0.33133358  0.87365295  0.93924266
   0.99571844  0.55936415  0.42969652
   0.99006352  0.51918331  0.30711150
   0.79446637  0.32055489  0.76489633
   0.83695813  0.31978963  0.63957347
   0.74359429  0.34330563  0.09328693
   0.78936513  0.34259491  0.95928238
   0.45257044  0.98611153  0.41118470
   0.49890384  0.98096912  0.29241133
   0.61823895  0.44180463  0.34359067
   0.84528422  0.08749336  0.63469794
   0.79036429  0.21700612  0.12450328
   0.13979353  0.16891558  0.50723111
   0.70196891  0.12853637  0.50927473
   0.03156131  0.47675934  0.85168132
   0.17600351  0.69366076  0.53141930
   0.49682108  0.02261521  0.83865232
   0.18894318  0.16957407  0.80400247
   0.64097010  0.19078141  0.82093884
   0.19027792  0.61379818  0.85904303
   0.81117677  0.83122411  0.18307056
   0.34905150  0.80703226  0.15693702
   0.83058733  0.36971522  0.17907792
   0.86397547  0.83429440  0.48550033
   0.30438611  0.86201697  0.45598256
   0.97864846  0.53111252  0.15333926
   0.84018519  0.30426581  0.48857449
   0.49983714  0.96910042  0.13826624
   0.70691670  0.33513569  0.49304835
   0.28211317  0.02217641  0.79327833
   0.63777888  0.33383390  0.19374363
   0.96311265  0.68994694  0.48340270
   0.35380608  0.95279172  0.45808935
   0.35202733  0.02408538  0.12768363
   0.71051322  0.97577079  0.18596328
   0.34600235  0.66337110  0.74679147
   0.73194199  0.27808380  0.02159238
   0.97926449  0.31607055  0.18742165
   0.31341792  0.70639248  0.18635011
   0.97598891  0.38469017  0.85570124
   0.64686514  0.97080253  0.85193520
   0.03190197  0.62544132  0.14990020
   0.64145311  0.03948633  0.52061378
   0.02853650  0.69336314  0.82156606
   0.30292067  0.62624818  0.57576137
   0.04464072  0.31850239  0.51917763
   0.70490145  0.43786607  0.37111791
   0.61849506  0.44265115  0.01125795
   0.79092042  0.21178174  0.69185060
Direct configuration=    68
   0.05857941  0.25791207  0.31496207
   0.03280889  0.30124736  0.94996309
   0.10184639  0.26195842  0.71692346
   0.68621743  0.05427882  0.31562732
   0.66357480  0.03316422  0.95741709
   0.63825416  0.10009625  0.71861850
   0.02406025  0.39688188  0.65374105
   0.27463573  0.66950981  0.34490421
   0.32116962  0.64102082  0.98243164
   0.28922354  0.59271305  0.79202760
   0.58540544  0.01560805  0.64745658
   0.29417760  0.03474308  0.35543363
   0.22615072  0.07587145  0.59261000
   0.27050878  0.08057100  0.99835840
   0.66678925  0.28825773  0.43990252
   0.73398431  0.20103905  0.56831578
   0.00972237  0.63293362  0.71106265
   0.03421079  0.56599222  0.94933526
   0.65344111  0.26790302  0.02349113
   0.04164655  0.67377522  0.37970994
   0.08455450  0.69605952  0.62442672
   0.36364407  0.00068694  0.68747539
   0.40397006  0.02829050  0.92488404
   0.09116970  0.64416332  0.02679692
   0.70332488  0.96022768  0.62424054
   0.77122955  0.92150384  0.38701974
   0.72750813  0.91536580  0.98340895
   0.35920121  0.69699843  0.52099118
   0.29595759  0.77685147  0.35600818
   0.00466991  0.37329654  0.28551649
   0.97374298  0.44340809  0.05665560
   0.33832797  0.72831859  0.94208810
   0.96153479  0.34546469  0.61776105
   0.92306868  0.31424781  0.38670005
   0.63210615  0.99208663  0.29138878
   0.59123376  0.96697976  0.04907736
   0.91692453  0.36508744  0.98550337
   0.94781593  0.74986790  0.68563179
   0.97255290  0.70614928  0.04795874
   0.90314077  0.74327480  0.28027285
   0.30693621  0.94216374  0.66223447
   0.32990151  0.96350639  0.02057528
   0.35625276  0.89530158  0.25582609
   0.98671251  0.61074127  0.35158577
   0.76062783  0.29589514  0.70977590
   0.68705813  0.36459023  0.01313789
   0.74653366  0.35628470  0.28274570
   0.41107135  0.97602464  0.33001052
   0.58765204  0.42074105  0.25956398
   0.62830768  0.47888040  0.24723583
   0.64410986  0.42283388  0.51531298
   0.83106899  0.17897707  0.20961914
   0.85619580  0.12394194  0.69109195
   0.83589253  0.05041706  0.58193253
   0.10935946  0.21546776  0.23358551
   0.15046938  0.16915926  0.35249442
   0.08474878  0.26148285  0.89121219
   0.12418131  0.21466226  0.03069207
   0.67853252  0.10512117  0.23660657
   0.68798536  0.14272244  0.35845525
   0.65383773  0.08403296  0.89489842
   0.66217169  0.12264620  0.03681559
   0.01474747  0.44825625  0.57520798
   0.02006825  0.48871306  0.69791834
   0.23016213  0.66111942  0.27122784
   0.17972019  0.67583359  0.38348572
   0.28472258  0.62103773  0.95187520
   0.23475905  0.63621632  0.08224099
   0.54392566  0.00569379  0.56595409
   0.49760106  0.01080229  0.68457837
   0.24340513  0.07572141  0.41764850
   0.20434261  0.12345322  0.28021378
   0.21937456  0.12286889  0.07781459
   0.17827586  0.16918579  0.95874069
   0.69512674  0.22957353  0.44164589
   0.67947310  0.19752318  0.29566661
   0.01890713  0.58227057  0.77315237
   0.01092503  0.54340773  0.63114235
   0.66117270  0.21652408  0.09796900
   0.65372032  0.17762475  0.97340554
   0.08381535  0.68079839  0.44747700
   0.13315501  0.66850868  0.31204418
   0.40445324  0.01055891  0.74980544
   0.45242754  0.00159293  0.61293576
   0.13532826  0.64812421  0.11483939
   0.18739684  0.63079959  0.00761394
   0.75528617  0.92139436  0.56303536
   0.79624099  0.87623214  0.70535727
   0.78041962  0.87589687  0.90630568
   0.82273423  0.83182226  0.02944098
   0.32509350  0.75476781  0.51274019
   0.32424081  0.79424210  0.67137897
   0.99186375  0.42565557  0.23015968
   0.99940325  0.46434661  0.37363375
   0.33479497  0.77884998  0.87486101
   0.33942773  0.81877706  0.00231855
   0.92282089  0.33150070  0.56189188
   0.87799409  0.33640581  0.70427982
   0.59119039  0.98269850  0.22556363
   0.54386420  0.99056104  0.36394246
   0.87676588  0.35338606  0.90465013
   0.83090019  0.35742638  0.02589131
   0.89489410  0.78956317  0.76228786
   0.85252827  0.83363882  0.63912260
   0.91977103  0.74426679  0.10582778
   0.87906259  0.78927659  0.96331793
   0.31691413  0.89022502  0.73812394
   0.31378250  0.84978520  0.61023779
   0.33952939  0.91256649  0.08047962
   0.33127368  0.87369416  0.93913248
   0.99571182  0.55935041  0.42967427
   0.99006484  0.51916697  0.30710033
   0.79442073  0.32056170  0.76492809
   0.83691051  0.31983261  0.63960280
   0.74358743  0.34330657  0.09331507
   0.78934220  0.34258860  0.95938283
   0.45259965  0.98608652  0.41112149
   0.49891368  0.98098695  0.29241996
   0.61825593  0.44182945  0.34342236
   0.84532018  0.08749862  0.63487504
   0.79041378  0.21700136  0.12451166
   0.13979319  0.16892062  0.50724018
   0.70199280  0.12852359  0.50930366
   0.03156078  0.47674935  0.85168286
   0.17594151  0.69368614  0.53148919
   0.49686286  0.02256720  0.83868713
   0.18893451  0.16957127  0.80401542
   0.64101317  0.19080354  0.82096685
   0.19033183  0.61377830  0.85913960
   0.81115299  0.83124185  0.18300625
   0.34893264  0.80709988  0.15699435
   0.83055678  0.36973264  0.17920916
   0.86398871  0.83428386  0.48543970
   0.30448344  0.86194549  0.45591365
   0.97864788  0.53109713  0.15330062
   0.84011711  0.30430200  0.48859976
   0.49981440  0.96914983  0.13820993
   0.70685542  0.33516658  0.49299583
   0.28210580  0.02218851  0.79318782
   0.63776985  0.33386001  0.19393632
   0.96310342  0.68993623  0.48338709
   0.35384056  0.95274983  0.45805781
   0.35202996  0.02411212  0.12768922
   0.71052774  0.97576708  0.18587401
   0.34602784  0.66333678  0.74677150
   0.73198101  0.27804208  0.02156326
   0.97923258  0.31606410  0.18742355
   0.31343554  0.70635407  0.18637849
   0.97596460  0.38468050  0.85572028
   0.64687447  0.97084856  0.85185107
   0.03189518  0.62543268  0.14987150
   0.64145721  0.03951368  0.52058026
   0.02853338  0.69333648  0.82158551
   0.30281771  0.62631211  0.57591092
   0.04459678  0.31850519  0.51921854
   0.70491023  0.43790746  0.37093243
   0.61854443  0.44258652  0.01088159
   0.79102395  0.21177266  0.69150069
Direct configuration=    69
   0.05859175  0.25792641  0.31492342
   0.03282508  0.30125337  0.94992314
   0.10186187  0.26195626  0.71690331
   0.68620739  0.05427570  0.31564198
   0.66355783  0.03315541  0.95745400
   0.63823951  0.10008505  0.71861512
   0.02407909  0.39688449  0.65373221
   0.27465063  0.66949193  0.34482488
   0.32117603  0.64100783  0.98240944
   0.28922810  0.59271878  0.79192394
   0.58539919  0.01559719  0.64746525
   0.29416251  0.03473578  0.35540593
   0.22614309  0.07586294  0.59261602
   0.27051014  0.08055177  0.99839874
   0.66679990  0.28825599  0.43984384
   0.73394947  0.20105536  0.56829729
   0.00974281  0.63293442  0.71106100
   0.03421154  0.56599910  0.94934977
   0.65340902  0.26789725  0.02344679
   0.04164786  0.67378522  0.37972078
   0.08456419  0.69606791  0.62442954
   0.36362219  0.00072062  0.68744438
   0.40396591  0.02830293  0.92485728
   0.09116263  0.64418450  0.02681657
   0.70331742  0.96021191  0.62427293
   0.77122548  0.92150218  0.38705763
   0.72750467  0.91535942  0.98343973
   0.35915255  0.69703255  0.52096594
   0.29592006  0.77688775  0.35595602
   0.00468823  0.37330192  0.28551143
   0.97374848  0.44341296  0.05666238
   0.33831179  0.72833008  0.94203410
   0.96156073  0.34546750  0.61773505
   0.92309366  0.31425023  0.38666654
   0.63209534  0.99208475  0.29140059
   0.59122983  0.96696437  0.04909279
   0.91693750  0.36508154  0.98547841
   0.94782051  0.74987516  0.68564765
   0.97255955  0.70615364  0.04797234
   0.90315115  0.74327528  0.28029416
   0.30695023  0.94215380  0.66230864
   0.32992380  0.96349361  0.02054389
   0.35624305  0.89530573  0.25586307
   0.98672054  0.61074581  0.35159903
   0.76064665  0.29589594  0.70975069
   0.68706358  0.36461049  0.01309469
   0.74652865  0.35630203  0.28272121
   0.41105837  0.97603995  0.33001972
   0.58768170  0.42070478  0.25959924
   0.62828297  0.47888599  0.24741117
   0.64410562  0.42281685  0.51544155
   0.83102568  0.17897483  0.20968876
   0.85617546  0.12393868  0.69111413
   0.83588240  0.05042082  0.58175216
   0.10936623  0.21546992  0.23356678
   0.15047169  0.16915747  0.35250197
   0.08476308  0.26148446  0.89119096
   0.12419092  0.21465806  0.03067487
   0.67851687  0.10512452  0.23660989
   0.68797535  0.14271664  0.35844088
   0.65382636  0.08402176  0.89489164
   0.66216036  0.12264718  0.03680623
   0.01475909  0.44826055  0.57520785
   0.02007184  0.48872110  0.69791807
   0.23017887  0.66110121  0.27116699
   0.17973971  0.67582034  0.38345906
   0.28473599  0.62102549  0.95180140
   0.23476959  0.63620479  0.08219538
   0.54391214  0.00569564  0.56596246
   0.49758968  0.01080689  0.68461117
   0.24339652  0.07571141  0.41764346
   0.20433519  0.12344357  0.28021435
   0.21937764  0.12285141  0.07782272
   0.17828056  0.16917494  0.95873063
   0.69513358  0.22956917  0.44166011
   0.67945989  0.19753236  0.29563712
   0.01891499  0.58227652  0.77316148
   0.01092815  0.54341526  0.63115393
   0.66115398  0.21653415  0.09790812
   0.65369361  0.17762432  0.97337131
   0.08382284  0.68080460  0.44748852
   0.13317220  0.66850164  0.31203163
   0.40443445  0.01057811  0.74982199
   0.45241772  0.00160472  0.61297202
   0.13533049  0.64812949  0.11482107
   0.18740003  0.63080021  0.00757886
   0.75528531  0.92138425  0.56305709
   0.79624042  0.87622835  0.70538337
   0.78041931  0.87589152  0.90634098
   0.82273723  0.83182151  0.02946656
   0.32505439  0.75479809  0.51272155
   0.32421957  0.79425264  0.67137456
   0.99187605  0.42566032  0.23016207
   0.99940968  0.46435291  0.37362632
   0.33479764  0.77885425  0.87482626
   0.33945125  0.81875919  0.00234133
   0.92284388  0.33149695  0.56189410
   0.87800731  0.33639184  0.70428796
   0.59119190  0.98268788  0.22560060
   0.54385428  0.99054730  0.36394969
   0.87678583  0.35338375  0.90463079
   0.83090911  0.35742911  0.02585172
   0.89489899  0.78956382  0.76230613
   0.85252824  0.83363790  0.63915027
   0.91977963  0.74427016  0.10583908
   0.87906607  0.78928012  0.96333794
   0.31691992  0.89021881  0.73815529
   0.31375892  0.84980084  0.61026999
   0.33954788  0.91255243  0.08050392
   0.33129689  0.87368302  0.93913091
   0.99571607  0.55935729  0.42968479
   0.99006603  0.51917635  0.30711799
   0.79444370  0.32055572  0.76488620
   0.83693221  0.31981328  0.63958931
   0.74359293  0.34330057  0.09329961
   0.78935605  0.34259039  0.95935420
   0.45259085  0.98610004  0.41114218
   0.49890998  0.98098129  0.29244759
   0.61825463  0.44181229  0.34352572
   0.84530191  0.08748668  0.63477470
   0.79037374  0.21702367  0.12448255
   0.13979032  0.16892113  0.50723706
   0.70197834  0.12853186  0.50926648
   0.03156244  0.47675453  0.85168121
   0.17596860  0.69367216  0.53145984
   0.49684594  0.02258967  0.83867674
   0.18894218  0.16956772  0.80400944
   0.64099218  0.19079760  0.82094813
   0.19030905  0.61378841  0.85909499
   0.81116437  0.83123347  0.18304014
   0.34898930  0.80707027  0.15693716
   0.83056719  0.36972710  0.17916505
   0.86398343  0.83428839  0.48546523
   0.30443414  0.86197890  0.45592466
   0.97864711  0.53110619  0.15331228
   0.84015064  0.30428177  0.48860464
   0.49982320  0.96912852  0.13824454
   0.70688220  0.33515260  0.49301238
   0.28211488  0.02217805  0.79320459
   0.63776880  0.33385671  0.19385182
   0.96311033  0.68993996  0.48339575
   0.35382573  0.95277215  0.45808176
   0.35201774  0.02410214  0.12769061
   0.71051977  0.97576986  0.18591252
   0.34602067  0.66334828  0.74677159
   0.73196960  0.27805269  0.02159159
   0.97924455  0.31606772  0.18742144
   0.31342974  0.70636846  0.18638317
   0.97597511  0.38468262  0.85571918
   0.64687648  0.97082664  0.85187281
   0.03189703  0.62543697  0.14989032
   0.64145579  0.03950382  0.52059492
   0.02853549  0.69335026  0.82156988
   0.30286257  0.62628639  0.57584596
   0.04461250  0.31850802  0.51918315
   0.70490812  0.43788536  0.37103981
   0.61852498  0.44261395  0.01105755
   0.79097617  0.21178412  0.69166502
Direct configuration=    70
   0.05860763  0.25794486  0.31487369
   0.03284590  0.30126110  0.94987174
   0.10188179  0.26195347  0.71687737
   0.68619447  0.05427168  0.31566085
   0.66353599  0.03314407  0.95750147
   0.63822068  0.10007064  0.71861078
   0.02410331  0.39688784  0.65372085
   0.27466979  0.66946893  0.34472282
   0.32118427  0.64099112  0.98238088
   0.28923398  0.59272616  0.79179056
   0.58539115  0.01558322  0.64747641
   0.29414309  0.03472638  0.35537030
   0.22613328  0.07585199  0.59262378
   0.27051189  0.08052703  0.99845065
   0.66681361  0.28825374  0.43976835
   0.73390463  0.20107634  0.56827350
   0.00976911  0.63293546  0.71105887
   0.03421250  0.56600796  0.94936843
   0.65336772  0.26788982  0.02338974
   0.04164953  0.67379810  0.37973473
   0.08457665  0.69607869  0.62443317
   0.36359405  0.00076394  0.68740449
   0.40396056  0.02831892  0.92482285
   0.09115353  0.64421174  0.02684186
   0.70330782  0.96019162  0.62431461
   0.77122024  0.92150004  0.38710638
   0.72750022  0.91535121  0.98347934
   0.35908995  0.69707645  0.52093346
   0.29587177  0.77693444  0.35588890
   0.00471181  0.37330884  0.28550493
   0.97375556  0.44341923  0.05667109
   0.33829098  0.72834485  0.94196463
   0.96159410  0.34547112  0.61770160
   0.92312580  0.31425335  0.38662344
   0.63208144  0.99208233  0.29141580
   0.59122479  0.96694458  0.04911264
   0.91695419  0.36507396  0.98544630
   0.94782639  0.74988450  0.68566805
   0.97256811  0.70615924  0.04798984
   0.90316451  0.74327589  0.28032157
   0.30696828  0.94214101  0.66240407
   0.32995247  0.96347718  0.02050351
   0.35623056  0.89531106  0.25591066
   0.98673087  0.61075165  0.35161610
   0.76067086  0.29589697  0.70971825
   0.68707059  0.36463655  0.01303911
   0.74652222  0.35632433  0.28268972
   0.41104168  0.97605964  0.33003156
   0.58771986  0.42065813  0.25964460
   0.62825117  0.47889318  0.24763676
   0.64410016  0.42279494  0.51560697
   0.83096996  0.17897195  0.20977834
   0.85614929  0.12393447  0.69114266
   0.83586937  0.05042566  0.58152010
   0.10937495  0.21547270  0.23354267
   0.15047467  0.16915517  0.35251167
   0.08478147  0.26148652  0.89116364
   0.12420328  0.21465265  0.03065275
   0.67849674  0.10512884  0.23661415
   0.68796246  0.14270918  0.35842239
   0.65381174  0.08400735  0.89488290
   0.66214578  0.12264843  0.03679419
   0.01477404  0.44826608  0.57520768
   0.02007646  0.48873145  0.69791774
   0.23020041  0.66107778  0.27108869
   0.17976482  0.67580328  0.38342478
   0.28475325  0.62100975  0.95170644
   0.23478315  0.63618994  0.08213671
   0.54389474  0.00569801  0.56597323
   0.49757503  0.01081280  0.68465337
   0.24338544  0.07569855  0.41763697
   0.20432564  0.12343116  0.28021508
   0.21938161  0.12282891  0.07783319
   0.17828662  0.16916097  0.95871769
   0.69514237  0.22956356  0.44167842
   0.67944290  0.19754417  0.29559918
   0.01892509  0.58228418  0.77317319
   0.01093216  0.54342494  0.63116882
   0.66112990  0.21654712  0.09782978
   0.65365925  0.17762375  0.97332728
   0.08383249  0.68081258  0.44750335
   0.13319432  0.66849259  0.31201549
   0.40441027  0.01060280  0.74984328
   0.45240508  0.00161989  0.61301867
   0.13533336  0.64813628  0.11479750
   0.18740414  0.63080100  0.00753373
   0.75528421  0.92137124  0.56308505
   0.79623969  0.87622349  0.70541695
   0.78041891  0.87588464  0.90638639
   0.82274110  0.83182055  0.02949947
   0.32500407  0.75483704  0.51269756
   0.32419223  0.79426620  0.67136889
   0.99189187  0.42566643  0.23016515
   0.99941794  0.46436101  0.37361676
   0.33480107  0.77885975  0.87478154
   0.33948152  0.81873620  0.00237065
   0.92287346  0.33149213  0.56189695
   0.87802432  0.33637386  0.70429844
   0.59119384  0.98267422  0.22564817
   0.54384151  0.99052963  0.36395899
   0.87681150  0.35338078  0.90460590
   0.83092059  0.35743262  0.02580078
   0.89490528  0.78956465  0.76232963
   0.85252820  0.83363672  0.63918587
   0.91979070  0.74427449  0.10585361
   0.87907055  0.78928466  0.96336369
   0.31692737  0.89021083  0.73819563
   0.31372859  0.84982096  0.61031141
   0.33957166  0.91253435  0.08053518
   0.33132676  0.87366868  0.93912889
   0.99572153  0.55936614  0.42969831
   0.99006757  0.51918842  0.30714071
   0.79447324  0.32054802  0.76483229
   0.83696014  0.31978841  0.63957196
   0.74360002  0.34329285  0.09327971
   0.78937386  0.34259269  0.95931737
   0.45257953  0.98611744  0.41116880
   0.49890522  0.98097402  0.29248315
   0.61825295  0.44179020  0.34365870
   0.84527840  0.08747131  0.63464559
   0.79032223  0.21705237  0.12444510
   0.13978663  0.16892178  0.50723305
   0.70195973  0.12854250  0.50921864
   0.03156457  0.47676119  0.85167908
   0.17600344  0.69365417  0.53142208
   0.49682417  0.02261858  0.83866338
   0.18895204  0.16956316  0.80400174
   0.64096518  0.19078996  0.82092405
   0.19027974  0.61380142  0.85903758
   0.81117901  0.83122269  0.18308374
   0.34906221  0.80703216  0.15686358
   0.83058059  0.36971998  0.17910829
   0.86397664  0.83429422  0.48549809
   0.30437071  0.86202188  0.45593883
   0.97864611  0.53111786  0.15332727
   0.84019379  0.30425574  0.48861091
   0.49983452  0.96910110  0.13828907
   0.70691667  0.33513461  0.49303368
   0.28212658  0.02216460  0.79322615
   0.63776746  0.33385247  0.19374309
   0.96311921  0.68994476  0.48340690
   0.35380665  0.95280085  0.45811258
   0.35200201  0.02408930  0.12769240
   0.71050951  0.97577343  0.18596208
   0.34601145  0.66336309  0.74677171
   0.73195493  0.27806634  0.02162804
   0.97925996  0.31607237  0.18741873
   0.31342228  0.70638699  0.18638919
   0.97598864  0.38468534  0.85571777
   0.64687907  0.97079844  0.85190079
   0.03189940  0.62544249  0.14991454
   0.64145396  0.03949113  0.52061378
   0.02853821  0.69336800  0.82154979
   0.30292028  0.62625330  0.57576237
   0.04463273  0.31851167  0.51913762
   0.70490541  0.43785692  0.37117797
   0.61849994  0.44264925  0.01128394
   0.79091469  0.21179887  0.69187645
Direct configuration=    71
   0.05862027  0.25795838  0.31484585
   0.03286019  0.30126899  0.94983567
   0.10189837  0.26195080  0.71686132
   0.68618382  0.05426784  0.31565641
   0.66352199  0.03313450  0.95754279
   0.63820537  0.10006368  0.71859925
   0.02412215  0.39688993  0.65371341
   0.27468367  0.66945200  0.34466275
   0.32119189  0.64097556  0.98235435
   0.28923625  0.59273266  0.79170289
   0.58538674  0.01557348  0.64748936
   0.29412921  0.03471911  0.35534092
   0.22612640  0.07584296  0.59264178
   0.27051442  0.08051217  0.99847408
   0.66682205  0.28825655  0.43972064
   0.73388212  0.20108091  0.56829183
   0.00978710  0.63293718  0.71105714
   0.03421318  0.56601492  0.94938135
   0.65333790  0.26789195  0.02334276
   0.04165066  0.67380661  0.37973645
   0.08458479  0.69608696  0.62443637
   0.36357701  0.00079685  0.68738546
   0.40395600  0.02832802  0.92479703
   0.09115097  0.64423059  0.02686725
   0.70329781  0.96017893  0.62434268
   0.77121602  0.92149895  0.38714087
   0.72749691  0.91534607  0.98351344
   0.35904470  0.69710993  0.52091615
   0.29583882  0.77696842  0.35583939
   0.00473032  0.37331253  0.28549841
   0.97376093  0.44342370  0.05667722
   0.33827296  0.72835482  0.94192140
   0.96161344  0.34547245  0.61767467
   0.92314840  0.31425632  0.38660754
   0.63207427  0.99207913  0.29141954
   0.59122124  0.96692899  0.04913427
   0.91696783  0.36506765  0.98541967
   0.94782975  0.74989219  0.68568236
   0.97257224  0.70616425  0.04800050
   0.90317379  0.74327672  0.28034421
   0.30697762  0.94213036  0.66246754
   0.32997360  0.96346491  0.02047334
   0.35622719  0.89531079  0.25595347
   0.98673672  0.61075774  0.35163306
   0.76068141  0.29589722  0.70970405
   0.68707627  0.36465266  0.01300637
   0.74651678  0.35633951  0.28265364
   0.41103600  0.97607033  0.33004546
   0.58774610  0.42062277  0.25966660
   0.62822656  0.47890266  0.24779318
   0.64409406  0.42277947  0.51569724
   0.83091271  0.17898424  0.20979823
   0.85612635  0.12391648  0.69114530
   0.83585547  0.05041372  0.58132187
   0.10938009  0.21547488  0.23352497
   0.15047394  0.16915471  0.35251792
   0.08479685  0.26148745  0.89114916
   0.12420998  0.21465020  0.03063790
   0.67848364  0.10513290  0.23662540
   0.68795243  0.14270879  0.35841635
   0.65380017  0.08399525  0.89487274
   0.66213381  0.12264712  0.03678383
   0.01478581  0.44826970  0.57520897
   0.02007953  0.48873838  0.69792033
   0.23021760  0.66106346  0.27104038
   0.17978359  0.67578968  0.38340259
   0.28476633  0.62099669  0.95162763
   0.23479434  0.63617915  0.08208074
   0.54388349  0.00570040  0.56599026
   0.49756370  0.01081828  0.68466524
   0.24337441  0.07569271  0.41763440
   0.20431621  0.12342379  0.28021931
   0.21938308  0.12281468  0.07784554
   0.17829209  0.16915048  0.95871012
   0.69513725  0.22956393  0.44165382
   0.67943305  0.19754604  0.29558343
   0.01893196  0.58229019  0.77318027
   0.01093529  0.54343203  0.63117798
   0.66111306  0.21655130  0.09779955
   0.65363435  0.17762217  0.97329785
   0.08383529  0.68081915  0.44751676
   0.13321115  0.66848438  0.31198448
   0.40439178  0.01062269  0.74987449
   0.45239487  0.00162905  0.61302009
   0.13533716  0.64813963  0.11477864
   0.18740877  0.63080131  0.00750366
   0.75528330  0.92136130  0.56310972
   0.79623886  0.87621969  0.70544149
   0.78042001  0.87587849  0.90642230
   0.82274443  0.83181906  0.02952353
   0.32496714  0.75486522  0.51269031
   0.32416761  0.79427563  0.67134551
   0.99190416  0.42567341  0.23017068
   0.99942525  0.46436746  0.37361002
   0.33480281  0.77886099  0.87475263
   0.33950265  0.81872280  0.00236778
   0.92290073  0.33148827  0.56188659
   0.87804075  0.33636246  0.70430520
   0.59119636  0.98266038  0.22567912
   0.54383188  0.99051621  0.36397530
   0.87682918  0.35337733  0.90458267
   0.83092790  0.35743622  0.02575589
   0.89490919  0.78956565  0.76235245
   0.85252770  0.83363613  0.63921149
   0.91979881  0.74427737  0.10586875
   0.87907450  0.78928776  0.96338310
   0.31693271  0.89020481  0.73822184
   0.31370635  0.84983739  0.61031607
   0.33958932  0.91252347  0.08056148
   0.33134619  0.87365745  0.93911437
   0.99572627  0.55937260  0.42971168
   0.99006953  0.51919792  0.30715578
   0.79448965  0.32054119  0.76480058
   0.83698357  0.31977299  0.63955697
   0.74360833  0.34328736  0.09325511
   0.78938651  0.34259126  0.95930011
   0.45257200  0.98613012  0.41118847
   0.49889915  0.98096914  0.29251444
   0.61825889  0.44177018  0.34379011
   0.84526999  0.08748817  0.63459281
   0.79030340  0.21705779  0.12446934
   0.13978197  0.16892424  0.50723395
   0.70194599  0.12854945  0.50918488
   0.03156711  0.47676639  0.85167755
   0.17602711  0.69363986  0.53139708
   0.49681070  0.02263937  0.83867080
   0.18896162  0.16955613  0.80399760
   0.64094418  0.19078811  0.82089284
   0.19026178  0.61381143  0.85900038
   0.81118931  0.83121533  0.18311542
   0.34911554  0.80700417  0.15681956
   0.83058731  0.36971767  0.17908608
   0.86397271  0.83429783  0.48551916
   0.30432451  0.86205090  0.45595480
   0.97864490  0.53112744  0.15333670
   0.84022546  0.30423385  0.48861667
   0.49984052  0.96908326  0.13832734
   0.70693788  0.33512313  0.49303760
   0.28213673  0.02215260  0.79322083
   0.63776546  0.33385149  0.19367112
   0.96312702  0.68994767  0.48341718
   0.35379494  0.95282083  0.45814133
   0.35198624  0.02408270  0.12769421
   0.71050200  0.97577556  0.18599312
   0.34600843  0.66337048  0.74676514
   0.73194052  0.27807930  0.02163912
   0.97927007  0.31607644  0.18741171
   0.31341829  0.70639771  0.18640052
   0.97599831  0.38468634  0.85572012
   0.64688354  0.97077901  0.85190927
   0.03190074  0.62544669  0.14993412
   0.64145265  0.03948339  0.52062687
   0.02854068  0.69338121  0.82153455
   0.30295768  0.62623500  0.57569661
   0.04464515  0.31851678  0.51909801
   0.70490408  0.43783625  0.37128952
   0.61848548  0.44267143  0.01144008
   0.79087189  0.21181339  0.69203083
Direct configuration=    72
   0.05862674  0.25796529  0.31483162
   0.03286750  0.30127302  0.94981722
   0.10190685  0.26194944  0.71685311
   0.68617837  0.05426588  0.31565414
   0.66351483  0.03312960  0.95756392
   0.63819754  0.10006011  0.71859336
   0.02413178  0.39689100  0.65370960
   0.27469076  0.66944334  0.34463204
   0.32119579  0.64096759  0.98234078
   0.28923741  0.59273598  0.79165805
   0.58538449  0.01556850  0.64749598
   0.29412212  0.03471539  0.35532589
   0.22612288  0.07583835  0.59265099
   0.27051571  0.08050457  0.99848607
   0.66682636  0.28825799  0.43969625
   0.73387061  0.20108325  0.56830120
   0.00979630  0.63293806  0.71105625
   0.03421353  0.56601848  0.94938795
   0.65332265  0.26789304  0.02331874
   0.04165124  0.67381096  0.37973733
   0.08458896  0.69609118  0.62443800
   0.36356829  0.00081368  0.68737574
   0.40395367  0.02833267  0.92478383
   0.09114967  0.64424023  0.02688024
   0.70329269  0.96017243  0.62435704
   0.77121385  0.92149839  0.38715851
   0.72749521  0.91534345  0.98353088
   0.35902156  0.69712706  0.52090730
   0.29582197  0.77698579  0.35581407
   0.00473979  0.37331442  0.28549507
   0.97376368  0.44342599  0.05668035
   0.33826375  0.72835992  0.94189929
   0.96162333  0.34547313  0.61766089
   0.92315996  0.31425784  0.38659941
   0.63207060  0.99207750  0.29142146
   0.59121942  0.96692102  0.04914534
   0.91697481  0.36506443  0.98540605
   0.94783146  0.74989612  0.68568968
   0.97257435  0.70616681  0.04800595
   0.90317854  0.74327715  0.28035579
   0.30698240  0.94212491  0.66250000
   0.32998441  0.96345864  0.02045791
   0.35622547  0.89531065  0.25597536
   0.98673971  0.61076085  0.35164173
   0.76068680  0.29589735  0.70969680
   0.68707918  0.36466089  0.01298962
   0.74651400  0.35634727  0.28263519
   0.41103310  0.97607580  0.33005257
   0.58775951  0.42060469  0.25967786
   0.62821397  0.47890751  0.24787317
   0.64409094  0.42277156  0.51574341
   0.83088343  0.17899053  0.20980841
   0.85611462  0.12390729  0.69114665
   0.83584836  0.05040762  0.58122051
   0.10938272  0.21547600  0.23351591
   0.15047356  0.16915447  0.35252112
   0.08480472  0.26148792  0.89114175
   0.12421341  0.21464895  0.03063030
   0.67847694  0.10513497  0.23663115
   0.68794729  0.14270860  0.35841327
   0.65379425  0.08398906  0.89486754
   0.66212770  0.12264646  0.03677854
   0.01479184  0.44827155  0.57520963
   0.02008110  0.48874193  0.69792165
   0.23022639  0.66105614  0.27101567
   0.17979319  0.67578272  0.38339125
   0.28477302  0.62099002  0.95158733
   0.23480006  0.63617363  0.08205211
   0.54387774  0.00570162  0.56599896
   0.49755791  0.01082108  0.68467131
   0.24336878  0.07568972  0.41763308
   0.20431138  0.12342002  0.28022147
   0.21938383  0.12280741  0.07785186
   0.17829489  0.16914512  0.95870625
   0.69513463  0.22956412  0.44164124
   0.67942802  0.19754700  0.29557537
   0.01893547  0.58229326  0.77318389
   0.01093688  0.54343565  0.63118266
   0.66110445  0.21655344  0.09778409
   0.65362161  0.17762136  0.97328280
   0.08383673  0.68082250  0.44752362
   0.13321976  0.66848018  0.31196863
   0.40438232  0.01063286  0.74989045
   0.45238965  0.00163374  0.61302082
   0.13533910  0.64814135  0.11476900
   0.18741114  0.63080146  0.00748828
   0.75528283  0.92135621  0.56312234
   0.79623844  0.87621774  0.70545404
   0.78042057  0.87587535  0.90644066
   0.82274614  0.83181830  0.02953583
   0.32494825  0.75487964  0.51268661
   0.32415501  0.79428045  0.67133356
   0.99191044  0.42567698  0.23017351
   0.99942898  0.46437076  0.37360657
   0.33480370  0.77886163  0.87473785
   0.33951346  0.81871594  0.00236631
   0.92291468  0.33148630  0.56188130
   0.87804915  0.33635662  0.70430865
   0.59119765  0.98265331  0.22569494
   0.54382695  0.99050935  0.36398363
   0.87683822  0.35337557  0.90457079
   0.83093163  0.35743805  0.02573293
   0.89491119  0.78956615  0.76236413
   0.85252745  0.83363583  0.63922459
   0.91980296  0.74427885  0.10587649
   0.87907652  0.78928934  0.96339302
   0.31693544  0.89020173  0.73823525
   0.31369498  0.84984578  0.61031845
   0.33959836  0.91251791  0.08057493
   0.33135612  0.87365170  0.93910695
   0.99572870  0.55937590  0.42971852
   0.99007054  0.51920278  0.30716348
   0.79449805  0.32053770  0.76478436
   0.83699555  0.31976510  0.63954931
   0.74361258  0.34328456  0.09324253
   0.78939297  0.34259053  0.95929128
   0.45256815  0.98613660  0.41119853
   0.49889605  0.98096664  0.29253043
   0.61826193  0.44175994  0.34385730
   0.84526569  0.08749678  0.63456582
   0.79029377  0.21706057  0.12448173
   0.13977958  0.16892549  0.50723440
   0.70193897  0.12855300  0.50916761
   0.03156841  0.47676905  0.85167678
   0.17603922  0.69363254  0.53138430
   0.49680381  0.02265001  0.83867460
   0.18896651  0.16955254  0.80399548
   0.64093343  0.19078716  0.82087688
   0.19025260  0.61381654  0.85898135
   0.81119458  0.83121157  0.18313162
   0.34914281  0.80698986  0.15679705
   0.83059075  0.36971649  0.17907473
   0.86397070  0.83429968  0.48552994
   0.30430088  0.86206573  0.45596297
   0.97864428  0.53113233  0.15334152
   0.84024165  0.30422265  0.48861962
   0.49984359  0.96907413  0.13834690
   0.70694872  0.33511726  0.49303961
   0.28214192  0.02214646  0.79321811
   0.63776444  0.33385099  0.19363432
   0.96313102  0.68994916  0.48342243
   0.35378896  0.95283104  0.45815603
   0.35197818  0.02407932  0.12769514
   0.71049816  0.97577664  0.18600900
   0.34600689  0.66337425  0.74676178
   0.73193316  0.27808593  0.02164479
   0.97927524  0.31607853  0.18740812
   0.31341624  0.70640319  0.18640632
   0.97600325  0.38468685  0.85572132
   0.64688583  0.97076907  0.85191360
   0.03190143  0.62544883  0.14994413
   0.64145199  0.03947943  0.52063357
   0.02854194  0.69338797  0.82152676
   0.30297680  0.62622564  0.57566298
   0.04465150  0.31851940  0.51907776
   0.70490339  0.43782568  0.37134657
   0.61847808  0.44268278  0.01151993
   0.79085000  0.21182082  0.69210977
Direct configuration=    73
   0.05863961  0.25797818  0.31481377
   0.03288086  0.30128216  0.94978822
   0.10192507  0.26194624  0.71684007
   0.68616653  0.05426330  0.31563213
   0.66350248  0.03312176  0.95760135
   0.63818218  0.10005536  0.71858059
   0.02415092  0.39689212  0.65370490
   0.27470611  0.66942699  0.34459154
   0.32120693  0.64094995  0.98230807
   0.28923794  0.59274077  0.79157753
   0.58538217  0.01555989  0.64751362
   0.29410803  0.03470831  0.35529828
   0.22611764  0.07582855  0.59267195
   0.27051855  0.08049426  0.99849328
   0.66683313  0.28826457  0.43965552
   0.73386166  0.20107511  0.56836063
   0.00981242  0.63294044  0.71105484
   0.03421409  0.56602596  0.94939907
   0.65329390  0.26790394  0.02326809
   0.04165343  0.67381876  0.37973420
   0.08459557  0.69609951  0.62443944
   0.36355198  0.00084621  0.68736619
   0.40394692  0.02834103  0.92478810
   0.09114926  0.64425687  0.02690449
   0.70328241  0.96016068  0.62437704
   0.77120958  0.92149771  0.38718861
   0.72749349  0.91533826  0.98356890
   0.35897989  0.69715818  0.52089440
   0.29579499  0.77701617  0.35577904
   0.00475892  0.37331662  0.28548616
   0.97376913  0.44343048  0.05668585
   0.33824413  0.72836748  0.94186982
   0.96163760  0.34547377  0.61763758
   0.92318039  0.31426102  0.38660054
   0.63206783  0.99207298  0.29142145
   0.59121722  0.96690497  0.04917907
   0.91699085  0.36505811  0.98538019
   0.94783431  0.74990381  0.68570249
   0.97257760  0.70617163  0.04801159
   0.90318705  0.74327863  0.28037746
   0.30698712  0.94211688  0.66254637
   0.33000628  0.96344378  0.02043581
   0.35622803  0.89530683  0.25602216
   0.98674341  0.61076876  0.35166258
   0.76069026  0.29589611  0.70969087
   0.68708501  0.36467329  0.01296429
   0.74650889  0.35635957  0.28259283
   0.41103275  0.97608232  0.33006938
   0.58778317  0.42057107  0.25969459
   0.62818944  0.47891966  0.24802130
   0.64408536  0.42275485  0.51581157
   0.83083004  0.17899998  0.20981867
   0.85609612  0.12390192  0.69117164
   0.83583960  0.05041601  0.58105091
   0.10938757  0.21547737  0.23350234
   0.15046796  0.16915674  0.35252129
   0.08482050  0.26148901  0.89112979
   0.12421847  0.21464729  0.03061752
   0.67846601  0.10513748  0.23664212
   0.68793576  0.14271610  0.35840611
   0.65378210  0.08397686  0.89486079
   0.66211425  0.12264084  0.03676699
   0.01480354  0.44827486  0.57520762
   0.02008407  0.48874806  0.69792814
   0.23024281  0.66104497  0.27097791
   0.17981236  0.67576789  0.38336767
   0.28478298  0.62097804  0.95151506
   0.23481249  0.63616313  0.08198492
   0.54386912  0.00570281  0.56601912
   0.49754662  0.01082880  0.68466832
   0.24335469  0.07568704  0.41764158
   0.20430121  0.12341383  0.28022908
   0.21938195  0.12279795  0.07786316
   0.17830180  0.16913427  0.95870384
   0.69511539  0.22957124  0.44157554
   0.67942073  0.19754219  0.29556560
   0.01894156  0.58229950  0.77318962
   0.01094029  0.54344267  0.63119083
   0.66108858  0.21654881  0.09778557
   0.65359927  0.17762068  0.97326460
   0.08383812  0.68082803  0.44752614
   0.13323293  0.66847272  0.31193663
   0.40436927  0.01065175  0.74990672
   0.45237723  0.00164171  0.61299726
   0.13534682  0.64814284  0.11475191
   0.18741615  0.63080112  0.00745716
   0.75527877  0.92134866  0.56315448
   0.79623742  0.87621328  0.70548226
   0.78042134  0.87587010  0.90647422
   0.82275020  0.83181554  0.02956318
   0.32490956  0.75490856  0.51267131
   0.32412592  0.79429448  0.67129820
   0.99192251  0.42568545  0.23017746
   0.99943801  0.46437768  0.37360774
   0.33480337  0.77885995  0.87471498
   0.33953300  0.81870747  0.00232337
   0.92294208  0.33148209  0.56186222
   0.87807408  0.33634715  0.70429978
   0.59119712  0.98263547  0.22571155
   0.54382309  0.99049761  0.36401790
   0.87685104  0.35337069  0.90454480
   0.83093874  0.35744281  0.02569331
   0.89491341  0.78956846  0.76239085
   0.85252672  0.83363552  0.63924722
   0.91980917  0.74428220  0.10589979
   0.87908184  0.78929131  0.96341362
   0.31693999  0.89019564  0.73825239
   0.31367359  0.84985999  0.61029625
   0.33961460  0.91251082  0.08059376
   0.33137373  0.87363823  0.93909849
   0.99573387  0.55938243  0.42973514
   0.99007314  0.51921248  0.30717078
   0.79450817  0.32053062  0.76477089
   0.83702069  0.31975347  0.63953699
   0.74362288  0.34328190  0.09320553
   0.78940433  0.34258477  0.95927529
   0.45255928  0.98614777  0.41121824
   0.49888796  0.98096152  0.29255494
   0.61827106  0.44173993  0.34399522
   0.84524965  0.08747846  0.63446456
   0.79027567  0.21706674  0.12452069
   0.13977302  0.16893001  0.50724013
   0.70192682  0.12855760  0.50914775
   0.03157195  0.47677441  0.85167660
   0.17606021  0.69361744  0.53136311
   0.49679317  0.02266909  0.83869643
   0.18897826  0.16954164  0.80399406
   0.64091159  0.19078916  0.82083255
   0.19023962  0.61382667  0.85895119
   0.81120399  0.83120520  0.18316082
   0.34919419  0.80696227  0.15677176
   0.83059407  0.36971729  0.17906840
   0.86396807  0.83430232  0.48554829
   0.30425673  0.86209129  0.45598644
   0.97864280  0.53114272  0.15335144
   0.84027246  0.30419816  0.48862111
   0.49984648  0.96905938  0.13838986
   0.70696472  0.33510780  0.49302796
   0.28215221  0.02213322  0.79319017
   0.63776152  0.33385101  0.19357463
   0.96313951  0.68995182  0.48343564
   0.35378057  0.95284804  0.45819113
   0.35196063  0.02407611  0.12769764
   0.71049153  0.97577734  0.18603308
   0.34600798  0.66337773  0.74674938
   0.73191705  0.27810113  0.02163928
   0.97928461  0.31608344  0.18739356
   0.31341362  0.70641080  0.18642168
   0.97601290  0.38468733  0.85572623
   0.64689147  0.97075200  0.85191086
   0.03190276  0.62545319  0.14996301
   0.64145041  0.03947315  0.52064479
   0.02854476  0.69340066  0.82151467
   0.30300723  0.62621458  0.57559181
   0.04466211  0.31852658  0.51903655
   0.70490237  0.43780695  0.37146349
   0.61846851  0.44269986  0.01166012
   0.79081071  0.21183854  0.69225700
Direct configuration=    74
   0.05865363  0.25799219  0.31479435
   0.03289540  0.30129209  0.94975666
   0.10194491  0.26194277  0.71682588
   0.68615363  0.05426050  0.31560816
   0.66348904  0.03311322  0.95764209
   0.63816545  0.10005019  0.71856670
   0.02417176  0.39689333  0.65369978
   0.27472281  0.66940921  0.34454746
   0.32121905  0.64093074  0.98227248
   0.28923851  0.59274599  0.79148989
   0.58537965  0.01555053  0.64753281
   0.29409269  0.03470061  0.35526823
   0.22611195  0.07581787  0.59269476
   0.27052163  0.08048303  0.99850114
   0.66684050  0.28827173  0.43961120
   0.73385192  0.20106624  0.56842531
   0.00982997  0.63294302  0.71105331
   0.03421469  0.56603411  0.94941118
   0.65326262  0.26791579  0.02321296
   0.04165582  0.67382725  0.37973079
   0.08460276  0.69610857  0.62444101
   0.36353423  0.00088161  0.68735579
   0.40393958  0.02835014  0.92479276
   0.09114882  0.64427499  0.02693088
   0.70327122  0.96014788  0.62439882
   0.77120492  0.92149697  0.38722137
   0.72749160  0.91533263  0.98361029
   0.35893452  0.69719205  0.52088036
   0.29576562  0.77704923  0.35574090
   0.00477975  0.37331901  0.28547646
   0.97377506  0.44343537  0.05669184
   0.33822278  0.72837571  0.94183774
   0.96165313  0.34547446  0.61761220
   0.92320263  0.31426448  0.38660177
   0.63206481  0.99206806  0.29142143
   0.59121483  0.96688751  0.04921579
   0.91700830  0.36505123  0.98535203
   0.94783742  0.74991219  0.68571643
   0.97258115  0.70617687  0.04801772
   0.90319631  0.74328024  0.28040104
   0.30699226  0.94210815  0.66259684
   0.33003008  0.96342761  0.02041174
   0.35623082  0.89530268  0.25607310
   0.98674744  0.61077737  0.35168528
   0.76069402  0.29589477  0.70968441
   0.68709136  0.36468679  0.01293671
   0.74650334  0.35637296  0.28254673
   0.41103238  0.97608942  0.33008767
   0.58780892  0.42053449  0.25971281
   0.62816273  0.47893288  0.24818253
   0.64407930  0.42273667  0.51588576
   0.83077194  0.17901026  0.20982984
   0.85607598  0.12389609  0.69119884
   0.83583007  0.05042514  0.58086632
   0.10939284  0.21547886  0.23348756
   0.15046185  0.16915921  0.35252147
   0.08483768  0.26149020  0.89111678
   0.12422399  0.21464548  0.03060361
   0.67845410  0.10514022  0.23665407
   0.68792320  0.14272426  0.35839831
   0.65376887  0.08396359  0.89485345
   0.66209962  0.12263472  0.03675441
   0.01481628  0.44827845  0.57520544
   0.02008730  0.48875474  0.69793521
   0.23026067  0.66103282  0.27093681
   0.17983321  0.67575174  0.38334201
   0.28479383  0.62096501  0.95143639
   0.23482603  0.63615170  0.08191179
   0.54385974  0.00570411  0.56604106
   0.49753433  0.01083721  0.68466507
   0.24333935  0.07568412  0.41765083
   0.20429015  0.12340710  0.28023735
   0.21937991  0.12278766  0.07787546
   0.17830932  0.16912246  0.95870123
   0.69509444  0.22957899  0.44150402
   0.67941281  0.19753696  0.29555495
   0.01894819  0.58230629  0.77319586
   0.01094400  0.54345032  0.63119972
   0.66107131  0.21654378  0.09778717
   0.65357494  0.17761993  0.97324479
   0.08383964  0.68083405  0.44752887
   0.13324725  0.66846460  0.31190180
   0.40435506  0.01067230  0.74992443
   0.45236370  0.00165039  0.61297162
   0.13535522  0.64814445  0.11473331
   0.18742160  0.63080075  0.00742329
   0.75527435  0.92134045  0.56318948
   0.79623631  0.87620841  0.70551297
   0.78042217  0.87586439  0.90651074
   0.82275461  0.83181253  0.02959295
   0.32486744  0.75494004  0.51265467
   0.32409426  0.79430975  0.67125971
   0.99193564  0.42569466  0.23018177
   0.99944783  0.46438521  0.37360902
   0.33480302  0.77885812  0.87469008
   0.33955426  0.81869824  0.00227663
   0.92297190  0.33147750  0.56184145
   0.87810121  0.33633685  0.70429013
   0.59119655  0.98261605  0.22572963
   0.54381888  0.99048482  0.36405519
   0.87686498  0.35336539  0.90451651
   0.83094646  0.35744799  0.02565019
   0.89491583  0.78957097  0.76241993
   0.85252592  0.83363520  0.63927185
   0.91981593  0.74428584  0.10592516
   0.87908763  0.78929345  0.96343604
   0.31694495  0.89018900  0.73827104
   0.31365032  0.84987546  0.61027207
   0.33963228  0.91250311  0.08061426
   0.33139289  0.87362356  0.93908929
   0.99573950  0.55938953  0.42975324
   0.99007598  0.51922304  0.30717873
   0.79451918  0.32052292  0.76475622
   0.83704805  0.31974081  0.63952358
   0.74363409  0.34327900  0.09316526
   0.78941669  0.34257850  0.95925789
   0.45254963  0.98615993  0.41123971
   0.49887915  0.98095595  0.29258162
   0.61828099  0.44171814  0.34414533
   0.84523220  0.08745852  0.63435434
   0.79025597  0.21707345  0.12456309
   0.13976587  0.16893494  0.50724635
   0.70191360  0.12856260  0.50912613
   0.03157582  0.47678025  0.85167640
   0.17608305  0.69360100  0.53134005
   0.49678159  0.02268986  0.83872020
   0.18899105  0.16952977  0.80399250
   0.64088781  0.19079134  0.82078430
   0.19022550  0.61383770  0.85891835
   0.81121423  0.83119827  0.18319260
   0.34925012  0.80693224  0.15674422
   0.83059769  0.36971816  0.17906151
   0.86396521  0.83430519  0.48556826
   0.30420868  0.86211911  0.45601198
   0.97864119  0.53115402  0.15336224
   0.84030599  0.30417150  0.48862274
   0.49984963  0.96904333  0.13843661
   0.70698212  0.33509751  0.49301529
   0.28216341  0.02211880  0.79315977
   0.63775833  0.33385104  0.19350966
   0.96314875  0.68995471  0.48345002
   0.35377143  0.95286654  0.45822934
   0.35194153  0.02407262  0.12770037
   0.71048432  0.97577810  0.18605929
   0.34600917  0.66338150  0.74673590
   0.73189952  0.27811768  0.02163328
   0.97929482  0.31608878  0.18737770
   0.31341075  0.70641907  0.18643839
   0.97602341  0.38468785  0.85573156
   0.64689760  0.97073342  0.85190789
   0.03190421  0.62545794  0.14998356
   0.64144869  0.03946631  0.52065700
   0.02854784  0.69341447  0.82150152
   0.30304034  0.62620254  0.57551434
   0.04467366  0.31853439  0.51899169
   0.70490125  0.43778656  0.37159076
   0.61845810  0.44271846  0.01181271
   0.79076795  0.21185783  0.69241725
Direct configuration=    75
   0.05866816  0.25800723  0.31478170
   0.03291287  0.30130222  0.94973199
   0.10196816  0.26193891  0.71681360
   0.68613818  0.05426162  0.31557158
   0.66347455  0.03310698  0.95767035
   0.63814841  0.10004358  0.71856240
   0.02419462  0.39689328  0.65369792
   0.27474427  0.66939124  0.34451468
   0.32123768  0.64090823  0.98222595
   0.28923823  0.59274731  0.79138771
   0.58537936  0.01554159  0.64756060
   0.29407208  0.03469439  0.35524443
   0.22610731  0.07580612  0.59271413
   0.27052261  0.08047649  0.99849627
   0.66684774  0.28827805  0.43956072
   0.73383125  0.20106006  0.56845976
   0.00984770  0.63294616  0.71105249
   0.03421514  0.56604393  0.94942219
   0.65322724  0.26792829  0.02316692
   0.04165921  0.67383651  0.37972546
   0.08460897  0.69611814  0.62443220
   0.36351180  0.00091976  0.68734914
   0.40392903  0.02836050  0.92484241
   0.09114795  0.64429213  0.02694852
   0.70326053  0.96013337  0.62441193
   0.77119924  0.92149648  0.38725941
   0.72749261  0.91532508  0.98365801
   0.35888880  0.69722477  0.52086389
   0.29573828  0.77708157  0.35571086
   0.00480285  0.37332244  0.28546061
   0.97378184  0.44344169  0.05669846
   0.33819834  0.72838221  0.94181945
   0.96167121  0.34547662  0.61759711
   0.92322511  0.31426608  0.38659929
   0.63206301  0.99206037  0.29141789
   0.59121440  0.96686591  0.04925664
   0.91702910  0.36504373  0.98532376
   0.94784047  0.74992137  0.68573093
   0.97258541  0.70618155  0.04801925
   0.90320543  0.74328307  0.28042818
   0.30699348  0.94210483  0.66262779
   0.33005811  0.96340693  0.02039739
   0.35623823  0.89529724  0.25611713
   0.98674979  0.61078841  0.35171404
   0.76069381  0.29589265  0.70967723
   0.68709698  0.36470127  0.01290687
   0.74649907  0.35638397  0.28249992
   0.41103192  0.97609312  0.33010429
   0.58783714  0.42049876  0.25974330
   0.62813418  0.47894656  0.24836798
   0.64407840  0.42271090  0.51598038
   0.83073934  0.17899298  0.20989188
   0.85605110  0.12387787  0.69121458
   0.83581690  0.05042401  0.58064213
   0.10939787  0.21548089  0.23347424
   0.15045111  0.16916306  0.35251847
   0.08485486  0.26149355  0.89109904
   0.12423144  0.21464193  0.03058990
   0.67844218  0.10514066  0.23665205
   0.68790875  0.14273161  0.35839233
   0.65375289  0.08395183  0.89485183
   0.66208151  0.12262528  0.03674251
   0.01483014  0.44828249  0.57520080
   0.02009109  0.48876229  0.69794429
   0.23027849  0.66101998  0.27088852
   0.17985592  0.67573265  0.38330885
   0.28480186  0.62095393  0.95136569
   0.23484068  0.63614141  0.08183788
   0.54385359  0.00570275  0.56606364
   0.49751897  0.01085078  0.68466748
   0.24332205  0.07568051  0.41767356
   0.20427772  0.12340087  0.28024848
   0.21937601  0.12277951  0.07788446
   0.17831655  0.16911147  0.95870334
   0.69508065  0.22958177  0.44147752
   0.67940345  0.19753359  0.29553499
   0.01895492  0.58231421  0.77320269
   0.01094886  0.54345818  0.63121293
   0.66105000  0.21653702  0.09779201
   0.65355083  0.17762044  0.97323027
   0.08384582  0.68083848  0.44751247
   0.13325748  0.66845893  0.31188783
   0.40434812  0.01069306  0.74991266
   0.45234756  0.00166272  0.61295356
   0.13536873  0.64814469  0.11471737
   0.18742832  0.63079943  0.00738056
   0.75526535  0.92133499  0.56323021
   0.79623412  0.87620271  0.70555278
   0.78042182  0.87585976  0.90654925
   0.82276024  0.83180810  0.02962915
   0.32481843  0.75497596  0.51261887
   0.32405541  0.79433405  0.67122751
   0.99194992  0.42570314  0.23018140
   0.99946063  0.46439427  0.37361893
   0.33479766  0.77885583  0.87465143
   0.33957969  0.81868481  0.00221577
   0.92299798  0.33147259  0.56182514
   0.87813788  0.33632601  0.70425430
   0.59119358  0.98259321  0.22575056
   0.54382127  0.99047215  0.36410600
   0.87687712  0.35335925  0.90448848
   0.83095456  0.35745445  0.02562474
   0.89491724  0.78957536  0.76244965
   0.85252511  0.83363498  0.63929620
   0.91982147  0.74429053  0.10595768
   0.87909484  0.78929477  0.96346698
   0.31694867  0.89018083  0.73827291
   0.31362616  0.84988782  0.61024558
   0.33965163  0.91249304  0.08063419
   0.33141300  0.87360975  0.93909237
   0.99574549  0.55939810  0.42977148
   0.99008012  0.51923486  0.30718140
   0.79453044  0.32051441  0.76474819
   0.83707599  0.31972980  0.63952145
   0.74364436  0.34328161  0.09311223
   0.78943081  0.34256810  0.95923057
   0.45253608  0.98616981  0.41125241
   0.49887302  0.98095015  0.29260746
   0.61828512  0.44170049  0.34425986
   0.84521886  0.08745842  0.63426581
   0.79020435  0.21710802  0.12456140
   0.13975591  0.16894284  0.50725520
   0.70190082  0.12856596  0.50912190
   0.03158132  0.47678679  0.85168051
   0.17610618  0.69358143  0.53131652
   0.49677074  0.02270972  0.83874221
   0.18900752  0.16951243  0.80399583
   0.64086129  0.19079659  0.82073198
   0.19021534  0.61384955  0.85888433
   0.81122457  0.83119161  0.18322665
   0.34930904  0.80690081  0.15671157
   0.83059873  0.36972170  0.17905540
   0.86396325  0.83430728  0.48559017
   0.30415630  0.86214834  0.45603274
   0.97863919  0.53116769  0.15337497
   0.84034275  0.30413948  0.48862005
   0.49984947  0.96902806  0.13848721
   0.70699782  0.33508665  0.49298366
   0.28217464  0.02210269  0.79310773
   0.63775186  0.33385207  0.19345216
   0.96315926  0.68995832  0.48347123
   0.35376509  0.95288283  0.45827716
   0.35192085  0.02407237  0.12770532
   0.71047805  0.97577603  0.18608178
   0.34601442  0.66338160  0.74671685
   0.73188606  0.27813319  0.02162474
   0.97930674  0.31609594  0.18734965
   0.31340894  0.70642514  0.18645680
   0.97603580  0.38468856  0.85573732
   0.64690358  0.97071550  0.85189787
   0.03190631  0.62546381  0.15000305
   0.64144569  0.03945936  0.52066642
   0.02855163  0.69342923  0.82149427
   0.30307032  0.62619515  0.57542819
   0.04468639  0.31854464  0.51894631
   0.70489988  0.43776712  0.37173548
   0.61845154  0.44273403  0.01196821
   0.79072578  0.21187845  0.69258028
Direct configuration=    76
   0.05868396  0.25802357  0.31476795
   0.03293186  0.30131324  0.94970518
   0.10199343  0.26193471  0.71680025
   0.68612139  0.05426284  0.31553181
   0.66345881  0.03310020  0.95770108
   0.63812989  0.10003639  0.71855771
   0.02421947  0.39689324  0.65369589
   0.27476760  0.66937171  0.34447905
   0.32125792  0.64088376  0.98217538
   0.28923792  0.59274874  0.79127664
   0.58537905  0.01553188  0.64759080
   0.29404967  0.03468763  0.35521856
   0.22610226  0.07579334  0.59273519
   0.27052367  0.08046938  0.99849098
   0.66685561  0.28828491  0.43950586
   0.73380878  0.20105334  0.56849721
   0.00986697  0.63294957  0.71105159
   0.03421562  0.56605459  0.94943415
   0.65318879  0.26794186  0.02311687
   0.04166290  0.67384658  0.37971968
   0.08461573  0.69612855  0.62442262
   0.36348743  0.00096122  0.68734190
   0.40391755  0.02837177  0.92489638
   0.09114700  0.64431077  0.02696769
   0.70324890  0.96011759  0.62442619
   0.77119306  0.92149594  0.38730074
   0.72749371  0.91531688  0.98370988
   0.35883910  0.69726033  0.52084598
   0.29570855  0.77711671  0.35567820
   0.00482796  0.37332616  0.28544338
   0.97378921  0.44344856  0.05670566
   0.33817177  0.72838927  0.94179957
   0.96169087  0.34547898  0.61758070
   0.92324954  0.31426782  0.38659659
   0.63206106  0.99205201  0.29141405
   0.59121393  0.96684243  0.04930104
   0.91705172  0.36503557  0.98529304
   0.94784378  0.74993135  0.68574670
   0.97259004  0.70618663  0.04802091
   0.90321534  0.74328615  0.28045769
   0.30699481  0.94210123  0.66266144
   0.33008858  0.96338445  0.02038178
   0.35624628  0.89529132  0.25616499
   0.98675235  0.61080042  0.35174529
   0.76069357  0.29589035  0.70966943
   0.68710309  0.36471701  0.01287444
   0.74649444  0.35639594  0.28244904
   0.41103142  0.97609713  0.33012236
   0.58786781  0.42045993  0.25977645
   0.62810315  0.47896144  0.24856954
   0.64407742  0.42268288  0.51608323
   0.83070391  0.17897419  0.20995931
   0.85602405  0.12385807  0.69123169
   0.83580259  0.05042279  0.58039846
   0.10940333  0.21548310  0.23345976
   0.15043943  0.16916724  0.35251520
   0.08487354  0.26149719  0.89107975
   0.12423955  0.21463808  0.03057500
   0.67842921  0.10514115  0.23664986
   0.68789304  0.14273961  0.35838583
   0.65373552  0.08393906  0.89485007
   0.66206181  0.12261501  0.03672958
   0.01484521  0.44828688  0.57519575
   0.02009520  0.48877050  0.69795416
   0.23029786  0.66100602  0.27083602
   0.17988059  0.67571190  0.38327280
   0.28481060  0.62094188  0.95128884
   0.23485661  0.63613022  0.08175754
   0.54384690  0.00570127  0.56608817
   0.49750227  0.01086552  0.68467010
   0.24330324  0.07567658  0.41769826
   0.20426421  0.12339410  0.28026057
   0.21937176  0.12277065  0.07789423
   0.17832441  0.16909952  0.95870564
   0.69506566  0.22958480  0.44144871
   0.67939328  0.19752993  0.29551328
   0.01896223  0.58232283  0.77321012
   0.01095413  0.54346672  0.63122729
   0.66102684  0.21652967  0.09779726
   0.65352462  0.17762099  0.97321449
   0.08385254  0.68084330  0.44749464
   0.13326859  0.66845275  0.31187265
   0.40434059  0.01071562  0.74989987
   0.45233003  0.00167612  0.61293393
   0.13538342  0.64814495  0.11470005
   0.18743563  0.63079799  0.00733411
   0.75525558  0.92132907  0.56327449
   0.79623174  0.87619650  0.70559604
   0.78042143  0.87585474  0.90659111
   0.82276635  0.83180329  0.02966850
   0.32476516  0.75501500  0.51257997
   0.32401318  0.79436045  0.67119250
   0.99196545  0.42571236  0.23018101
   0.99947454  0.46440412  0.37362969
   0.33479184  0.77885333  0.87460942
   0.33960734  0.81867022  0.00214961
   0.92302633  0.33146725  0.56180741
   0.87817772  0.33631422  0.70421535
   0.59119035  0.98256838  0.22577331
   0.54382387  0.99045838  0.36416122
   0.87689032  0.35335259  0.90445801
   0.83096336  0.35746147  0.02559707
   0.89491878  0.78958013  0.76248196
   0.85252423  0.83363474  0.63932267
   0.91982749  0.74429562  0.10599304
   0.87910267  0.78929620  0.96350061
   0.31695271  0.89017194  0.73827495
   0.31359990  0.84990126  0.61021679
   0.33967267  0.91248210  0.08065584
   0.33143486  0.87359474  0.93909573
   0.99575200  0.55940742  0.42979131
   0.99008463  0.51924771  0.30718431
   0.79454268  0.32050516  0.76473946
   0.83710637  0.31971783  0.63951915
   0.74365552  0.34328446  0.09305459
   0.78944617  0.34255680  0.95920087
   0.45252135  0.98618054  0.41126623
   0.49886637  0.98094383  0.29263555
   0.61828961  0.44168131  0.34438435
   0.84520437  0.08745831  0.63416959
   0.79014823  0.21714560  0.12455956
   0.13974508  0.16895143  0.50726481
   0.70188692  0.12856960  0.50911731
   0.03158730  0.47679390  0.85168498
   0.17613132  0.69356016  0.53129095
   0.49675894  0.02273129  0.83876613
   0.18902541  0.16949358  0.80399945
   0.64083245  0.19080230  0.82067511
   0.19020429  0.61386244  0.85884736
   0.81123581  0.83118438  0.18326367
   0.34937309  0.80686665  0.15667609
   0.83059985  0.36972554  0.17904876
   0.86396111  0.83430955  0.48561399
   0.30409936  0.86218012  0.45605531
   0.97863700  0.53118254  0.15338880
   0.84038271  0.30410468  0.48861713
   0.49984929  0.96901146  0.13854220
   0.70701489  0.33507485  0.49294929
   0.28218684  0.02208517  0.79305116
   0.63774483  0.33385320  0.19338966
   0.96317067  0.68996224  0.48349429
   0.35375819  0.95290055  0.45832914
   0.35189837  0.02407211  0.12771069
   0.71047124  0.97577377  0.18610623
   0.34602014  0.66338171  0.74669614
   0.73187144  0.27815004  0.02161546
   0.97931970  0.31610373  0.18731916
   0.31340696  0.70643173  0.18647681
   0.97604926  0.38468932  0.85574359
   0.64691008  0.97069603  0.85188698
   0.03190859  0.62547018  0.15002423
   0.64144243  0.03945181  0.52067665
   0.02855574  0.69344526  0.82148640
   0.30310291  0.62618713  0.57533456
   0.04470023  0.31855578  0.51889699
   0.70489839  0.43774598  0.37189279
   0.61844440  0.44275094  0.01213722
   0.79067993  0.21190085  0.69275748
Direct configuration=    77
   0.05869801  0.25804106  0.31475899
   0.03295511  0.30132270  0.94968816
   0.10202040  0.26193157  0.71678750
   0.68610295  0.05426759  0.31549301
   0.66344216  0.03309384  0.95771030
   0.63811231  0.10002599  0.71856748
   0.02424499  0.39689262  0.65369585
   0.27479333  0.66935442  0.34444240
   0.32128319  0.64085668  0.98211507
   0.28923693  0.59274712  0.79115696
   0.58538041  0.01552292  0.64762928
   0.29402184  0.03468267  0.35520462
   0.22609613  0.07578156  0.59275732
   0.27051988  0.08046791  0.99847574
   0.66686458  0.28828517  0.43944432
   0.73376710  0.20105669  0.56847638
   0.00988594  0.63295360  0.71105195
   0.03421596  0.56606674  0.94944630
   0.65314665  0.26794638  0.02309548
   0.04166732  0.67385712  0.37971157
   0.08462154  0.69613826  0.62439112
   0.36346189  0.00100379  0.68733502
   0.40390496  0.02838062  0.92495991
   0.09114590  0.64432721  0.02697122
   0.70323599  0.96010234  0.62443404
   0.77118541  0.92149558  0.38735357
   0.72749742  0.91530699  0.98376424
   0.35878967  0.69729452  0.52081890
   0.29567648  0.77715257  0.35562925
   0.00485422  0.37333201  0.28541845
   0.97379713  0.44345787  0.05671223
   0.33814361  0.72839583  0.94179091
   0.96171547  0.34548366  0.61757813
   0.92327367  0.31426569  0.38657230
   0.63205602  0.99203986  0.29140598
   0.59121556  0.96681329  0.04933370
   0.91707366  0.36502677  0.98526355
   0.94784686  0.74994182  0.68576417
   0.97259474  0.70619109  0.04802147
   0.90322450  0.74329043  0.28049470
   0.30699276  0.94210279  0.66266966
   0.33012210  0.96336061  0.02037494
   0.35625771  0.89528583  0.25619277
   0.98675324  0.61081446  0.35178048
   0.76069343  0.29588942  0.70965600
   0.68710745  0.36473589  0.01283438
   0.74649314  0.35640426  0.28240305
   0.41102464  0.97609733  0.33013113
   0.58789842  0.42042627  0.25982565
   0.62807264  0.47897605  0.24879205
   0.64408389  0.42264657  0.51621216
   0.83064624  0.17897464  0.20997425
   0.85599750  0.12384366  0.69126349
   0.83578883  0.05042580  0.58014080
   0.10940691  0.21548788  0.23344290
   0.15042712  0.16916849  0.35251617
   0.08489146  0.26150243  0.89105529
   0.12424991  0.21463275  0.03056028
   0.67841518  0.10514048  0.23662294
   0.68787705  0.14273817  0.35838552
   0.65371529  0.08393199  0.89485575
   0.66203879  0.12260873  0.03671831
   0.01486130  0.44829155  0.57519655
   0.02010044  0.48877974  0.69796429
   0.23031731  0.66098976  0.27077062
   0.17990413  0.67569036  0.38323684
   0.28482005  0.62093167  0.95121171
   0.23487064  0.63612264  0.08169642
   0.54384471  0.00569720  0.56612029
   0.49748348  0.01088582  0.68468998
   0.24328539  0.07567030  0.41772077
   0.20424954  0.12338873  0.28027294
   0.21936896  0.12276099  0.07790417
   0.17832908  0.16909145  0.95870744
   0.69506641  0.22957949  0.44149796
   0.67937996  0.19753411  0.29548487
   0.01896956  0.58233226  0.77321888
   0.01096050  0.54347500  0.63124666
   0.66099775  0.21653175  0.09777638
   0.65349856  0.17761965  0.97319145
   0.08386538  0.68084695  0.44746754
   0.13327897  0.66844910  0.31188157
   0.40433380  0.01074071  0.74989547
   0.45231365  0.00169613  0.61294756
   0.13539834  0.64814474  0.11468841
   0.18744466  0.63079641  0.00728576
   0.75524578  0.92132342  0.56331183
   0.79622732  0.87619091  0.70564195
   0.78042165  0.87584921  0.90663791
   0.82277291  0.83179830  0.02970852
   0.32471242  0.75505254  0.51254404
   0.32396718  0.79438841  0.67118223
   0.99198195  0.42571922  0.23017700
   0.99949037  0.46441440  0.37363826
   0.33477867  0.77885390  0.87454862
   0.33964152  0.81864383  0.00211170
   0.92305064  0.33146251  0.56179844
   0.87821403  0.33630158  0.70416935
   0.59119093  0.98254437  0.22581486
   0.54382871  0.99044350  0.36420912
   0.87690699  0.35334717  0.90443513
   0.83097118  0.35746675  0.02558555
   0.89492060  0.78958597  0.76250934
   0.85252261  0.83363511  0.63935127
   0.91983451  0.74430024  0.10602558
   0.87910981  0.78929808  0.96354307
   0.31695458  0.89016454  0.73826348
   0.31357282  0.84991535  0.61020871
   0.33969659  0.91246362  0.08068389
   0.33145660  0.87358450  0.93909620
   0.99575797  0.55941818  0.42980606
   0.99009122  0.51926122  0.30719085
   0.79456091  0.32049431  0.76471718
   0.83713361  0.31970511  0.63952253
   0.74366039  0.34329546  0.09299772
   0.78946535  0.34254532  0.95916707
   0.45250622  0.98618711  0.41126230
   0.49886723  0.98093878  0.29267718
   0.61828440  0.44166817  0.34445952
   0.84518517  0.08744677  0.63404896
   0.79011660  0.21715625  0.12462537
   0.13973145  0.16896326  0.50727199
   0.70187367  0.12857202  0.50912819
   0.03159488  0.47680144  0.85169572
   0.17615685  0.69353541  0.53126133
   0.49674728  0.02275017  0.83877226
   0.18904625  0.16946972  0.80401078
   0.64080315  0.19080934  0.82063874
   0.19019828  0.61387458  0.85880018
   0.81124645  0.83117773  0.18330538
   0.34943658  0.80683374  0.15660930
   0.83059880  0.36973197  0.17903495
   0.86395976  0.83431094  0.48564104
   0.30403909  0.86221352  0.45605784
   0.97863440  0.53119974  0.15340158
   0.84042445  0.30406697  0.48862109
   0.49984571  0.96899562  0.13859094
   0.70703064  0.33506174  0.49289481
   0.28219731  0.02206817  0.79298502
   0.63773430  0.33385316  0.19333740
   0.96318250  0.68996773  0.48352572
   0.35375450  0.95291462  0.45838586
   0.35187714  0.02407535  0.12771765
   0.71046589  0.97576808  0.18612780
   0.34602955  0.66337792  0.74667181
   0.73185885  0.27816837  0.02160200
   0.97933509  0.31611325  0.18727720
   0.31340645  0.70643512  0.18649250
   0.97606479  0.38469102  0.85574625
   0.64691443  0.97067836  0.85187620
   0.03191186  0.62547795  0.15004139
   0.64143752  0.03944403  0.52067974
   0.02856076  0.69346161  0.82148643
   0.30313136  0.62618127  0.57525019
   0.04471656  0.31856808  0.51885569
   0.70489611  0.43772754  0.37206236
   0.61844177  0.44276393  0.01230270
   0.79063744  0.21192045  0.69292507
Direct configuration=    78
   0.05872068  0.25806926  0.31474453
   0.03299261  0.30133797  0.94966071
   0.10206388  0.26192651  0.71676693
   0.68607322  0.05427526  0.31543045
   0.66341531  0.03308357  0.95772516
   0.63808397  0.10000922  0.71858323
   0.02428615  0.39689163  0.65369579
   0.27483484  0.66932655  0.34438329
   0.32132395  0.64081302  0.98201783
   0.28923533  0.59274450  0.79096400
   0.58538259  0.01550847  0.64769132
   0.29397695  0.03467467  0.35518214
   0.22608625  0.07576257  0.59279301
   0.27051376  0.08046553  0.99845116
   0.66687903  0.28828559  0.43934508
   0.73369990  0.20106208  0.56844280
   0.00991653  0.63296009  0.71105253
   0.03421650  0.56608633  0.94946589
   0.65307869  0.26795366  0.02306097
   0.04167445  0.67387411  0.37969850
   0.08463092  0.69615392  0.62434033
   0.36342071  0.00107244  0.68732391
   0.40388464  0.02839489  0.92506236
   0.09114414  0.64435373  0.02697691
   0.70321518  0.96007774  0.62444670
   0.77117306  0.92149500  0.38743874
   0.72750340  0.91529106  0.98385188
   0.35870997  0.69734964  0.52077524
   0.29562477  0.77721038  0.35555032
   0.00489658  0.37334144  0.28537825
   0.97380989  0.44347287  0.05672282
   0.33809820  0.72840641  0.94177695
   0.96175513  0.34549120  0.61757399
   0.92331259  0.31426226  0.38653314
   0.63204790  0.99202026  0.29139297
   0.59121820  0.96676629  0.04938636
   0.91710903  0.36501258  0.98521599
   0.94785182  0.74995870  0.68579234
   0.97260233  0.70619829  0.04802236
   0.90323928  0.74329733  0.28055439
   0.30698944  0.94210530  0.66268292
   0.33017614  0.96332217  0.02036390
   0.35627613  0.89527697  0.25623758
   0.98675469  0.61083711  0.35183722
   0.76069321  0.29588793  0.70963435
   0.68711449  0.36476633  0.01276977
   0.74649104  0.35641768  0.28232888
   0.41101371  0.97609765  0.33014527
   0.58794776  0.42037200  0.25990498
   0.62802343  0.47899963  0.24915084
   0.64409431  0.42258801  0.51642005
   0.83055324  0.17897535  0.20999835
   0.85595467  0.12382043  0.69131477
   0.83576663  0.05043065  0.57972532
   0.10941268  0.21549559  0.23341572
   0.15040728  0.16917050  0.35251773
   0.08492037  0.26151088  0.89101584
   0.12426663  0.21462416  0.03053654
   0.67839254  0.10513940  0.23657954
   0.68785126  0.14273584  0.35838503
   0.65368269  0.08392060  0.89486492
   0.66200167  0.12259861  0.03670014
   0.01488724  0.44829909  0.57519784
   0.02010889  0.48879465  0.69798062
   0.23034868  0.66096355  0.27066515
   0.17994208  0.67565564  0.38317887
   0.28483529  0.62091519  0.95108735
   0.23489325  0.63611043  0.08159787
   0.54384119  0.00569064  0.56617207
   0.49745318  0.01091856  0.68472205
   0.24325661  0.07566016  0.41775706
   0.20422590  0.12338005  0.28029289
   0.21936445  0.12274541  0.07792019
   0.17833660  0.16907844  0.95871034
   0.69506761  0.22957092  0.44157737
   0.67935848  0.19754084  0.29543904
   0.01898138  0.58234746  0.77323301
   0.01097078  0.54348835  0.63127787
   0.66095083  0.21653511  0.09774270
   0.65345655  0.17761749  0.97315431
   0.08388608  0.68085283  0.44742385
   0.13329571  0.66844320  0.31189597
   0.40432287  0.01078117  0.74988839
   0.45228723  0.00172840  0.61296954
   0.13542241  0.64814439  0.11466963
   0.18745923  0.63079385  0.00720780
   0.75522998  0.92131431  0.56337205
   0.79622018  0.87618189  0.70571597
   0.78042200  0.87584029  0.90671338
   0.82278348  0.83179026  0.02977305
   0.32462737  0.75511307  0.51248610
   0.32389301  0.79443350  0.67116567
   0.99200856  0.42573028  0.23017054
   0.99951591  0.46443097  0.37365207
   0.33475744  0.77885483  0.87445058
   0.33969663  0.81860129  0.00205056
   0.92308983  0.33145486  0.56178399
   0.87827257  0.33628119  0.70409517
   0.59119187  0.98250565  0.22588187
   0.54383651  0.99041951  0.36428636
   0.87693386  0.35333843  0.90439823
   0.83098380  0.35747528  0.02556697
   0.89492353  0.78959539  0.76255349
   0.85252000  0.83363571  0.63939740
   0.91984583  0.74430768  0.10607805
   0.87912132  0.78930112  0.96361153
   0.31695759  0.89015261  0.73824497
   0.31352915  0.84993808  0.61019568
   0.33973517  0.91243383  0.08072912
   0.33149165  0.87356799  0.93909696
   0.99576760  0.55943555  0.42982986
   0.99010185  0.51928299  0.30720139
   0.79459032  0.32047682  0.76468126
   0.83717754  0.31968460  0.63952800
   0.74366825  0.34331321  0.09290601
   0.78949627  0.34252681  0.95911255
   0.45248184  0.98619769  0.41125597
   0.49886862  0.98093064  0.29274429
   0.61827601  0.44164698  0.34458074
   0.84515423  0.08742815  0.63385444
   0.79006559  0.21717343  0.12473150
   0.13970948  0.16898234  0.50728356
   0.70185230  0.12857591  0.50914575
   0.03160709  0.47681359  0.85171305
   0.17619803  0.69349549  0.53121358
   0.49672846  0.02278060  0.83878215
   0.18907986  0.16943124  0.80402905
   0.64075589  0.19082071  0.82058008
   0.19018858  0.61389417  0.85872412
   0.81126360  0.83116701  0.18337263
   0.34953895  0.80678067  0.15650160
   0.83059711  0.36974234  0.17901268
   0.86395757  0.83431318  0.48568467
   0.30394190  0.86226738  0.45606194
   0.97863020  0.53122746  0.15342218
   0.84049177  0.30400615  0.48862747
   0.49983995  0.96897007  0.13866954
   0.70705604  0.33504061  0.49280695
   0.28221420  0.02204076  0.79287838
   0.63771734  0.33385309  0.19325313
   0.96320157  0.68997659  0.48357640
   0.35374856  0.95293730  0.45847731
   0.35184292  0.02408057  0.12772887
   0.71045725  0.97575891  0.18616257
   0.34604474  0.66337180  0.74663259
   0.73183854  0.27819792  0.02158030
   0.97935990  0.31612861  0.18720954
   0.31340561  0.70644057  0.18651782
   0.97608984  0.38469375  0.85575053
   0.64692145  0.97064987  0.85185883
   0.03191712  0.62549048  0.15006907
   0.64142960  0.03943148  0.52068472
   0.02856886  0.69348798  0.82148649
   0.30317722  0.62617181  0.57511413
   0.04474288  0.31858791  0.51878910
   0.70489243  0.43769780  0.37233581
   0.61843753  0.44278487  0.01256953
   0.79056892  0.21195205  0.69319531
Direct configuration=    79
   0.05873081  0.25809028  0.31473371
   0.03302192  0.30134709  0.94965593
   0.10209222  0.26192741  0.71674781
   0.68605261  0.05427765  0.31540734
   0.66339735  0.03307397  0.95770980
   0.63806533  0.09999573  0.71859701
   0.02431332  0.39689284  0.65369466
   0.27485802  0.66931288  0.34431345
   0.32135328  0.64078017  0.98194220
   0.28923279  0.59274497  0.79085583
   0.58538405  0.01549971  0.64773824
   0.29394833  0.03466505  0.35517621
   0.22607338  0.07575475  0.59282840
   0.27050381  0.08046777  0.99842707
   0.66689183  0.28827635  0.43928590
   0.73367816  0.20104942  0.56850639
   0.00993635  0.63296600  0.71105480
   0.03421712  0.56610090  0.94948497
   0.65303057  0.26795032  0.02307124
   0.04168277  0.67388525  0.37968164
   0.08463756  0.69616388  0.62428516
   0.36340190  0.00111868  0.68731240
   0.40387362  0.02839692  0.92508560
   0.09114736  0.64436781  0.02696170
   0.70319613  0.96006525  0.62445353
   0.77116498  0.92149443  0.38749603
   0.72750787  0.91528006  0.98390992
   0.35865560  0.69738755  0.52072454
   0.29558345  0.77725059  0.35546113
   0.00492644  0.37334652  0.28534491
   0.97381845  0.44348714  0.05672453
   0.33806735  0.72841615  0.94176049
   0.96178024  0.34549642  0.61757340
   0.92333903  0.31425672  0.38649379
   0.63204159  0.99200335  0.29139428
   0.59122309  0.96672835  0.04941951
   0.91712747  0.36500314  0.98518810
   0.94785510  0.74997051  0.68581584
   0.97260611  0.70620280  0.04802838
   0.90324944  0.74330293  0.28059884
   0.30698477  0.94210750  0.66265849
   0.33021404  0.96329738  0.02036170
   0.35629402  0.89526790  0.25625922
   0.98675399  0.61085466  0.35187416
   0.76070142  0.29589005  0.70961527
   0.68711699  0.36479134  0.01270912
   0.74649634  0.35642201  0.28228891
   0.41099579  0.97609388  0.33013841
   0.58796822  0.42034509  0.25995639
   0.62799382  0.47902096  0.24939152
   0.64410424  0.42254468  0.51653229
   0.83049598  0.17897040  0.21002036
   0.85592240  0.12380195  0.69134935
   0.83574957  0.05042671  0.57941257
   0.10941520  0.21550275  0.23339865
   0.15039609  0.16916679  0.35252112
   0.08494354  0.26151279  0.89098974
   0.12427445  0.21462364  0.03051878
   0.67837472  0.10513991  0.23653494
   0.68783285  0.14273216  0.35836963
   0.65365843  0.08391975  0.89488685
   0.66197265  0.12260736  0.03667902
   0.01490583  0.44830443  0.57521096
   0.02011789  0.48880435  0.69799922
   0.23037111  0.66094533  0.27060661
   0.17996640  0.67563459  0.38315296
   0.28485295  0.62090273  0.95097716
   0.23490652  0.63610522  0.08154530
   0.54384220  0.00568489  0.56622834
   0.49743873  0.01094419  0.68474538
   0.24323518  0.07565456  0.41775973
   0.20421147  0.12337388  0.28030291
   0.21936181  0.12273514  0.07793723
   0.17834023  0.16907165  0.95871076
   0.69503898  0.22958332  0.44153767
   0.67934148  0.19754554  0.29543154
   0.01898940  0.58235798  0.77324490
   0.01097790  0.54349879  0.63129437
   0.66091464  0.21654876  0.09769471
   0.65342774  0.17761208  0.97311469
   0.08389953  0.68085680  0.44740170
   0.13331525  0.66843719  0.31189356
   0.40429940  0.01081486  0.74996050
   0.45227241  0.00175755  0.61300366
   0.13543041  0.64814490  0.11466120
   0.18746774  0.63079468  0.00717285
   0.75522450  0.92130374  0.56341037
   0.79621282  0.87617813  0.70575597
   0.78042634  0.87583085  0.90676918
   0.82278944  0.83178662  0.02981771
   0.32457832  0.75514575  0.51247051
   0.32384228  0.79445191  0.67117384
   0.99202704  0.42574013  0.23016326
   0.99953414  0.46443901  0.37364519
   0.33473515  0.77885995  0.87441529
   0.33973682  0.81856905  0.00201688
   0.92312206  0.33145052  0.56176042
   0.87828931  0.33626868  0.70409404
   0.59119982  0.98248022  0.22591334
   0.54384152  0.99040230  0.36432754
   0.87695894  0.35333501  0.90438569
   0.83099589  0.35747310  0.02554219
   0.89492718  0.78960132  0.76258318
   0.85251538  0.83363836  0.63943505
   0.91985681  0.74431000  0.10610874
   0.87912690  0.78930531  0.96365241
   0.31695633  0.89015722  0.73824714
   0.31349452  0.84996302  0.61019903
   0.33976386  0.91240962  0.08074548
   0.33151623  0.87354955  0.93907607
   0.99577325  0.55944927  0.42984707
   0.99011188  0.51929708  0.30721611
   0.79461860  0.32046166  0.76463191
   0.83720398  0.31966368  0.63950159
   0.74366200  0.34333466  0.09285772
   0.78951909  0.34252054  0.95908650
   0.45247312  0.98620143  0.41126184
   0.49887173  0.98092470  0.29279608
   0.61827239  0.44163122  0.34471019
   0.84513369  0.08742549  0.63373029
   0.79002954  0.21718013  0.12480532
   0.13969109  0.16899896  0.50728590
   0.70183799  0.12857661  0.50916683
   0.03161688  0.47682245  0.85173066
   0.17622760  0.69346396  0.53117516
   0.49671470  0.02279855  0.83877599
   0.18910456  0.16940082  0.80404943
   0.64072504  0.19082760  0.82058669
   0.19018950  0.61390466  0.85864981
   0.81127375  0.83116083  0.18342532
   0.34960660  0.80674432  0.15640051
   0.83059377  0.36975339  0.17899081
   0.86395643  0.83431378  0.48572022
   0.30387514  0.86230351  0.45604996
   0.97862737  0.53124859  0.15343501
   0.84053721  0.30396555  0.48866011
   0.49983361  0.96895485  0.13871727
   0.70706957  0.33502595  0.49272317
   0.28222092  0.02202666  0.79282285
   0.63770581  0.33384363  0.19320485
   0.96321419  0.68998567  0.48362022
   0.35374817  0.95294689  0.45853484
   0.35182335  0.02408773  0.12773725
   0.71045270  0.97574965  0.18618387
   0.34605882  0.66336342  0.74660554
   0.73182759  0.27821939  0.02156645
   0.97938074  0.31614060  0.18715801
   0.31340729  0.70643965  0.18652046
   0.97610973  0.38469821  0.85574454
   0.64692034  0.97063351  0.85186406
   0.03192201  0.62550135  0.15008136
   0.64142261  0.03942235  0.52067367
   0.02857593  0.69350497  0.82149498
   0.30320222  0.62616327  0.57505932
   0.04476576  0.31860046  0.51876657
   0.70488764  0.43768257  0.37253334
   0.61844126  0.44279322  0.01273204
   0.79052715  0.21196601  0.69336067
Direct configuration=    80
   0.05874384  0.25811733  0.31471979
   0.03305965  0.30135882  0.94964979
   0.10212869  0.26192856  0.71672321
   0.68602608  0.05428073  0.31537760
   0.66337424  0.03306161  0.95769003
   0.63804133  0.09997838  0.71861473
   0.02434829  0.39689440  0.65369321
   0.27488786  0.66929528  0.34422356
   0.32139101  0.64073789  0.98184486
   0.28922952  0.59274558  0.79071663
   0.58538594  0.01548844  0.64779863
   0.29391148  0.03465267  0.35516858
   0.22605681  0.07574469  0.59287394
   0.27049100  0.08047064  0.99839607
   0.66690829  0.28826446  0.43920973
   0.73365017  0.20103313  0.56858824
   0.00996186  0.63297361  0.71105771
   0.03421790  0.56611965  0.94950952
   0.65296863  0.26794603  0.02308445
   0.04169346  0.67389959  0.37965993
   0.08464611  0.69617670  0.62421415
   0.36337769  0.00117819  0.68729759
   0.40385942  0.02839953  0.92511551
   0.09115150  0.64438593  0.02694212
   0.70317162  0.96004917  0.62446231
   0.77115457  0.92149368  0.38756977
   0.72751362  0.91526590  0.98398462
   0.35858562  0.69743634  0.52065929
   0.29553027  0.77730234  0.35534634
   0.00496488  0.37335305  0.28530201
   0.97382948  0.44350550  0.05672674
   0.33802764  0.72842869  0.94173931
   0.96181255  0.34550314  0.61757265
   0.92337305  0.31424958  0.38644313
   0.63203346  0.99198158  0.29139596
   0.59122938  0.96667953  0.04946217
   0.91715121  0.36499099  0.98515221
   0.94785933  0.74998571  0.68584608
   0.97261098  0.70620861  0.04803612
   0.90326252  0.74331014  0.28065606
   0.30697877  0.94211033  0.66262705
   0.33026281  0.96326547  0.02035887
   0.35631704  0.89525624  0.25628706
   0.98675309  0.61087725  0.35192170
   0.76071199  0.29589279  0.70959071
   0.68712019  0.36482354  0.01263106
   0.74650317  0.35642758  0.28223747
   0.41097272  0.97608903  0.33012959
   0.58799454  0.42031045  0.26002256
   0.62795570  0.47904842  0.24970128
   0.64411701  0.42248891  0.51667674
   0.83042229  0.17896403  0.21004870
   0.85588086  0.12377817  0.69139386
   0.83572761  0.05042162  0.57901006
   0.10941846  0.21551196  0.23337668
   0.15038168  0.16916200  0.35252549
   0.08497337  0.26151524  0.89095614
   0.12428452  0.21462297  0.03049592
   0.67835178  0.10514055  0.23647754
   0.68780916  0.14272742  0.35834980
   0.65362720  0.08391865  0.89491507
   0.66193529  0.12261862  0.03665184
   0.01492976  0.44831130  0.57522785
   0.02012948  0.48881683  0.69802316
   0.23039998  0.66092187  0.27053127
   0.17999770  0.67560750  0.38311961
   0.28487567  0.62088670  0.95083535
   0.23492359  0.63609852  0.08147763
   0.54384352  0.00567749  0.56630075
   0.49742014  0.01097718  0.68477540
   0.24320759  0.07564735  0.41776317
   0.20419290  0.12336593  0.28031581
   0.21935842  0.12272193  0.07795917
   0.17834491  0.16906290  0.95871130
   0.69500213  0.22959928  0.44148658
   0.67931961  0.19755160  0.29542189
   0.01899972  0.58237151  0.77326019
   0.01098708  0.54351223  0.63131559
   0.66086806  0.21656632  0.09763294
   0.65339067  0.17760512  0.97306371
   0.08391684  0.68086191  0.44737318
   0.13334040  0.66842944  0.31189046
   0.40426920  0.01085821  0.75005329
   0.45225334  0.00179507  0.61304758
   0.13544071  0.64814554  0.11465035
   0.18747870  0.63079574  0.00712787
   0.75521746  0.92129013  0.56345969
   0.79620335  0.87617330  0.70580744
   0.78043191  0.87581870  0.90684101
   0.82279711  0.83178193  0.02987519
   0.32451520  0.75518781  0.51245045
   0.32377700  0.79447560  0.67118436
   0.99205082  0.42575281  0.23015388
   0.99955759  0.46444935  0.37363633
   0.33470647  0.77886656  0.87436987
   0.33978855  0.81852756  0.00197353
   0.92316353  0.33144493  0.56173007
   0.87831087  0.33625258  0.70409258
   0.59121005  0.98244750  0.22595383
   0.54384796  0.99038016  0.36438052
   0.87699122  0.35333060  0.90436956
   0.83101145  0.35747030  0.02551031
   0.89493187  0.78960896  0.76262140
   0.85250944  0.83364177  0.63948349
   0.91987095  0.74431297  0.10614822
   0.87913409  0.78931071  0.96370503
   0.31695472  0.89016316  0.73824994
   0.31344997  0.84999511  0.61020334
   0.33980079  0.91237846  0.08076654
   0.33154787  0.87352581  0.93904919
   0.99578052  0.55946693  0.42986924
   0.99012478  0.51931520  0.30723506
   0.79465500  0.32044216  0.76456839
   0.83723802  0.31963675  0.63946760
   0.74365396  0.34336227  0.09279556
   0.78954847  0.34251248  0.95905298
   0.45246190  0.98620624  0.41126939
   0.49887574  0.98091707  0.29286273
   0.61826773  0.44161092  0.34487679
   0.84510727  0.08742207  0.63357052
   0.78998315  0.21718875  0.12490034
   0.13966741  0.16902036  0.50728890
   0.70181957  0.12857751  0.50919396
   0.03162947  0.47683386  0.85175333
   0.17626565  0.69342338  0.53112572
   0.49669698  0.02282165  0.83876807
   0.18913635  0.16936167  0.80407566
   0.64068534  0.19083646  0.82059519
   0.19019068  0.61391817  0.85855417
   0.81128681  0.83115287  0.18349312
   0.34969365  0.80669754  0.15627040
   0.83058947  0.36976762  0.17896266
   0.86395495  0.83431456  0.48576596
   0.30378922  0.86235001  0.45603455
   0.97862372  0.53127579  0.15345152
   0.84059569  0.30391330  0.48870211
   0.49982546  0.96893526  0.13877871
   0.70708700  0.33500707  0.49261535
   0.28222958  0.02200851  0.79275139
   0.63769097  0.33383146  0.19314272
   0.96323044  0.68999736  0.48367663
   0.35374767  0.95295923  0.45860887
   0.35179817  0.02409695  0.12774805
   0.71044683  0.97573774  0.18621129
   0.34607695  0.66335263  0.74657073
   0.73181349  0.27824702  0.02154862
   0.97940756  0.31615603  0.18709169
   0.31340945  0.70643847  0.18652385
   0.97613533  0.38470395  0.85573682
   0.64691892  0.97061246  0.85187078
   0.03192831  0.62551533  0.15009718
   0.64141362  0.03941059  0.52065946
   0.02858503  0.69352683  0.82150591
   0.30323440  0.62615227  0.57498877
   0.04479520  0.31861660  0.51873758
   0.70488148  0.43766298  0.37278755
   0.61844605  0.44280397  0.01294120
   0.79047340  0.21198399  0.69357349
Direct configuration=    81
   0.05875167  0.25814241  0.31469921
   0.03309804  0.30137010  0.94965148
   0.10215978  0.26193552  0.71669562
   0.68600063  0.05427760  0.31536578
   0.66335449  0.03305179  0.95766389
   0.63801769  0.09996446  0.71862446
   0.02437959  0.39689950  0.65369135
   0.27490833  0.66928328  0.34410727
   0.32142958  0.64069585  0.98174716
   0.28922578  0.59274610  0.79061051
   0.58538732  0.01547938  0.64785750
   0.29388389  0.03463289  0.35516295
   0.22603345  0.07574429  0.59289636
   0.27047831  0.08047021  0.99836805
   0.66691760  0.28825809  0.43914659
   0.73362015  0.20102480  0.56866463
   0.00998509  0.63298222  0.71106502
   0.03421901  0.56613837  0.94953957
   0.65291186  0.26795550  0.02309959
   0.04170682  0.67391147  0.37962164
   0.08465580  0.69619141  0.62416956
   0.36335520  0.00123131  0.68726951
   0.40384907  0.02840514  0.92519198
   0.09115956  0.64439795  0.02690439
   0.70315129  0.96003239  0.62446671
   0.77114898  0.92149106  0.38761970
   0.72751850  0.91525250  0.98404795
   0.35852317  0.69747667  0.52057310
   0.29548604  0.77734080  0.35526958
   0.00500192  0.37335716  0.28525841
   0.97383950  0.44352729  0.05672125
   0.33799197  0.72844119  0.94170367
   0.96183565  0.34550691  0.61755646
   0.92340794  0.31424378  0.38641844
   0.63203761  0.99195945  0.29142592
   0.59124107  0.96662827  0.04951108
   0.91717415  0.36498379  0.98513429
   0.94786502  0.74999977  0.68588111
   0.97261790  0.70621079  0.04804910
   0.90327799  0.74331686  0.28069761
   0.30697145  0.94211526  0.66257333
   0.33030742  0.96323534  0.02034974
   0.35634533  0.89523700  0.25631179
   0.98675115  0.61090055  0.35195798
   0.76073282  0.29589752  0.70957125
   0.68712273  0.36485406  0.01254001
   0.74651490  0.35642991  0.28220554
   0.41095344  0.97608421  0.33012285
   0.58800028  0.42029222  0.26007834
   0.62792500  0.47907486  0.24999306
   0.64412931  0.42243600  0.51676394
   0.83038698  0.17892677  0.21014220
   0.85584310  0.12376864  0.69146093
   0.83571423  0.05044331  0.57865023
   0.10942199  0.21551908  0.23337034
   0.15036599  0.16916020  0.35251234
   0.08500522  0.26151408  0.89092763
   0.12429035  0.21462873  0.03047413
   0.67832772  0.10514561  0.23644786
   0.68778853  0.14272746  0.35832618
   0.65359664  0.08391680  0.89493785
   0.66189896  0.12263231  0.03662314
   0.01495228  0.44831964  0.57523736
   0.02014482  0.48882771  0.69805238
   0.23042671  0.66090301  0.27049796
   0.18003269  0.67558342  0.38308703
   0.28489596  0.62087354  0.95071679
   0.23494301  0.63609083  0.08139666
   0.54384921  0.00566947  0.56635306
   0.49740886  0.01100631  0.68478122
   0.24317755  0.07564097  0.41777673
   0.20418015  0.12335500  0.28032290
   0.21934822  0.12271727  0.07797696
   0.17835053  0.16905254  0.95872888
   0.69497796  0.22958997  0.44144910
   0.67928986  0.19755179  0.29539920
   0.01900951  0.58238509  0.77327891
   0.01099556  0.54352706  0.63132966
   0.66082774  0.21656616  0.09761475
   0.65335625  0.17761240  0.97303763
   0.08393060  0.68086535  0.44733526
   0.13336861  0.66841655  0.31184790
   0.40423924  0.01089434  0.75011271
   0.45223106  0.00183416  0.61307124
   0.13544750  0.64814645  0.11463139
   0.18748368  0.63079857  0.00708911
   0.75520525  0.92128095  0.56351814
   0.79619548  0.87616845  0.70585279
   0.78043645  0.87580871  0.90689882
   0.82280403  0.83177824  0.02994332
   0.32445154  0.75522897  0.51238031
   0.32371330  0.79450084  0.67118296
   0.99207319  0.42576852  0.23013468
   0.99958127  0.46445606  0.37363059
   0.33467493  0.77887245  0.87439301
   0.33983002  0.81850365  0.00187491
   0.92319716  0.33143898  0.56169206
   0.87832347  0.33623996  0.70411828
   0.59121524  0.98241424  0.22594607
   0.54385791  0.99036129  0.36444432
   0.87701302  0.35332441  0.90435714
   0.83103925  0.35746037  0.02547784
   0.89493433  0.78961765  0.76266851
   0.85250287  0.83364606  0.63953086
   0.91988062  0.74431754  0.10619375
   0.87914204  0.78931534  0.96373759
   0.31694891  0.89017817  0.73826662
   0.31340036  0.85002475  0.61020951
   0.33983832  0.91235287  0.08075435
   0.33158170  0.87349098  0.93901753
   0.99578693  0.55948612  0.42990162
   0.99013842  0.51932932  0.30724446
   0.79468651  0.32042322  0.76453045
   0.83727049  0.31960540  0.63942384
   0.74364254  0.34339209  0.09274118
   0.78956731  0.34251066  0.95900965
   0.45245266  0.98621142  0.41133801
   0.49887029  0.98090461  0.29289845
   0.61827046  0.44159256  0.34509928
   0.84506811  0.08738073  0.63335167
   0.78991013  0.21721808  0.12491813
   0.13964166  0.16904299  0.50728863
   0.70179937  0.12857766  0.50919453
   0.03164289  0.47684556  0.85178164
   0.17630360  0.69338309  0.53109450
   0.49667876  0.02284417  0.83878208
   0.18916676  0.16932247  0.80409863
   0.64064680  0.19084432  0.82062183
   0.19019985  0.61393004  0.85846388
   0.81129736  0.83114696  0.18356030
   0.34977640  0.80664791  0.15616654
   0.83058360  0.36978498  0.17892037
   0.86395275  0.83431486  0.48581939
   0.30371104  0.86239053  0.45603633
   0.97862190  0.53130279  0.15347683
   0.84065043  0.30386289  0.48873653
   0.49981760  0.96892074  0.13884358
   0.70710265  0.33498568  0.49249801
   0.28223065  0.02199921  0.79272429
   0.63768332  0.33380496  0.19307862
   0.96324520  0.69001248  0.48373648
   0.35375099  0.95296334  0.45865774
   0.35177852  0.02410784  0.12776621
   0.71044128  0.97572617  0.18623417
   0.34609798  0.66333938  0.74653275
   0.73179412  0.27828247  0.02151607
   0.97943695  0.31617160  0.18703362
   0.31341350  0.70643450  0.18650610
   0.97616292  0.38471319  0.85572193
   0.64690995  0.97059445  0.85190875
   0.03193557  0.62553064  0.15010611
   0.64140416  0.03939948  0.52063230
   0.02859525  0.69354525  0.82152076
   0.30325666  0.62613965  0.57495306
   0.04482962  0.31862911  0.51874051
   0.70487220  0.43765150  0.37303611
   0.61845809  0.44280792  0.01311397
   0.79042412  0.21199329  0.69376225
Direct configuration=    82
   0.05875091  0.25813997  0.31470122
   0.03309430  0.30136900  0.94965132
   0.10215675  0.26193484  0.71669831
   0.68600311  0.05427790  0.31536693
   0.66335641  0.03305275  0.95766644
   0.63801999  0.09996581  0.71862351
   0.02437654  0.39689900  0.65369153
   0.27490634  0.66928445  0.34411860
   0.32142582  0.64069995  0.98175668
   0.28922615  0.59274605  0.79062086
   0.58538718  0.01548026  0.64785176
   0.29388658  0.03463482  0.35516350
   0.22603573  0.07574433  0.59289417
   0.27047955  0.08047025  0.99837078
   0.66691669  0.28825871  0.43915275
   0.73362308  0.20102561  0.56865718
   0.00998282  0.63298138  0.71106430
   0.03421890  0.56613655  0.94953664
   0.65291740  0.26795458  0.02309812
   0.04170552  0.67391031  0.37962537
   0.08465485  0.69618998  0.62417391
   0.36335740  0.00122613  0.68727225
   0.40385008  0.02840459  0.92518453
   0.09115877  0.64439678  0.02690807
   0.70315327  0.96003403  0.62446628
   0.77114952  0.92149131  0.38761483
   0.72751803  0.91525381  0.98404178
   0.35852926  0.69747274  0.52058151
   0.29549035  0.77733705  0.35527706
   0.00499830  0.37335676  0.28526266
   0.97383852  0.44352516  0.05672178
   0.33799545  0.72843997  0.94170715
   0.96183340  0.34550654  0.61755804
   0.92340454  0.31424435  0.38642085
   0.63203721  0.99196161  0.29142300
   0.59123993  0.96663326  0.04950631
   0.91717191  0.36498450  0.98513603
   0.94786446  0.74999840  0.68587770
   0.97261722  0.70621058  0.04804784
   0.90327648  0.74331621  0.28069356
   0.30697216  0.94211478  0.66257856
   0.33030307  0.96323828  0.02035063
   0.35634257  0.89523888  0.25630937
   0.98675134  0.61089828  0.35195444
   0.76073079  0.29589706  0.70957315
   0.68712248  0.36485109  0.01254889
   0.74651375  0.35642968  0.28220865
   0.41095532  0.97608468  0.33012351
   0.58799972  0.42029400  0.26007290
   0.62792800  0.47907228  0.24996461
   0.64412811  0.42244115  0.51675544
   0.83039042  0.17893040  0.21013308
   0.85584678  0.12376957  0.69145439
   0.83571554  0.05044119  0.57868531
   0.10942164  0.21551838  0.23337096
   0.15036752  0.16916038  0.35251362
   0.08500212  0.26151419  0.89093041
   0.12428978  0.21462817  0.03047625
   0.67833007  0.10514512  0.23645075
   0.68779054  0.14272745  0.35832848
   0.65359962  0.08391698  0.89493563
   0.66190251  0.12263097  0.03662593
   0.01495009  0.44831883  0.57523643
   0.02014333  0.48882665  0.69804954
   0.23042411  0.66090485  0.27050121
   0.18002928  0.67558577  0.38309021
   0.28489398  0.62087482  0.95072835
   0.23494111  0.63609158  0.08140455
   0.54384865  0.00567026  0.56634796
   0.49740996  0.01100347  0.68478065
   0.24318048  0.07564159  0.41777541
   0.20418139  0.12335607  0.28032220
   0.21934921  0.12271772  0.07797523
   0.17834999  0.16905355  0.95872717
   0.69498032  0.22959088  0.44145276
   0.67929276  0.19755177  0.29540141
   0.01900856  0.58238377  0.77327708
   0.01099473  0.54352562  0.63132829
   0.66083167  0.21656617  0.09761652
   0.65335961  0.17761169  0.97304017
   0.08392926  0.68086502  0.44733896
   0.13336586  0.66841781  0.31185205
   0.40424216  0.01089081  0.75010692
   0.45223323  0.00183035  0.61306894
   0.13544684  0.64814636  0.11463323
   0.18748319  0.63079830  0.00709289
   0.75520644  0.92128185  0.56351244
   0.79619625  0.87616892  0.70584837
   0.78043601  0.87580968  0.90689318
   0.82280336  0.83177860  0.02993668
   0.32445775  0.75522495  0.51238715
   0.32371951  0.79449838  0.67118310
   0.99207101  0.42576699  0.23013655
   0.99957896  0.46445540  0.37363115
   0.33467801  0.77887188  0.87439076
   0.33982598  0.81850598  0.00188452
   0.92319388  0.33143956  0.56169577
   0.87832224  0.33624119  0.70411578
   0.59121473  0.98241748  0.22594682
   0.54385694  0.99036313  0.36443810
   0.87701089  0.35332501  0.90435835
   0.83103654  0.35746133  0.02548101
   0.89493409  0.78961680  0.76266392
   0.85250351  0.83364564  0.63952624
   0.91987968  0.74431710  0.10618931
   0.87914127  0.78931489  0.96373442
   0.31694947  0.89017671  0.73826499
   0.31340520  0.85002186  0.61020891
   0.33983466  0.91235537  0.08075554
   0.33157840  0.87349437  0.93902062
   0.99578630  0.55948425  0.42989846
   0.99013709  0.51932795  0.30724354
   0.79468344  0.32042507  0.76453415
   0.83726733  0.31960846  0.63942810
   0.74364365  0.34338919  0.09274648
   0.78956547  0.34251083  0.95901387
   0.45245356  0.98621091  0.41133132
   0.49887082  0.98090582  0.29289496
   0.61827019  0.44159435  0.34507759
   0.84507193  0.08738476  0.63337300
   0.78991725  0.21721522  0.12491639
   0.13964417  0.16904078  0.50728866
   0.70180134  0.12857764  0.50919447
   0.03164158  0.47684442  0.85177888
   0.17629990  0.69338701  0.53109754
   0.49668053  0.02284197  0.83878071
   0.18916379  0.16932629  0.80409639
   0.64065056  0.19084355  0.82061924
   0.19019896  0.61392889  0.85847268
   0.81129633  0.83114753  0.18355375
   0.34976833  0.80665275  0.15617666
   0.83058417  0.36978328  0.17892449
   0.86395296  0.83431483  0.48581418
   0.30371866  0.86238658  0.45603616
   0.97862208  0.53130016  0.15347436
   0.84064509  0.30386780  0.48873317
   0.49981837  0.96892215  0.13883726
   0.70710113  0.33498776  0.49250945
   0.28223054  0.02200012  0.79272693
   0.63768406  0.33380754  0.19308487
   0.96324376  0.69001101  0.48373064
   0.35375067  0.95296294  0.45865298
   0.35178044  0.02410678  0.12776444
   0.71044182  0.97572730  0.18623194
   0.34609593  0.66334067  0.74653645
   0.73179601  0.27827901  0.02151924
   0.97943409  0.31617008  0.18703928
   0.31341311  0.70643489  0.18650783
   0.97616023  0.38471229  0.85572338
   0.64691083  0.97059621  0.85190505
   0.03193486  0.62552915  0.15010524
   0.64140508  0.03940057  0.52063495
   0.02859425  0.69354345  0.82151931
   0.30325449  0.62614088  0.57495654
   0.04482626  0.31862789  0.51874023
   0.70487310  0.43765261  0.37301188
   0.61845692  0.44280753  0.01309713
   0.79042892  0.21199238  0.69374385
Direct configuration=    83
   0.05875550  0.25815768  0.31468181
   0.03312501  0.30137805  0.94965322
   0.10217878  0.26194288  0.71667687
   0.68598347  0.05427433  0.31536214
   0.66334307  0.03304674  0.95764967
   0.63800095  0.09995788  0.71862474
   0.02439926  0.39690503  0.65369018
   0.27491945  0.66927712  0.34402325
   0.32145751  0.64066750  0.98168207
   0.28922328  0.59274475  0.79055136
   0.58538860  0.01547424  0.64789797
   0.29386765  0.03461680  0.35516149
   0.22601333  0.07574935  0.59289852
   0.27047015  0.08046707  0.99835376
   0.66692009  0.28825521  0.43910856
   0.73359130  0.20102726  0.56869271
   0.01000015  0.63298857  0.71107311
   0.03421987  0.56615129  0.94956191
   0.65287609  0.26796890  0.02310797
   0.04171619  0.67391831  0.37958518
   0.08466321  0.69620244  0.62415185
   0.36333730  0.00126449  0.68724282
   0.40384374  0.02841137  0.92527250
   0.09116600  0.64440291  0.02686875
   0.70313968  0.96002002  0.62447000
   0.77114744  0.92148803  0.38764755
   0.72752078  0.91524396  0.98408408
   0.35848421  0.69749924  0.52050176
   0.29545890  0.77736116  0.35523143
   0.00502654  0.37336054  0.28522712
   0.97384605  0.44354418  0.05671393
   0.33796986  0.72844804  0.94167689
   0.96184701  0.34550796  0.61753648
   0.92343267  0.31424059  0.38641476
   0.63204526  0.99194307  0.29145432
   0.59125231  0.96659077  0.04953990
   0.91719069  0.36498198  0.98513070
   0.94786950  0.75000944  0.68590920
   0.97262338  0.70621084  0.04806137
   0.90328969  0.74332141  0.28072077
   0.30696581  0.94212069  0.66253204
   0.33033547  0.96321581  0.02033467
   0.35636708  0.89521987  0.25631785
   0.98674950  0.61091685  0.35197706
   0.76075065  0.29590069  0.70955776
   0.68712408  0.36487431  0.01247224
   0.74652417  0.35643086  0.28219150
   0.41094631  0.97608216  0.33013051
   0.58799624  0.42028945  0.26011964
   0.62790797  0.47908992  0.25019276
   0.64413933  0.42239976  0.51681233
   0.83035188  0.17891343  0.21017838
   0.85581083  0.12374251  0.69147755
   0.83570054  0.05043719  0.57836924
   0.10942329  0.21552417  0.23336874
   0.15035509  0.16916053  0.35249655
   0.08502674  0.26151367  0.89090984
   0.12429452  0.21463374  0.03046341
   0.67831014  0.10514997  0.23644529
   0.68777614  0.14272826  0.35831271
   0.65357588  0.08391443  0.89494352
   0.66187522  0.12263950  0.03660984
   0.01496736  0.44832678  0.57523872
   0.02015721  0.48883483  0.69807052
   0.23044477  0.66089128  0.27048213
   0.18005781  0.67556784  0.38306285
   0.28490653  0.62086664  0.95065765
   0.23495615  0.63608541  0.08133748
   0.54385537  0.00566405  0.56637210
   0.49740246  0.01102383  0.68477590
   0.24315849  0.07563436  0.41779049
   0.20417271  0.12334708  0.28032507
   0.21933895  0.12271683  0.07798864
   0.17835331  0.16904626  0.95874616
   0.69497416  0.22956779  0.44145481
   0.67926518  0.19754870  0.29537679
   0.01901610  0.58239494  0.77329451
   0.01100149  0.54353775  0.63134085
   0.66080343  0.21655908  0.09763046
   0.65333371  0.17762404  0.97303822
   0.08394065  0.68086714  0.44730581
   0.13338775  0.66840561  0.31180517
   0.40422352  0.01091523  0.75012791
   0.45221319  0.00186166  0.61308125
   0.13545296  0.64814668  0.11460784
   0.18748652  0.63080047  0.00705673
   0.75519417  0.92127745  0.56355456
   0.79619110  0.87616489  0.70588371
   0.78043834  0.87580339  0.90693279
   0.82280903  0.83177606  0.02999195
   0.32440774  0.75525669  0.51231232
   0.32366957  0.79452173  0.67117751
   0.99208841  0.42577904  0.23011638
   0.99959774  0.46446040  0.37363076
   0.33465151  0.77887679  0.87441952
   0.33985353  0.81849261  0.00179931
   0.92321254  0.33143501  0.56167465
   0.87833337  0.33623182  0.70412855
   0.59121735  0.98239213  0.22593655
   0.54386404  0.99034886  0.36448275
   0.87702260  0.35331841  0.90435021
   0.83106183  0.35745030  0.02546039
   0.89493475  0.78962442  0.76270290
   0.85249910  0.83364862  0.63956327
   0.91988563  0.74432159  0.10622291
   0.87914764  0.78931794  0.96375666
   0.31694237  0.89018862  0.73827562
   0.31336302  0.85004311  0.61021927
   0.33986622  0.91233584  0.08073776
   0.33160579  0.87346959  0.93898907
   0.99579079  0.55949964  0.42992473
   0.99014824  0.51933744  0.30724959
   0.79470433  0.32041165  0.76452480
   0.83729352  0.31958332  0.63940538
   0.74363652  0.34341253  0.09270454
   0.78957483  0.34251301  0.95897479
   0.45244434  0.98621495  0.41140494
   0.49886303  0.98089442  0.29292343
   0.61827123  0.44158323  0.34524867
   0.84505043  0.08739523  0.63326200
   0.78987722  0.21721975  0.12495252
   0.13962289  0.16905895  0.50728419
   0.70178380  0.12857779  0.50917468
   0.03165277  0.47685392  0.85180477
   0.17632996  0.69335581  0.53108710
   0.49666584  0.02286010  0.83880446
   0.18918659  0.16929569  0.80411362
   0.64061959  0.19085026  0.82063944
   0.19020995  0.61393825  0.85841115
   0.81130333  0.83114394  0.18360751
   0.34983163  0.80661239  0.15610361
   0.83057922  0.36979855  0.17888233
   0.86395061  0.83431499  0.48586004
   0.30366103  0.86241531  0.45605210
   0.97862185  0.53132134  0.15349924
   0.84068686  0.30382754  0.48874327
   0.49981244  0.96891284  0.13888573
   0.70711474  0.33496698  0.49241493
   0.28222688  0.02199806  0.79273200
   0.63768153  0.33378065  0.19303336
   0.96325505  0.69002466  0.48377854
   0.35375525  0.95296144  0.45867317
   0.35176740  0.02411605  0.12778529
   0.71043756  0.97571852  0.18624773
   0.34611403  0.66332911  0.74650120
   0.73177504  0.27831286  0.02148172
   0.97945809  0.31618262  0.18699863
   0.31341743  0.70643026  0.18648072
   0.97618289  0.38472101  0.85570855
   0.64690025  0.97058301  0.85195199
   0.03194124  0.62554164  0.15010892
   0.64139717  0.03939222  0.52060851
   0.02860298  0.69355615  0.82153163
   0.30326668  0.62613133  0.57493741
   0.04485569  0.31863601  0.51875897
   0.70486408  0.43764813  0.37320495
   0.61846999  0.44280747  0.01321787
   0.79039266  0.21199382  0.69388174
Direct configuration=    84
   0.05875879  0.25817039  0.31466789
   0.03314703  0.30138453  0.94965459
   0.10219459  0.26194864  0.71666150
   0.68596939  0.05427176  0.31535870
   0.66333349  0.03304243  0.95763764
   0.63798730  0.09995219  0.71862562
   0.02441556  0.39690936  0.65368921
   0.27492885  0.66927187  0.34395488
   0.32148024  0.64064422  0.98162857
   0.28922122  0.59274382  0.79050152
   0.58538962  0.01546993  0.64793110
   0.29385408  0.03460388  0.35516005
   0.22599726  0.07575294  0.59290164
   0.27046342  0.08046479  0.99834156
   0.66692252  0.28825269  0.43907688
   0.73356852  0.20102845  0.56871819
   0.01001258  0.63299373  0.71107942
   0.03422057  0.56616185  0.94958003
   0.65284648  0.26797917  0.02311504
   0.04172385  0.67392405  0.37955636
   0.08466921  0.69621137  0.62413603
   0.36332289  0.00129200  0.68722171
   0.40383919  0.02841623  0.92533558
   0.09117117  0.64440730  0.02684056
   0.70312993  0.96000997  0.62447266
   0.77114594  0.92148568  0.38767100
   0.72752275  0.91523691  0.98411441
   0.35845190  0.69751824  0.52044457
   0.29543635  0.77737845  0.35519870
   0.00504678  0.37336325  0.28520162
   0.97385146  0.44355782  0.05670830
   0.33795150  0.72845382  0.94165520
   0.96185678  0.34550898  0.61752102
   0.92345285  0.31423789  0.38641039
   0.63205104  0.99192977  0.29147677
   0.59126119  0.96656029  0.04956398
   0.91720415  0.36498018  0.98512688
   0.94787311  0.75001735  0.68593179
   0.97262780  0.70621103  0.04807107
   0.90329916  0.74332514  0.28074028
   0.30696125  0.94212493  0.66249868
   0.33035871  0.96319969  0.02032322
   0.35638466  0.89520624  0.25632393
   0.98674817  0.61093017  0.35199328
   0.76076489  0.29590330  0.70954673
   0.68712522  0.36489097  0.01241728
   0.74653163  0.35643170  0.28217920
   0.41093985  0.97608035  0.33013553
   0.58799374  0.42028620  0.26015315
   0.62789361  0.47910257  0.25035635
   0.64414737  0.42237008  0.51685313
   0.83032423  0.17890126  0.21021087
   0.85578506  0.12372312  0.69149416
   0.83568979  0.05043433  0.57814260
   0.10942447  0.21552833  0.23336714
   0.15034617  0.16916064  0.35248431
   0.08504440  0.26151329  0.89089509
   0.12429791  0.21463773  0.03045421
   0.67829586  0.10515345  0.23644138
   0.68776582  0.14272885  0.35830140
   0.65355886  0.08391260  0.89494919
   0.66185566  0.12264562  0.03659829
   0.01497975  0.44833248  0.57524036
   0.02016717  0.48884070  0.69808556
   0.23045958  0.66088156  0.27046845
   0.18007826  0.67555499  0.38304323
   0.28491553  0.62086078  0.95060696
   0.23496693  0.63608099  0.08128938
   0.54386018  0.00565960  0.56638941
   0.49739708  0.01103842  0.68477249
   0.24314273  0.07562917  0.41780130
   0.20416649  0.12334063  0.28032712
   0.21933158  0.12271619  0.07799826
   0.17835570  0.16904103  0.95875979
   0.69496975  0.22955123  0.44145628
   0.67924541  0.19754650  0.29535914
   0.01902151  0.58240296  0.77330701
   0.01100634  0.54354644  0.63134986
   0.66078318  0.21655399  0.09764045
   0.65331514  0.17763289  0.97303683
   0.08394883  0.68086866  0.44728205
   0.13340345  0.66839685  0.31177156
   0.40421016  0.01093273  0.75014296
   0.45219882  0.00188412  0.61309007
   0.13545735  0.64814692  0.11458963
   0.18748890  0.63080204  0.00703080
   0.75518537  0.92127430  0.56358477
   0.79618741  0.87616200  0.70590905
   0.78044001  0.87579888  0.90696119
   0.82281310  0.83177424  0.03003158
   0.32437189  0.75527944  0.51225867
   0.32363375  0.79453847  0.67117351
   0.99210089  0.42578769  0.23010192
   0.99961121  0.46446398  0.37363047
   0.33463250  0.77888031  0.87444014
   0.33987329  0.81848302  0.00173821
   0.92322591  0.33143174  0.56165950
   0.87834135  0.33622510  0.70413771
   0.59121922  0.98237396  0.22592918
   0.54386914  0.99033864  0.36451476
   0.87703100  0.35331367  0.90434438
   0.83107997  0.35744239  0.02544561
   0.89493523  0.78962988  0.76273085
   0.85249594  0.83365075  0.63958982
   0.91988989  0.74432482  0.10624701
   0.87915220  0.78932012  0.96377261
   0.31693728  0.89019715  0.73828325
   0.31333277  0.85005835  0.61022670
   0.33988885  0.91232184  0.08072501
   0.33162543  0.87345181  0.93896645
   0.99579401  0.55951068  0.42994357
   0.99015623  0.51934425  0.30725392
   0.79471931  0.32040202  0.76451810
   0.83731230  0.31956529  0.63938909
   0.74363140  0.34342926  0.09267447
   0.78958154  0.34251457  0.95894676
   0.45243774  0.98621784  0.41145773
   0.49885744  0.98088625  0.29294385
   0.61827198  0.44157526  0.34537135
   0.84503502  0.08740273  0.63318240
   0.78984851  0.21722300  0.12497842
   0.13960763  0.16907198  0.50728099
   0.70177123  0.12857789  0.50916049
   0.03166080  0.47686073  0.85182333
   0.17635152  0.69333344  0.53107961
   0.49665529  0.02287309  0.83882149
   0.18920294  0.16927374  0.80412598
   0.64059739  0.19085507  0.82065392
   0.19021783  0.61394497  0.85836702
   0.81130835  0.83114137  0.18364606
   0.34987702  0.80658344  0.15605123
   0.83057568  0.36980950  0.17885211
   0.86394893  0.83431511  0.48589292
   0.30361970  0.86243592  0.45606353
   0.97862169  0.53133652  0.15351708
   0.84071681  0.30379867  0.48875050
   0.49980820  0.96890617  0.13892049
   0.70712450  0.33495208  0.49234715
   0.28222426  0.02199658  0.79273563
   0.63767971  0.33376137  0.19299642
   0.96326315  0.69003445  0.48381289
   0.35375853  0.95296036  0.45868764
   0.35175805  0.02412269  0.12780023
   0.71043451  0.97571222  0.18625905
   0.34612700  0.66332081  0.74647591
   0.73176000  0.27833714  0.02145481
   0.97947530  0.31619161  0.18696949
   0.31342053  0.70642694  0.18646129
   0.97619913  0.38472727  0.85569792
   0.64689267  0.97057355  0.85198565
   0.03194582  0.62555059  0.15011157
   0.64139149  0.03938624  0.52058955
   0.02860924  0.69356526  0.82154047
   0.30327542  0.62612448  0.57492369
   0.04487678  0.31864183  0.51877242
   0.70485760  0.43764491  0.37334339
   0.61847936  0.44280742  0.01330444
   0.79036666  0.21199485  0.69398061
Direct configuration=    85
   0.05876351  0.25818446  0.31464913
   0.03317745  0.30139470  0.94965149
   0.10221543  0.26195738  0.71664384
   0.68595018  0.05427191  0.31535129
   0.66332311  0.03303733  0.95763482
   0.63796713  0.09994893  0.71861703
   0.02443617  0.39691726  0.65368772
   0.27494336  0.66926525  0.34387783
   0.32151329  0.64061362  0.98156325
   0.28921862  0.59273921  0.79044524
   0.58539229  0.01546493  0.64797534
   0.29383382  0.03458679  0.35516478
   0.22597091  0.07576233  0.59290204
   0.27045420  0.08045863  0.99833705
   0.66692552  0.28824141  0.43903874
   0.73353543  0.20103149  0.56874595
   0.01002912  0.63300130  0.71109173
   0.03422156  0.56617640  0.94960488
   0.65280946  0.26799120  0.02312687
   0.04173336  0.67393106  0.37950976
   0.08467831  0.69622303  0.62411010
   0.36329949  0.00132702  0.68719147
   0.40383457  0.02842243  0.92541468
   0.09117781  0.64440988  0.02679250
   0.70311644  0.95999684  0.62448293
   0.77114465  0.92148141  0.38771087
   0.72752303  0.91522866  0.98414695
   0.35841093  0.69753997  0.52035282
   0.29540201  0.77740120  0.35513643
   0.00507359  0.37337047  0.28516437
   0.97385905  0.44357825  0.05669908
   0.33792913  0.72845743  0.94163402
   0.96186696  0.34550972  0.61749654
   0.92348005  0.31423384  0.38640667
   0.63205668  0.99190801  0.29149609
   0.59127656  0.96651538  0.04958173
   0.91722203  0.36498070  0.98512379
   0.94787791  0.75002952  0.68596979
   0.97263291  0.70621156  0.04808750
   0.90331199  0.74333078  0.28077072
   0.30695465  0.94213270  0.66246163
   0.33038753  0.96317979  0.02029335
   0.35641026  0.89518464  0.25630506
   0.98674644  0.61094805  0.35201084
   0.76078389  0.29590318  0.70952100
   0.68712625  0.36491468  0.01234221
   0.74654091  0.35643359  0.28216216
   0.41094044  0.97608043  0.33017076
   0.58798836  0.42029199  0.26021559
   0.62787856  0.47911413  0.25058833
   0.64416379  0.42232667  0.51693415
   0.83026037  0.17891027  0.21019954
   0.85575188  0.12371070  0.69153998
   0.83567787  0.05043994  0.57784016
   0.10942261  0.21553684  0.23335384
   0.15033619  0.16916067  0.35247131
   0.08506539  0.26151731  0.89087666
   0.12430626  0.21464044  0.03045145
   0.67827444  0.10515497  0.23644854
   0.68775242  0.14272528  0.35829102
   0.65353627  0.08391038  0.89493905
   0.66183109  0.12264936  0.03660189
   0.01499712  0.44834210  0.57524040
   0.02018214  0.48884903  0.69809713
   0.23048047  0.66086705  0.27042309
   0.18010261  0.67553775  0.38301600
   0.28492373  0.62085453  0.95056584
   0.23497689  0.63607697  0.08123731
   0.54386681  0.00565493  0.56639666
   0.49738746  0.01105600  0.68477347
   0.24312856  0.07561620  0.41780664
   0.20415558  0.12333435  0.28032868
   0.21932410  0.12271248  0.07801526
   0.17835523  0.16903822  0.95877004
   0.69496456  0.22953049  0.44146828
   0.67921799  0.19754169  0.29535129
   0.01902888  0.58241475  0.77332748
   0.01101389  0.54355826  0.63137213
   0.66075674  0.21655556  0.09766989
   0.65329012  0.17764276  0.97305228
   0.08396429  0.68087117  0.44725673
   0.13342222  0.66838523  0.31173488
   0.40419912  0.01095590  0.75016283
   0.45217795  0.00191478  0.61311311
   0.13546742  0.64814577  0.11454373
   0.18749736  0.63080287  0.00697930
   0.75517507  0.92127059  0.56360283
   0.79618282  0.87615841  0.70594491
   0.78044119  0.87579374  0.90699996
   0.82281904  0.83177270  0.03007682
   0.32432908  0.75530515  0.51220547
   0.32358484  0.79456327  0.67117314
   0.99211867  0.42579598  0.23007979
   0.99962938  0.46447127  0.37363193
   0.33460425  0.77888835  0.87442235
   0.33989719  0.81846558  0.00170058
   0.92323475  0.33142846  0.56166679
   0.87835936  0.33621402  0.70411571
   0.59122608  0.98235209  0.22595665
   0.54386977  0.99032273  0.36452564
   0.87704380  0.35330532  0.90434032
   0.83109884  0.35742932  0.02543479
   0.89493585  0.78963753  0.76276334
   0.85249354  0.83365219  0.63962828
   0.91989740  0.74432880  0.10626459
   0.87915697  0.78932294  0.96380689
   0.31692715  0.89020247  0.73827285
   0.31328767  0.85007938  0.61025050
   0.33992418  0.91229855  0.08071486
   0.33165160  0.87344523  0.93892004
   0.99579774  0.55952482  0.42995922
   0.99016779  0.51935382  0.30726971
   0.79473714  0.32039229  0.76452664
   0.83733994  0.31954240  0.63939900
   0.74363060  0.34345095  0.09263255
   0.78958813  0.34252143  0.95891457
   0.45242460  0.98622055  0.41151053
   0.49885201  0.98087619  0.29300781
   0.61826235  0.44157039  0.34547353
   0.84500655  0.08739159  0.63303502
   0.78983680  0.21720073  0.12505139
   0.13958630  0.16908945  0.50726603
   0.70175275  0.12857786  0.50912134
   0.03167261  0.47687052  0.85185085
   0.17638135  0.69330364  0.53108532
   0.49664076  0.02289132  0.83884713
   0.18922298  0.16924484  0.80414600
   0.64056511  0.19086411  0.82066281
   0.19023144  0.61395481  0.85832109
   0.81131400  0.83113890  0.18370097
   0.34993657  0.80654470  0.15596991
   0.83057170  0.36982594  0.17880428
   0.86394592  0.83431551  0.48593845
   0.30356677  0.86246109  0.45609709
   0.97862300  0.53135707  0.15354407
   0.84075673  0.30375755  0.48873352
   0.49980227  0.96889804  0.13895661
   0.70714138  0.33492462  0.49225789
   0.28221542  0.02200058  0.79276782
   0.63767816  0.33373462  0.19295333
   0.96327422  0.69004916  0.48385750
   0.35376474  0.95295360  0.45868182
   0.35174778  0.02413166  0.12783094
   0.71043084  0.97570390  0.18627216
   0.34614544  0.66330848  0.74642911
   0.73173862  0.27836893  0.02141827
   0.97949794  0.31620449  0.18693616
   0.31342626  0.70642021  0.18641902
   0.97622160  0.38473623  0.85568020
   0.64688084  0.97056069  0.85204635
   0.03195256  0.62556246  0.15011247
   0.64138322  0.03937865  0.52056354
   0.02861847  0.69357613  0.82155119
   0.30328153  0.62611775  0.57489736
   0.04490603  0.31864892  0.51880343
   0.70484706  0.43764547  0.37352913
   0.61849485  0.44280533  0.01341379
   0.79033298  0.21199060  0.69410520
Direct configuration=    86
   0.05876561  0.25819074  0.31464077
   0.03319101  0.30139923  0.94965011
   0.10222473  0.26196128  0.71663596
   0.68594161  0.05427197  0.31534799
   0.66331848  0.03303506  0.95763356
   0.63795813  0.09994748  0.71861320
   0.02444536  0.39692079  0.65368706
   0.27494982  0.66926230  0.34384348
   0.32152802  0.64059998  0.98153412
   0.28921746  0.59273715  0.79042015
   0.58539348  0.01546270  0.64799506
   0.29382479  0.03457917  0.35516689
   0.22595916  0.07576652  0.59290221
   0.27045010  0.08045589  0.99833504
   0.66692686  0.28823639  0.43902174
   0.73352067  0.20103284  0.56875833
   0.01003649  0.63300467  0.71109723
   0.03422201  0.56618288  0.94961595
   0.65279296  0.26799657  0.02313215
   0.04173760  0.67393419  0.37948899
   0.08468237  0.69622823  0.62409853
   0.36328905  0.00134263  0.68717798
   0.40383250  0.02842519  0.92544995
   0.09118077  0.64441102  0.02677107
   0.70311042  0.95999098  0.62448750
   0.77114408  0.92147950  0.38772864
   0.72752316  0.91522498  0.98416146
   0.35839267  0.69754966  0.52031191
   0.29538670  0.77741134  0.35510867
   0.00508554  0.37337369  0.28514776
   0.97386244  0.44358735  0.05669496
   0.33791915  0.72845903  0.94162458
   0.96187150  0.34551004  0.61748563
   0.92349217  0.31423204  0.38640501
   0.63205920  0.99189831  0.29150470
   0.59128342  0.96649535  0.04958964
   0.91723001  0.36498093  0.98512242
   0.94788005  0.75003495  0.68598674
   0.97263519  0.70621180  0.04809483
   0.90331771  0.74333329  0.28078429
   0.30695170  0.94213617  0.66244511
   0.33040038  0.96317091  0.02028003
   0.35642167  0.89517501  0.25629664
   0.98674567  0.61095602  0.35201866
   0.76079235  0.29590312  0.70950953
   0.68712671  0.36492525  0.01230874
   0.74654505  0.35643444  0.28215456
   0.41094070  0.97608046  0.33018646
   0.58798596  0.42029458  0.26024343
   0.62787185  0.47911928  0.25069177
   0.64417111  0.42230731  0.51697027
   0.83023189  0.17891429  0.21019449
   0.85573709  0.12370517  0.69156040
   0.83567256  0.05044244  0.57770531
   0.10942179  0.21554063  0.23334791
   0.15033174  0.16916068  0.35246552
   0.08507475  0.26151910  0.89086844
   0.12430998  0.21464165  0.03045022
   0.67826490  0.10515565  0.23645173
   0.68774645  0.14272369  0.35828640
   0.65352620  0.08390939  0.89493453
   0.66182014  0.12265103  0.03660349
   0.01500487  0.44834639  0.57524042
   0.02018881  0.48885274  0.69810229
   0.23048978  0.66086058  0.27040287
   0.18011347  0.67553006  0.38300387
   0.28492739  0.62085175  0.95054751
   0.23498133  0.63607518  0.08121409
   0.54386976  0.00565285  0.56639990
   0.49738317  0.01106384  0.68477391
   0.24312225  0.07561042  0.41780902
   0.20415071  0.12333154  0.28032937
   0.21932076  0.12271082  0.07802283
   0.17835503  0.16903696  0.95877462
   0.69496225  0.22952124  0.44147363
   0.67920577  0.19753955  0.29534778
   0.01903216  0.58242001  0.77333661
   0.01101726  0.54356353  0.63138206
   0.66074495  0.21655626  0.09768302
   0.65327896  0.17764716  0.97305917
   0.08397119  0.68087228  0.44724544
   0.13343060  0.66838005  0.31171853
   0.40419420  0.01096623  0.75017169
   0.45216865  0.00192845  0.61312338
   0.13547191  0.64814526  0.11452327
   0.18750113  0.63080324  0.00695633
   0.75517047  0.92126893  0.56361088
   0.79618078  0.87615680  0.70596090
   0.78044171  0.87579145  0.90701724
   0.82282170  0.83177201  0.03009699
   0.32431000  0.75531662  0.51218175
   0.32356303  0.79457432  0.67117298
   0.99212659  0.42579968  0.23006992
   0.99963747  0.46447452  0.37363257
   0.33459166  0.77889194  0.87441443
   0.33990784  0.81845780  0.00168381
   0.92323869  0.33142699  0.56167004
   0.87836739  0.33620908  0.70410590
   0.59122914  0.98234233  0.22596890
   0.54387005  0.99031563  0.36453049
   0.87704951  0.35330159  0.90433852
   0.83110725  0.35742350  0.02542997
   0.89493613  0.78964094  0.76277782
   0.85249248  0.83365283  0.63964543
   0.91990074  0.74433057  0.10627242
   0.87915909  0.78932420  0.96382218
   0.31692264  0.89020483  0.73826821
   0.31326756  0.85008875  0.61026111
   0.33993993  0.91228816  0.08071034
   0.33166327  0.87344229  0.93889935
   0.99579940  0.55953112  0.42996620
   0.99017295  0.51935809  0.30727675
   0.79474509  0.32038795  0.76453045
   0.83735227  0.31953219  0.63940341
   0.74363024  0.34346062  0.09261387
   0.78959107  0.34252449  0.95890021
   0.45241875  0.98622175  0.41153407
   0.49884958  0.98087170  0.29303633
   0.61825805  0.44156822  0.34551909
   0.84499386  0.08738663  0.63296930
   0.78983158  0.21719079  0.12508393
   0.13957678  0.16909724  0.50725936
   0.70174452  0.12857784  0.50910389
   0.03167787  0.47687489  0.85186312
   0.17639465  0.69329036  0.53108787
   0.49663428  0.02289945  0.83885856
   0.18923191  0.16923195  0.80415492
   0.64055072  0.19086815  0.82066677
   0.19023751  0.61395920  0.85830061
   0.81131652  0.83113779  0.18372546
   0.34996312  0.80652743  0.15593365
   0.83056993  0.36983328  0.17878296
   0.86394457  0.83431568  0.48595875
   0.30354318  0.86247231  0.45611206
   0.97862358  0.53136623  0.15355611
   0.84077453  0.30373922  0.48872594
   0.49979962  0.96889442  0.13897272
   0.70714891  0.33491237  0.49221810
   0.28221148  0.02200237  0.79278217
   0.63767747  0.33372269  0.19293412
   0.96327916  0.69005572  0.48387739
   0.35376750  0.95295059  0.45867923
   0.35174320  0.02413566  0.12784464
   0.71042921  0.97570018  0.18627800
   0.34615366  0.66330298  0.74640825
   0.73172909  0.27838310  0.02140198
   0.97950804  0.31621023  0.18692130
   0.31342881  0.70641721  0.18640017
   0.97623161  0.38474022  0.85567231
   0.64687556  0.97055495  0.85207342
   0.03195557  0.62556775  0.15011287
   0.64137953  0.03937527  0.52055194
   0.02862259  0.69358098  0.82155598
   0.30328425  0.62611474  0.57488562
   0.04491907  0.31865209  0.51881726
   0.70484236  0.43764572  0.37361195
   0.61850175  0.44280440  0.01346255
   0.79031796  0.21198870  0.69416075
Direct configuration=    87
   0.05876982  0.25820329  0.31462405
   0.03321814  0.30140830  0.94964734
   0.10224332  0.26196908  0.71662021
   0.68592447  0.05427210  0.31534139
   0.66330922  0.03303052  0.95763105
   0.63794014  0.09994458  0.71860554
   0.02446373  0.39692783  0.65368573
   0.27496276  0.66925639  0.34377477
   0.32155750  0.64057269  0.98147587
   0.28921515  0.59273304  0.79036997
   0.58539586  0.01545824  0.64803451
   0.29380672  0.03456393  0.35517111
   0.22593566  0.07577490  0.59290256
   0.27044188  0.08045039  0.99833102
   0.66692953  0.28822633  0.43898774
   0.73349117  0.20103555  0.56878309
   0.01005124  0.63301142  0.71110821
   0.03422289  0.56619585  0.94963811
   0.65275995  0.26800730  0.02314270
   0.04174609  0.67394045  0.37944743
   0.08469049  0.69623863  0.62407540
   0.36326818  0.00137385  0.68715101
   0.40382838  0.02843071  0.92552048
   0.09118670  0.64441332  0.02672821
   0.70309839  0.95997927  0.62449665
   0.77114293  0.92147570  0.38776419
   0.72752340  0.91521763  0.98419048
   0.35835614  0.69756903  0.52023009
   0.29535607  0.77743163  0.35505314
   0.00510945  0.37338014  0.28511454
   0.97386922  0.44360557  0.05668674
   0.33789920  0.72846224  0.94160569
   0.96188058  0.34551070  0.61746380
   0.92351643  0.31422843  0.38640170
   0.63206423  0.99187892  0.29152192
   0.59129712  0.96645530  0.04960546
   0.91724595  0.36498140  0.98511967
   0.94788433  0.75004581  0.68602062
   0.97263974  0.70621228  0.04810947
   0.90332916  0.74333832  0.28081144
   0.30694581  0.94214310  0.66241207
   0.33042609  0.96315317  0.02025339
   0.35644450  0.89515574  0.25627981
   0.98674413  0.61097197  0.35203432
   0.76080929  0.29590302  0.70948659
   0.68712763  0.36494639  0.01224181
   0.74655332  0.35643613  0.28213936
   0.41094122  0.97608054  0.33021788
   0.58798116  0.42029974  0.26029910
   0.62785843  0.47912959  0.25089864
   0.64418576  0.42226861  0.51704252
   0.83017494  0.17892233  0.21018439
   0.85570751  0.12369410  0.69160126
   0.83566194  0.05044744  0.57743561
   0.10942013  0.21554822  0.23333605
   0.15032284  0.16916071  0.35245392
   0.08509347  0.26152269  0.89085200
   0.12431742  0.21464407  0.03044776
   0.67824580  0.10515700  0.23645811
   0.68773450  0.14272051  0.35827714
   0.65350606  0.08390742  0.89492549
   0.66179823  0.12265436  0.03660670
   0.01502037  0.44835497  0.57524045
   0.02020216  0.48886017  0.69811260
   0.23050841  0.66084764  0.27036242
   0.18013518  0.67551469  0.38297959
   0.28493470  0.62084617  0.95051084
   0.23499022  0.63607159  0.08116765
   0.54387567  0.00564869  0.56640636
   0.49737460  0.01107952  0.68477478
   0.24310962  0.07559885  0.41781378
   0.20414098  0.12332594  0.28033077
   0.21931408  0.12270751  0.07803798
   0.17835461  0.16903445  0.95878376
   0.69495763  0.22950274  0.44148434
   0.67918133  0.19753526  0.29534078
   0.01903873  0.58243052  0.77335487
   0.01102400  0.54357406  0.63140192
   0.66072137  0.21655766  0.09770928
   0.65325665  0.17765597  0.97307295
   0.08398498  0.68087452  0.44722287
   0.13344734  0.66836968  0.31168582
   0.40418436  0.01098689  0.75018941
   0.45215004  0.00195579  0.61314392
   0.13548089  0.64814424  0.11448234
   0.18750868  0.63080399  0.00691041
   0.75516129  0.92126562  0.56362699
   0.79617669  0.87615360  0.70599288
   0.78044277  0.87578687  0.90705181
   0.82282700  0.83177063  0.03013733
   0.32427183  0.75533955  0.51213431
   0.32351941  0.79459644  0.67117265
   0.99214244  0.42580708  0.23005019
   0.99965367  0.46448101  0.37363387
   0.33456647  0.77889911  0.87439857
   0.33992916  0.81844225  0.00165025
   0.92324656  0.33142406  0.56167655
   0.87838346  0.33619920  0.70408628
   0.59123526  0.98232283  0.22599340
   0.54387061  0.99030145  0.36454019
   0.87706092  0.35329415  0.90433490
   0.83112408  0.35741185  0.02542032
   0.89493669  0.78964776  0.76280679
   0.85249035  0.83365412  0.63967972
   0.91990743  0.74433412  0.10628810
   0.87916334  0.78932671  0.96385275
   0.31691361  0.89020957  0.73825893
   0.31322734  0.85010750  0.61028233
   0.33997144  0.91226739  0.08070130
   0.33168661  0.87343642  0.93885796
   0.99580272  0.55954373  0.42998017
   0.99018326  0.51936662  0.30729083
   0.79476099  0.32037928  0.76453807
   0.83737691  0.31951178  0.63941224
   0.74362952  0.34347997  0.09257649
   0.78959694  0.34253061  0.95887150
   0.45240704  0.98622417  0.41158115
   0.49884474  0.98086273  0.29309336
   0.61824946  0.44156388  0.34561022
   0.84496847  0.08737669  0.63283787
   0.78982114  0.21717093  0.12514900
   0.13955776  0.16911281  0.50724602
   0.70172805  0.12857781  0.50906898
   0.03168840  0.47688362  0.85188766
   0.17642125  0.69326378  0.53109296
   0.49662132  0.02291571  0.83888143
   0.18924977  0.16920618  0.80417278
   0.64052194  0.19087621  0.82067470
   0.19024964  0.61396798  0.85825965
   0.81132155  0.83113559  0.18377443
   0.35001621  0.80649288  0.15586113
   0.83056638  0.36984794  0.17874031
   0.86394188  0.83431604  0.48599934
   0.30349598  0.86249476  0.45614199
   0.97862475  0.53138454  0.15358018
   0.84081012  0.30370255  0.48871079
   0.49979433  0.96888718  0.13900493
   0.70716396  0.33488788  0.49213851
   0.28220359  0.02200594  0.79281087
   0.63767609  0.33369884  0.19289569
   0.96328903  0.69006884  0.48391716
   0.35377304  0.95294456  0.45867404
   0.35173404  0.02414366  0.12787202
   0.71042595  0.97569276  0.18628969
   0.34617010  0.66329198  0.74636651
   0.73171003  0.27841145  0.02136940
   0.97952823  0.31622171  0.18689159
   0.31343391  0.70641121  0.18636248
   0.97625164  0.38474821  0.85565651
   0.64686500  0.97054348  0.85212755
   0.03196158  0.62557833  0.15011367
   0.64137215  0.03936851  0.52052874
   0.02863082  0.69359067  0.82156554
   0.30328970  0.62610873  0.57486213
   0.04494515  0.31865841  0.51884492
   0.70483296  0.43764622  0.37377759
   0.61851557  0.44280254  0.01356006
   0.79028792  0.21198491  0.69427185
Direct configuration=    88
   0.05876696  0.25819475  0.31463542
   0.03319969  0.30140213  0.94964922
   0.10223068  0.26196378  0.71663092
   0.68593613  0.05427201  0.31534588
   0.66331551  0.03303361  0.95763276
   0.63795238  0.09994655  0.71861075
   0.02445124  0.39692304  0.65368663
   0.27495396  0.66926041  0.34382149
   0.32153745  0.64059125  0.98151548
   0.28921672  0.59273584  0.79040410
   0.58539424  0.01546127  0.64800768
   0.29381901  0.03457429  0.35516824
   0.22595164  0.07576920  0.59290232
   0.27044747  0.08045413  0.99833375
   0.66692771  0.28823317  0.43901086
   0.73351123  0.20103371  0.56876625
   0.01004121  0.63300683  0.71110074
   0.03422229  0.56618703  0.94962304
   0.65278240  0.26800000  0.02313552
   0.04174032  0.67393620  0.37947569
   0.08468497  0.69623156  0.62409113
   0.36328237  0.00135262  0.68716935
   0.40383118  0.02842696  0.92547251
   0.09118267  0.64441176  0.02675736
   0.70310657  0.95998723  0.62449043
   0.77114371  0.92147829  0.38774002
   0.72752323  0.91522263  0.98417075
   0.35838098  0.69755586  0.52028573
   0.29537690  0.77741783  0.35509090
   0.00509319  0.37337576  0.28513713
   0.97386461  0.44359318  0.05669233
   0.33791277  0.72846006  0.94161853
   0.96187441  0.34551025  0.61747864
   0.92349993  0.31423088  0.38640396
   0.63206081  0.99189211  0.29151021
   0.59128780  0.96648254  0.04959470
   0.91723511  0.36498108  0.98512154
   0.94788142  0.75003843  0.68599758
   0.97263664  0.70621196  0.04809951
   0.90332138  0.74333490  0.28079298
   0.30694982  0.94213838  0.66243454
   0.33040861  0.96316524  0.02027150
   0.35642898  0.89516884  0.25629126
   0.98674518  0.61096112  0.35202367
   0.76079777  0.29590309  0.70950219
   0.68712701  0.36493201  0.01228733
   0.74654769  0.35643498  0.28214970
   0.41094087  0.97608049  0.33019652
   0.58798442  0.42029623  0.26026124
   0.62786755  0.47912258  0.25075796
   0.64417580  0.42229493  0.51699339
   0.83021367  0.17891687  0.21019126
   0.85572763  0.12370163  0.69157348
   0.83566916  0.05044404  0.57761901
   0.10942126  0.21554306  0.23334412
   0.15032889  0.16916069  0.35246181
   0.08508074  0.26152025  0.89086318
   0.12431236  0.21464242  0.03044943
   0.67825879  0.10515608  0.23645377
   0.68774263  0.14272267  0.35828344
   0.65351976  0.08390876  0.89493163
   0.66181313  0.12265209  0.03660452
   0.01500983  0.44834914  0.57524043
   0.02019308  0.48885512  0.69810559
   0.23049574  0.66085644  0.27038992
   0.18012041  0.67552514  0.38299610
   0.28492973  0.62084996  0.95053577
   0.23498418  0.63607403  0.08119923
   0.54387165  0.00565152  0.56640196
   0.49738043  0.01106885  0.68477418
   0.24311821  0.07560671  0.41781054
   0.20414760  0.12332975  0.28032982
   0.21931862  0.12270976  0.07802768
   0.17835489  0.16903616  0.95877754
   0.69496077  0.22951532  0.44147706
   0.67919795  0.19753818  0.29534554
   0.01903426  0.58242337  0.77334245
   0.01101942  0.54356690  0.63138841
   0.66073740  0.21655670  0.09769142
   0.65327182  0.17764998  0.97306358
   0.08397560  0.68087300  0.44723822
   0.13343595  0.66837673  0.31170806
   0.40419105  0.01097284  0.75017736
   0.45216269  0.00193720  0.61312995
   0.13547479  0.64814494  0.11451017
   0.18750355  0.63080348  0.00694164
   0.75516754  0.92126787  0.56361603
   0.79617947  0.87615578  0.70597114
   0.78044205  0.87578999  0.90702830
   0.82282339  0.83177157  0.03010990
   0.32429779  0.75532396  0.51216657
   0.32354907  0.79458140  0.67117287
   0.99213166  0.42580205  0.23006361
   0.99964266  0.46447659  0.37363299
   0.33458360  0.77889423  0.87440935
   0.33991466  0.81845283  0.00167307
   0.92324121  0.33142606  0.56167213
   0.87837253  0.33620592  0.70409962
   0.59123110  0.98233609  0.22597674
   0.54387023  0.99031110  0.36453360
   0.87705316  0.35329921  0.90433736
   0.83111264  0.35741977  0.02542688
   0.89493631  0.78964312  0.76278709
   0.85249180  0.83365324  0.63965640
   0.91990288  0.74433171  0.10627744
   0.87916045  0.78932500  0.96383196
   0.31691975  0.89020635  0.73826524
   0.31325469  0.85009475  0.61026790
   0.33995001  0.91228151  0.08070745
   0.33167074  0.87344041  0.93888611
   0.99580046  0.55953515  0.42997067
   0.99017625  0.51936082  0.30728125
   0.79475018  0.32038518  0.76453289
   0.83736015  0.31952566  0.63940624
   0.74363001  0.34346681  0.09260191
   0.78959295  0.34252645  0.95889103
   0.45241500  0.98622253  0.41154914
   0.49884803  0.98086883  0.29305458
   0.61825530  0.44156683  0.34554825
   0.84498573  0.08738345  0.63292724
   0.78982824  0.21718444  0.12510475
   0.13957070  0.16910222  0.50725509
   0.70173925  0.12857783  0.50909272
   0.03168124  0.47687768  0.85187097
   0.17640316  0.69328185  0.53108950
   0.49663013  0.02290465  0.83886588
   0.18923762  0.16922371  0.80416064
   0.64054151  0.19087073  0.82066931
   0.19024139  0.61396201  0.85828751
   0.81131813  0.83113709  0.18374113
   0.34998011  0.80651637  0.15591045
   0.83056879  0.36983797  0.17876932
   0.86394371  0.83431580  0.48597173
   0.30352808  0.86247949  0.45612164
   0.97862395  0.53137209  0.15356381
   0.84078592  0.30372749  0.48872109
   0.49979793  0.96889210  0.13898303
   0.70715372  0.33490454  0.49219263
   0.28220895  0.02200351  0.79279135
   0.63767703  0.33371506  0.19292182
   0.96328231  0.69005992  0.48389011
   0.35376927  0.95294866  0.45867757
   0.35174027  0.02413822  0.12785340
   0.71042817  0.97569781  0.18628174
   0.34615892  0.66329946  0.74639489
   0.73172299  0.27839217  0.02139156
   0.97951450  0.31621390  0.18691180
   0.31343044  0.70641529  0.18638811
   0.97623802  0.38474278  0.85566725
   0.64687218  0.97055128  0.85209074
   0.03195749  0.62557114  0.15011313
   0.64137717  0.03937311  0.52054452
   0.02862522  0.69358408  0.82155904
   0.30328599  0.62611282  0.57487810
   0.04492741  0.31865411  0.51882611
   0.70483935  0.43764588  0.37366495
   0.61850617  0.44280381  0.01349375
   0.79030835  0.21198749  0.69419630
Direct configuration=    89
   0.05877239  0.25820716  0.31461945
   0.03322947  0.30141693  0.94964018
   0.10225370  0.26197224  0.71661840
   0.68591582  0.05427524  0.31533616
   0.66330652  0.03302881  0.95764282
   0.63792898  0.09994770  0.71859080
   0.02447179  0.39693299  0.65368479
   0.27497321  0.66925204  0.34376600
   0.32157156  0.64055965  0.98145739
   0.28921405  0.59272933  0.79036345
   0.58539751  0.01545640  0.64804624
   0.29379717  0.03455531  0.35517646
   0.22592207  0.07578036  0.59290422
   0.27043785  0.08044472  0.99834720
   0.66693208  0.28821015  0.43897465
   0.73348639  0.20102752  0.56882216
   0.01005843  0.63301562  0.71111633
   0.03422355  0.56620247  0.94964986
   0.65274652  0.26800431  0.02315399
   0.04175172  0.67394406  0.37942957
   0.08469558  0.69624254  0.62405005
   0.36325921  0.00138961  0.68714955
   0.40382733  0.02843075  0.92551817
   0.09119030  0.64441152  0.02670045
   0.70309135  0.95997451  0.62450764
   0.77114270  0.92147364  0.38778194
   0.72752062  0.91521557  0.98419831
   0.35833996  0.69757663  0.52018060
   0.29533617  0.77744277  0.35500892
   0.00512191  0.37338491  0.28509895
   0.97387363  0.44361533  0.05668370
   0.33789184  0.72846072  0.94159789
   0.96188308  0.34551196  0.61746056
   0.92352608  0.31422567  0.38639781
   0.63206334  0.99186579  0.29151753
   0.59130694  0.96643419  0.04962321
   0.91725026  0.36498339  0.98511165
   0.94788613  0.75005331  0.68604493
   0.97264116  0.70621361  0.04811526
   0.90333461  0.74334198  0.28082750
   0.30694286  0.94214595  0.66240931
   0.33043760  0.96314604  0.02023211
   0.35645912  0.89514229  0.25625350
   0.98674389  0.61097888  0.35203941
   0.76081573  0.29589653  0.70946257
   0.68712877  0.36495854  0.01221473
   0.74655519  0.35643903  0.28212338
   0.41094566  0.97608307  0.33025744
   0.58797716  0.42030785  0.26033611
   0.62785592  0.47913275  0.25100041
   0.64419649  0.42224669  0.51709657
   0.83017778  0.17889591  0.21024953
   0.85568941  0.12368865  0.69162253
   0.83565468  0.05044442  0.57727640
   0.10941829  0.21555268  0.23331967
   0.15031941  0.16916208  0.35245180
   0.08510136  0.26152890  0.89084670
   0.12432270  0.21464468  0.03044945
   0.67823389  0.10515343  0.23646264
   0.68772626  0.14271319  0.35826698
   0.65349747  0.08390792  0.89491139
   0.66178821  0.12265295  0.03662334
   0.01502935  0.44836043  0.57523916
   0.02021035  0.48886472  0.69811509
   0.23051622  0.66084107  0.27031624
   0.18014161  0.67550677  0.38296934
   0.28493890  0.62084250  0.95050252
   0.23499118  0.63607208  0.08116000
   0.54387354  0.00564892  0.56640368
   0.49736947  0.01108611  0.68478844
   0.24310629  0.07559150  0.41780726
   0.20413409  0.12332473  0.28033241
   0.21931301  0.12270256  0.07804655
   0.17835456  0.16903404  0.95877955
   0.69494035  0.22951033  0.44146127
   0.67917264  0.19753442  0.29537244
   0.01904214  0.58243670  0.77336701
   0.01102815  0.54358009  0.63141622
   0.66070810  0.21657303  0.09771925
   0.65324433  0.17765262  0.97308860
   0.08399388  0.68087579  0.44721663
   0.13345394  0.66836594  0.31168556
   0.40417868  0.01099881  0.75021809
   0.45214168  0.00196767  0.61316578
   0.13548980  0.64814180  0.11443957
   0.18751690  0.63080420  0.00687908
   0.75515994  0.92126202  0.56362662
   0.79617443  0.87615303  0.70600792
   0.78044239  0.87578530  0.90707006
   0.82282857  0.83177167  0.03015255
   0.32425797  0.75534545  0.51213251
   0.32349711  0.79460450  0.67117167
   0.99215098  0.42581065  0.23003954
   0.99966156  0.46448650  0.37363313
   0.33455348  0.77890593  0.87434876
   0.33993490  0.81843592  0.00165755
   0.92324938  0.33142286  0.56168954
   0.87839728  0.33619279  0.70406451
   0.59124123  0.98231157  0.22602112
   0.54386778  0.99029363  0.36452665
   0.87707442  0.35328868  0.90433457
   0.83112586  0.35740621  0.02541948
   0.89493835  0.78965004  0.76282009
   0.85249022  0.83365415  0.63969937
   0.91991312  0.74433466  0.10628988
   0.87916409  0.78932828  0.96387850
   0.31690571  0.89021022  0.73823513
   0.31320276  0.85011861  0.61029848
   0.33998986  0.91225650  0.08068701
   0.33169887  0.87344117  0.93883612
   0.99580461  0.55954981  0.42998297
   0.99018839  0.51937324  0.30730534
   0.79476898  0.32037822  0.76454186
   0.83739089  0.31950091  0.63942593
   0.74363425  0.34348799  0.09255930
   0.78959810  0.34253732  0.95887188
   0.45240109  0.98622584  0.41158572
   0.49884512  0.98085788  0.29313571
   0.61823936  0.44156318  0.34561937
   0.84495634  0.08737991  0.63277749
   0.78977368  0.21720158  0.12507207
   0.13954799  0.16911971  0.50722870
   0.70172002  0.12857609  0.50904832
   0.03169442  0.47688893  0.85189553
   0.17643563  0.69325011  0.53110293
   0.49661493  0.02292428  0.83888395
   0.18925567  0.16919525  0.80418316
   0.64050537  0.19088292  0.82067382
   0.19025816  0.61397212  0.85824218
   0.81132355  0.83113542  0.18379697
   0.35004203  0.80647560  0.15582217
   0.83056611  0.36985674  0.17871937
   0.86393999  0.83431657  0.48601686
   0.30347396  0.86250412  0.45617212
   0.97862719  0.53139331  0.15359498
   0.84082684  0.30368415  0.48869861
   0.49979105  0.96888471  0.13902408
   0.70717536  0.33486868  0.49210378
   0.28219440  0.02201304  0.79284581
   0.63767311  0.33369249  0.19288976
   0.96329500  0.69007621  0.48393217
   0.35377718  0.95293651  0.45864772
   0.35173152  0.02414620  0.12789592
   0.71042542  0.97568914  0.18629354
   0.34617848  0.66328555  0.74632974
   0.73171150  0.27841259  0.02137654
   0.97953581  0.31622856  0.18688563
   0.31343788  0.70640616  0.18632996
   0.97626125  0.38475203  0.85564368
   0.64685990  0.97053677  0.85216504
   0.03196511  0.62558255  0.15011385
   0.64136829  0.03936518  0.52052131
   0.02863544  0.69359434  0.82156679
   0.30328707  0.62610919  0.57483475
   0.04495637  0.31866226  0.51886442
   0.70482649  0.43765045  0.37386133
   0.61852440  0.44280088  0.01360514
   0.79027356  0.21197794  0.69432045
Direct configuration=    90
   0.05877688  0.25821740  0.31460626
   0.03325407  0.30142916  0.94963271
   0.10227272  0.26197923  0.71660806
   0.68589906  0.05427791  0.31532814
   0.66329909  0.03302484  0.95765112
   0.63790966  0.09994865  0.71857433
   0.02448876  0.39694120  0.65368326
   0.27498910  0.66924513  0.34372018
   0.32159973  0.64053356  0.98140941
   0.28921184  0.59272396  0.79032989
   0.58540020  0.01545238  0.64807808
   0.29377913  0.03453963  0.35518325
   0.22589764  0.07578958  0.59290578
   0.27042991  0.08043696  0.99835830
   0.66693569  0.28819114  0.43894474
   0.73346587  0.20102241  0.56886834
   0.01007265  0.63302287  0.71112920
   0.03422459  0.56621522  0.94967200
   0.65271690  0.26800787  0.02316925
   0.04176113  0.67395055  0.37939148
   0.08470434  0.69625160  0.62401612
   0.36324007  0.00142016  0.68713320
   0.40382414  0.02843388  0.92555587
   0.09119660  0.64441132  0.02665345
   0.70307877  0.95996400  0.62452185
   0.77114186  0.92146981  0.38781655
   0.72751846  0.91520973  0.98422108
   0.35830609  0.69759378  0.52009378
   0.29530253  0.77746337  0.35494122
   0.00514563  0.37339247  0.28506742
   0.97388108  0.44363361  0.05667657
   0.33787456  0.72846126  0.94158084
   0.96189023  0.34551338  0.61744563
   0.92354767  0.31422136  0.38639274
   0.63206543  0.99184405  0.29152358
   0.59132274  0.96639427  0.04964675
   0.91726278  0.36498529  0.98510349
   0.94789002  0.75006561  0.68608404
   0.97264490  0.70621497  0.04812826
   0.90334554  0.74334782  0.28085601
   0.30693711  0.94215220  0.66238847
   0.33046155  0.96313019  0.02019957
   0.35648402  0.89512037  0.25622232
   0.98674283  0.61099354  0.35205240
   0.76083055  0.29589111  0.70942986
   0.68713023  0.36498045  0.01215477
   0.74656138  0.35644237  0.28210166
   0.41094961  0.97608521  0.33030776
   0.58797116  0.42031745  0.26039793
   0.62784631  0.47914115  0.25120062
   0.64421357  0.42220685  0.51718178
   0.83014813  0.17887860  0.21029765
   0.85565785  0.12367793  0.69166304
   0.83564272  0.05044473  0.57699347
   0.10941584  0.21556063  0.23329948
   0.15031158  0.16916322  0.35244353
   0.08511839  0.26153604  0.89083310
   0.12433125  0.21464655  0.03044946
   0.67821334  0.10515124  0.23646996
   0.68771274  0.14270535  0.35825339
   0.65347907  0.08390723  0.89489468
   0.66176763  0.12265365  0.03663888
   0.01504548  0.44836975  0.57523812
   0.02022462  0.48887265  0.69812294
   0.23053313  0.66082837  0.27025539
   0.18015911  0.67549161  0.38294725
   0.28494647  0.62083634  0.95047506
   0.23499696  0.63607046  0.08112760
   0.54387509  0.00564678  0.56640511
   0.49736041  0.01110036  0.68480021
   0.24309645  0.07557893  0.41780456
   0.20412293  0.12332058  0.28033455
   0.21930837  0.12269660  0.07806214
   0.17835429  0.16903229  0.95878120
   0.69492348  0.22950621  0.44144824
   0.67915173  0.19753132  0.29539466
   0.01904864  0.58244770  0.77338728
   0.01103536  0.54359098  0.63143918
   0.66068389  0.21658652  0.09774222
   0.65322164  0.17765479  0.97310926
   0.08400897  0.68087809  0.44719880
   0.13346879  0.66835702  0.31166698
   0.40416846  0.01102025  0.75025173
   0.45212433  0.00199283  0.61319536
   0.13550221  0.64813920  0.11438128
   0.18752793  0.63080479  0.00682742
   0.75515367  0.92125718  0.56363536
   0.79617027  0.87615077  0.70603830
   0.78044267  0.87578142  0.90710454
   0.82283284  0.83177175  0.03018776
   0.32422509  0.75536319  0.51210438
   0.32345420  0.79462357  0.67117069
   0.99216693  0.42581776  0.23001966
   0.99967717  0.46449467  0.37363325
   0.33452861  0.77891559  0.87429872
   0.33995162  0.81842195  0.00164473
   0.92325613  0.33142021  0.56170392
   0.87841772  0.33618195  0.70403552
   0.59124960  0.98229132  0.22605777
   0.54386576  0.99027921  0.36452092
   0.87709197  0.35327998  0.90433226
   0.83113677  0.35739500  0.02541337
   0.89494004  0.78965574  0.76284734
   0.85248892  0.83365489  0.63973486
   0.91992157  0.74433709  0.10630016
   0.87916709  0.78933099  0.96391693
   0.31689411  0.89021341  0.73821027
   0.31315987  0.85013831  0.61032374
   0.34002277  0.91223585  0.08067014
   0.33172209  0.87344180  0.93879484
   0.99580804  0.55956190  0.42999313
   0.99019842  0.51938349  0.30732524
   0.79478451  0.32037247  0.76454926
   0.83741627  0.31948047  0.63944219
   0.74363776  0.34350549  0.09252412
   0.78960236  0.34254630  0.95885606
   0.45238960  0.98622857  0.41161594
   0.49884271  0.98084883  0.29320270
   0.61822619  0.44156017  0.34567810
   0.84493207  0.08737699  0.63265383
   0.78972863  0.21721574  0.12504509
   0.13952924  0.16913415  0.50720690
   0.70170413  0.12857465  0.50901165
   0.03170530  0.47689822  0.85191581
   0.17646245  0.69322389  0.53111402
   0.49660237  0.02294048  0.83889887
   0.18927057  0.16917176  0.80420175
   0.64047552  0.19089299  0.82067755
   0.19027200  0.61398048  0.85820474
   0.81132803  0.83113405  0.18384308
   0.35009316  0.80644192  0.15574927
   0.83056389  0.36987225  0.17867812
   0.86393692  0.83431721  0.48605412
   0.30342927  0.86252446  0.45621381
   0.97862986  0.53141084  0.15362072
   0.84086063  0.30364837  0.48868004
   0.49978538  0.96887860  0.13905798
   0.70719322  0.33483908  0.49203041
   0.28218239  0.02202090  0.79289078
   0.63766987  0.33367385  0.19286329
   0.96330547  0.69008966  0.48396691
   0.35378371  0.95292648  0.45862307
   0.35172429  0.02415278  0.12793104
   0.71042314  0.97568199  0.18630329
   0.34619462  0.66327406  0.74627593
   0.73170201  0.27842945  0.02136415
   0.97955341  0.31624067  0.18686403
   0.31344401  0.70639863  0.18628195
   0.97628043  0.38475966  0.85562421
   0.64684975  0.97052479  0.85222641
   0.03197140  0.62559197  0.15011445
   0.64136097  0.03935863  0.52050215
   0.02864388  0.69360282  0.82157319
   0.30328797  0.62610619  0.57479896
   0.04498029  0.31866900  0.51889605
   0.70481586  0.43765423  0.37402350
   0.61853945  0.44279846  0.01369713
   0.79024484  0.21197005  0.69442297
Direct configuration=    91
   0.05878055  0.25822508  0.31460189
   0.03326880  0.30144702  0.94962118
   0.10229166  0.26198286  0.71660611
   0.68588537  0.05427579  0.31532889
   0.66329365  0.03302346  0.95766270
   0.63789155  0.09995282  0.71855626
   0.02450207  0.39694981  0.65368065
   0.27500491  0.66923606  0.34370357
   0.32161880  0.64051163  0.98138435
   0.28921030  0.59272019  0.79032629
   0.58539971  0.01544856  0.64808274
   0.29376768  0.03452181  0.35518550
   0.22588021  0.07579419  0.59290655
   0.27042507  0.08042647  0.99839422
   0.66693421  0.28817506  0.43891932
   0.73345217  0.20101195  0.56890912
   0.01008434  0.63303053  0.71114101
   0.03422609  0.56622587  0.94969368
   0.65269796  0.26800697  0.02317982
   0.04177329  0.67395777  0.37937381
   0.08471311  0.69625822  0.62397963
   0.36322940  0.00144780  0.68714451
   0.40382150  0.02843557  0.92556075
   0.09120627  0.64440839  0.02661093
   0.70307004  0.95995447  0.62453455
   0.77114163  0.92146736  0.38782946
   0.72751418  0.91520581  0.98423598
   0.35828053  0.69760725  0.52001916
   0.29527548  0.77747796  0.35490386
   0.00516751  0.37339671  0.28504815
   0.97388912  0.44364806  0.05667285
   0.33786320  0.72846303  0.94154783
   0.96189617  0.34551769  0.61745382
   0.92356083  0.31421720  0.38638939
   0.63206837  0.99182445  0.29152798
   0.59133817  0.96636240  0.04970446
   0.91726831  0.36498817  0.98508692
   0.94789474  0.75007715  0.68612220
   0.97264972  0.70621639  0.04812853
   0.90335537  0.74335398  0.28087542
   0.30693300  0.94215416  0.66238339
   0.33048218  0.96311879  0.02017653
   0.35651110  0.89509676  0.25619373
   0.98674299  0.61100437  0.35206141
   0.76084113  0.29587958  0.70940602
   0.68713736  0.36499440  0.01212390
   0.74656261  0.35644837  0.28206632
   0.41094645  0.97608905  0.33035638
   0.58795978  0.42032416  0.26043606
   0.62784187  0.47915085  0.25134513
   0.64422489  0.42217403  0.51723090
   0.83010373  0.17888030  0.21030261
   0.85562548  0.12366324  0.69168953
   0.83563140  0.05044456  0.57673362
   0.10941734  0.21556337  0.23328377
   0.15030368  0.16916881  0.35243031
   0.08513396  0.26154482  0.89082993
   0.12433562  0.21465230  0.03043668
   0.67819369  0.10514788  0.23646454
   0.68769592  0.14269734  0.35823106
   0.65346646  0.08390884  0.89488264
   0.66174910  0.12265239  0.03664834
   0.01506073  0.44837766  0.57523466
   0.02023837  0.48888068  0.69813559
   0.23054152  0.66082304  0.27021617
   0.18017245  0.67547839  0.38293253
   0.28495879  0.62082763  0.95044581
   0.23500563  0.63606955  0.08110106
   0.54386679  0.00564826  0.56641127
   0.49735452  0.01111112  0.68481836
   0.24308188  0.07557475  0.41780767
   0.20411454  0.12331592  0.28033881
   0.21930217  0.12269196  0.07807012
   0.17836077  0.16902481  0.95878596
   0.69490568  0.22950537  0.44144949
   0.67913821  0.19753350  0.29543484
   0.01905425  0.58245747  0.77340528
   0.01104165  0.54360228  0.63145043
   0.66066230  0.21659875  0.09775775
   0.65319970  0.17765328  0.97312943
   0.08401857  0.68087879  0.44717584
   0.13348168  0.66834987  0.31165014
   0.40415158  0.01103755  0.75027933
   0.45211389  0.00200830  0.61321943
   0.13551467  0.64813611  0.11432444
   0.18753622  0.63080730  0.00678838
   0.75514898  0.92125149  0.56366295
   0.79616721  0.87614958  0.70606064
   0.78044070  0.87578026  0.90712941
   0.82283324  0.83177412  0.03022456
   0.32419468  0.75537682  0.51206055
   0.32341732  0.79463291  0.67114883
   0.99218046  0.42582931  0.23000574
   0.99969015  0.46450263  0.37363096
   0.33451170  0.77892356  0.87426578
   0.33995542  0.81842593  0.00159102
   0.92327180  0.33141555  0.56168565
   0.87843595  0.33617280  0.70404585
   0.59125282  0.98226579  0.22605986
   0.54386835  0.99027038  0.36454025
   0.87711369  0.35327019  0.90432495
   0.83114720  0.35739024  0.02540201
   0.89494236  0.78965912  0.76288348
   0.85248703  0.83365651  0.63976454
   0.91992788  0.74433928  0.10632467
   0.87916971  0.78933375  0.96394531
   0.31688144  0.89022300  0.73819225
   0.31311909  0.85015490  0.61033638
   0.34004958  0.91222537  0.08061832
   0.33174328  0.87342746  0.93877756
   0.99581279  0.55957375  0.43001464
   0.99020546  0.51939556  0.30733795
   0.79479673  0.32036867  0.76453326
   0.83743870  0.31945922  0.63942650
   0.74364110  0.34351777  0.09250519
   0.78960347  0.34255315  0.95885199
   0.45238754  0.98623555  0.41165785
   0.49884140  0.98083748  0.29321792
   0.61822518  0.44155243  0.34577384
   0.84491257  0.08738364  0.63255440
   0.78970263  0.21721885  0.12502350
   0.13951343  0.16914430  0.50718299
   0.70169325  0.12856891  0.50899702
   0.03171516  0.47690735  0.85192043
   0.17648671  0.69319996  0.53111733
   0.49659267  0.02295483  0.83889844
   0.18927877  0.16915601  0.80420913
   0.64044941  0.19090237  0.82069321
   0.19028667  0.61398516  0.85815818
   0.81133184  0.83113410  0.18387175
   0.35013658  0.80641201  0.15570799
   0.83056414  0.36988649  0.17865276
   0.86393393  0.83431825  0.48607955
   0.30339151  0.86254078  0.45625425
   0.97863471  0.53142460  0.15364651
   0.84088672  0.30362152  0.48869490
   0.49977962  0.96887541  0.13911206
   0.70721224  0.33480836  0.49197741
   0.28216694  0.02203238  0.79293928
   0.63766528  0.33366924  0.19285535
   0.96331611  0.69010150  0.48398617
   0.35378987  0.95291308  0.45858382
   0.35172128  0.02415406  0.12797067
   0.71042281  0.97567692  0.18630987
   0.34620665  0.66326365  0.74621423
   0.73169455  0.27844053  0.02135460
   0.97956332  0.31625244  0.18685995
   0.31345016  0.70639137  0.18623263
   0.97629440  0.38476555  0.85560106
   0.64684325  0.97051305  0.85228263
   0.03197694  0.62559740  0.15011898
   0.64135569  0.03935294  0.52049614
   0.02865087  0.69360917  0.82157177
   0.30328308  0.62610643  0.57475512
   0.04499456  0.31867712  0.51892031
   0.70480487  0.43766034  0.37416388
   0.61855371  0.44279697  0.01377097
   0.79021988  0.21195934  0.69451037
Direct configuration=    92
   0.05878615  0.25823681  0.31459522
   0.03329128  0.30147427  0.94960359
   0.10232056  0.26198840  0.71660314
   0.68586447  0.05427255  0.31533003
   0.66328534  0.03302135  0.95768036
   0.63786390  0.09995917  0.71852869
   0.02452238  0.39696294  0.65367667
   0.27502902  0.66922221  0.34367822
   0.32164790  0.64047818  0.98134610
   0.28920795  0.59271443  0.79032080
   0.58539895  0.01544273  0.64808986
   0.29375019  0.03449461  0.35518893
   0.22585360  0.07580122  0.59290772
   0.27041769  0.08041047  0.99844904
   0.66693195  0.28815053  0.43888052
   0.73343126  0.20099599  0.56897136
   0.01010217  0.63304221  0.71115903
   0.03422837  0.56624212  0.94972677
   0.65266906  0.26800559  0.02319596
   0.04179185  0.67396877  0.37934684
   0.08472650  0.69626832  0.62392393
   0.36321311  0.00148997  0.68716176
   0.40381746  0.02843814  0.92556820
   0.09122102  0.64440393  0.02654605
   0.70305672  0.95993993  0.62455393
   0.77114129  0.92146364  0.38784915
   0.72750764  0.91519983  0.98425873
   0.35824153  0.69762780  0.51990528
   0.29523421  0.77750021  0.35484686
   0.00520089  0.37340317  0.28501875
   0.97390138  0.44367011  0.05666717
   0.33784587  0.72846572  0.94149746
   0.96190522  0.34552427  0.61746632
   0.92358091  0.31421085  0.38638429
   0.63207285  0.99179454  0.29153470
   0.59136171  0.96631378  0.04979253
   0.91727676  0.36499258  0.98506164
   0.94790194  0.75009476  0.68618043
   0.97265708  0.70621855  0.04812893
   0.90337036  0.74336338  0.28090505
   0.30692672  0.94215716  0.66237565
   0.33051366  0.96310141  0.02014137
   0.35655241  0.89506075  0.25615010
   0.98674324  0.61102089  0.35207517
   0.76085728  0.29586198  0.70936964
   0.68714824  0.36501568  0.01207679
   0.74656450  0.35645754  0.28201239
   0.41094163  0.97609491  0.33043059
   0.58794241  0.42033439  0.26049424
   0.62783510  0.47916566  0.25156563
   0.64424217  0.42212394  0.51730585
   0.83003596  0.17888290  0.21031019
   0.85557608  0.12364082  0.69172996
   0.83561412  0.05044431  0.57633710
   0.10941963  0.21556755  0.23325981
   0.15029161  0.16917734  0.35241014
   0.08515773  0.26155821  0.89082510
   0.12434229  0.21466109  0.03041717
   0.67816370  0.10514275  0.23645626
   0.68767026  0.14268512  0.35819699
   0.65344722  0.08391128  0.89486427
   0.66172083  0.12265047  0.03666278
   0.01508400  0.44838973  0.57522939
   0.02025935  0.48889293  0.69815489
   0.23055432  0.66081489  0.27015632
   0.18019281  0.67545822  0.38291006
   0.28497759  0.62081433  0.95040117
   0.23501887  0.63606816  0.08106057
   0.54385413  0.00565052  0.56642069
   0.49734552  0.01112754  0.68484606
   0.24305966  0.07556837  0.41781241
   0.20410173  0.12330881  0.28034530
   0.21929271  0.12268487  0.07808230
   0.17837065  0.16901339  0.95879323
   0.69487851  0.22950409  0.44145140
   0.67911759  0.19753681  0.29549617
   0.01906281  0.58247238  0.77343275
   0.01105125  0.54361954  0.63146760
   0.66062935  0.21661742  0.09778144
   0.65316623  0.17765098  0.97316022
   0.08403323  0.68087987  0.44714081
   0.13350136  0.66833896  0.31162444
   0.40412582  0.01106394  0.75032146
   0.45209797  0.00203191  0.61325615
   0.13553369  0.64813140  0.11423770
   0.18754888  0.63081112  0.00672880
   0.75514182  0.92124279  0.56370506
   0.79616254  0.87614777  0.70609474
   0.78043769  0.87577848  0.90716736
   0.82283385  0.83177773  0.03028072
   0.32414827  0.75539761  0.51199367
   0.32336102  0.79464715  0.67111547
   0.99220111  0.42584694  0.22998450
   0.99970995  0.46451476  0.37362747
   0.33448590  0.77893574  0.87421551
   0.33996122  0.81843201  0.00150907
   0.92329571  0.33140844  0.56165778
   0.87846376  0.33615885  0.70406162
   0.59125775  0.98222683  0.22606303
   0.54387231  0.99025690  0.36456975
   0.87714683  0.35325526  0.90431380
   0.83116311  0.35738298  0.02538468
   0.89494590  0.78966426  0.76293864
   0.85248415  0.83365899  0.63980983
   0.91993750  0.74434263  0.10636207
   0.87917371  0.78933796  0.96398861
   0.31686210  0.89023762  0.73816476
   0.31305687  0.85018022  0.61035567
   0.34009049  0.91220939  0.08053923
   0.33177560  0.87340557  0.93875119
   0.99582005  0.55959182  0.43004747
   0.99021620  0.51941398  0.30735735
   0.79481536  0.32036288  0.76450885
   0.83747292  0.31942680  0.63940255
   0.74364620  0.34353651  0.09247631
   0.78960516  0.34256360  0.95884577
   0.45238440  0.98624620  0.41172180
   0.49883940  0.98082017  0.29324113
   0.61822364  0.44154060  0.34591995
   0.84488279  0.08739379  0.63240267
   0.78966294  0.21722360  0.12499057
   0.13948930  0.16915979  0.50714651
   0.70167664  0.12856015  0.50897469
   0.03173019  0.47692129  0.85192749
   0.17652372  0.69316344  0.53112239
   0.49657787  0.02297673  0.83889777
   0.18929127  0.16913198  0.80422039
   0.64040957  0.19091668  0.82071711
   0.19030904  0.61399230  0.85808711
   0.81133764  0.83113417  0.18391551
   0.35020283  0.80636638  0.15564499
   0.83056451  0.36990822  0.17861407
   0.86392935  0.83431983  0.48611835
   0.30333388  0.86256570  0.45631596
   0.97864210  0.53144561  0.15368587
   0.84092652  0.30358055  0.48871757
   0.49977085  0.96887054  0.13919459
   0.70724128  0.33476150  0.49189654
   0.28214336  0.02204988  0.79301328
   0.63765828  0.33366222  0.19284325
   0.96333234  0.69011955  0.48401557
   0.35379926  0.95289263  0.45852392
   0.35171669  0.02415601  0.12803113
   0.71042230  0.97566918  0.18631992
   0.34622501  0.66324776  0.74612006
   0.73168316  0.27845744  0.02134003
   0.97957845  0.31627040  0.18685373
   0.31345954  0.70638029  0.18615738
   0.97631571  0.38477455  0.85556572
   0.64683332  0.97049512  0.85236843
   0.03198540  0.62560569  0.15012589
   0.64134764  0.03934427  0.52048696
   0.02866155  0.69361887  0.82156960
   0.30327562  0.62610680  0.57468822
   0.04501634  0.31868953  0.51895732
   0.70478809  0.43766967  0.37437810
   0.61857547  0.44279470  0.01388364
   0.79018180  0.21194300  0.69464373
Direct configuration=    93
   0.05878883  0.25824131  0.31459407
   0.03329996  0.30148703  0.94959493
   0.10233357  0.26199018  0.71660365
   0.68585595  0.05426856  0.31533353
   0.66328169  0.03302171  0.95768432
   0.63785248  0.09996183  0.71852236
   0.02453069  0.39696885  0.65367436
   0.27503794  0.66921582  0.34366855
   0.32165976  0.64046483  0.98133395
   0.28920786  0.59271149  0.79031541
   0.58539707  0.01543986  0.64808677
   0.29374136  0.03448406  0.35519152
   0.22584397  0.07580259  0.59291016
   0.27041543  0.08040252  0.99847938
   0.66692795  0.28814466  0.43886536
   0.73342022  0.20099022  0.56898746
   0.01010956  0.63304726  0.71116648
   0.03422947  0.56624886  0.94974051
   0.65265888  0.26800632  0.02319909
   0.04179823  0.67397350  0.37933625
   0.08473249  0.69627247  0.62390254
   0.36320327  0.00150724  0.68716999
   0.40381537  0.02844064  0.92558003
   0.09122889  0.64440132  0.02651879
   0.70305221  0.95993326  0.62456206
   0.77114041  0.92146235  0.38786108
   0.72750445  0.91519740  0.98426762
   0.35822664  0.69763578  0.51985771
   0.29521673  0.77750904  0.35482551
   0.00521504  0.37340665  0.28500793
   0.97390708  0.44367882  0.05666486
   0.33783984  0.72846817  0.94146990
   0.96191037  0.34552786  0.61747430
   0.92358832  0.31420781  0.38637786
   0.63207494  0.99178169  0.29153796
   0.59137097  0.96629205  0.04982014
   0.91728101  0.36499505  0.98505173
   0.94790576  0.75010213  0.68620497
   0.97266038  0.70621975  0.04812718
   0.90337668  0.74336746  0.28092092
   0.30692437  0.94215896  0.66237399
   0.33052706  0.96309574  0.02012702
   0.35657094  0.89504597  0.25612168
   0.98674374  0.61102811  0.35208116
   0.76086451  0.29585322  0.70936016
   0.68715447  0.36502209  0.01206374
   0.74656395  0.35646280  0.28199212
   0.41093709  0.97609830  0.33046234
   0.58793527  0.42033794  0.26051666
   0.62783282  0.47917057  0.25165421
   0.64424844  0.42210310  0.51733248
   0.83000470  0.17888590  0.21030815
   0.85555636  0.12363949  0.69176035
   0.83560890  0.05045408  0.57617911
   0.10942030  0.21556995  0.23324830
   0.15028777  0.16918037  0.35240103
   0.08516687  0.26156547  0.89082497
   0.12434574  0.21466445  0.03040689
   0.67815077  0.10514042  0.23644986
   0.68765837  0.14268271  0.35818841
   0.65343955  0.08391217  0.89485576
   0.66170802  0.12264984  0.03666187
   0.01509425  0.44839507  0.57522839
   0.02026809  0.48889853  0.69815880
   0.23055926  0.66081332  0.27014101
   0.18020150  0.67544996  0.38290249
   0.28498608  0.62080834  0.95038644
   0.23502595  0.63606759  0.08104203
   0.54384855  0.00565241  0.56642713
   0.49734049  0.01113385  0.68485637
   0.24305094  0.07556544  0.41781448
   0.20409592  0.12330648  0.28034783
   0.21928879  0.12268107  0.07809044
   0.17837434  0.16900907  0.95879583
   0.69487187  0.22949775  0.44147241
   0.67910863  0.19753760  0.29551208
   0.01906647  0.58247906  0.77344385
   0.01105572  0.54362704  0.63147558
   0.66061613  0.21661975  0.09779635
   0.65315116  0.17765251  0.97317486
   0.08404041  0.68088012  0.44712471
   0.13350990  0.66833381  0.31160514
   0.40411666  0.01107389  0.75032839
   0.45209328  0.00203993  0.61327293
   0.13554061  0.64813023  0.11420968
   0.18755467  0.63081286  0.00670188
   0.75513889  0.92123956  0.56371995
   0.79616097  0.87614683  0.70610956
   0.78043594  0.87577811  0.90718317
   0.82283373  0.83177964  0.03030124
   0.32412789  0.75540578  0.51196042
   0.32333733  0.79465267  0.67109793
   0.99221023  0.42585423  0.22997904
   0.99971820  0.46452086  0.37362569
   0.33447624  0.77893987  0.87419630
   0.33996296  0.81843254  0.00148005
   0.92330736  0.33140524  0.56164638
   0.87847563  0.33615135  0.70406813
   0.59126036  0.98221024  0.22607843
   0.54387291  0.99025147  0.36458537
   0.87715892  0.35324860  0.90430948
   0.83117080  0.35738190  0.02537412
   0.89494697  0.78966687  0.76296361
   0.85248328  0.83365984  0.63982839
   0.91994164  0.74434444  0.10637685
   0.87917493  0.78934022  0.96400775
   0.31685398  0.89024251  0.73816110
   0.31303031  0.85019041  0.61036575
   0.34010833  0.91220126  0.08050934
   0.33178730  0.87339769  0.93873163
   0.99582356  0.55959978  0.43006239
   0.99022056  0.51942208  0.30736737
   0.79482192  0.32035965  0.76449089
   0.83748741  0.31941403  0.63939749
   0.74364735  0.34354319  0.09246515
   0.78960770  0.34256628  0.95883693
   0.45238447  0.98625150  0.41175044
   0.49884038  0.98081390  0.29325452
   0.61822544  0.44153525  0.34598521
   0.84486528  0.08738078  0.63230909
   0.78964790  0.21722500  0.12497392
   0.13947919  0.16916561  0.50713088
   0.70167021  0.12855485  0.50896781
   0.03173700  0.47692730  0.85192909
   0.17653961  0.69314744  0.53112090
   0.49657215  0.02298652  0.83889772
   0.18929530  0.16912330  0.80422111
   0.64039288  0.19092225  0.82073448
   0.19031921  0.61399457  0.85805278
   0.81133978  0.83113468  0.18393329
   0.35022950  0.80634832  0.15561222
   0.83056546  0.36991744  0.17860037
   0.86392731  0.83432066  0.48613358
   0.30330877  0.86257668  0.45633510
   0.97864582  0.53145438  0.15370082
   0.84094277  0.30356378  0.48873085
   0.49976692  0.96886784  0.13922557
   0.70725477  0.33474044  0.49186512
   0.28213274  0.02205794  0.79304269
   0.63765493  0.33366349  0.19284157
   0.96333979  0.69012717  0.48402495
   0.35380299  0.95288292  0.45849662
   0.35171624  0.02415518  0.12805986
   0.71042233  0.97566630  0.18632458
   0.34623156  0.66324101  0.74607687
   0.73167630  0.27846611  0.02132822
   0.97958332  0.31627841  0.18685471
   0.31346366  0.70637566  0.18612525
   0.97632351  0.38477850  0.85555029
   0.64683016  0.97048752  0.85240145
   0.03198905  0.62560844  0.15013030
   0.64134446  0.03934035  0.52048679
   0.02866606  0.69362292  0.82156595
   0.30327141  0.62610661  0.57466290
   0.04502322  0.31869567  0.51896962
   0.70478070  0.43767405  0.37446854
   0.61858482  0.44279435  0.01393145
   0.79016505  0.21193557  0.69470205
Direct configuration=    94
   0.05879355  0.25824925  0.31459204
   0.03331527  0.30150955  0.94957966
   0.10235652  0.26199333  0.71660455
   0.68584092  0.05426152  0.31533972
   0.66327526  0.03302236  0.95769131
   0.63783233  0.09996652  0.71851120
   0.02454535  0.39697927  0.65367027
   0.27505367  0.66920455  0.34365150
   0.32168068  0.64044129  0.98131252
   0.28920769  0.59270629  0.79030589
   0.58539376  0.01543480  0.64808132
   0.29372578  0.03446546  0.35519608
   0.22582698  0.07580501  0.59291446
   0.27041145  0.08038849  0.99853291
   0.66692088  0.28813432  0.43883862
   0.73340074  0.20098004  0.56901585
   0.01012261  0.63305615  0.71117964
   0.03423142  0.56626074  0.94976475
   0.65264093  0.26800760  0.02320460
   0.04180947  0.67398183  0.37931755
   0.08474308  0.69627980  0.62386479
   0.36318591  0.00153771  0.68718451
   0.40381167  0.02844506  0.92560090
   0.09124279  0.64439672  0.02647069
   0.70304426  0.95992150  0.62457641
   0.77113885  0.92146007  0.38788213
   0.72749882  0.91519309  0.98428330
   0.35820038  0.69764985  0.51977379
   0.29518591  0.77752461  0.35478784
   0.00524000  0.37341279  0.28498884
   0.97391715  0.44369417  0.05666078
   0.33782920  0.72847249  0.94142128
   0.96191945  0.34553420  0.61748838
   0.92360140  0.31420245  0.38636651
   0.63207863  0.99175901  0.29154372
   0.59138731  0.96625373  0.04986885
   0.91728851  0.36499942  0.98503425
   0.94791251  0.75011512  0.68624826
   0.97266619  0.70622187  0.04812410
   0.90338781  0.74337465  0.28094892
   0.30692021  0.94216213  0.66237107
   0.33055071  0.96308575  0.02010170
   0.35660361  0.89501991  0.25607157
   0.98674463  0.61104083  0.35209172
   0.76087725  0.29583778  0.70934344
   0.68716546  0.36503339  0.01204070
   0.74656298  0.35647208  0.28195637
   0.41092908  0.97610427  0.33051834
   0.58792267  0.42034419  0.26055621
   0.62782880  0.47917924  0.25181046
   0.64425948  0.42206634  0.51737947
   0.82994956  0.17889120  0.21030455
   0.85552158  0.12363714  0.69181397
   0.83559971  0.05047131  0.57590041
   0.10942149  0.21557418  0.23322799
   0.15028100  0.16918572  0.35238496
   0.08518301  0.26157828  0.89082474
   0.12435183  0.21467038  0.03038877
   0.67812796  0.10513632  0.23643857
   0.68763739  0.14267844  0.35817327
   0.65342603  0.08391375  0.89484075
   0.66168543  0.12264874  0.03666026
   0.01511233  0.44840449  0.57522662
   0.02028353  0.48890840  0.69816570
   0.23056797  0.66081054  0.27011401
   0.18021684  0.67543539  0.38288914
   0.28500106  0.62079777  0.95036045
   0.23503843  0.63606660  0.08100932
   0.54383872  0.00565575  0.56643849
   0.49733162  0.01114498  0.68487455
   0.24303556  0.07556026  0.41781812
   0.20408568  0.12330238  0.28035229
   0.21928186  0.12267438  0.07810479
   0.17838085  0.16900145  0.95880041
   0.69486017  0.22948656  0.44150949
   0.67909283  0.19753899  0.29554017
   0.01907291  0.58249083  0.77346343
   0.01106361  0.54364027  0.63148966
   0.66059282  0.21662386  0.09782266
   0.65312458  0.17765522  0.97320068
   0.08405309  0.68088057  0.44709631
   0.13352497  0.66832474  0.31157108
   0.40410049  0.01109144  0.75034061
   0.45208502  0.00205408  0.61330253
   0.13555281  0.64812816  0.11416024
   0.18756488  0.63081594  0.00665441
   0.75513371  0.92123387  0.56374623
   0.79615820  0.87614517  0.70613570
   0.78043284  0.87577746  0.90721107
   0.82283351  0.83178300  0.03033744
   0.32409194  0.75542021  0.51190178
   0.32329553  0.79466241  0.67106697
   0.99222632  0.42586709  0.22996941
   0.99973276  0.46453161  0.37362256
   0.33445920  0.77894718  0.87416241
   0.33996604  0.81843348  0.00142886
   0.92332791  0.33139961  0.56162628
   0.87849656  0.33613813  0.70407962
   0.59126497  0.98218097  0.22610560
   0.54387398  0.99024190  0.36461292
   0.87718025  0.35323686  0.90430185
   0.83118435  0.35738000  0.02535549
   0.89494885  0.78967147  0.76300765
   0.85248175  0.83366133  0.63986113
   0.91994896  0.74434765  0.10640292
   0.87917708  0.78934420  0.96404150
   0.31683967  0.89025114  0.73815464
   0.31298347  0.85020837  0.61038353
   0.34013981  0.91218692  0.08045660
   0.33180794  0.87338379  0.93869714
   0.99582974  0.55961382  0.43008870
   0.99022824  0.51943638  0.30738506
   0.79483348  0.32035397  0.76445921
   0.83751298  0.31939151  0.63938856
   0.74364938  0.34355498  0.09244547
   0.78961217  0.34257100  0.95882134
   0.45238460  0.98626084  0.41180096
   0.49884211  0.98080284  0.29327813
   0.61822863  0.44152581  0.34610034
   0.84483438  0.08735784  0.63214402
   0.78962137  0.21722748  0.12494457
   0.13946135  0.16917587  0.50710332
   0.70165887  0.12854551  0.50895566
   0.03174902  0.47693792  0.85193193
   0.17656762  0.69311923  0.53111826
   0.49656205  0.02300378  0.83889762
   0.18930240  0.16910799  0.80422238
   0.64036344  0.19093208  0.82076513
   0.19033714  0.61399859  0.85799222
   0.81134355  0.83113558  0.18396466
   0.35027654  0.80631647  0.15555440
   0.83056713  0.36993370  0.17857619
   0.86392370  0.83432211  0.48616044
   0.30326446  0.86259606  0.45636886
   0.97865239  0.53146986  0.15372721
   0.84097142  0.30353418  0.48875427
   0.49975999  0.96886309  0.13928024
   0.70727857  0.33470328  0.49180968
   0.28211400  0.02207215  0.79309456
   0.63764900  0.33366572  0.19283860
   0.96335294  0.69014062  0.48404149
   0.35380957  0.95286578  0.45844847
   0.35171544  0.02415373  0.12811053
   0.71042239  0.97566122  0.18633280
   0.34624313  0.66322912  0.74600067
   0.73166420  0.27848141  0.02130738
   0.97959191  0.31629254  0.18685644
   0.31347093  0.70636748  0.18606857
   0.97633729  0.38478548  0.85552306
   0.64682459  0.97047409  0.85245971
   0.03199548  0.62561328  0.15013810
   0.64133886  0.03933342  0.52048649
   0.02867403  0.69363006  0.82155951
   0.30326397  0.62610629  0.57461822
   0.04503536  0.31870651  0.51899134
   0.70476767  0.43768178  0.37462809
   0.61860131  0.44279372  0.01401580
   0.79013549  0.21192247  0.69480492
Direct configuration=    95
   0.05879744  0.25825441  0.31459186
   0.03332625  0.30152626  0.94956825
   0.10237354  0.26199539  0.71660718
   0.68583061  0.05425355  0.31534669
   0.66327038  0.03302405  0.95768875
   0.63781866  0.09996928  0.71851148
   0.02455557  0.39698710  0.65366657
   0.27506222  0.66919649  0.34363707
   0.32169631  0.64042611  0.98130081
   0.28920947  0.59270145  0.79028821
   0.58538963  0.01543059  0.64807257
   0.29371118  0.03445479  0.35520163
   0.22581710  0.07580446  0.59292151
   0.27040966  0.08037716  0.99857932
   0.66691241  0.28813296  0.43882458
   0.73338517  0.20097324  0.56902892
   0.01013174  0.63306245  0.71118836
   0.03423292  0.56626911  0.94978059
   0.65263031  0.26800995  0.02320522
   0.04181417  0.67398755  0.37930256
   0.08475122  0.69628489  0.62384210
   0.36316752  0.00155815  0.68719076
   0.40380834  0.02845048  0.92563086
   0.09125457  0.64439267  0.02643755
   0.70303982  0.95991262  0.62458705
   0.77113642  0.92145885  0.38790563
   0.72749446  0.91519006  0.98429462
   0.35818403  0.69765875  0.51971429
   0.29516259  0.77753568  0.35475700
   0.00525756  0.37341904  0.28497708
   0.97392517  0.44370403  0.05665862
   0.33782356  0.72847670  0.94137983
   0.96192814  0.34553931  0.61749632
   0.92361024  0.31419845  0.38635297
   0.63208157  0.99174264  0.29154999
   0.59139711  0.96622418  0.04988469
   0.91729611  0.36500328  0.98502492
   0.94791811  0.75012438  0.68627842
   0.97266999  0.70622415  0.04812129
   0.90339580  0.74337977  0.28097515
   0.30691780  0.94216567  0.66236960
   0.33056798  0.96308030  0.02008454
   0.35662830  0.89500272  0.25602028
   0.98674582  0.61105089  0.35210039
   0.76088772  0.29582566  0.70933962
   0.68717377  0.36503870  0.01203166
   0.74656057  0.35648078  0.28194090
   0.41092134  0.97611020  0.33056005
   0.58791648  0.42034790  0.26058559
   0.62782643  0.47918202  0.25191943
   0.64426662  0.42204021  0.51741272
   0.82991308  0.17889143  0.21030759
   0.85549319  0.12362838  0.69184114
   0.83559009  0.05047356  0.57567803
   0.10942134  0.21557910  0.23321088
   0.15027818  0.16918792  0.35237444
   0.08519281  0.26158972  0.89082509
   0.12435755  0.21467340  0.03037672
   0.67811172  0.10513341  0.23642998
   0.68762144  0.14267964  0.35817401
   0.65341637  0.08391431  0.89482925
   0.66166800  0.12264914  0.03664949
   0.01512558  0.44841170  0.57522695
   0.02029415  0.48891588  0.69816291
   0.23057482  0.66081023  0.27010667
   0.18022822  0.67542542  0.38288022
   0.28501153  0.62079011  0.95034991
   0.23504821  0.63606624  0.08098569
   0.54383284  0.00565899  0.56644943
   0.49732351  0.01115234  0.68488580
   0.24302705  0.07555466  0.41782050
   0.20407778  0.12330059  0.28035545
   0.21927759  0.12266807  0.07812081
   0.17838331  0.16899810  0.95880071
   0.69485623  0.22947268  0.44155433
   0.67908066  0.19753699  0.29554225
   0.01907767  0.58249975  0.77347676
   0.01107005  0.54364984  0.63150268
   0.66057734  0.21661959  0.09784760
   0.65310439  0.17766124  0.97322184
   0.08406442  0.68088081  0.44707544
   0.13353589  0.66831767  0.31153591
   0.40409276  0.01110249  0.75033764
   0.45208126  0.00206160  0.61332506
   0.13555991  0.64812789  0.11413817
   0.18757355  0.63081805  0.00661702
   0.75513034  0.92123055  0.56375718
   0.79615677  0.87614359  0.70615560
   0.78043033  0.87577714  0.90723092
   0.82283327  0.83178563  0.03035652
   0.32406609  0.75542928  0.51185970
   0.32326594  0.79467038  0.67104460
   0.99223846  0.42587495  0.22996690
   0.99974314  0.46454070  0.37362166
   0.33444828  0.77895090  0.87413701
   0.33996922  0.81842728  0.00140935
   0.92334271  0.33139562  0.56162018
   0.87851236  0.33612544  0.70407834
   0.59127026  0.98216096  0.22614935
   0.54387266  0.99023483  0.36463385
   0.87719135  0.35322873  0.90429791
   0.83119412  0.35738128  0.02533900
   0.89494971  0.78967566  0.76303781
   0.85248150  0.83366181  0.63988373
   0.91995468  0.74435058  0.10641698
   0.87917776  0.78934785  0.96406828
   0.31682979  0.89025373  0.73815992
   0.31295036  0.85022035  0.61039955
   0.34016296  0.91217375  0.08042794
   0.33181873  0.87337938  0.93865806
   0.99583455  0.55962416  0.43010599
   0.99023370  0.51944676  0.30740136
   0.79483977  0.32034840  0.76443146
   0.83753077  0.31937787  0.63939689
   0.74365006  0.34356151  0.09243037
   0.78961963  0.34257130  0.95879649
   0.45238446  0.98626748  0.41183298
   0.49884541  0.98079770  0.29330961
   0.61823179  0.44151943  0.34617188
   0.84481649  0.08735993  0.63205133
   0.78959875  0.21723399  0.12490883
   0.13944880  0.16918220  0.50708412
   0.70165111  0.12853685  0.50894773
   0.03175840  0.47694557  0.85193342
   0.17658761  0.69309851  0.53111231
   0.49655559  0.02301703  0.83890073
   0.18930595  0.16909901  0.80421797
   0.64034257  0.19093836  0.82079705
   0.19035062  0.61400069  0.85794493
   0.81134559  0.83113695  0.18398781
   0.35030760  0.80629634  0.15549809
   0.83056948  0.36994509  0.17856042
   0.86392100  0.83432331  0.48617907
   0.30323112  0.86261105  0.45637970
   0.97865774  0.53148103  0.15374225
   0.84099152  0.30351321  0.48877073
   0.49975493  0.96885800  0.13930690
   0.70729722  0.33467539  0.49177293
   0.28210059  0.02208227  0.79312580
   0.63764388  0.33367318  0.19284108
   0.96336316  0.69015002  0.48404988
   0.35381355  0.95285262  0.45841531
   0.35171716  0.02415041  0.12815015
   0.71042250  0.97565793  0.18633940
   0.34624929  0.66322069  0.74594346
   0.73165280  0.27849461  0.02128395
   0.97959625  0.31630320  0.18686093
   0.31347625  0.70636196  0.18602929
   0.97634520  0.38479117  0.85550492
   0.64682204  0.97046491  0.85249383
   0.03200027  0.62561597  0.15014545
   0.64133491  0.03932785  0.52049177
   0.02867993  0.69363523  0.82155117
   0.30325793  0.62610454  0.57459610
   0.04504107  0.31871536  0.51900053
   0.70475834  0.43768743  0.37474144
   0.61861299  0.44279444  0.01407808
   0.79011402  0.21191186  0.69488129
Direct configuration=    96
   0.05880911  0.25826988  0.31459134
   0.03335919  0.30157641  0.94953404
   0.10242462  0.26200157  0.71661506
   0.68579968  0.05422964  0.31536760
   0.66325573  0.03302913  0.95768108
   0.63777765  0.09997755  0.71851231
   0.02458623  0.39701059  0.65365547
   0.27508789  0.66917232  0.34359379
   0.32174320  0.64038056  0.98126567
   0.28921480  0.59268692  0.79023517
   0.58537725  0.01541796  0.64804634
   0.29366739  0.03442277  0.35521830
   0.22578747  0.07580282  0.59294266
   0.27040428  0.08034317  0.99871854
   0.66688700  0.28812888  0.43878246
   0.73333845  0.20095285  0.56906812
   0.01015913  0.63308137  0.71121455
   0.03423744  0.56629423  0.94982812
   0.65259846  0.26801700  0.02320709
   0.04182828  0.67400473  0.37925761
   0.08477564  0.69630015  0.62377401
   0.36311234  0.00161946  0.68720951
   0.40379836  0.02846676  0.92572075
   0.09128990  0.64438051  0.02633812
   0.70302651  0.95988597  0.62461895
   0.77112911  0.92145518  0.38797613
   0.72748137  0.91518098  0.98432860
   0.35813498  0.69768544  0.51953579
   0.29509264  0.77756887  0.35466446
   0.00531024  0.37343778  0.28494178
   0.97394922  0.44373363  0.05665214
   0.33780662  0.72848935  0.94125548
   0.96195424  0.34555462  0.61752014
   0.92363677  0.31418645  0.38631236
   0.63209041  0.99169352  0.29156878
   0.59142651  0.96613551  0.04993223
   0.91731889  0.36501487  0.98499693
   0.94793493  0.75015214  0.68636888
   0.97268137  0.70623100  0.04811288
   0.90341976  0.74339513  0.28105383
   0.30691059  0.94217629  0.66236521
   0.33061980  0.96306396  0.02003309
   0.35670236  0.89495112  0.25586643
   0.98674939  0.61108104  0.35212640
   0.76091913  0.29578932  0.70932817
   0.68719870  0.36505464  0.01200454
   0.74655335  0.35650685  0.28189449
   0.41089810  0.97612799  0.33068519
   0.58789788  0.42035904  0.26067374
   0.62781930  0.47919037  0.25224634
   0.64428802  0.42196183  0.51751245
   0.82980362  0.17889212  0.21031669
   0.85540802  0.12360211  0.69192264
   0.83556124  0.05048031  0.57501090
   0.10942087  0.21559386  0.23315954
   0.15026969  0.16919452  0.35234288
   0.08522219  0.26162406  0.89082612
   0.12437471  0.21468249  0.03034056
   0.67806298  0.10512469  0.23640419
   0.68757361  0.14268323  0.35817622
   0.65338742  0.08391599  0.89479475
   0.66161573  0.12265034  0.03661716
   0.01516532  0.44843332  0.57522795
   0.02032604  0.48893830  0.69815453
   0.23059535  0.66080931  0.27008467
   0.18026237  0.67539548  0.38285347
   0.28504295  0.62076711  0.95031829
   0.23507756  0.63606515  0.08091481
   0.54381520  0.00566869  0.56648224
   0.49729917  0.01117443  0.68491956
   0.24300150  0.07553788  0.41782764
   0.20405408  0.12329523  0.28036491
   0.21926479  0.12264917  0.07816886
   0.17839072  0.16898803  0.95880161
   0.69484440  0.22943102  0.44168887
   0.67904414  0.19753098  0.29554850
   0.01909196  0.58252648  0.77351674
   0.01108935  0.54367853  0.63154173
   0.66053091  0.21660675  0.09792244
   0.65304383  0.17767931  0.97328530
   0.08409840  0.68088153  0.44701286
   0.13356865  0.66829646  0.31143039
   0.40406956  0.01113562  0.75032872
   0.45207000  0.00208416  0.61339265
   0.13558123  0.64812708  0.11407196
   0.18759954  0.63082438  0.00650487
   0.75512022  0.92122062  0.56379003
   0.79615246  0.87613884  0.70621530
   0.78042279  0.87577621  0.90729047
   0.82283255  0.83179350  0.03041375
   0.32398853  0.75545649  0.51173344
   0.32317717  0.79469429  0.67097747
   0.99227487  0.42589854  0.22995938
   0.99977431  0.46456798  0.37361899
   0.33441549  0.77896206  0.87406083
   0.33997873  0.81840869  0.00135081
   0.92338710  0.33138367  0.56160185
   0.87855975  0.33608737  0.70407450
   0.59128611  0.98210093  0.22628059
   0.54386868  0.99021361  0.36469665
   0.87722464  0.35320433  0.90428612
   0.83122343  0.35738513  0.02528953
   0.89495227  0.78968825  0.76312830
   0.85248076  0.83366325  0.63995152
   0.91997182  0.74435939  0.10645915
   0.87917980  0.78935879  0.96414862
   0.31680017  0.89026152  0.73817575
   0.31285102  0.85025629  0.61044759
   0.34023241  0.91213423  0.08034196
   0.33185111  0.87336617  0.93854081
   0.99584899  0.55965517  0.43015785
   0.99025008  0.51947791  0.30745027
   0.79485861  0.32033172  0.76434820
   0.83758414  0.31933694  0.63942187
   0.74365210  0.34358113  0.09238507
   0.78964201  0.34257220  0.95872194
   0.45238404  0.98628737  0.41192907
   0.49885532  0.98078229  0.29340405
   0.61824128  0.44150028  0.34638651
   0.84476281  0.08736621  0.63177326
   0.78953089  0.21725351  0.12480164
   0.13941116  0.16920118  0.50702654
   0.70162784  0.12851086  0.50892395
   0.03178655  0.47696850  0.85193788
   0.17664756  0.69303637  0.53109448
   0.49653620  0.02305680  0.83891005
   0.18931663  0.16907208  0.80420477
   0.64027997  0.19095720  0.82089281
   0.19039106  0.61400700  0.85780308
   0.81135171  0.83114105  0.18405729
   0.35040075  0.80623596  0.15532913
   0.83057654  0.36997924  0.17851312
   0.86391290  0.83432691  0.48623495
   0.30313108  0.86265604  0.45641221
   0.97867379  0.53151452  0.15378738
   0.84105180  0.30345029  0.48882010
   0.49973974  0.96884273  0.13938690
   0.70735317  0.33459171  0.49166267
   0.28206034  0.02211262  0.79321951
   0.63762851  0.33369555  0.19284852
   0.96339384  0.69017824  0.48407505
   0.35382547  0.95281313  0.45831585
   0.35172230  0.02414045  0.12826902
   0.71042284  0.97564805  0.18635921
   0.34626777  0.66319541  0.74577184
   0.73161863  0.27853422  0.02121367
   0.97960928  0.31633518  0.18687440
   0.31349219  0.70634540  0.18591148
   0.97636895  0.38480826  0.85545051
   0.64681437  0.97043736  0.85259618
   0.03201463  0.62562404  0.15016752
   0.64132303  0.03931116  0.52050763
   0.02869762  0.69365072  0.82152615
   0.30323980  0.62609929  0.57452973
   0.04505822  0.31874191  0.51902811
   0.70473037  0.43770439  0.37508148
   0.61864804  0.44279659  0.01426491
   0.79004960  0.21188006  0.69511041
Direct configuration=    97
   0.05881143  0.25827396  0.31458965
   0.03336810  0.30158683  0.94953202
   0.10243448  0.26200536  0.71661741
   0.68579304  0.05422617  0.31536684
   0.66325284  0.03302727  0.95766719
   0.63776927  0.09997849  0.71851093
   0.02459283  0.39701624  0.65365287
   0.27509074  0.66916919  0.34358078
   0.32175644  0.64037370  0.98125659
   0.28922012  0.59268281  0.79021142
   0.58537550  0.01541494  0.64804692
   0.29365505  0.03441779  0.35521957
   0.22578407  0.07579945  0.59295373
   0.27040368  0.08033506  0.99875743
   0.66688414  0.28812510  0.43879552
   0.73333883  0.20093983  0.56911639
   0.01016474  0.63308572  0.71121775
   0.03423858  0.56629987  0.94983476
   0.65259225  0.26801334  0.02321885
   0.04182946  0.67400807  0.37924622
   0.08478279  0.69630233  0.62375936
   0.36309767  0.00163143  0.68720501
   0.40379519  0.02847085  0.92573032
   0.09129795  0.64437740  0.02632191
   0.70302313  0.95988131  0.62462846
   0.77112667  0.92145501  0.38799143
   0.72747862  0.91517905  0.98434036
   0.35812769  0.69768992  0.51949549
   0.29507303  0.77757658  0.35462375
   0.00532129  0.37344328  0.28493954
   0.97395638  0.44373747  0.05665647
   0.33780669  0.72848768  0.94122486
   0.96196088  0.34555683  0.61750517
   0.92364461  0.31418614  0.38631419
   0.63209456  0.99168311  0.29158487
   0.59142887  0.96611658  0.04995767
   0.91732608  0.36501705  0.98499330
   0.94793801  0.75015913  0.68638711
   0.97268226  0.70623434  0.04811411
   0.90342644  0.74339831  0.28107100
   0.30691081  0.94217719  0.66236398
   0.33063309  0.96305698  0.02002923
   0.35672317  0.89493970  0.25583205
   0.98675107  0.61108998  0.35213624
   0.76092942  0.29578015  0.70932682
   0.68719749  0.36505982  0.01200157
   0.74654993  0.35651510  0.28190513
   0.41089556  0.97613558  0.33071939
   0.58790264  0.42036103  0.26069988
   0.62781885  0.47918693  0.25231351
   0.64429337  0.42194457  0.51754851
   0.82978315  0.17888783  0.21032298
   0.85538695  0.12359670  0.69194125
   0.83555345  0.05047995  0.57484598
   0.10942192  0.21559816  0.23315132
   0.15026652  0.16919628  0.35233962
   0.08522805  0.26163221  0.89082060
   0.12437722  0.21468541  0.03034231
   0.67805320  0.10512416  0.23640985
   0.68756187  0.14268241  0.35818637
   0.65337967  0.08391652  0.89479265
   0.66160346  0.12265452  0.03661457
   0.01517342  0.44843848  0.57522378
   0.02033319  0.48894325  0.69815261
   0.23060182  0.66080745  0.27007735
   0.18027074  0.67538909  0.38283729
   0.28504979  0.62076140  0.95031319
   0.23508039  0.63606681  0.08090896
   0.54381143  0.00567017  0.56649067
   0.49729627  0.01118017  0.68493492
   0.24299699  0.07553256  0.41783661
   0.20405088  0.12329311  0.28037286
   0.21926241  0.12264475  0.07817927
   0.17839078  0.16898694  0.95879438
   0.69482567  0.22943677  0.44166818
   0.67903660  0.19752272  0.29554889
   0.01909587  0.58253217  0.77352585
   0.01109471  0.54368543  0.63155067
   0.66052094  0.21660884  0.09792707
   0.65302911  0.17768325  0.97330174
   0.08410567  0.68088172  0.44699840
   0.13357514  0.66829355  0.31141651
   0.40406222  0.01114291  0.75034959
   0.45206590  0.00208500  0.61340119
   0.13558835  0.64812578  0.11405313
   0.18760690  0.63082627  0.00648250
   0.75511914  0.92121798  0.56379955
   0.79615196  0.87613741  0.70622808
   0.78042149  0.87577574  0.90729889
   0.82283211  0.83179495  0.03042424
   0.32397333  0.75546086  0.51172082
   0.32315858  0.79470350  0.67097041
   0.99228297  0.42590331  0.22995631
   0.99978181  0.46457415  0.37362684
   0.33440923  0.77896346  0.87403770
   0.33998287  0.81839991  0.00133311
   0.92339421  0.33138015  0.56160939
   0.87857412  0.33607449  0.70406071
   0.59129238  0.98208575  0.22628967
   0.54387056  0.99020875  0.36471840
   0.87723032  0.35320215  0.90428238
   0.83122401  0.35738895  0.02528064
   0.89495426  0.78969145  0.76313944
   0.85248130  0.83366325  0.63996510
   0.91997554  0.74436268  0.10646955
   0.87918011  0.78936199  0.96416632
   0.31679268  0.89026172  0.73817075
   0.31283027  0.85026356  0.61044459
   0.34024424  0.91212849  0.08030677
   0.33185301  0.87336539  0.93852806
   0.99585247  0.55966277  0.43016489
   0.99025362  0.51948590  0.30745902
   0.79486270  0.32032633  0.76434763
   0.83759265  0.31933000  0.63943403
   0.74365746  0.34358285  0.09237194
   0.78965281  0.34256807  0.95868993
   0.45237770  0.98628881  0.41193343
   0.49885256  0.98078230  0.29342781
   0.61823902  0.44149519  0.34639542
   0.84475118  0.08737039  0.63171141
   0.78951259  0.21726205  0.12476450
   0.13940374  0.16920350  0.50701616
   0.70162246  0.12850294  0.50891723
   0.03179397  0.47697377  0.85193497
   0.17665919  0.69302311  0.53109163
   0.49653280  0.02306695  0.83891889
   0.18931683  0.16906924  0.80419662
   0.64026542  0.19096169  0.82092127
   0.19040007  0.61400812  0.85777277
   0.81135185  0.83114332  0.18407192
   0.35041735  0.80622625  0.15528297
   0.83057989  0.36998557  0.17849694
   0.86391121  0.83432773  0.48624858
   0.30310552  0.86266816  0.45640438
   0.97867834  0.53152225  0.15379299
   0.84106525  0.30343679  0.48882926
   0.49973710  0.96883681  0.13939304
   0.70736695  0.33457307  0.49163934
   0.28205353  0.02211650  0.79322597
   0.63762196  0.33370797  0.19285949
   0.96340138  0.69018423  0.48407853
   0.35382543  0.95280531  0.45830870
   0.35172720  0.02413467  0.12829592
   0.71042265  0.97564545  0.18636268
   0.34626736  0.66319071  0.74573783
   0.73161064  0.27854201  0.02119335
   0.97961052  0.31634316  0.18687757
   0.31349568  0.70634290  0.18588971
   0.97637059  0.38481522  0.85544569
   0.64681412  0.97043295  0.85260251
   0.03201833  0.62562560  0.15017352
   0.64132014  0.03930592  0.52052171
   0.02870248  0.69365465  0.82151534
   0.30323630  0.62609401  0.57453764
   0.04505918  0.31874830  0.51902105
   0.70472542  0.43770691  0.37515465
   0.61865465  0.44279986  0.01431219
   0.79003632  0.21187049  0.69516256
Direct configuration=    98
   0.05881541  0.25828096  0.31458676
   0.03338336  0.30160468  0.94952858
   0.10245139  0.26201186  0.71662143
   0.68578166  0.05422022  0.31536554
   0.66324788  0.03302408  0.95764338
   0.63775490  0.09998009  0.71850856
   0.02460413  0.39702593  0.65364843
   0.27509562  0.66916382  0.34355849
   0.32177913  0.64036193  0.98124101
   0.28922924  0.59267577  0.79017071
   0.58537249  0.01540977  0.64804792
   0.29363391  0.03440926  0.35522173
   0.22577826  0.07579367  0.59297270
   0.27040264  0.08032117  0.99882409
   0.66687923  0.28811862  0.43881790
   0.73333947  0.20091752  0.56919912
   0.01017437  0.63309317  0.71122323
   0.03424053  0.56630956  0.94984615
   0.65258161  0.26800709  0.02323901
   0.04183149  0.67401381  0.37922669
   0.08479506  0.69630605  0.62373424
   0.36307252  0.00165195  0.68719730
   0.40378974  0.02847785  0.92574673
   0.09131175  0.64437208  0.02629411
   0.70301733  0.95987333  0.62464477
   0.77112247  0.92145472  0.38801767
   0.72747392  0.91517574  0.98436052
   0.35811519  0.69769761  0.51942640
   0.29503941  0.77758980  0.35455397
   0.00534024  0.37345270  0.28493571
   0.97396864  0.44374405  0.05666390
   0.33780681  0.72848482  0.94117238
   0.96197225  0.34556062  0.61747950
   0.92365805  0.31418561  0.38631733
   0.63210169  0.99166526  0.29161247
   0.59143292  0.96608412  0.05000126
   0.91733839  0.36502080  0.98498707
   0.94794330  0.75017110  0.68641837
   0.97268380  0.70624008  0.04811622
   0.90343788  0.74340375  0.28110044
   0.30691120  0.94217874  0.66236186
   0.33065587  0.96304502  0.02002263
   0.35675884  0.89492014  0.25577310
   0.98675393  0.61110531  0.35215310
   0.76094705  0.29576444  0.70932451
   0.68719542  0.36506868  0.01199647
   0.74654406  0.35652923  0.28192335
   0.41089121  0.97614859  0.33077799
   0.58791081  0.42036443  0.26074470
   0.62781807  0.47918103  0.25242865
   0.64430253  0.42191499  0.51761032
   0.82974805  0.17888048  0.21033377
   0.85535083  0.12358743  0.69197313
   0.83554009  0.05047933  0.57456331
   0.10942373  0.21560553  0.23313724
   0.15026107  0.16919930  0.35233405
   0.08523808  0.26164619  0.89081112
   0.12438152  0.21469041  0.03034530
   0.67803644  0.10512323  0.23641956
   0.68754174  0.14268100  0.35820377
   0.65336638  0.08391742  0.89478906
   0.66158242  0.12266167  0.03661014
   0.01518731  0.44844732  0.57521664
   0.02034544  0.48895172  0.69814931
   0.23061290  0.66080427  0.27006482
   0.18028510  0.67537815  0.38280956
   0.28506153  0.62075160  0.95030444
   0.23508526  0.63606967  0.08089893
   0.54380496  0.00567272  0.56650511
   0.49729131  0.01119001  0.68496124
   0.24298925  0.07552346  0.41785199
   0.20404538  0.12328948  0.28038648
   0.21925833  0.12263719  0.07819711
   0.17839088  0.16898507  0.95878198
   0.69479357  0.22944662  0.44163270
   0.67902368  0.19750855  0.29554957
   0.01910256  0.58254193  0.77354145
   0.01110389  0.54369724  0.63156600
   0.66050384  0.21661241  0.09793501
   0.65300388  0.17769000  0.97332992
   0.08411814  0.68088205  0.44697363
   0.13358627  0.66828856  0.31139273
   0.40404963  0.01115539  0.75038536
   0.45205887  0.00208645  0.61341583
   0.13560056  0.64812355  0.11402086
   0.18761951  0.63082950  0.00644415
   0.75511728  0.92121345  0.56381587
   0.79615110  0.87613496  0.70624997
   0.78041925  0.87577494  0.90731333
   0.82283135  0.83179745  0.03044220
   0.32394729  0.75546836  0.51169920
   0.32312672  0.79471928  0.67095832
   0.99229685  0.42591148  0.22995105
   0.99979468  0.46458473  0.37364030
   0.33439850  0.77896584  0.87399805
   0.33998996  0.81838486  0.00130279
   0.92340638  0.33137411  0.56162232
   0.87859873  0.33605241  0.70403706
   0.59130315  0.98205973  0.22630524
   0.54387379  0.99020041  0.36475568
   0.87724005  0.35319843  0.90427597
   0.83122499  0.35739551  0.02526540
   0.89495768  0.78969694  0.76315852
   0.85248222  0.83366325  0.63998837
   0.91998190  0.74436832  0.10648736
   0.87918063  0.78936749  0.96419666
   0.31677983  0.89026208  0.73816217
   0.31279470  0.85027601  0.61043944
   0.34026451  0.91211867  0.08024644
   0.33185627  0.87336404  0.93850621
   0.99585842  0.55967579  0.43017695
   0.99025969  0.51949960  0.30747403
   0.79486971  0.32031711  0.76434664
   0.83760723  0.31931811  0.63945487
   0.74366663  0.34358579  0.09234943
   0.78967133  0.34256100  0.95863508
   0.45236683  0.98629129  0.41194090
   0.49884784  0.98078230  0.29346855
   0.61823514  0.44148648  0.34641071
   0.84473125  0.08737757  0.63160539
   0.78948121  0.21727668  0.12470085
   0.13939103  0.16920747  0.50699837
   0.70161323  0.12848935  0.50890572
   0.03180670  0.47698280  0.85192997
   0.17667912  0.69300040  0.53108674
   0.49652697  0.02308435  0.83893403
   0.18931718  0.16906438  0.80418265
   0.64024048  0.19096939  0.82097005
   0.19041551  0.61401005  0.85772080
   0.81135209  0.83114722  0.18409700
   0.35044581  0.80620960  0.15520385
   0.83058563  0.36999643  0.17846921
   0.86390829  0.83432913  0.48627193
   0.30306171  0.86268893  0.45639096
   0.97868615  0.53153550  0.15380262
   0.84108831  0.30341364  0.48884497
   0.49973258  0.96882668  0.13940355
   0.70739056  0.33454113  0.49159934
   0.28204185  0.02212313  0.79323705
   0.63761073  0.33372925  0.19287829
   0.96341430  0.69019449  0.48408450
   0.35382535  0.95279190  0.45829643
   0.35173560  0.02412477  0.12834203
   0.71042233  0.97564100  0.18636865
   0.34626666  0.66318266  0.74567955
   0.73159696  0.27855535  0.02115853
   0.97961264  0.31635684  0.18688302
   0.31350168  0.70633861  0.18585239
   0.97637341  0.38482715  0.85543744
   0.64681368  0.97042540  0.85261335
   0.03202468  0.62562826  0.15018381
   0.64131520  0.03929695  0.52054586
   0.02871080  0.69366138  0.82149682
   0.30323031  0.62608498  0.57455120
   0.04506082  0.31875924  0.51900895
   0.70471693  0.43771124  0.37528006
   0.61866598  0.44280547  0.01439322
   0.79001356  0.21185411  0.69525195
Direct configuration=    99
   0.05881695  0.25828623  0.31458325
   0.03339265  0.30161515  0.94953219
   0.10245966  0.26201816  0.71661992
   0.68577498  0.05421884  0.31536007
   0.66324554  0.03301968  0.95762340
   0.63774696  0.09998036  0.71850529
   0.02461041  0.39703173  0.65364626
   0.27509859  0.66916190  0.34354848
   0.32179198  0.64035599  0.98122843
   0.28923715  0.59267157  0.79015406
   0.58537254  0.01540689  0.64805761
   0.29362341  0.03440266  0.35521780
   0.22577634  0.07578867  0.59299034
   0.27040242  0.08031264  0.99886456
   0.66687720  0.28811394  0.43884269
   0.73332936  0.20091153  0.56921644
   0.01017968  0.63309786  0.71122513
   0.03424206  0.56631515  0.94985282
   0.65257500  0.26800324  0.02326099
   0.04183407  0.67401705  0.37921687
   0.08480333  0.69630696  0.62371733
   0.36305981  0.00166358  0.68719309
   0.40378516  0.02848269  0.92575469
   0.09131944  0.64436897  0.02628225
   0.70301441  0.95986912  0.62465547
   0.77111998  0.92145483  0.38802939
   0.72747200  0.91517335  0.98437449
   0.35810944  0.69770243  0.51938785
   0.29502087  0.77759444  0.35452118
   0.00535081  0.37345770  0.28493789
   0.97397653  0.44374665  0.05666784
   0.33780984  0.72847912  0.94113915
   0.96197799  0.34556229  0.61745346
   0.92366699  0.31418685  0.38632573
   0.63210683  0.99165449  0.29163232
   0.59143337  0.96606566  0.05003261
   0.91734500  0.36502214  0.98498242
   0.94794646  0.75017808  0.68643320
   0.97268470  0.70624397  0.04811832
   0.90344542  0.74340700  0.28111602
   0.30691265  0.94217688  0.66236113
   0.33066948  0.96303786  0.02001756
   0.35678241  0.89490875  0.25573674
   0.98675632  0.61111538  0.35216581
   0.76095902  0.29575459  0.70932395
   0.68719081  0.36507490  0.01199600
   0.74654058  0.35653757  0.28193340
   0.41088667  0.97615763  0.33080726
   0.58791674  0.42036350  0.26076163
   0.62781872  0.47917679  0.25248299
   0.64430654  0.42189924  0.51764167
   0.82971866  0.17888449  0.21031627
   0.85533098  0.12358942  0.69200498
   0.83553476  0.05049087  0.57440618
   0.10942598  0.21560982  0.23313654
   0.15025740  0.16920091  0.35233233
   0.08524443  0.26165323  0.89080600
   0.12438325  0.21469437  0.03034702
   0.67802700  0.10512373  0.23642823
   0.68752993  0.14267575  0.35821950
   0.65335740  0.08391875  0.89478982
   0.66157041  0.12266614  0.03662094
   0.01519491  0.44845238  0.57521309
   0.02035271  0.48895726  0.69814858
   0.23061982  0.66080089  0.27005298
   0.18029310  0.67537280  0.38279284
   0.28506978  0.62074622  0.95029746
   0.23508876  0.63607132  0.08089226
   0.54380191  0.00567332  0.56651630
   0.49728731  0.01119554  0.68497620
   0.24298305  0.07551936  0.41786598
   0.20404270  0.12328736  0.28040020
   0.21925551  0.12263399  0.07820431
   0.17839066  0.16898349  0.95877623
   0.69478276  0.22944655  0.44163674
   0.67901536  0.19750183  0.29555052
   0.01910684  0.58254756  0.77354800
   0.01110981  0.54370370  0.63157139
   0.66049462  0.21661547  0.09793621
   0.65298849  0.17769406  0.97334559
   0.08412304  0.68088226  0.44695918
   0.13359246  0.66828661  0.31138325
   0.40403894  0.01116065  0.75040574
   0.45205436  0.00208554  0.61342779
   0.13560950  0.64812138  0.11399808
   0.18762569  0.63083152  0.00642221
   0.75511608  0.92121096  0.56383091
   0.79615077  0.87613345  0.70626077
   0.78041785  0.87577449  0.90731978
   0.82283076  0.83179849  0.03045407
   0.32393056  0.75547451  0.51167768
   0.32310919  0.79472834  0.67094955
   0.99230532  0.42591687  0.22995274
   0.99980200  0.46459103  0.37364674
   0.33439332  0.77896559  0.87397454
   0.33999455  0.81837861  0.00126982
   0.92341408  0.33136954  0.56162952
   0.87861312  0.33603861  0.70403426
   0.59131040  0.98204469  0.22631010
   0.54387647  0.99019487  0.36477581
   0.87724592  0.35319872  0.90426950
   0.83122506  0.35740094  0.02525074
   0.89496034  0.78970043  0.76316842
   0.85248270  0.83366358  0.64000016
   0.91998468  0.74437309  0.10650077
   0.87918152  0.78937110  0.96420957
   0.31677150  0.89026327  0.73815068
   0.31277456  0.85028488  0.61041935
   0.34027485  0.91211321  0.08021267
   0.33185451  0.87336067  0.93850163
   0.99586213  0.55968427  0.43018281
   0.99026335  0.51950812  0.30747950
   0.79487674  0.32030946  0.76435000
   0.83761415  0.31931098  0.63945944
   0.74367411  0.34358636  0.09234148
   0.78968074  0.34255590  0.95861453
   0.45235960  0.98629193  0.41194813
   0.49884267  0.98078347  0.29347933
   0.61823664  0.44147934  0.34643093
   0.84471390  0.08736300  0.63150948
   0.78947394  0.21727474  0.12468448
   0.13938424  0.16920842  0.50699154
   0.70160771  0.12848013  0.50890178
   0.03181508  0.47698802  0.85192460
   0.17668934  0.69298761  0.53108282
   0.49652413  0.02309548  0.83894886
   0.18931581  0.16906390  0.80417104
   0.64022496  0.19097459  0.82099778
   0.19042442  0.61401147  0.85769542
   0.81135134  0.83115053  0.18410962
   0.35045994  0.80620144  0.15516215
   0.83058958  0.37000195  0.17844998
   0.86390682  0.83432996  0.48628551
   0.30303382  0.86270221  0.45637623
   0.97869144  0.53154336  0.15380612
   0.84110144  0.30340101  0.48885669
   0.49973073  0.96881980  0.13941211
   0.70740481  0.33452413  0.49157827
   0.28203732  0.02212437  0.79323495
   0.63760286  0.33374411  0.19289282
   0.96342183  0.69020065  0.48408841
   0.35382327  0.95278530  0.45830024
   0.35174247  0.02411681  0.12836850
   0.71042160  0.97563842  0.18637096
   0.34626319  0.66317919  0.74564920
   0.73158760  0.27856422  0.02113423
   0.97961346  0.31636547  0.18688605
   0.31350490  0.70633714  0.18583476
   0.97637272  0.38483638  0.85543699
   0.64681399  0.97042217  0.85260755
   0.03202882  0.62563016  0.15018942
   0.64131220  0.03929094  0.52056663
   0.02871639  0.69366571  0.82148331
   0.30322721  0.62607801  0.57456529
   0.04506069  0.31876536  0.51899285
   0.70471294  0.43771241  0.37535216
   0.61867166  0.44281111  0.01444216
   0.79000109  0.21184290  0.69530466
Direct configuration=   100
   0.05881795  0.25828969  0.31458095
   0.03339875  0.30162201  0.94953456
   0.10246508  0.26202229  0.71661894
   0.68577060  0.05421794  0.31535648
   0.66324400  0.03301679  0.95761030
   0.63774176  0.09998053  0.71850314
   0.02461453  0.39703553  0.65364483
   0.27510053  0.66916064  0.34354192
   0.32180040  0.64035210  0.98122018
   0.28924233  0.59266881  0.79014314
   0.58537257  0.01540500  0.64806396
   0.29361653  0.03439834  0.35521523
   0.22577508  0.07578539  0.59300190
   0.27040227  0.08030706  0.99889109
   0.66687587  0.28811087  0.43885894
   0.73332274  0.20090761  0.56922780
   0.01018316  0.63310093  0.71122638
   0.03424306  0.56631881  0.94985719
   0.65257068  0.26800073  0.02327539
   0.04183577  0.67401917  0.37921044
   0.08480875  0.69630756  0.62370625
   0.36305148  0.00167121  0.68719034
   0.40378216  0.02848586  0.92575990
   0.09132448  0.64436693  0.02627447
   0.70301250  0.95986636  0.62466248
   0.77111835  0.92145490  0.38803707
   0.72747074  0.91517178  0.98438364
   0.35810567  0.69770559  0.51936258
   0.29500872  0.77759749  0.35449968
   0.00535774  0.37346098  0.28493932
   0.97398171  0.44374835  0.05667043
   0.33781183  0.72847539  0.94111737
   0.96198175  0.34556339  0.61743639
   0.92367285  0.31418766  0.38633124
   0.63211020  0.99164742  0.29164533
   0.59143366  0.96605356  0.05005315
   0.91734932  0.36502303  0.98497937
   0.94794853  0.75018266  0.68644293
   0.97268529  0.70624653  0.04811970
   0.90345037  0.74340913  0.28112624
   0.30691359  0.94217566  0.66236065
   0.33067839  0.96303316  0.02001423
   0.35679786  0.89490128  0.25571290
   0.98675788  0.61112198  0.35217414
   0.76096686  0.29574814  0.70932359
   0.68718778  0.36507898  0.01199569
   0.74653830  0.35654305  0.28193999
   0.41088369  0.97616356  0.33082644
   0.58792063  0.42036290  0.26077272
   0.62781915  0.47917401  0.25251861
   0.64430917  0.42188892  0.51766221
   0.82969940  0.17888712  0.21030479
   0.85531796  0.12359072  0.69202585
   0.83553126  0.05049844  0.57430320
   0.10942746  0.21561263  0.23313608
   0.15025500  0.16920196  0.35233120
   0.08524859  0.26165784  0.89080265
   0.12438438  0.21469697  0.03034815
   0.67802082  0.10512405  0.23643391
   0.68752219  0.14267231  0.35822982
   0.65335151  0.08391962  0.89479031
   0.66156254  0.12266906  0.03662802
   0.01519989  0.44845569  0.57521077
   0.02035747  0.48896090  0.69814810
   0.23062436  0.66079867  0.27004522
   0.18029834  0.67536929  0.38278189
   0.28507519  0.62074269  0.95029289
   0.23509105  0.63607240  0.08088789
   0.54379991  0.00567372  0.56652364
   0.49728469  0.01119916  0.68498601
   0.24297899  0.07551667  0.41787515
   0.20404094  0.12328598  0.28040919
   0.21925366  0.12263189  0.07820904
   0.17839052  0.16898245  0.95877245
   0.69477567  0.22944650  0.44163939
   0.67900990  0.19749743  0.29555114
   0.01910965  0.58255125  0.77355229
   0.01111369  0.54370793  0.63157492
   0.66048857  0.21661747  0.09793699
   0.65297841  0.17769672  0.97335586
   0.08412626  0.68088240  0.44694972
   0.13359652  0.66828534  0.31137704
   0.40403194  0.01116410  0.75041911
   0.45205141  0.00208494  0.61343562
   0.13561535  0.64811996  0.11398315
   0.18762974  0.63083284  0.00640783
   0.75511529  0.92120932  0.56384076
   0.79615056  0.87613246  0.70626785
   0.78041693  0.87577420  0.90732401
   0.82283037  0.83179917  0.03046185
   0.32391960  0.75547854  0.51166357
   0.32309771  0.79473427  0.67094380
   0.99231088  0.42592040  0.22995385
   0.99980680  0.46459516  0.37365097
   0.33438993  0.77896542  0.87395913
   0.33999756  0.81837452  0.00124821
   0.92341913  0.33136654  0.56163423
   0.87862255  0.33602957  0.70403243
   0.59131516  0.98203484  0.22631328
   0.54387823  0.99019123  0.36478901
   0.87724977  0.35319891  0.90426526
   0.83122511  0.35740450  0.02524113
   0.89496208  0.78970272  0.76317490
   0.85248302  0.83366380  0.64000789
   0.91998650  0.74437621  0.10650956
   0.87918211  0.78937346  0.96421803
   0.31676604  0.89026405  0.73814315
   0.31276137  0.85029069  0.61040618
   0.34028162  0.91210964  0.08019053
   0.33185335  0.87335846  0.93849862
   0.99586455  0.55968984  0.43018666
   0.99026575  0.51951371  0.30748309
   0.79488134  0.32030445  0.76435220
   0.83761868  0.31930631  0.63946244
   0.74367901  0.34358673  0.09233627
   0.78968690  0.34255256  0.95860107
   0.45235485  0.98629234  0.41195288
   0.49883928  0.98078423  0.29348640
   0.61823762  0.44147466  0.34644418
   0.84470253  0.08735345  0.63144662
   0.78946917  0.21727348  0.12467375
   0.13937979  0.16920903  0.50698706
   0.70160409  0.12847409  0.50889920
   0.03182057  0.47699145  0.85192108
   0.17669604  0.69297923  0.53108025
   0.49652228  0.02310277  0.83895858
   0.18931491  0.16906358  0.80416342
   0.64021479  0.19097800  0.82101595
   0.19043026  0.61401239  0.85767879
   0.81135085  0.83115271  0.18411790
   0.35046920  0.80619609  0.15513482
   0.83059217  0.37000558  0.17843738
   0.86390585  0.83433051  0.48629441
   0.30301554  0.86271092  0.45636658
   0.97869491  0.53154850  0.15380842
   0.84111004  0.30339273  0.48886436
   0.49972951  0.96881530  0.13941772
   0.70741415  0.33451298  0.49156447
   0.28203435  0.02212519  0.79323358
   0.63759770  0.33375385  0.19290235
   0.96342677  0.69020468  0.48409097
   0.35382191  0.95278098  0.45830273
   0.35174698  0.02411160  0.12838585
   0.71042113  0.97563673  0.18637247
   0.34626092  0.66317692  0.74562931
   0.73158146  0.27857003  0.02111831
   0.97961400  0.31637113  0.18688804
   0.31350702  0.70633618  0.18582321
   0.97637226  0.38484244  0.85543669
   0.64681420  0.97042006  0.85260375
   0.03203153  0.62563141  0.15019309
   0.64131023  0.03928700  0.52058025
   0.02872005  0.69366855  0.82147446
   0.30322518  0.62607344  0.57457452
   0.04506060  0.31876937  0.51898230
   0.70471032  0.43771317  0.37539941
   0.61867538  0.44281480  0.01447424
   0.78999292  0.21183556  0.69533920
Direct configuration=   101
   0.05881853  0.25829610  0.31457555
   0.03340772  0.30163229  0.94954425
   0.10247094  0.26203120  0.71661244
   0.68576409  0.05421814  0.31534719
   0.66324237  0.03301080  0.95758670
   0.63773467  0.09998023  0.71849991
   0.02462000  0.39704118  0.65364347
   0.27510472  0.66915947  0.34353898
   0.32181092  0.64034667  0.98120428
   0.28925224  0.59266434  0.79014320
   0.58537441  0.01540249  0.64808441
   0.29360912  0.03438961  0.35520652
   0.22577407  0.07577946  0.59302610
   0.27040208  0.08029866  0.99892788
   0.66687395  0.28810673  0.43889125
   0.73329992  0.20091074  0.56920457
   0.01018797  0.63310590  0.71122729
   0.03424505  0.56632414  0.94986434
   0.65256330  0.26800007  0.02330644
   0.04184019  0.67402225  0.37920306
   0.08481753  0.69630702  0.62368775
   0.36304166  0.00168199  0.68718855
   0.40377559  0.02849141  0.92576963
   0.09133140  0.64436413  0.02626719
   0.70301081  0.95986241  0.62467378
   0.77111600  0.92145520  0.38804604
   0.72747000  0.91516877  0.98439805
   0.35810078  0.69771174  0.51932933
   0.29499318  0.77759807  0.35448394
   0.00536712  0.37346499  0.28494548
   0.97398976  0.44375008  0.05667228
   0.33781785  0.72846617  0.94108297
   0.96198606  0.34556517  0.61740625
   0.92368191  0.31418963  0.38633966
   0.63211571  0.99163615  0.29166391
   0.59143341  0.96603609  0.05008155
   0.91735421  0.36502335  0.98497282
   0.94795201  0.75018904  0.68645219
   0.97268671  0.70625059  0.04812172
   0.90345800  0.74341274  0.28114092
   0.30691589  0.94217104  0.66236067
   0.33069091  0.96302736  0.02000256
   0.35682288  0.89489041  0.25567481
   0.98676094  0.61113241  0.35218898
   0.76097944  0.29573776  0.70932393
   0.68718204  0.36508529  0.01199851
   0.74653595  0.35655007  0.28193991
   0.41087469  0.97617260  0.33084411
   0.58792482  0.42035795  0.26077360
   0.62782126  0.47917035  0.25255472
   0.64431109  0.42187607  0.51768210
   0.82967204  0.17889032  0.21028319
   0.85529545  0.12358191  0.69204035
   0.83552352  0.05050050  0.57412785
   0.10943032  0.21561695  0.23314333
   0.15025172  0.16920270  0.35233253
   0.08525513  0.26166335  0.89079998
   0.12438605  0.21470130  0.03034671
   0.67801176  0.10512454  0.23644162
   0.68751103  0.14266477  0.35824726
   0.65334177  0.08392145  0.89479383
   0.66155121  0.12267221  0.03665210
   0.01520667  0.44846042  0.57521101
   0.02036453  0.48896684  0.69814749
   0.23063106  0.66079415  0.27003008
   0.18030478  0.67536561  0.38276953
   0.28508488  0.62073872  0.95028553
   0.23509730  0.63607278  0.08087366
   0.54379814  0.00567306  0.56653780
   0.49727814  0.01120373  0.68499823
   0.24297163  0.07551401  0.41789100
   0.20403799  0.12328478  0.28042652
   0.21925081  0.12263002  0.07821396
   0.17839011  0.16898028  0.95877056
   0.69477640  0.22943649  0.44167630
   0.67900085  0.19749490  0.29555598
   0.01911410  0.58255656  0.77355492
   0.01111983  0.54371333  0.63157479
   0.66048105  0.21661862  0.09794255
   0.65296339  0.17770079  0.97336979
   0.08412888  0.68088262  0.44693621
   0.13360243  0.66828393  0.31136756
   0.40401997  0.01116630  0.75042880
   0.45204714  0.00208310  0.61345595
   0.13562457  0.64811755  0.11396122
   0.18763407  0.63083459  0.00638615
   0.75511379  0.92120733  0.56385839
   0.79615018  0.87613117  0.70627576
   0.78041554  0.87577357  0.90733060
   0.82282984  0.83179971  0.03047348
   0.32390200  0.75548648  0.51162989
   0.32308201  0.79474124  0.67092638
   0.99231957  0.42592609  0.22996257
   0.99981321  0.46460165  0.37365129
   0.33438637  0.77896283  0.87393530
   0.34000223  0.81837175  0.00120484
   0.92342817  0.33136116  0.56163877
   0.87863441  0.33601674  0.70404863
   0.59132193  0.98202195  0.22632565
   0.54387994  0.99018490  0.36480118
   0.87725560  0.35320136  0.90425565
   0.83122680  0.35741096  0.02521785
   0.89496494  0.78970646  0.76318556
   0.85248329  0.83366465  0.64001736
   0.91998852  0.74438212  0.10652363
   0.87918367  0.78937737  0.96422488
   0.31675739  0.89026598  0.73812763
   0.31274300  0.85030112  0.61037178
   0.34029093  0.91210312  0.08016960
   0.33184748  0.87335343  0.93849355
   0.99586835  0.55969880  0.43019136
   0.99026963  0.51952224  0.30748499
   0.79489239  0.32029423  0.76435408
   0.83762523  0.31929876  0.63945758
   0.74368548  0.34358671  0.09233807
   0.78969199  0.34254819  0.95860459
   0.45235003  0.98629312  0.41197030
   0.49883344  0.98078607  0.29348227
   0.61824582  0.44146561  0.34649033
   0.84469008  0.08736009  0.63138258
   0.78946271  0.21727064  0.12465772
   0.13937388  0.16920852  0.50698524
   0.70159875  0.12846382  0.50890278
   0.03182969  0.47699623  0.85191456
   0.17670426  0.69296768  0.53107451
   0.49652000  0.02311422  0.83897713
   0.18931189  0.16906558  0.80415056
   0.64019858  0.19098393  0.82103739
   0.19043853  0.61401422  0.85766114
   0.81134916  0.83115694  0.18412780
   0.35048007  0.80618966  0.15510159
   0.83059610  0.37001018  0.17841651
   0.86390480  0.83433131  0.48630605
   0.30298648  0.86272475  0.45634492
   0.97870072  0.53155609  0.15380971
   0.84112195  0.30338167  0.48887752
   0.49972862  0.96880810  0.13943159
   0.70742780  0.33449931  0.49154760
   0.28203277  0.02212342  0.79322531
   0.63758971  0.33376820  0.19291876
   0.96343356  0.69021095  0.48409665
   0.35381779  0.95277634  0.45831670
   0.35175465  0.02410240  0.12840937
   0.71041961  0.97563457  0.18637341
   0.34625475  0.66317545  0.74560272
   0.73157220  0.27857959  0.02109503
   0.97961499  0.31637987  0.18689048
   0.31350979  0.70633570  0.18581110
   0.97636962  0.38485310  0.85543946
   0.64681471  0.97041792  0.85258631
   0.03203586  0.62563392  0.15019688
   0.64130740  0.03928070  0.52060553
   0.02872609  0.69367307  0.82146048
   0.30322254  0.62606614  0.57458487
   0.04506006  0.31877454  0.51895862
   0.70470761  0.43771264  0.37546686
   0.61867974  0.44282282  0.01452099
   0.78998217  0.21182274  0.69538968
Direct configuration=   102
   0.05881939  0.25830555  0.31456759
   0.03342095  0.30164745  0.94955854
   0.10247959  0.26204434  0.71660285
   0.68575448  0.05421844  0.31533348
   0.66323997  0.03300195  0.95755187
   0.63772420  0.09997979  0.71849514
   0.02462808  0.39704952  0.65364145
   0.27511090  0.66915775  0.34353464
   0.32182645  0.64033867  0.98118082
   0.28926687  0.59265774  0.79014328
   0.58537712  0.01539880  0.64811458
   0.29359819  0.03437673  0.35519368
   0.22577258  0.07577073  0.59306179
   0.27040181  0.08028628  0.99898216
   0.66687112  0.28810062  0.43893892
   0.73326626  0.20091535  0.56917030
   0.01019506  0.63311323  0.71122865
   0.03424798  0.56633199  0.94987489
   0.65255241  0.26799911  0.02335223
   0.04184671  0.67402678  0.37919217
   0.08483047  0.69630624  0.62366047
   0.36302716  0.00169790  0.68718591
   0.40376589  0.02849958  0.92578398
   0.09134160  0.64436000  0.02625646
   0.70300831  0.95985659  0.62469044
   0.77111253  0.92145564  0.38805928
   0.72746891  0.91516433  0.98441930
   0.35809357  0.69772082  0.51928028
   0.29497025  0.77759892  0.35446071
   0.00538096  0.37347091  0.28495458
   0.97400165  0.44375263  0.05667502
   0.33782674  0.72845258  0.94103223
   0.96199243  0.34556779  0.61736179
   0.92369528  0.31419253  0.38635209
   0.63212384  0.99161953  0.29169132
   0.59143303  0.96601032  0.05012344
   0.91736142  0.36502382  0.98496316
   0.94795715  0.75019845  0.68646585
   0.97268881  0.70625659  0.04812469
   0.90346927  0.74341807  0.28116257
   0.30691928  0.94216422  0.66236071
   0.33070938  0.96301879  0.01998534
   0.35685979  0.89487436  0.25561861
   0.98676545  0.61114781  0.35221087
   0.76099799  0.29572245  0.70932442
   0.68717357  0.36509460  0.01200266
   0.74653248  0.35656043  0.28193978
   0.41086140  0.97618595  0.33087019
   0.58793100  0.42035064  0.26077489
   0.62782438  0.47916495  0.25260799
   0.64431393  0.42185711  0.51771145
   0.82963169  0.17889505  0.21025132
   0.85526223  0.12356890  0.69206173
   0.83551210  0.05050354  0.57386917
   0.10943454  0.21562331  0.23315403
   0.15024689  0.16920379  0.35233450
   0.08526479  0.26167148  0.89079605
   0.12438851  0.21470769  0.03034458
   0.67799841  0.10512526  0.23645300
   0.68749457  0.14265365  0.35827299
   0.65332739  0.08392414  0.89479902
   0.66153451  0.12267685  0.03668761
   0.01521667  0.44846739  0.57521137
   0.02037494  0.48897560  0.69814658
   0.23064094  0.66078749  0.27000775
   0.18031429  0.67536019  0.38275130
   0.28509916  0.62073285  0.95027468
   0.23510651  0.63607333  0.08085267
   0.54379553  0.00567209  0.56655870
   0.49726848  0.01121048  0.68501627
   0.24296077  0.07551008  0.41791439
   0.20403365  0.12328302  0.28045209
   0.21924660  0.12262725  0.07822121
   0.17838950  0.16897709  0.95876776
   0.69477747  0.22942173  0.44173075
   0.67898750  0.19749118  0.29556311
   0.01912066  0.58256438  0.77355880
   0.01112888  0.54372129  0.63157460
   0.66046995  0.21662032  0.09795075
   0.65294124  0.17770679  0.97339034
   0.08413274  0.68088294  0.44691629
   0.13361114  0.66828186  0.31135357
   0.40400231  0.01116954  0.75044309
   0.45204083  0.00208040  0.61348595
   0.13563816  0.64811399  0.11392887
   0.18764045  0.63083718  0.00635418
   0.75511158  0.92120439  0.56388439
   0.79614962  0.87612926  0.70628742
   0.78041349  0.87577265  0.90734031
   0.82282907  0.83180051  0.03049064
   0.32387603  0.75549819  0.51158019
   0.32305885  0.79475151  0.67090068
   0.99233240  0.42593449  0.22997544
   0.99982267  0.46461122  0.37365176
   0.33438111  0.77895902  0.87390014
   0.34000914  0.81836766  0.00114087
   0.92344150  0.33135321  0.56164547
   0.87865191  0.33599783  0.70407253
   0.59133192  0.98200294  0.22634390
   0.54388246  0.99017557  0.36481915
   0.87726420  0.35320498  0.90424147
   0.83122930  0.35742049  0.02518350
   0.89496916  0.78971197  0.76320128
   0.85248368  0.83366590  0.64003134
   0.91999152  0.74439083  0.10654439
   0.87918596  0.78938314  0.96423498
   0.31674463  0.89026882  0.73810473
   0.31271591  0.85031650  0.61032104
   0.34030465  0.91209350  0.08013872
   0.33183882  0.87334600  0.93848607
   0.99587394  0.55971202  0.43019829
   0.99027535  0.51953484  0.30748780
   0.79490868  0.32027916  0.76435685
   0.83763489  0.31928762  0.63945042
   0.74369503  0.34358669  0.09234072
   0.78969950  0.34254176  0.95860979
   0.45234293  0.98629427  0.41199600
   0.49882483  0.98078878  0.29347617
   0.61825793  0.44145225  0.34655842
   0.84467173  0.08736988  0.63128811
   0.78945317  0.21726645  0.12463407
   0.13936517  0.16920777  0.50698255
   0.70159087  0.12844867  0.50890807
   0.03184315  0.47700328  0.85190493
   0.17671640  0.69295064  0.53106604
   0.49651664  0.02313110  0.83900451
   0.18930743  0.16906853  0.80413159
   0.64017467  0.19099267  0.82106902
   0.19045075  0.61401692  0.85763509
   0.81134667  0.83116317  0.18414240
   0.35049611  0.80618016  0.15505256
   0.83060190  0.37001696  0.17838573
   0.86390326  0.83433250  0.48632321
   0.30294361  0.86274517  0.45631297
   0.97870930  0.53156728  0.15381162
   0.84113951  0.30336535  0.48889693
   0.49972731  0.96879748  0.13945206
   0.70744793  0.33447913  0.49152272
   0.28203045  0.02212081  0.79321311
   0.63757793  0.33378937  0.19294297
   0.96344359  0.69022020  0.48410502
   0.35381171  0.95276950  0.45833730
   0.35176598  0.02408883  0.12844408
   0.71041738  0.97563138  0.18637480
   0.34624566  0.66317329  0.74556348
   0.73155854  0.27859368  0.02106069
   0.97961645  0.31639276  0.18689407
   0.31351389  0.70633499  0.18579322
   0.97636572  0.38486882  0.85544353
   0.64681547  0.97041477  0.85256058
   0.03204224  0.62563761  0.15020247
   0.64130321  0.03927141  0.52064284
   0.02873498  0.69367973  0.82143985
   0.30321865  0.62605538  0.57460013
   0.04505927  0.31878216  0.51892370
   0.70470359  0.43771184  0.37556635
   0.61868616  0.44283465  0.01458995
   0.78996632  0.21180384  0.69546415
Direct configuration=   103
   0.05881994  0.25831387  0.31455970
   0.03343185  0.30165987  0.94957514
   0.10248383  0.26205773  0.71659427
   0.68574641  0.05421734  0.31532210
   0.66323849  0.03299563  0.95752259
   0.63771634  0.09997943  0.71849723
   0.02463355  0.39705626  0.65364159
   0.27511797  0.66915569  0.34354073
   0.32183691  0.64033276  0.98116168
   0.28928079  0.59264969  0.79016155
   0.58537866  0.01539607  0.64814791
   0.29358883  0.03436596  0.35518471
   0.22577127  0.07576363  0.59309312
   0.27040031  0.08027689  0.99901883
   0.66686869  0.28809707  0.43898090
   0.73324773  0.20091234  0.56917215
   0.01020077  0.63311948  0.71123056
   0.03425075  0.56633868  0.94988122
   0.65254191  0.26800516  0.02339623
   0.04185183  0.67403019  0.37918212
   0.08484099  0.69630443  0.62364015
   0.36301445  0.00170929  0.68718220
   0.40375475  0.02850624  0.92579394
   0.09134904  0.64435719  0.02625000
   0.70300769  0.95985194  0.62470522
   0.77110938  0.92145614  0.38807441
   0.72746897  0.91515999  0.98443496
   0.35808696  0.69773078  0.51924712
   0.29495066  0.77759906  0.35444424
   0.00539079  0.37347614  0.28496434
   0.97401187  0.44375440  0.05667841
   0.33783690  0.72844003  0.94099020
   0.96199742  0.34557185  0.61733494
   0.92370502  0.31419364  0.38634869
   0.63213058  0.99160454  0.29170883
   0.59143460  0.96598989  0.05014930
   0.91736624  0.36502387  0.98495343
   0.94796211  0.75020565  0.68647129
   0.97269134  0.70626191  0.04812632
   0.90347750  0.74342389  0.28118276
   0.30692192  0.94215847  0.66236027
   0.33072308  0.96301178  0.01995915
   0.35689194  0.89486055  0.25557448
   0.98677013  0.61116013  0.35222986
   0.76101337  0.29570817  0.70932344
   0.68716987  0.36510063  0.01201066
   0.74653212  0.35656675  0.28192687
   0.41084578  0.97619559  0.33088233
   0.58793526  0.42034214  0.26076736
   0.62782923  0.47915999  0.25264250
   0.64431577  0.42184369  0.51773451
   0.82961911  0.17888003  0.21026050
   0.85523615  0.12356393  0.69208981
   0.83550381  0.05051219  0.57365590
   0.10943717  0.21562973  0.23316344
   0.15024358  0.16920372  0.35234430
   0.08527189  0.26167875  0.89079232
   0.12439207  0.21471178  0.03034268
   0.67798705  0.10512344  0.23645957
   0.68748128  0.14265122  0.35829032
   0.65331539  0.08392529  0.89480653
   0.66151969  0.12267907  0.03671488
   0.01522411  0.44847364  0.57521606
   0.02038348  0.48898237  0.69814296
   0.23064924  0.66078187  0.26998998
   0.18032030  0.67535682  0.38273961
   0.28511144  0.62073029  0.95027113
   0.23511724  0.63607158  0.08082330
   0.54379399  0.00566951  0.56657787
   0.49725918  0.01121523  0.68503518
   0.24295449  0.07550499  0.41793085
   0.20402913  0.12328304  0.28047010
   0.21924476  0.12262437  0.07823210
   0.17838855  0.16897479  0.95876529
   0.69476766  0.22941518  0.44173596
   0.67897661  0.19748896  0.29558283
   0.01912650  0.58257061  0.77356012
   0.01113660  0.54372745  0.63156949
   0.66046247  0.21661784  0.09797433
   0.65292393  0.17771109  0.97340879
   0.08413799  0.68088314  0.44690044
   0.13361849  0.66827980  0.31133434
   0.40399246  0.01117082  0.75044997
   0.45203547  0.00207796  0.61352009
   0.13564698  0.64811212  0.11391175
   0.18764672  0.63083862  0.00632878
   0.75511041  0.92120230  0.56389776
   0.79614872  0.87612808  0.70629609
   0.78041241  0.87577100  0.90735204
   0.82282908  0.83180084  0.03049935
   0.32385795  0.75550595  0.51154657
   0.32304063  0.79475842  0.67086193
   0.99234303  0.42594070  0.22998808
   0.99982971  0.46462006  0.37364691
   0.33437845  0.77895352  0.87386079
   0.34001534  0.81836165  0.00109966
   0.92345294  0.33134658  0.56165369
   0.87866367  0.33598374  0.70409951
   0.59133756  0.98198967  0.22637351
   0.54388175  0.99016738  0.36482644
   0.87727005  0.35320875  0.90422773
   0.83123223  0.35742891  0.02515179
   0.89497245  0.78971708  0.76321435
   0.85248393  0.83366744  0.64004187
   0.91999521  0.74439803  0.10655606
   0.87918806  0.78938840  0.96424309
   0.31673407  0.89026903  0.73808493
   0.31269587  0.85032795  0.61028030
   0.34031553  0.91208447  0.08012532
   0.33182721  0.87334529  0.93846210
   0.99587870  0.55972288  0.43020147
   0.99028076  0.51954546  0.30748792
   0.79492525  0.32026449  0.76436142
   0.83764590  0.31927831  0.63944814
   0.74369638  0.34358756  0.09235211
   0.78970332  0.34253822  0.95863265
   0.45234123  0.98629608  0.41202438
   0.49881864  0.98079168  0.29347418
   0.61827053  0.44144081  0.34661853
   0.84465281  0.08736646  0.63118785
   0.78942398  0.21728223  0.12457012
   0.13935856  0.16920581  0.50698600
   0.70158448  0.12843441  0.50892495
   0.03185546  0.47700869  0.85189807
   0.17672467  0.69293813  0.53105900
   0.49651379  0.02314491  0.83902298
   0.18930192  0.16907311  0.80412053
   0.64015331  0.19100078  0.82108576
   0.19046015  0.61401934  0.85761791
   0.81134372  0.83116908  0.18415336
   0.35050603  0.80617428  0.15501234
   0.83060639  0.37002219  0.17835751
   0.86390256  0.83433353  0.48633357
   0.30290611  0.86276332  0.45627482
   0.97871695  0.53157654  0.15381036
   0.84115310  0.30335252  0.48890660
   0.49972695  0.96878821  0.13946916
   0.70746422  0.33446475  0.49150686
   0.28203174  0.02211549  0.79320324
   0.63756968  0.33380274  0.19296780
   0.96345074  0.69022840  0.48411589
   0.35380519  0.95276584  0.45836021
   0.35177457  0.02407761  0.12846832
   0.71041466  0.97562951  0.18637475
   0.34623646  0.66317443  0.74552842
   0.73155023  0.27860390  0.02104132
   0.97961877  0.31640363  0.18689558
   0.31351719  0.70633423  0.18578275
   0.97636164  0.38488235  0.85544758
   0.64681556  0.97041227  0.85253332
   0.03204760  0.62564194  0.15020395
   0.64130031  0.03926391  0.52067425
   0.02874280  0.69368549  0.82142535
   0.30321577  0.62604793  0.57459601
   0.04505943  0.31878722  0.51889031
   0.70470189  0.43770941  0.37564435
   0.61868992  0.44284720  0.01464505
   0.78995367  0.21178729  0.69552504
Direct configuration=   104
   0.05882042  0.25832119  0.31455277
   0.03344143  0.30167078  0.94958974
   0.10248755  0.26206950  0.71658672
   0.68573932  0.05421637  0.31531210
   0.66323719  0.03299008  0.95749686
   0.63770943  0.09997912  0.71849908
   0.02463835  0.39706219  0.65364171
   0.27512418  0.66915388  0.34354608
   0.32184610  0.64032757  0.98114485
   0.28929303  0.59264261  0.79017761
   0.58538001  0.01539367  0.64817721
   0.29358060  0.03435650  0.35517683
   0.22577012  0.07575740  0.59312065
   0.27039900  0.08026864  0.99905106
   0.66686656  0.28809394  0.43901779
   0.73323144  0.20090969  0.56917378
   0.01020579  0.63312497  0.71123224
   0.03425318  0.56634455  0.94988679
   0.65253269  0.26801048  0.02343489
   0.04185633  0.67403319  0.37917328
   0.08485024  0.69630285  0.62362229
   0.36300327  0.00171929  0.68717894
   0.40374496  0.02851209  0.92580270
   0.09135557  0.64435473  0.02624432
   0.70300715  0.95984785  0.62471820
   0.77110661  0.92145659  0.38808770
   0.72746902  0.91515618  0.98444872
   0.35808115  0.69773953  0.51921798
   0.29493344  0.77759918  0.35442976
   0.00539942  0.37348074  0.28497292
   0.97402086  0.44375595  0.05668139
   0.33784582  0.72842900  0.94095326
   0.96200180  0.34557541  0.61731134
   0.92371358  0.31419463  0.38634570
   0.63213651  0.99159137  0.29172421
   0.59143598  0.96597193  0.05017203
   0.91737048  0.36502392  0.98494488
   0.94796647  0.75021198  0.68647608
   0.97269356  0.70626658  0.04812776
   0.90348473  0.74342900  0.28120050
   0.30692423  0.94215343  0.66235988
   0.33073512  0.96300563  0.01993613
   0.35692019  0.89484841  0.25553569
   0.98677423  0.61117096  0.35224655
   0.76102688  0.29569562  0.70932257
   0.68716661  0.36510592  0.01201768
   0.74653181  0.35657230  0.28191551
   0.41083206  0.97620407  0.33089301
   0.58793900  0.42033466  0.26076075
   0.62783348  0.47915563  0.25267283
   0.64431740  0.42183191  0.51775477
   0.82960806  0.17886683  0.21026857
   0.85521323  0.12355955  0.69211449
   0.83549653  0.05051979  0.57346849
   0.10943949  0.21563537  0.23317170
   0.15024068  0.16920366  0.35235291
   0.08527814  0.26168514  0.89078904
   0.12439521  0.21471537  0.03034101
   0.67797706  0.10512183  0.23646535
   0.68746960  0.14264908  0.35830556
   0.65330484  0.08392630  0.89481312
   0.66150667  0.12268102  0.03673885
   0.01523065  0.44847914  0.57522018
   0.02039099  0.48898832  0.69813979
   0.23065654  0.66077694  0.26997436
   0.18032558  0.67535385  0.38272934
   0.28512223  0.62072804  0.95026801
   0.23512667  0.63607004  0.08079749
   0.54379265  0.00566724  0.56659471
   0.49725101  0.01121941  0.68505180
   0.24294898  0.07550051  0.41794531
   0.20402517  0.12328306  0.28048592
   0.21924314  0.12262184  0.07824167
   0.17838771  0.16897276  0.95876312
   0.69475904  0.22940943  0.44174053
   0.67896703  0.19748701  0.29560015
   0.01913163  0.58257610  0.77356128
   0.01114338  0.54373286  0.63156500
   0.66045590  0.21661566  0.09799505
   0.65290873  0.17771486  0.97342500
   0.08414260  0.68088331  0.44688651
   0.13362494  0.66827799  0.31131744
   0.40398380  0.01117194  0.75045601
   0.45203077  0.00207581  0.61355009
   0.13565472  0.64811048  0.11389672
   0.18765222  0.63083988  0.00630646
   0.75510938  0.92120046  0.56390950
   0.79614793  0.87612705  0.70630371
   0.78041147  0.87576956  0.90736235
   0.82282908  0.83180114  0.03050701
   0.32384206  0.75551278  0.51151702
   0.32302463  0.79476450  0.67082787
   0.99235238  0.42594615  0.22999919
   0.99983591  0.46462783  0.37364265
   0.33437611  0.77894869  0.87382620
   0.34002079  0.81835636  0.00106344
   0.92346299  0.33134074  0.56166091
   0.87867401  0.33597137  0.70412322
   0.59134252  0.98197801  0.22639954
   0.54388113  0.99016018  0.36483285
   0.87727519  0.35321206  0.90421567
   0.83123480  0.35743630  0.02512392
   0.89497534  0.78972157  0.76322583
   0.85248415  0.83366879  0.64005111
   0.91999845  0.74440436  0.10656632
   0.87918990  0.78939303  0.96425022
   0.31672479  0.89026920  0.73806752
   0.31267825  0.85033801  0.61024450
   0.34032508  0.91207654  0.08011354
   0.33181700  0.87334467  0.93844103
   0.99588288  0.55973243  0.43020427
   0.99028551  0.51955479  0.30748803
   0.79493981  0.32025161  0.76436543
   0.83765557  0.31927014  0.63944614
   0.74369757  0.34358833  0.09236212
   0.78970667  0.34253511  0.95865274
   0.45233975  0.98629767  0.41204931
   0.49881319  0.98079424  0.29347243
   0.61828161  0.44143076  0.34667136
   0.84463618  0.08736344  0.63109975
   0.78939834  0.21729609  0.12451393
   0.13935274  0.16920409  0.50698903
   0.70157886  0.12842189  0.50893978
   0.03186627  0.47701344  0.85189204
   0.17673194  0.69292715  0.53105281
   0.49651128  0.02315704  0.83903921
   0.18929709  0.16907713  0.80411082
   0.64013454  0.19100791  0.82110047
   0.19046841  0.61402147  0.85760282
   0.81134113  0.83117428  0.18416299
   0.35051476  0.80616912  0.15497700
   0.83061033  0.37002679  0.17833271
   0.86390195  0.83433444  0.48634268
   0.30287317  0.86277928  0.45624129
   0.97872368  0.53158468  0.15380925
   0.84116503  0.30334124  0.48891511
   0.49972663  0.96878005  0.13948419
   0.70747853  0.33445211  0.49149291
   0.28203287  0.02211081  0.79319456
   0.63756244  0.33381448  0.19298962
   0.96345701  0.69023562  0.48412544
   0.35379946  0.95276263  0.45838035
   0.35178211  0.02406775  0.12848963
   0.71041227  0.97562787  0.18637470
   0.34622838  0.66317543  0.74549762
   0.73154292  0.27861288  0.02102430
   0.97962080  0.31641318  0.18689690
   0.31352010  0.70633356  0.18577354
   0.97635806  0.38489423  0.85545113
   0.64681564  0.97041007  0.85250937
   0.03205231  0.62564574  0.15020525
   0.64129776  0.03925733  0.52070186
   0.02874967  0.69369055  0.82141260
   0.30321323  0.62604138  0.57459239
   0.04505958  0.31879166  0.51886096
   0.70470039  0.43770727  0.37571289
   0.61869322  0.44285822  0.01469346
   0.78994255  0.21177276  0.69557855
Direct configuration=   105
   0.05882146  0.25832824  0.31454527
   0.03345086  0.30168141  0.94960718
   0.10248791  0.26208312  0.71658325
   0.68573206  0.05421154  0.31530751
   0.66323654  0.03298646  0.95747704
   0.63770312  0.09997960  0.71850998
   0.02464124  0.39706831  0.65364395
   0.27513156  0.66915054  0.34355791
   0.32185440  0.64032508  0.98113535
   0.28930710  0.59263096  0.79020448
   0.58537702  0.01539145  0.64820783
   0.29356982  0.03434851  0.35517547
   0.22576874  0.07575237  0.59313974
   0.27039564  0.08026200  0.99907025
   0.66686364  0.28809295  0.43904714
   0.73323093  0.20089509  0.56922441
   0.01021081  0.63313055  0.71123611
   0.03425583  0.56635084  0.94988702
   0.65252214  0.26802089  0.02348162
   0.04185935  0.67403586  0.37916216
   0.08485884  0.69630033  0.62361044
   0.36299107  0.00172640  0.68717162
   0.40373209  0.02851667  0.92580348
   0.09136093  0.64435338  0.02623950
   0.70300780  0.95984441  0.62473195
   0.77110388  0.92145717  0.38810332
   0.72746927  0.91515218  0.98445903
   0.35807513  0.69774911  0.51919978
   0.29491292  0.77760183  0.35440501
   0.00540572  0.37348693  0.28498216
   0.97403026  0.44375755  0.05668921
   0.33785702  0.72841886  0.94091720
   0.96200609  0.34558188  0.61730948
   0.92371952  0.31419362  0.38632933
   0.63214163  0.99157722  0.29173495
   0.59144127  0.96595666  0.05019266
   0.91737478  0.36502454  0.98493580
   0.94797106  0.75021828  0.68647665
   0.97269681  0.70627181  0.04812724
   0.90349031  0.74343635  0.28121709
   0.30692500  0.94215079  0.66235689
   0.33074512  0.96299694  0.01990239
   0.35694923  0.89483469  0.25550667
   0.98677932  0.61118067  0.35226135
   0.76104008  0.29568194  0.70931936
   0.68716882  0.36510866  0.01202872
   0.74653437  0.35657521  0.28190078
   0.41081920  0.97621029  0.33090430
   0.58794531  0.42032835  0.26076044
   0.62784072  0.47914844  0.25270527
   0.64432073  0.42182185  0.51778770
   0.82958303  0.17886836  0.21023545
   0.85519061  0.12355478  0.69213985
   0.83548819  0.05052410  0.57326893
   0.10944088  0.21564143  0.23317479
   0.15023740  0.16920440  0.35236944
   0.08528229  0.26169387  0.89078397
   0.12439999  0.21471728  0.03034341
   0.67796676  0.10511910  0.23647125
   0.68745950  0.14265432  0.35832100
   0.65329519  0.08392576  0.89482179
   0.66149150  0.12268161  0.03674525
   0.01523579  0.44848532  0.57522343
   0.02039858  0.48899289  0.69813446
   0.23066386  0.66077312  0.26996431
   0.18033066  0.67535064  0.38271523
   0.28513159  0.62072714  0.95027129
   0.23513658  0.63606737  0.08077028
   0.54379026  0.00566287  0.56661199
   0.49724566  0.01122259  0.68507720
   0.24294767  0.07549295  0.41795639
   0.20402143  0.12328332  0.28049547
   0.21924357  0.12261821  0.07825753
   0.17838725  0.16897113  0.95876017
   0.69473547  0.22941595  0.44170090
   0.67895720  0.19748445  0.29562861
   0.01913718  0.58258104  0.77356169
   0.01115028  0.54373843  0.63155820
   0.66044943  0.21661288  0.09802974
   0.65289544  0.17771779  0.97344304
   0.08415174  0.68088308  0.44687133
   0.13363094  0.66827592  0.31129407
   0.40398131  0.01117351  0.75046677
   0.45202670  0.00207374  0.61358121
   0.13565910  0.64811019  0.11389141
   0.18766047  0.63084046  0.00629057
   0.75510970  0.92119843  0.56391086
   0.79614678  0.87612629  0.70631245
   0.78041163  0.87576708  0.90737379
   0.82282998  0.83180123  0.03050974
   0.32383233  0.75551585  0.51150722
   0.32301004  0.79476985  0.67077971
   0.99236085  0.42595006  0.23000420
   0.99984173  0.46463637  0.37364028
   0.33437602  0.77894309  0.87377779
   0.34002493  0.81834613  0.00104184
   0.92347156  0.33133543  0.56166770
   0.87868413  0.33596154  0.70413243
   0.59134345  0.98196748  0.22642449
   0.54387872  0.99015433  0.36484407
   0.87727757  0.35321459  0.90420516
   0.83123497  0.35744362  0.02510580
   0.89497813  0.78972633  0.76323420
   0.85248438  0.83367071  0.64005953
   0.92000394  0.74440957  0.10657140
   0.87919225  0.78939755  0.96426130
   0.31671563  0.89026680  0.73804866
   0.31266331  0.85034297  0.61021493
   0.34033315  0.91207024  0.08009976
   0.33180466  0.87335094  0.93840672
   0.99588723  0.55974100  0.43020347
   0.99029112  0.51956387  0.30748519
   0.79495405  0.32023815  0.76438420
   0.83766932  0.31926136  0.63945779
   0.74369065  0.34359096  0.09237368
   0.78971089  0.34253332  0.95866974
   0.45233859  0.98629985  0.41206978
   0.49880850  0.98079651  0.29348703
   0.61828735  0.44142234  0.34668753
   0.84461996  0.08736438  0.63101364
   0.78939048  0.21729151  0.12449850
   0.13934750  0.16920106  0.50699975
   0.70157259  0.12840894  0.50896262
   0.03187815  0.47701777  0.85188788
   0.17673709  0.69291889  0.53104992
   0.49650805  0.02316811  0.83904477
   0.18929064  0.16908273  0.80411063
   0.64011464  0.19101543  0.82110785
   0.19047542  0.61402325  0.85758746
   0.81133808  0.83117975  0.18417026
   0.35051992  0.80616594  0.15494159
   0.83061377  0.37003153  0.17830542
   0.86390204  0.83433544  0.48634672
   0.30283922  0.86279613  0.45619956
   0.97873081  0.53159283  0.15380462
   0.84117599  0.30333057  0.48891248
   0.49972667  0.96877179  0.13949490
   0.70749274  0.33444062  0.49148594
   0.28203689  0.02210334  0.79319311
   0.63755826  0.33381851  0.19301876
   0.96346152  0.69024342  0.48413953
   0.35379314  0.95276172  0.45840228
   0.35178658  0.02405956  0.12850236
   0.71040906  0.97562713  0.18637268
   0.34621970  0.66318006  0.74545858
   0.73153544  0.27862274  0.02101320
   0.97962442  0.31642241  0.18689589
   0.31352323  0.70633187  0.18576788
   0.97635506  0.38490504  0.85545336
   0.64681457  0.97040689  0.85248809
   0.03205672  0.62565109  0.15020205
   0.64129628  0.03925152  0.52072472
   0.02875653  0.69369560  0.82140570
   0.30321106  0.62603649  0.57456681
   0.04506179  0.31879446  0.51883275
   0.70470130  0.43770324  0.37577365
   0.61869452  0.44287172  0.01473844
   0.78993217  0.21175742  0.69562930
Direct configuration=   106
   0.05882250  0.25833536  0.31453769
   0.03346039  0.30169215  0.94962480
   0.10248826  0.26209690  0.71657973
   0.68572473  0.05420666  0.31530287
   0.66323588  0.03298280  0.95745700
   0.63769673  0.09998009  0.71852101
   0.02464415  0.39707450  0.65364621
   0.27513902  0.66914717  0.34356987
   0.32186279  0.64032256  0.98112574
   0.28932131  0.59261920  0.79023164
   0.58537399  0.01538922  0.64823877
   0.29355893  0.03434043  0.35517409
   0.22576735  0.07574729  0.59315903
   0.27039224  0.08025528  0.99908965
   0.66686070  0.28809195  0.43907680
   0.73323040  0.20088034  0.56927557
   0.01021589  0.63313620  0.71124001
   0.03425851  0.56635720  0.94988725
   0.65251148  0.26803141  0.02352885
   0.04186239  0.67403855  0.37915092
   0.08486754  0.69629779  0.62359846
   0.36297874  0.00173359  0.68716422
   0.40371908  0.02852131  0.92580427
   0.09136634  0.64435202  0.02623464
   0.70300845  0.95984094  0.62474584
   0.77110111  0.92145776  0.38811911
   0.72746952  0.91514813  0.98446945
   0.35806904  0.69775879  0.51918139
   0.29489218  0.77760450  0.35438000
   0.00541208  0.37349318  0.28499151
   0.97403977  0.44375917  0.05669710
   0.33786833  0.72840862  0.94088077
   0.96201043  0.34558843  0.61730760
   0.92372553  0.31419261  0.38631279
   0.63214682  0.99156293  0.29174581
   0.59144662  0.96594123  0.05021351
   0.91737914  0.36502517  0.98492662
   0.94797570  0.75022465  0.68647722
   0.97270009  0.70627709  0.04812672
   0.90349594  0.74344377  0.28123386
   0.30692578  0.94214813  0.66235386
   0.33075522  0.96298817  0.01986828
   0.35697859  0.89482083  0.25547734
   0.98678445  0.61119048  0.35227630
   0.76105341  0.29566812  0.70931611
   0.68717104  0.36511142  0.01203987
   0.74653695  0.35657815  0.28188589
   0.41080621  0.97621658  0.33091571
   0.58795169  0.42032196  0.26076012
   0.62784803  0.47914118  0.25273807
   0.64432410  0.42181169  0.51782098
   0.82955774  0.17886990  0.21020197
   0.85516774  0.12354997  0.69216548
   0.83547976  0.05052846  0.57306725
   0.10944228  0.21564755  0.23317790
   0.15023409  0.16920515  0.35238615
   0.08528648  0.26170268  0.89077885
   0.12440482  0.21471920  0.03034585
   0.67795634  0.10511634  0.23647721
   0.68744930  0.14265962  0.35833661
   0.65328544  0.08392520  0.89483055
   0.66147617  0.12268222  0.03675173
   0.01524099  0.44849157  0.57522670
   0.02040625  0.48899751  0.69812908
   0.23067125  0.66076925  0.26995416
   0.18033580  0.67534740  0.38270098
   0.28514104  0.62072623  0.95027460
   0.23514659  0.63606468  0.08074277
   0.54378785  0.00565844  0.56662946
   0.49724025  0.01122581  0.68510286
   0.24294635  0.07548531  0.41796759
   0.20401765  0.12328359  0.28050512
   0.21924401  0.12261454  0.07827355
   0.17838679  0.16896948  0.95875719
   0.69471166  0.22942254  0.44166084
   0.67894727  0.19748187  0.29565737
   0.01914280  0.58258604  0.77356210
   0.01115725  0.54374407  0.63155133
   0.66044288  0.21661007  0.09806479
   0.65288201  0.17772074  0.97346127
   0.08416097  0.68088285  0.44685598
   0.13363699  0.66827383  0.31127044
   0.40397880  0.01117509  0.75047764
   0.45202259  0.00207164  0.61361267
   0.13566352  0.64810990  0.11388605
   0.18766881  0.63084104  0.00627452
   0.75511003  0.92119638  0.56391223
   0.79614561  0.87612552  0.70632128
   0.78041179  0.87576457  0.90738535
   0.82283089  0.83180133  0.03051249
   0.32382248  0.75551895  0.51149731
   0.32299531  0.79477526  0.67073104
   0.99236941  0.42595401  0.23000927
   0.99984762  0.46464499  0.37363788
   0.33437593  0.77893743  0.87372886
   0.34002912  0.81833579  0.00102002
   0.92348022  0.33133007  0.56167456
   0.87869435  0.33595161  0.70414174
   0.59134440  0.98195683  0.22644971
   0.54387628  0.99014842  0.36485540
   0.87727997  0.35321715  0.90419454
   0.83123514  0.35745102  0.02508749
   0.89498095  0.78973114  0.76324266
   0.85248460  0.83367266  0.64006804
   0.92000949  0.74441483  0.10657655
   0.87919463  0.78940213  0.96427250
   0.31670637  0.89026436  0.73802959
   0.31264821  0.85034799  0.61018505
   0.34034130  0.91206388  0.08008583
   0.33179219  0.87335727  0.93837205
   0.99589162  0.55974966  0.43020267
   0.99029679  0.51957305  0.30748231
   0.79496844  0.32022454  0.76440316
   0.83768323  0.31925248  0.63946956
   0.74368366  0.34359361  0.09238536
   0.78971515  0.34253151  0.95868692
   0.45233742  0.98630205  0.41209048
   0.49880375  0.98079882  0.29350179
   0.61829315  0.44141383  0.34670388
   0.84460357  0.08736532  0.63092662
   0.78938254  0.21728688  0.12448291
   0.13934220  0.16919799  0.50701059
   0.70156625  0.12839586  0.50898570
   0.03189015  0.47702215  0.85188366
   0.17674229  0.69291054  0.53104699
   0.49650478  0.02317930  0.83905039
   0.18928412  0.16908838  0.80411045
   0.64009453  0.19102304  0.82111532
   0.19048251  0.61402506  0.85757194
   0.81133500  0.83118529  0.18417761
   0.35052513  0.80616272  0.15490581
   0.83061725  0.37003632  0.17827785
   0.86390213  0.83433646  0.48635080
   0.30280492  0.86281317  0.45615738
   0.97873801  0.53160106  0.15379995
   0.84118707  0.30331979  0.48890983
   0.49972671  0.96876343  0.13950572
   0.70750710  0.33442901  0.49147889
   0.28204094  0.02209578  0.79319165
   0.63755404  0.33382258  0.19304821
   0.96346608  0.69025131  0.48415378
   0.35378676  0.95276080  0.45842445
   0.35179110  0.02405129  0.12851522
   0.71040582  0.97562639  0.18637063
   0.34621093  0.66318473  0.74541913
   0.73152788  0.27863271  0.02100199
   0.97962807  0.31643173  0.18689487
   0.31352640  0.70633016  0.18576217
   0.97635203  0.38491596  0.85545562
   0.64681350  0.97040367  0.85246660
   0.03206117  0.62565649  0.15019880
   0.64129479  0.03924564  0.52074781
   0.02876347  0.69370070  0.82139874
   0.30320886  0.62603155  0.57454096
   0.04506402  0.31879729  0.51880423
   0.70470223  0.43769916  0.37583505
   0.61869582  0.44288536  0.01478390
   0.78992169  0.21174193  0.69568060
Direct configuration=   107
   0.05882390  0.25834080  0.31453119
   0.03346664  0.30170165  0.94964146
   0.10248593  0.26210887  0.71658020
   0.68571829  0.05420058  0.31530738
   0.66323644  0.03297957  0.95745528
   0.63769110  0.09998207  0.71853301
   0.02464415  0.39708031  0.65364866
   0.27514480  0.66914283  0.34357714
   0.32186955  0.64032513  0.98112929
   0.28933562  0.59260496  0.79025115
   0.58536507  0.01538749  0.64825705
   0.29355129  0.03433198  0.35517498
   0.22576622  0.07574487  0.59315932
   0.27038838  0.08025082  0.99909091
   0.66685629  0.28809294  0.43908246
   0.73321806  0.20087604  0.56927198
   0.01022011  0.63314092  0.71124572
   0.03426132  0.56636228  0.94988381
   0.65250148  0.26803661  0.02358440
   0.04186643  0.67404108  0.37914327
   0.08487476  0.69629464  0.62359306
   0.36297435  0.00173669  0.68715845
   0.40370709  0.02852409  0.92580365
   0.09137046  0.64435221  0.02623028
   0.70300982  0.95983935  0.62475649
   0.77110034  0.92145834  0.38811969
   0.72746913  0.91514526  0.98447451
   0.35806616  0.69776371  0.51917843
   0.29487559  0.77760679  0.35436581
   0.00541472  0.37349896  0.28500002
   0.97404713  0.44376150  0.05670273
   0.33787923  0.72840236  0.94084806
   0.96201085  0.34559517  0.61732582
   0.92372793  0.31419107  0.38630559
   0.63214834  0.99155103  0.29175562
   0.59145468  0.96593272  0.05023342
   0.91738217  0.36502662  0.98491867
   0.94797856  0.75023115  0.68647663
   0.97270454  0.70628175  0.04812305
   0.90349964  0.74345220  0.28123729
   0.30692349  0.94214788  0.66234512
   0.33076122  0.96297891  0.01983615
   0.35700102  0.89480859  0.25545765
   0.98678954  0.61119669  0.35228300
   0.76106508  0.29565686  0.70931281
   0.68717444  0.36511429  0.01204724
   0.74654103  0.35657816  0.28188978
   0.41080355  0.97621944  0.33093621
   0.58795924  0.42031946  0.26077011
   0.62785718  0.47913245  0.25276900
   0.64432769  0.42180612  0.51785067
   0.82954167  0.17886830  0.21017069
   0.85514963  0.12354293  0.69218448
   0.83547271  0.05053205  0.57289464
   0.10944445  0.21564994  0.23317905
   0.15023037  0.16920830  0.35239760
   0.08528869  0.26171137  0.89078071
   0.12440844  0.21472112  0.03034854
   0.67794786  0.10511775  0.23648790
   0.68744470  0.14265619  0.35836140
   0.65327871  0.08392446  0.89483532
   0.66146239  0.12268263  0.03674631
   0.01524350  0.44849679  0.57522305
   0.02041287  0.48900073  0.69812672
   0.23067675  0.66076770  0.26995257
   0.18034271  0.67534389  0.38268354
   0.28514809  0.62072412  0.95027490
   0.23515226  0.63606425  0.08074229
   0.54378416  0.00565329  0.56664668
   0.49724004  0.01122580  0.68512191
   0.24294356  0.07548091  0.41797666
   0.20401623  0.12328199  0.28051463
   0.21924375  0.12261287  0.07828348
   0.17838834  0.16896736  0.95876484
   0.69470973  0.22942076  0.44170930
   0.67893644  0.19748494  0.29567594
   0.01914747  0.58258989  0.77355846
   0.01116317  0.54374825  0.63154725
   0.66043385  0.21661418  0.09808417
   0.65287264  0.17772359  0.97347103
   0.08416905  0.68088187  0.44684119
   0.13364082  0.66827278  0.31125500
   0.40397455  0.01117613  0.75048163
   0.45202272  0.00207037  0.61362877
   0.13566701  0.64810939  0.11387622
   0.18767550  0.63084115  0.00627118
   0.75511056  0.92119427  0.56391780
   0.79614519  0.87612457  0.70632869
   0.78041237  0.87576264  0.90738819
   0.82283240  0.83180116  0.03051911
   0.32381451  0.75552259  0.51147780
   0.32298666  0.79477743  0.67069577
   0.99237513  0.42595746  0.23000943
   0.99985242  0.46465168  0.37364155
   0.33437901  0.77893372  0.87368717
   0.34002678  0.81833147  0.00098552
   0.92348720  0.33132696  0.56166481
   0.87870531  0.33594752  0.70412626
   0.59134320  0.98194793  0.22645405
   0.54387481  0.99014641  0.36488232
   0.87728007  0.35321772  0.90419269
   0.83123222  0.35745607  0.02508701
   0.89498371  0.78973458  0.76324621
   0.85248483  0.83367501  0.64007191
   0.92001477  0.74441857  0.10658442
   0.87919862  0.78940463  0.96428194
   0.31669831  0.89026394  0.73800795
   0.31263605  0.85034852  0.61014774
   0.34034671  0.91205979  0.08006461
   0.33178520  0.87335757  0.93836061
   0.99589582  0.55975579  0.43020008
   0.99030237  0.51957904  0.30747484
   0.79497857  0.32021409  0.76443298
   0.83769532  0.31924157  0.63948583
   0.74367726  0.34359678  0.09238197
   0.78971805  0.34253000  0.95868273
   0.45232960  0.98630395  0.41209952
   0.49879982  0.98079790  0.29352044
   0.61829306  0.44140806  0.34668873
   0.84458983  0.08736891  0.63085430
   0.78937461  0.21728318  0.12447220
   0.13933829  0.16919430  0.50702900
   0.70155880  0.12838778  0.50899981
   0.03190082  0.47702544  0.85188018
   0.17674428  0.69290675  0.53104560
   0.49650092  0.02318747  0.83905029
   0.18927807  0.16909374  0.80411789
   0.64007809  0.19102890  0.82112493
   0.19048675  0.61402602  0.85755787
   0.81133279  0.83118952  0.18417766
   0.35052655  0.80616042  0.15488711
   0.83061921  0.37004159  0.17825973
   0.86390272  0.83433752  0.48635083
   0.30277765  0.86282645  0.45613165
   0.97874429  0.53160777  0.15379242
   0.84119508  0.30331278  0.48890654
   0.49972665  0.96875771  0.13951804
   0.70751900  0.33442101  0.49148291
   0.28204581  0.02208800  0.79320121
   0.63755388  0.33381686  0.19308041
   0.96346758  0.69025857  0.48416940
   0.35378232  0.95276185  0.45844005
   0.35178899  0.02404720  0.12851485
   0.71040249  0.97562608  0.18636545
   0.34620423  0.66319179  0.74537990
   0.73152381  0.27863783  0.02100408
   0.97963254  0.31643904  0.18689103
   0.31352937  0.70632797  0.18575901
   0.97635121  0.38492280  0.85545531
   0.64681162  0.97039895  0.85246057
   0.03206410  0.62566245  0.15019163
   0.64129485  0.03924156  0.52075900
   0.02876845  0.69370493  0.82140109
   0.30320805  0.62602719  0.57451074
   0.04506836  0.31879848  0.51878829
   0.70470601  0.43769354  0.37587651
   0.61869487  0.44289864  0.01481333
   0.78991374  0.21172881  0.69571673
Direct configuration=   108
   0.05882650  0.25835094  0.31451906
   0.03347831  0.30171936  0.94967253
   0.10248157  0.26213120  0.71658108
   0.68570627  0.05418923  0.31531577
   0.66323749  0.03297355  0.95745207
   0.63768058  0.09998576  0.71855539
   0.02464413  0.39709115  0.65365322
   0.27515558  0.66913474  0.34359069
   0.32188216  0.64032994  0.98113592
   0.28936230  0.59257842  0.79028754
   0.58534845  0.01538428  0.64829115
   0.29353705  0.03431621  0.35517662
   0.22576409  0.07574036  0.59315987
   0.27038119  0.08024251  0.99909325
   0.66684807  0.28809478  0.43909300
   0.73319505  0.20086801  0.56926529
   0.01022800  0.63314973  0.71125637
   0.03426655  0.56637175  0.94987739
   0.65248284  0.26804632  0.02368800
   0.04187397  0.67404579  0.37912898
   0.08488823  0.69628876  0.62358300
   0.36296616  0.00174247  0.68714771
   0.40368475  0.02852928  0.92580248
   0.09137814  0.64435256  0.02622215
   0.70301236  0.95983639  0.62477635
   0.77109891  0.92145943  0.38812078
   0.72746840  0.91513989  0.98448394
   0.35806080  0.69777288  0.51917291
   0.29484465  0.77761106  0.35433935
   0.00541965  0.37350975  0.28501590
   0.97406085  0.44376585  0.05671323
   0.33789955  0.72839070  0.94078706
   0.96201164  0.34560774  0.61735978
   0.92373242  0.31418820  0.38629216
   0.63215119  0.99152882  0.29177391
   0.59146973  0.96591683  0.05027055
   0.91738784  0.36502934  0.98490382
   0.94798389  0.75024328  0.68647552
   0.97271284  0.70629044  0.04811621
   0.90350653  0.74346792  0.28124369
   0.30691922  0.94214740  0.66232881
   0.33077239  0.96296164  0.01977622
   0.35704287  0.89478576  0.25542092
   0.98679904  0.61120825  0.35229549
   0.76108685  0.29563587  0.70930664
   0.68718078  0.36511964  0.01206100
   0.74654865  0.35657818  0.28189704
   0.41079859  0.97622479  0.33097445
   0.58797331  0.42031481  0.26078874
   0.62787426  0.47911617  0.25282669
   0.64433437  0.42179574  0.51790603
   0.82951169  0.17886533  0.21011235
   0.85511584  0.12352980  0.69221992
   0.83545955  0.05053875  0.57257272
   0.10944849  0.21565440  0.23318120
   0.15022343  0.16921418  0.35241897
   0.08529280  0.26172757  0.89078416
   0.12441518  0.21472470  0.03035358
   0.67793204  0.10512038  0.23650784
   0.68743613  0.14264978  0.35840763
   0.65326617  0.08392308  0.89484423
   0.66143669  0.12268341  0.03673619
   0.01524817  0.44850653  0.57521625
   0.02042522  0.48900675  0.69812232
   0.23068699  0.66076480  0.26994960
   0.18035559  0.67533735  0.38265103
   0.28516123  0.62072019  0.95027547
   0.23516283  0.63606345  0.08074140
   0.54377727  0.00564370  0.56667880
   0.49723966  0.01122578  0.68515744
   0.24293836  0.07547271  0.41799357
   0.20401357  0.12327901  0.28053236
   0.21924326  0.12260975  0.07830199
   0.17839124  0.16896340  0.95877913
   0.69470615  0.22941743  0.44179969
   0.67891625  0.19749067  0.29571056
   0.01915617  0.58259708  0.77355167
   0.01117422  0.54375606  0.63153964
   0.66041700  0.21662186  0.09812032
   0.65285517  0.17772891  0.97348922
   0.08418412  0.68088004  0.44681362
   0.13364797  0.66827082  0.31122619
   0.40396662  0.01117808  0.75048906
   0.45202295  0.00206799  0.61365881
   0.13567353  0.64810843  0.11385787
   0.18768797  0.63084135  0.00626494
   0.75511155  0.92119033  0.56392819
   0.79614440  0.87612279  0.70634250
   0.78041345  0.87575902  0.90739349
   0.82283523  0.83180085  0.03053146
   0.32379965  0.75552937  0.51144141
   0.32297052  0.79478148  0.67062999
   0.99238580  0.42596389  0.23000974
   0.99986136  0.46466416  0.37364838
   0.33438477  0.77892682  0.87360942
   0.34002242  0.81832340  0.00092117
   0.92350020  0.33132117  0.56164664
   0.87872574  0.33593990  0.70409740
   0.59134097  0.98193131  0.22646214
   0.54387206  0.99014268  0.36493251
   0.87728025  0.35321878  0.90418923
   0.83122677  0.35746551  0.02508611
   0.89498886  0.78974101  0.76325283
   0.85248524  0.83367939  0.64007913
   0.92002462  0.74442553  0.10659911
   0.87920606  0.78940929  0.96429955
   0.31668327  0.89026316  0.73796760
   0.31261337  0.85034952  0.61007815
   0.34035680  0.91205217  0.08002505
   0.33177217  0.87335812  0.93833929
   0.99590363  0.55976724  0.43019527
   0.99031276  0.51959020  0.30746090
   0.79499747  0.32019460  0.76448859
   0.83771788  0.31922121  0.63951619
   0.74366533  0.34360271  0.09237565
   0.78972344  0.34252718  0.95867491
   0.45231503  0.98630751  0.41211640
   0.49879249  0.98079621  0.29355520
   0.61829289  0.44139729  0.34666047
   0.84456420  0.08737562  0.63071941
   0.78935982  0.21727629  0.12445224
   0.13933101  0.16918740  0.50706335
   0.70154491  0.12837270  0.50902613
   0.03192072  0.47703158  0.85187369
   0.17674798  0.69289968  0.53104301
   0.49649373  0.02320270  0.83905010
   0.18926678  0.16910374  0.80413177
   0.64004744  0.19103985  0.82114287
   0.19049467  0.61402781  0.85753164
   0.81132866  0.83119741  0.18417774
   0.35052919  0.80615613  0.15485223
   0.83062287  0.37005143  0.17822593
   0.86390381  0.83433949  0.48635089
   0.30272679  0.86285123  0.45608366
   0.97875602  0.53162028  0.15377836
   0.84121003  0.30329973  0.48890041
   0.49972654  0.96874703  0.13954103
   0.70754120  0.33440610  0.49149040
   0.28205490  0.02207349  0.79321903
   0.63755360  0.33380621  0.19314044
   0.96347037  0.69027211  0.48419854
   0.35377403  0.95276381  0.45846914
   0.35178505  0.02403956  0.12851415
   0.71039628  0.97562549  0.18635578
   0.34619173  0.66320496  0.74530672
   0.73151622  0.27864737  0.02100798
   0.97964087  0.31645267  0.18688388
   0.31353492  0.70632389  0.18575312
   0.97634968  0.38493555  0.85545473
   0.64680812  0.97039015  0.85244934
   0.03206956  0.62567356  0.15017825
   0.64129498  0.03923394  0.52077987
   0.02877774  0.69371281  0.82140548
   0.30320655  0.62601907  0.57445438
   0.04507644  0.31880069  0.51875855
   0.70471305  0.43768307  0.37595384
   0.61869309  0.44292341  0.01486823
   0.78989891  0.21170434  0.69578411
Direct configuration=   109
   0.05882818  0.25835522  0.31451350
   0.03348235  0.30172870  0.94968826
   0.10247945  0.26214098  0.71658257
   0.68569997  0.05418657  0.31532028
   0.66323824  0.03296989  0.95745690
   0.63767479  0.09998793  0.71856048
   0.02464292  0.39709693  0.65365355
   0.27516023  0.66913099  0.34359138
   0.32188605  0.64033354  0.98113875
   0.28937648  0.59256578  0.79030049
   0.58534065  0.01538299  0.64830550
   0.29353254  0.03430700  0.35517367
   0.22576248  0.07573902  0.59316269
   0.27037791  0.08023876  0.99908905
   0.66684544  0.28809563  0.43909977
   0.73318845  0.20086243  0.56927757
   0.01023151  0.63315431  0.71126088
   0.03426961  0.56637573  0.94987456
   0.65247378  0.26804926  0.02373578
   0.04187872  0.67404836  0.37912365
   0.08489522  0.69628518  0.62357630
   0.36296496  0.00174348  0.68714080
   0.40367468  0.02853174  0.92580725
   0.09138159  0.64435339  0.02621546
   0.70301363  0.95983568  0.62478514
   0.77109877  0.92145968  0.38811966
   0.72746809  0.91513722  0.98448550
   0.35805957  0.69777598  0.51916835
   0.29483191  0.77761178  0.35433295
   0.00542081  0.37351457  0.28502409
   0.97406652  0.44376891  0.05671227
   0.33790949  0.72838638  0.94075720
   0.96201018  0.34561243  0.61737391
   0.92373507  0.31418673  0.38628971
   0.63215127  0.99151878  0.29178744
   0.59147633  0.96590998  0.05027507
   0.91738890  0.36503090  0.98489775
   0.94798630  0.75024946  0.68647570
   0.97271747  0.70629473  0.04811352
   0.90350990  0.74347558  0.28124593
   0.30691532  0.94214700  0.66231784
   0.33077627  0.96295525  0.01974854
   0.35705960  0.89477673  0.25539346
   0.98680372  0.61121323  0.35229766
   0.76109751  0.29562582  0.70930941
   0.68718163  0.36512350  0.01206353
   0.74655256  0.35657655  0.28190539
   0.41079732  0.97622582  0.33099291
   0.58797675  0.42031195  0.26079097
   0.62788322  0.47910962  0.25284686
   0.64433567  0.42179290  0.51791444
   0.82950934  0.17885304  0.21010351
   0.85510130  0.12352692  0.69224327
   0.83545467  0.05054852  0.57242659
   0.10945014  0.21565589  0.23318289
   0.15022212  0.16921552  0.35242925
   0.08529524  0.26173450  0.89079302
   0.12441743  0.21472743  0.03035486
   0.67792451  0.10512080  0.23651692
   0.68743173  0.14264569  0.35842045
   0.65326091  0.08392229  0.89484847
   0.66142584  0.12268652  0.03674337
   0.01525008  0.44851106  0.57521559
   0.02043107  0.48900993  0.69812015
   0.23069211  0.66076388  0.26994924
   0.18036045  0.67533535  0.38264436
   0.28516887  0.62071734  0.95027377
   0.23516727  0.63606363  0.08074825
   0.54377492  0.00563928  0.56669508
   0.49723798  0.01122373  0.68516824
   0.24293414  0.07547087  0.41799515
   0.20401174  0.12327813  0.28054241
   0.21924245  0.12260853  0.07830913
   0.17839208  0.16896296  0.95879058
   0.69470075  0.22941822  0.44183200
   0.67890723  0.19749306  0.29573440
   0.01916023  0.58260067  0.77354696
   0.01117951  0.54375895  0.63153694
   0.66040742  0.21662611  0.09813757
   0.65284700  0.17773126  0.97349410
   0.08418899  0.68087934  0.44680655
   0.13365260  0.66827014  0.31121559
   0.40396231  0.01117867  0.75048578
   0.45202296  0.00206761  0.61366853
   0.13567801  0.64810768  0.11384564
   0.18769226  0.63084081  0.00626109
   0.75511195  0.92118889  0.56393122
   0.79614471  0.87612175  0.70634537
   0.78041368  0.87575769  0.90739550
   0.82283739  0.83180061  0.03053571
   0.32379117  0.75553325  0.51141427
   0.32296525  0.79478148  0.67060405
   0.99239032  0.42596825  0.23001405
   0.99986520  0.46466909  0.37364749
   0.33438842  0.77892365  0.87357500
   0.34001826  0.81832338  0.00089417
   0.92350686  0.33132064  0.56163504
   0.87873249  0.33593811  0.70408667
   0.59134093  0.98192507  0.22647591
   0.54386917  0.99014050  0.36495011
   0.87728148  0.35321870  0.90418741
   0.83122529  0.35746844  0.02508160
   0.89499074  0.78974435  0.76325637
   0.85248623  0.83368110  0.64008071
   0.92002933  0.74442939  0.10660298
   0.87921000  0.78941141  0.96430483
   0.31667623  0.89026296  0.73794646
   0.31260190  0.85035289  0.61004598
   0.34036281  0.91204449  0.08001415
   0.33176813  0.87335466  0.93833032
   0.99590789  0.55977174  0.43019242
   0.99031820  0.51959459  0.30745444
   0.79500736  0.32018475  0.76450186
   0.83772860  0.31920961  0.63952801
   0.74366502  0.34360528  0.09237008
   0.78972312  0.34252624  0.95867544
   0.45230890  0.98630948  0.41212810
   0.49879009  0.98079390  0.29357127
   0.61829819  0.44139174  0.34667609
   0.84454960  0.08736820  0.63063678
   0.78934277  0.21728269  0.12442389
   0.13932787  0.16918407  0.50707835
   0.70153775  0.12836677  0.50904053
   0.03193042  0.47703429  0.85187006
   0.17674906  0.69289715  0.53103614
   0.49648982  0.02320960  0.83905412
   0.18926201  0.16910807  0.80414029
   0.64003342  0.19104471  0.82115606
   0.19049788  0.61402888  0.85752364
   0.81132701  0.83120066  0.18417760
   0.35052857  0.80615423  0.15483233
   0.83062356  0.37005752  0.17821952
   0.86390430  0.83434071  0.48635111
   0.30270370  0.86286192  0.45606630
   0.97876180  0.53162598  0.15377002
   0.84121630  0.30329486  0.48890526
   0.49972639  0.96874302  0.13955830
   0.70755044  0.33440115  0.49149804
   0.28205839  0.02206719  0.79322995
   0.63755539  0.33379743  0.19317106
   0.96347126  0.69027851  0.48421266
   0.35377142  0.95276457  0.45847738
   0.35177992  0.02403729  0.12850985
   0.71039306  0.97562487  0.18635059
   0.34618617  0.66321163  0.74527420
   0.73151203  0.27865045  0.02101240
   0.97964500  0.31645885  0.18687934
   0.31353788  0.70632172  0.18574769
   0.97634990  0.38494058  0.85545393
   0.64680639  0.97038518  0.85245057
   0.03207165  0.62567906  0.15017109
   0.64129496  0.03923038  0.52078553
   0.02878179  0.69371646  0.82140953
   0.30320702  0.62601316  0.57443796
   0.04508057  0.31880226  0.51875043
   0.70471766  0.43767691  0.37598718
   0.61869176  0.44293545  0.01488729
   0.78989159  0.21169376  0.69581591
Direct configuration=   110
   0.05882992  0.25835966  0.31450774
   0.03348654  0.30173840  0.94970456
   0.10247726  0.26215111  0.71658412
   0.68569343  0.05418381  0.31532496
   0.66323902  0.03296611  0.95746191
   0.63766879  0.09999017  0.71856575
   0.02464167  0.39710292  0.65365390
   0.27516505  0.66912711  0.34359209
   0.32189009  0.64033727  0.98114170
   0.28939119  0.59255267  0.79031392
   0.58533257  0.01538166  0.64832038
   0.29352787  0.03429745  0.35517062
   0.22576080  0.07573763  0.59316562
   0.27037452  0.08023487  0.99908469
   0.66684272  0.28809651  0.43910678
   0.73318160  0.20085664  0.56929031
   0.01023516  0.63315905  0.71126556
   0.03427277  0.56637985  0.94987163
   0.65246438  0.26805232  0.02378532
   0.04188364  0.67405102  0.37911812
   0.08490246  0.69628147  0.62356935
   0.36296371  0.00174453  0.68713364
   0.40366424  0.02853430  0.92581220
   0.09138517  0.64435425  0.02620853
   0.70301494  0.95983496  0.62479424
   0.77109863  0.92145995  0.38811850
   0.72746777  0.91513446  0.98448712
   0.35805830  0.69777919  0.51916362
   0.29481870  0.77761253  0.35432632
   0.00542202  0.37351958  0.28503258
   0.97407240  0.44377208  0.05671128
   0.33791981  0.72838190  0.94072623
   0.96200867  0.34561729  0.61738856
   0.92373783  0.31418520  0.38628717
   0.63215136  0.99150836  0.29180146
   0.59148317  0.96590288  0.05027975
   0.91739000  0.36503253  0.98489145
   0.94798880  0.75025587  0.68647589
   0.97272227  0.70629917  0.04811074
   0.90351338  0.74348351  0.28124827
   0.30691127  0.94214659  0.66230647
   0.33078029  0.96294863  0.01971983
   0.35707694  0.89476737  0.25536498
   0.98680857  0.61121839  0.35229990
   0.76110857  0.29561541  0.70931229
   0.68718252  0.36512750  0.01206616
   0.74655661  0.35657487  0.28191406
   0.41079600  0.97622689  0.33101205
   0.58798031  0.42030899  0.26079328
   0.62789251  0.47910282  0.25286778
   0.64433701  0.42178996  0.51792316
   0.82950691  0.17884029  0.21009434
   0.85508624  0.12352394  0.69226747
   0.83544962  0.05055865  0.57227507
   0.10945184  0.21565744  0.23318466
   0.15022076  0.16921691  0.35243991
   0.08529777  0.26174167  0.89080220
   0.12441976  0.21473027  0.03035619
   0.67791670  0.10512122  0.23652633
   0.68742716  0.14264145  0.35843374
   0.65325547  0.08392146  0.89485286
   0.66141459  0.12268974  0.03675081
   0.01525206  0.44851576  0.57521490
   0.02043713  0.48901323  0.69811790
   0.23069741  0.66076292  0.26994888
   0.18036549  0.67533329  0.38263743
   0.28517680  0.62071438  0.95027201
   0.23517186  0.63606381  0.08075535
   0.54377249  0.00563471  0.56671196
   0.49723624  0.01122159  0.68517943
   0.24292977  0.07546896  0.41799679
   0.20400986  0.12327722  0.28055284
   0.21924161  0.12260726  0.07831654
   0.17839295  0.16896251  0.95880246
   0.69469514  0.22941904  0.44186550
   0.67889787  0.19749553  0.29575912
   0.01916443  0.58260440  0.77354208
   0.01118501  0.54376193  0.63153414
   0.66039749  0.21663051  0.09815545
   0.65283853  0.17773369  0.97349916
   0.08419404  0.68087862  0.44679922
   0.13365740  0.66826942  0.31120460
   0.40395783  0.01117929  0.75048238
   0.45202297  0.00206721  0.61367861
   0.13568265  0.64810689  0.11383297
   0.18769671  0.63084025  0.00625709
   0.75511236  0.92118740  0.56393436
   0.79614502  0.87612067  0.70634833
   0.78041393  0.87575630  0.90739759
   0.82283964  0.83180036  0.03054012
   0.32378238  0.75553727  0.51138612
   0.32295979  0.79478148  0.67057716
   0.99239502  0.42597278  0.23001852
   0.99986918  0.46467421  0.37364656
   0.33439221  0.77892036  0.87353930
   0.34001395  0.81832336  0.00086617
   0.92351377  0.33132010  0.56162302
   0.87873948  0.33593625  0.70407554
   0.59134088  0.98191859  0.22649017
   0.54386616  0.99013824  0.36496835
   0.87728276  0.35321860  0.90418552
   0.83122376  0.35747147  0.02507692
   0.89499269  0.78974783  0.76326004
   0.85248724  0.83368286  0.64008235
   0.92003422  0.74443340  0.10660699
   0.87921408  0.78941361  0.96431030
   0.31666893  0.89026275  0.73792454
   0.31259001  0.85035638  0.61001263
   0.34036903  0.91203652  0.08000286
   0.33176393  0.87335107  0.93832101
   0.99591229  0.55977642  0.43018947
   0.99032384  0.51959914  0.30744773
   0.79501762  0.32017454  0.76451563
   0.83773972  0.31919759  0.63954026
   0.74366470  0.34360795  0.09236430
   0.78972279  0.34252527  0.95867598
   0.45230254  0.98631152  0.41214024
   0.49878761  0.98079150  0.29358794
   0.61830367  0.44138597  0.34669228
   0.84453447  0.08736052  0.63055111
   0.78932510  0.21728932  0.12439450
   0.13932460  0.16918061  0.50709390
   0.70153033  0.12836062  0.50905546
   0.03194046  0.47703710  0.85186630
   0.17675018  0.69289452  0.53102902
   0.49648576  0.02321676  0.83905830
   0.18925705  0.16911255  0.80414911
   0.64001889  0.19104976  0.82116975
   0.19050120  0.61403000  0.85751533
   0.81132531  0.83120404  0.18417745
   0.35052793  0.80615226  0.15481169
   0.83062427  0.37006384  0.17821287
   0.86390481  0.83434198  0.48635135
   0.30267975  0.86287302  0.45604829
   0.97876780  0.53163190  0.15376137
   0.84122281  0.30328981  0.48891030
   0.49972624  0.96873886  0.13957622
   0.70756001  0.33439602  0.49150597
   0.28206201  0.02206066  0.79324127
   0.63755724  0.33378832  0.19320280
   0.96347219  0.69028514  0.48422731
   0.35376872  0.95276536  0.45848593
   0.35177459  0.02403493  0.12850538
   0.71038972  0.97562423  0.18634521
   0.34618041  0.66321855  0.74524047
   0.73150770  0.27865363  0.02101699
   0.97964929  0.31646525  0.18687463
   0.31354095  0.70631946  0.18574206
   0.97635013  0.38494580  0.85545311
   0.64680459  0.97038003  0.85245184
   0.03207382  0.62568477  0.15016366
   0.64129494  0.03922669  0.52079139
   0.02878600  0.69372024  0.82141374
   0.30320750  0.62600704  0.57442094
   0.04508486  0.31880388  0.51874200
   0.70472244  0.43767051  0.37602175
   0.61869039  0.44294793  0.01490705
   0.78988401  0.21168279  0.69584889
Direct configuration=   111
   0.05883215  0.25836337  0.31450280
   0.03348984  0.30174846  0.94972103
   0.10247553  0.26215994  0.71658837
   0.68568642  0.05418381  0.31532885
   0.66323962  0.03296231  0.95746963
   0.63766235  0.09999206  0.71856752
   0.02463954  0.39710935  0.65365232
   0.27516977  0.66912368  0.34358818
   0.32189204  0.64034156  0.98114119
   0.28940682  0.59254046  0.79032470
   0.58532634  0.01538062  0.64833487
   0.29352398  0.03428780  0.35516404
   0.22575875  0.07573684  0.59317162
   0.27037112  0.08023150  0.99907827
   0.66684184  0.28809708  0.43911991
   0.73317894  0.20084956  0.56932031
   0.01023845  0.63316405  0.71126886
   0.03427636  0.56638349  0.94986883
   0.65245506  0.26805466  0.02382782
   0.04188838  0.67405389  0.37911293
   0.08491011  0.69627733  0.62356238
   0.36296353  0.00174392  0.68712327
   0.40365482  0.02853665  0.92581909
   0.09138845  0.64435561  0.02619890
   0.70301615  0.95983478  0.62480258
   0.77109865  0.92145997  0.38811826
   0.72746758  0.91513151  0.98448622
   0.35805784  0.69778196  0.51915267
   0.29480663  0.77761265  0.35431921
   0.00542223  0.37352475  0.28504126
   0.97407771  0.44377582  0.05670712
   0.33793007  0.72837807  0.94069635
   0.96200719  0.34562077  0.61739777
   0.92374186  0.31418361  0.38628555
   0.63215139  0.99149882  0.29182183
   0.59148850  0.96589653  0.05027696
   0.91738976  0.36503440  0.98488708
   0.94799137  0.75026237  0.68647709
   0.97272732  0.70630378  0.04810980
   0.90351726  0.74349101  0.28125119
   0.30690582  0.94214595  0.66229243
   0.33078340  0.96294287  0.01969484
   0.35709147  0.89475953  0.25533209
   0.98681344  0.61122320  0.35229923
   0.76111931  0.29560507  0.70932087
   0.68718190  0.36513197  0.01206598
   0.74656064  0.35657172  0.28192271
   0.41079411  0.97622673  0.33102861
   0.58798167  0.42030564  0.26079114
   0.62790204  0.47909725  0.25288209
   0.64433747  0.42178788  0.51792147
   0.82950072  0.17883159  0.21007237
   0.85506987  0.12351417  0.69228044
   0.83544253  0.05056135  0.57211101
   0.10945309  0.21565879  0.23318762
   0.15022094  0.16921688  0.35245163
   0.08530051  0.26174825  0.89081551
   0.12442109  0.21473402  0.03035869
   0.67790895  0.10512052  0.23653399
   0.68742185  0.14263830  0.35843921
   0.65325053  0.08392083  0.89485791
   0.66140502  0.12269480  0.03676853
   0.01525393  0.44852043  0.57521692
   0.02044307  0.48901654  0.69811566
   0.23070246  0.66076228  0.26994921
   0.18036889  0.67533227  0.38263772
   0.28518547  0.62071085  0.95027095
   0.23517639  0.63606363  0.08076159
   0.54377075  0.00563049  0.56672716
   0.49723315  0.01121827  0.68518850
   0.24292531  0.07546738  0.41799414
   0.20400761  0.12327691  0.28056211
   0.21924035  0.12260596  0.07832281
   0.17839302  0.16896378  0.95881524
   0.69468538  0.22942136  0.44188128
   0.67888934  0.19749647  0.29578896
   0.01916860  0.58260824  0.77353761
   0.01119038  0.54376453  0.63153119
   0.66038695  0.21663349  0.09817717
   0.65283013  0.17773630  0.97350494
   0.08419777  0.68087808  0.44679681
   0.13366328  0.66826882  0.31119616
   0.40395408  0.01118013  0.75047800
   0.45202116  0.00206754  0.61368590
   0.13568811  0.64810618  0.11382017
   0.18770044  0.63083913  0.00625164
   0.75511272  0.92118649  0.56393397
   0.79614582  0.87611956  0.70634770
   0.78041418  0.87575506  0.90739967
   0.82284231  0.83180034  0.03054177
   0.32377378  0.75554048  0.51135877
   0.32295605  0.79478098  0.67055263
   0.99239896  0.42597812  0.23002416
   0.99987278  0.46467846  0.37364210
   0.33439614  0.77891742  0.87350669
   0.34000888  0.81832489  0.00084657
   0.92351920  0.33132154  0.56161311
   0.87874291  0.33593546  0.70407112
   0.59134135  0.98191322  0.22650939
   0.54386228  0.99013508  0.36497777
   0.87728513  0.35321809  0.90418088
   0.83122350  0.35747314  0.02506903
   0.89499420  0.78975154  0.76326396
   0.85248888  0.83368418  0.64008290
   0.92003906  0.74443799  0.10660730
   0.87921797  0.78941605  0.96431266
   0.31666208  0.89026227  0.73790347
   0.31257789  0.85036213  0.60998691
   0.34037572  0.91202635  0.07999333
   0.33176119  0.87334627  0.93830677
   0.99591716  0.55978015  0.43018610
   0.99032971  0.51960299  0.30744145
   0.79502802  0.32016398  0.76451710
   0.83775108  0.31918496  0.63954954
   0.74366835  0.34361036  0.09236087
   0.78972140  0.34252459  0.95868036
   0.45229881  0.98631346  0.41215547
   0.49878587  0.98078816  0.29360380
   0.61831260  0.44138036  0.34672700
   0.84452355  0.08736667  0.63048780
   0.78931460  0.21728945  0.12438190
   0.13932174  0.16917736  0.50710526
   0.70152261  0.12835563  0.50907133
   0.03195046  0.47703969  0.85186195
   0.17675086  0.69289266  0.53101846
   0.49648134  0.02322332  0.83906531
   0.18925301  0.16911632  0.80415918
   0.64000506  0.19105452  0.82118585
   0.19050419  0.61403129  0.85751128
   0.81132403  0.83120680  0.18417793
   0.35052565  0.80615051  0.15478583
   0.83062398  0.37007111  0.17821299
   0.86390526  0.83434349  0.48635198
   0.30265706  0.86288307  0.45603305
   0.97877396  0.53163738  0.15375234
   0.84122865  0.30328556  0.48892153
   0.49972598  0.96873558  0.13959858
   0.70756845  0.33439238  0.49151684
   0.28206426  0.02205511  0.79325235
   0.63756031  0.33377773  0.19323400
   0.96347319  0.69029144  0.48424080
   0.35376740  0.95276562  0.45848875
   0.35176698  0.02403346  0.12849909
   0.71038629  0.97562315  0.18634047
   0.34617497  0.66322516  0.74521147
   0.73150059  0.27865781  0.02101913
   0.97965322  0.31647129  0.18686941
   0.31354433  0.70631705  0.18573274
   0.97635101  0.38495028  0.85545261
   0.64680289  0.97037457  0.85245816
   0.03207572  0.62569033  0.15015586
   0.64129450  0.03922300  0.52079420
   0.02878989  0.69372389  0.82141826
   0.30320913  0.62599907  0.57441606
   0.04508880  0.31880633  0.51873921
   0.70472815  0.43766336  0.37605293
   0.61868883  0.44295998  0.01492124
   0.78987649  0.21167287  0.69588265
Direct configuration=   112
   0.05883711  0.25837159  0.31449186
   0.03349715  0.30177077  0.94975755
   0.10247171  0.26217950  0.71659778
   0.68567088  0.05418382  0.31533746
   0.66324095  0.03295389  0.95748674
   0.63764807  0.09999626  0.71857144
   0.02463481  0.39712360  0.65364883
   0.27518024  0.66911609  0.34357951
   0.32189636  0.64035108  0.98114006
   0.28944148  0.59251338  0.79034860
   0.58531252  0.01537831  0.64836698
   0.29351535  0.03426642  0.35514946
   0.22575419  0.07573508  0.59318491
   0.27036357  0.08022402  0.99906403
   0.66683989  0.28809836  0.43914901
   0.73317305  0.20083386  0.56938682
   0.01024574  0.63317512  0.71127618
   0.03428430  0.56639155  0.94986262
   0.65243440  0.26805983  0.02392202
   0.04189890  0.67406024  0.37910142
   0.08492705  0.69626816  0.62354691
   0.36296312  0.00174258  0.68710029
   0.40363394  0.02854185  0.92583437
   0.09139571  0.64435861  0.02617753
   0.70301884  0.95983437  0.62482107
   0.77109870  0.92146003  0.38811774
   0.72746717  0.91512497  0.98448422
   0.35805684  0.69778808  0.51912841
   0.29477989  0.77761294  0.35430345
   0.00542268  0.37353623  0.28506051
   0.97408946  0.44378412  0.05669791
   0.33795282  0.72836958  0.94063011
   0.96200393  0.34562846  0.61741817
   0.92375080  0.31418009  0.38628196
   0.63215146  0.99147769  0.29186698
   0.59150030  0.96588245  0.05027076
   0.91738921  0.36503855  0.98487739
   0.94799707  0.75027676  0.68647976
   0.97273852  0.70631400  0.04810772
   0.90352585  0.74350763  0.28125768
   0.30689373  0.94214453  0.66226132
   0.33079029  0.96293012  0.01963944
   0.35712370  0.89474216  0.25525919
   0.98682423  0.61123384  0.35229773
   0.76114310  0.29558214  0.70933989
   0.68718052  0.36514187  0.01206558
   0.74656957  0.35656472  0.28194189
   0.41078992  0.97622637  0.33106534
   0.58798466  0.42029820  0.26078639
   0.62792317  0.47908492  0.25291380
   0.64433847  0.42178328  0.51791773
   0.82948701  0.17881231  0.21002369
   0.85503358  0.12349251  0.69230920
   0.83542683  0.05056734  0.57174734
   0.10945587  0.21566180  0.23319420
   0.15022133  0.16921680  0.35247763
   0.08530657  0.26176283  0.89084501
   0.12442403  0.21474232  0.03036422
   0.67789178  0.10511896  0.23655098
   0.68741008  0.14263130  0.35845136
   0.65323960  0.08391945  0.89486910
   0.66138382  0.12270603  0.03680781
   0.01525807  0.44853078  0.57522141
   0.02045625  0.48902390  0.69811071
   0.23071366  0.66076087  0.26994995
   0.18037642  0.67533003  0.38263836
   0.28520470  0.62070303  0.95026860
   0.23518644  0.63606324  0.08077544
   0.54376691  0.00562113  0.56676086
   0.49722629  0.01121091  0.68520860
   0.24291541  0.07546386  0.41798826
   0.20400264  0.12327622  0.28058267
   0.21923756  0.12260307  0.07833673
   0.17839318  0.16896659  0.95884356
   0.69466373  0.22942650  0.44191625
   0.67887043  0.19749856  0.29585510
   0.01917785  0.58261675  0.77352771
   0.01120228  0.54377029  0.63152464
   0.66036359  0.21664009  0.09822532
   0.65281149  0.17774208  0.97351774
   0.08420606  0.68087688  0.44679146
   0.13367629  0.66826749  0.31117746
   0.40394577  0.01118198  0.75046827
   0.45201714  0.00206827  0.61370205
   0.13570022  0.64810461  0.11379181
   0.18770871  0.63083666  0.00623955
   0.75511353  0.92118448  0.56393310
   0.79614758  0.87611709  0.70634630
   0.78041476  0.87575231  0.90740428
   0.82284823  0.83180030  0.03054541
   0.32375471  0.75554759  0.51129814
   0.32294776  0.79477987  0.67049825
   0.99240770  0.42598996  0.23003664
   0.99988077  0.46468790  0.37363219
   0.33440486  0.77891090  0.87343439
   0.33999763  0.81832827  0.00080312
   0.92353124  0.33132474  0.56159113
   0.87875050  0.33593372  0.70406132
   0.59134239  0.98190130  0.22655199
   0.54385369  0.99012808  0.36499866
   0.87729040  0.35321695  0.90417061
   0.83122294  0.35747685  0.02505152
   0.89499755  0.78975978  0.76327265
   0.85249251  0.83368710  0.64008411
   0.92004980  0.74444816  0.10660800
   0.87922659  0.78942147  0.96431788
   0.31664687  0.89026121  0.73785677
   0.31255104  0.85037489  0.60992991
   0.34039055  0.91200382  0.07997222
   0.33175511  0.87333565  0.93827520
   0.99592794  0.55978843  0.43017863
   0.99034273  0.51961152  0.30742753
   0.79505108  0.32014058  0.76452038
   0.83777625  0.31915696  0.63957011
   0.74367643  0.34361570  0.09235328
   0.78971832  0.34252306  0.95869005
   0.45229055  0.98631775  0.41218923
   0.49878201  0.98078076  0.29363895
   0.61833240  0.44136792  0.34680397
   0.84449934  0.08738032  0.63034747
   0.78929132  0.21728973  0.12435395
   0.13931541  0.16917018  0.50713044
   0.70150552  0.12834455  0.50910649
   0.03197263  0.47704546  0.85185229
   0.17675236  0.69288854  0.53099505
   0.49647153  0.02323786  0.83908086
   0.18924404  0.16912466  0.80418149
   0.63997440  0.19106508  0.82122153
   0.19051083  0.61403415  0.85750231
   0.81132120  0.83121292  0.18417900
   0.35052061  0.80614662  0.15472852
   0.83062333  0.37008725  0.17821327
   0.86390626  0.83434685  0.48635339
   0.30260674  0.86290535  0.45599928
   0.97878762  0.53164952  0.15373230
   0.84124160  0.30327612  0.48894643
   0.49972539  0.96872831  0.13964815
   0.70758714  0.33438430  0.49154093
   0.28206925  0.02204281  0.79327690
   0.63756713  0.33375425  0.19330315
   0.96347540  0.69030539  0.48427071
   0.35376446  0.95276618  0.45849500
   0.35175009  0.02403022  0.12848514
   0.71037869  0.97562075  0.18632998
   0.34616291  0.66323979  0.74514719
   0.73148483  0.27866708  0.02102388
   0.97966192  0.31648467  0.18685785
   0.31355183  0.70631170  0.18571207
   0.97635296  0.38496021  0.85545151
   0.64679911  0.97036246  0.85247216
   0.03207994  0.62570266  0.15013858
   0.64129350  0.03921483  0.52080044
   0.02879850  0.69373200  0.82142829
   0.30321274  0.62598141  0.57440526
   0.04509754  0.31881177  0.51873303
   0.70474082  0.43764751  0.37612204
   0.61868537  0.44298668  0.01495270
   0.78985983  0.21165086  0.69595751
Direct configuration=   113
   0.05884046  0.25837557  0.31448828
   0.03350156  0.30178318  0.94977812
   0.10247052  0.26218877  0.71660979
   0.68566146  0.05418576  0.31534149
   0.66324078  0.03295077  0.95749460
   0.63764006  0.09999701  0.71857706
   0.02463136  0.39713205  0.65364509
   0.27518709  0.66911209  0.34357377
   0.32189707  0.64035683  0.98113215
   0.28946205  0.59249925  0.79036255
   0.58530810  0.01537724  0.64838578
   0.29350814  0.03425678  0.35513803
   0.22575192  0.07573448  0.59319166
   0.27035853  0.08022097  0.99905728
   0.66684130  0.28809795  0.43917634
   0.73316739  0.20082849  0.56942414
   0.01024949  0.63318148  0.71127804
   0.03428926  0.56639582  0.94985808
   0.65242238  0.26806227  0.02396443
   0.04190268  0.67406405  0.37909348
   0.08493708  0.69626298  0.62354352
   0.36296229  0.00174008  0.68708317
   0.40362348  0.02854409  0.92583836
   0.09139995  0.64436079  0.02616296
   0.70302023  0.95983458  0.62483058
   0.77109858  0.92145993  0.38811871
   0.72746712  0.91512081  0.98448077
   0.35805660  0.69779172  0.51910223
   0.29476428  0.77761357  0.35428389
   0.00542173  0.37354426  0.28507132
   0.97409625  0.44378891  0.05669469
   0.33796564  0.72836458  0.94059599
   0.96200503  0.34563168  0.61742209
   0.92375817  0.31417816  0.38627782
   0.63215287  0.99146677  0.29190241
   0.59150440  0.96587624  0.05027509
   0.91738814  0.36504141  0.98487502
   0.94800071  0.75028499  0.68648305
   0.97274473  0.70632044  0.04810972
   0.90353185  0.74351628  0.28126089
   0.30688542  0.94214410  0.66224060
   0.33079385  0.96292112  0.01961531
   0.35714020  0.89473225  0.25522475
   0.98683044  0.61123927  0.35229489
   0.76115568  0.29556882  0.70935426
   0.68718015  0.36514688  0.01206478
   0.74657478  0.35655921  0.28194918
   0.41078615  0.97622537  0.33108141
   0.58798792  0.42029491  0.26078897
   0.62793533  0.47907801  0.25293027
   0.64434101  0.42177914  0.51792582
   0.82946936  0.17881084  0.20997063
   0.85501482  0.12348554  0.69233539
   0.83541875  0.05057615  0.57154436
   0.10945736  0.21566329  0.23320107
   0.15022138  0.16921660  0.35249264
   0.08530930  0.26177163  0.89086154
   0.12442468  0.21474783  0.03037365
   0.67788203  0.10511825  0.23655922
   0.68740277  0.14262907  0.35846108
   0.65323352  0.08391968  0.89487675
   0.66137322  0.12271164  0.03683135
   0.01526035  0.44853709  0.57522386
   0.02046378  0.48902760  0.69810850
   0.23071878  0.66076027  0.26995106
   0.18038013  0.67532910  0.38263867
   0.28521489  0.62069837  0.95027225
   0.23519278  0.63606127  0.08077248
   0.54376433  0.00561607  0.56677456
   0.49722261  0.01120675  0.68522520
   0.24291200  0.07545929  0.41798710
   0.20400057  0.12327561  0.28058895
   0.21923525  0.12260155  0.07834288
   0.17839266  0.16896994  0.95885670
   0.69465373  0.22942541  0.44193853
   0.67885961  0.19749790  0.29589034
   0.01918333  0.58262165  0.77352450
   0.01120893  0.54377421  0.63151909
   0.66035016  0.21664093  0.09826024
   0.65280065  0.17774653  0.97353462
   0.08421192  0.68087606  0.44678865
   0.13368361  0.66826669  0.31116902
   0.40394226  0.01118406  0.75047093
   0.45201105  0.00206954  0.61371127
   0.13570682  0.64810441  0.11378018
   0.18771492  0.63083487  0.00623288
   0.75511387  0.92118407  0.56392966
   0.79614876  0.87611590  0.70634280
   0.78041578  0.87575051  0.90740481
   0.82285126  0.83180112  0.03054536
   0.32374626  0.75554904  0.51127804
   0.32294390  0.79478123  0.67046504
   0.99241138  0.42599657  0.23003787
   0.99988527  0.46469308  0.37362697
   0.33440917  0.77890824  0.87339701
   0.33999143  0.81832846  0.00078496
   0.92353304  0.33132806  0.56158645
   0.87875229  0.33593299  0.70406195
   0.59134228  0.98189401  0.22656570
   0.54385023  0.99012297  0.36500438
   0.87729358  0.35321608  0.90416092
   0.83122360  0.35747804  0.02504515
   0.89499977  0.78976443  0.76327632
   0.85249459  0.83368869  0.64008437
   0.92005586  0.74445466  0.10660662
   0.87923083  0.78942526  0.96431827
   0.31663885  0.89026057  0.73783450
   0.31253587  0.85038179  0.60991045
   0.34039773  0.91199298  0.07994562
   0.33175255  0.87333170  0.93824699
   0.99593469  0.55979252  0.43017363
   0.99035029  0.51961588  0.30741877
   0.79506284  0.32012763  0.76451928
   0.83779079  0.31914193  0.63958120
   0.74368098  0.34361860  0.09235557
   0.78971981  0.34252185  0.95869107
   0.45228871  0.98631906  0.41220734
   0.49877970  0.98077598  0.29365846
   0.61834101  0.44136247  0.34683088
   0.84448313  0.08737639  0.63024688
   0.78929110  0.21727742  0.12436697
   0.13931231  0.16916645  0.50713840
   0.70149509  0.12833972  0.50912274
   0.03198528  0.47704860  0.85184599
   0.17675282  0.69288763  0.53098456
   0.49646534  0.02324498  0.83908908
   0.18924024  0.16912842  0.80419546
   0.63995742  0.19107102  0.82124181
   0.19051465  0.61403559  0.85749907
   0.81132044  0.83121556  0.18417963
   0.35051615  0.80614444  0.15469185
   0.83062190  0.37009691  0.17821285
   0.86390694  0.83434901  0.48635408
   0.30257888  0.86291733  0.45598052
   0.97879588  0.53165584  0.15372216
   0.84124894  0.30327035  0.48896201
   0.49972479  0.96872461  0.13967740
   0.70759754  0.33437983  0.49155864
   0.28207008  0.02203695  0.79328720
   0.63757144  0.33374227  0.19334056
   0.96347708  0.69031292  0.48428473
   0.35376447  0.95276522  0.45849207
   0.35173889  0.02402863  0.12847733
   0.71037445  0.97561878  0.18632644
   0.34615642  0.66324709  0.74511755
   0.73147276  0.27867469  0.02102354
   0.97966585  0.31649200  0.18685145
   0.31355660  0.70630844  0.18569418
   0.97635443  0.38496560  0.85545236
   0.64679722  0.97035555  0.85248457
   0.03208236  0.62570931  0.15012892
   0.64129213  0.03921018  0.52080236
   0.02880321  0.69373667  0.82143322
   0.30321618  0.62596987  0.57441087
   0.04510149  0.31881626  0.51873563
   0.70474927  0.43763784  0.37615752
   0.61868332  0.44300109  0.01496696
   0.78985001  0.21163988  0.69600314
Direct configuration=   114
   0.05884508  0.25838105  0.31448335
   0.03350765  0.30180031  0.94980654
   0.10246889  0.26220157  0.71662637
   0.68564845  0.05418842  0.31534706
   0.66324055  0.03294647  0.95750545
   0.63762898  0.09999804  0.71858480
   0.02462659  0.39714372  0.65363991
   0.27519654  0.66910657  0.34356584
   0.32189804  0.64036478  0.98112122
   0.28949046  0.59247974  0.79038180
   0.58530199  0.01537575  0.64841174
   0.29349819  0.03424347  0.35512225
   0.22574879  0.07573364  0.59320099
   0.27035157  0.08021677  0.99904797
   0.66684325  0.28809739  0.43921410
   0.73315956  0.20082106  0.56947569
   0.01025466  0.63319026  0.71128060
   0.03429610  0.56640172  0.94985183
   0.65240579  0.26806564  0.02402299
   0.04190789  0.67406932  0.37908252
   0.08495093  0.69625583  0.62353884
   0.36296113  0.00173664  0.68705952
   0.40360903  0.02854720  0.92584386
   0.09140579  0.64436379  0.02614284
   0.70302214  0.95983486  0.62484372
   0.77109841  0.92145981  0.38812006
   0.72746704  0.91511508  0.98447602
   0.35805628  0.69779674  0.51906607
   0.29474273  0.77761444  0.35425688
   0.00542042  0.37355534  0.28508626
   0.97410562  0.44379553  0.05669026
   0.33798335  0.72835767  0.94054887
   0.96200654  0.34563612  0.61742750
   0.92376834  0.31417550  0.38627211
   0.63215483  0.99145170  0.29195134
   0.59151007  0.96586766  0.05028107
   0.91738666  0.36504536  0.98487174
   0.94800575  0.75029635  0.68648760
   0.97275330  0.70632933  0.04811249
   0.90354013  0.74352823  0.28126531
   0.30687395  0.94214349  0.66221199
   0.33079877  0.96290868  0.01958199
   0.35716300  0.89471857  0.25517720
   0.98683902  0.61124676  0.35229096
   0.76117306  0.29555043  0.70937411
   0.68717964  0.36515380  0.01206367
   0.74658198  0.35655159  0.28195924
   0.41078094  0.97622399  0.33110360
   0.58799241  0.42029038  0.26079253
   0.62795213  0.47906847  0.25295301
   0.64434452  0.42177343  0.51793700
   0.82944499  0.17880880  0.20989736
   0.85498891  0.12347592  0.69237156
   0.83540760  0.05058833  0.57126406
   0.10945942  0.21566534  0.23321056
   0.15022145  0.16921632  0.35251337
   0.08531307  0.26178379  0.89088438
   0.12442559  0.21475544  0.03038668
   0.67786856  0.10511727  0.23657060
   0.68739268  0.14262599  0.35847450
   0.65322512  0.08391999  0.89488732
   0.66135857  0.12271941  0.03686385
   0.01526349  0.44854580  0.57522724
   0.02047417  0.48903273  0.69810545
   0.23072584  0.66075945  0.26995259
   0.18038526  0.67532781  0.38263910
   0.28522897  0.62069193  0.95027730
   0.23520153  0.63605855  0.08076840
   0.54376078  0.00560908  0.56679348
   0.49721753  0.01120101  0.68524813
   0.24290730  0.07545297  0.41798550
   0.20399770  0.12327476  0.28059762
   0.21923207  0.12259945  0.07835138
   0.17839194  0.16897457  0.95887485
   0.69463991  0.22942389  0.44196929
   0.67884465  0.19749699  0.29593901
   0.01919089  0.58262842  0.77352007
   0.01121812  0.54377962  0.63151142
   0.66033162  0.21664209  0.09830847
   0.65278567  0.17775267  0.97355792
   0.08422002  0.68087494  0.44678476
   0.13369370  0.66826558  0.31115737
   0.40393742  0.01118693  0.75047459
   0.45200263  0.00207130  0.61372402
   0.13571594  0.64810414  0.11376412
   0.18772351  0.63083239  0.00622365
   0.75511433  0.92118352  0.56392492
   0.79615038  0.87611426  0.70633797
   0.78041719  0.87574803  0.90740554
   0.82285544  0.83180225  0.03054528
   0.32373460  0.75555104  0.51125029
   0.32293857  0.79478310  0.67041919
   0.99241647  0.42600571  0.23003957
   0.99989149  0.46470023  0.37361976
   0.33441514  0.77890457  0.87334537
   0.33998288  0.81832872  0.00075990
   0.92353553  0.33133265  0.56157998
   0.87875476  0.33593199  0.70406283
   0.59134213  0.98188393  0.22658464
   0.54384546  0.99011591  0.36501229
   0.87729797  0.35321487  0.90414755
   0.83122452  0.35747970  0.02503636
   0.89500283  0.78977087  0.76328138
   0.85249747  0.83369088  0.64008471
   0.92006423  0.74446365  0.10660470
   0.87923668  0.78943049  0.96431880
   0.31662778  0.89025969  0.73780375
   0.31251493  0.85039131  0.60988358
   0.34040765  0.91197801  0.07990890
   0.33174902  0.87332625  0.93820803
   0.99594401  0.55979816  0.43016672
   0.99036073  0.51962190  0.30740667
   0.79507908  0.32010975  0.76451777
   0.83781086  0.31912118  0.63959652
   0.74368727  0.34362261  0.09235873
   0.78972188  0.34252017  0.95869249
   0.45228617  0.98632087  0.41223234
   0.49877652  0.98076937  0.29368539
   0.61835289  0.44135495  0.34686804
   0.84446076  0.08737096  0.63010796
   0.78929079  0.21726043  0.12438495
   0.13930804  0.16916130  0.50714939
   0.70148070  0.12833304  0.50914517
   0.03200274  0.47705293  0.85183729
   0.17675344  0.69288638  0.53097008
   0.49645679  0.02325482  0.83910044
   0.18923499  0.16913361  0.80421477
   0.63993397  0.19107922  0.82126983
   0.19051993  0.61403758  0.85749459
   0.81131940  0.83121921  0.18418050
   0.35051000  0.80614143  0.15464120
   0.83061993  0.37011026  0.17821228
   0.86390787  0.83435200  0.48635504
   0.30254040  0.86293388  0.45595461
   0.97880729  0.53166456  0.15370815
   0.84125907  0.30326238  0.48898351
   0.49972396  0.96871950  0.13971779
   0.70761190  0.33437364  0.49158310
   0.28207122  0.02202887  0.79330143
   0.63757739  0.33372574  0.19339222
   0.96347941  0.69032332  0.48430411
   0.35376448  0.95276389  0.45848804
   0.35172343  0.02402643  0.12846654
   0.71036860  0.97561604  0.18632155
   0.34614746  0.66325717  0.74507662
   0.73145610  0.27868521  0.02102307
   0.97967129  0.31650211  0.18684261
   0.31356318  0.70630394  0.18566949
   0.97635646  0.38497305  0.85545355
   0.64679462  0.97034600  0.85250171
   0.03208571  0.62571849  0.15011558
   0.64129023  0.03920375  0.52080501
   0.02880973  0.69374312  0.82144003
   0.30322093  0.62595394  0.57441862
   0.04510695  0.31882247  0.51873921
   0.70476094  0.43762449  0.37620653
   0.61868049  0.44302099  0.01498665
   0.78983647  0.21162470  0.69606617
Direct configuration=   115
   0.05884838  0.25838456  0.31448617
   0.03351260  0.30181180  0.94982637
   0.10246975  0.26220779  0.71664611
   0.68563882  0.05419086  0.31535007
   0.66323875  0.03294665  0.95750814
   0.63762176  0.09999621  0.71859901
   0.02462256  0.39715211  0.65363538
   0.27520476  0.66910230  0.34356457
   0.32189749  0.64037103  0.98110432
   0.28951097  0.59246719  0.79039933
   0.58530163  0.01537454  0.64842910
   0.29348778  0.03423758  0.35510686
   0.22574767  0.07573313  0.59320378
   0.27034559  0.08021547  0.99904551
   0.66684814  0.28809380  0.43925470
   0.73314683  0.20082274  0.56949778
   0.01025774  0.63319629  0.71127956
   0.03430154  0.56640556  0.94984659
   0.65239328  0.26806610  0.02405073
   0.04190860  0.67407354  0.37907423
   0.08496098  0.69625108  0.62354408
   0.36295959  0.00173271  0.68704208
   0.40360103  0.02854862  0.92584212
   0.09141066  0.64436655  0.02612728
   0.70302348  0.95983535  0.62485145
   0.77109800  0.92145984  0.38811912
   0.72746708  0.91511059  0.98447098
   0.35805651  0.69779988  0.51902402
   0.29472810  0.77761487  0.35423006
   0.00541789  0.37356530  0.28509604
   0.97411236  0.44380013  0.05669000
   0.33799545  0.72835196  0.94052107
   0.96201122  0.34563790  0.61742127
   0.92377794  0.31417440  0.38626797
   0.63215744  0.99144195  0.29199423
   0.59151017  0.96586418  0.05030131
   0.91738543  0.36504893  0.98487243
   0.94801016  0.75030415  0.68649340
   0.97275885  0.70633680  0.04811816
   0.90354767  0.74353551  0.28126629
   0.30686426  0.94214404  0.66218764
   0.33080165  0.96289822  0.01956688
   0.35717673  0.89470814  0.25515362
   0.98684512  0.61125103  0.35228712
   0.76118363  0.29553691  0.70938877
   0.68718137  0.36515766  0.01206426
   0.74658753  0.35654481  0.28196272
   0.41077639  0.97622299  0.33111191
   0.58800013  0.42028936  0.26080826
   0.62796387  0.47906119  0.25297092
   0.64435115  0.42176626  0.51796884
   0.82944083  0.17879492  0.20986885
   0.85497060  0.12346758  0.69239544
   0.83539836  0.05059465  0.57105429
   0.10946120  0.21566649  0.23322320
   0.15022044  0.16921665  0.35252298
   0.08531429  0.26179326  0.89089989
   0.12442559  0.21476128  0.03040502
   0.67785929  0.10511877  0.23657983
   0.68738483  0.14262485  0.35849577
   0.65321914  0.08392182  0.89489808
   0.66134955  0.12272143  0.03687657
   0.01526558  0.44855266  0.57522549
   0.02048148  0.48903610  0.69810331
   0.23072932  0.66075853  0.26995118
   0.18039008  0.67532673  0.38263320
   0.28523682  0.62068722  0.95028739
   0.23520885  0.63605431  0.08075314
   0.54375772  0.00560459  0.56680014
   0.49721520  0.01119787  0.68526943
   0.24290628  0.07544547  0.41799096
   0.20399721  0.12327301  0.28059752
   0.21922807  0.12259919  0.07835349
   0.17839082  0.16897954  0.95888413
   0.69463714  0.22941639  0.44201015
   0.67883343  0.19749504  0.29596567
   0.01919642  0.58263334  0.77351851
   0.01122465  0.54378453  0.63150409
   0.66031857  0.21664125  0.09834947
   0.65277415  0.17775813  0.97358864
   0.08422784  0.68087372  0.44677843
   0.13369872  0.66826458  0.31115091
   0.40393302  0.01118965  0.75048536
   0.45199359  0.00207376  0.61373679
   0.13572124  0.64810510  0.11376035
   0.18773206  0.63083046  0.00621892
   0.75511423  0.92118392  0.56392272
   0.79615126  0.87611369  0.70633312
   0.78041931  0.87574603  0.90740009
   0.82285742  0.83180434  0.03054500
   0.32372847  0.75555074  0.51124132
   0.32293531  0.79478705  0.67038630
   0.99241845  0.42601144  0.23003226
   0.99989598  0.46470593  0.37361820
   0.33441783  0.77890371  0.87331519
   0.33997751  0.81832616  0.00073818
   0.92353157  0.33133682  0.56158510
   0.87875627  0.33593096  0.70406632
   0.59134166  0.98187609  0.22658400
   0.54384583  0.99010970  0.36501704
   0.87729988  0.35321450  0.90414037
   0.83122683  0.35748026  0.02503911
   0.89500618  0.78977503  0.76328188
   0.85249889  0.83369280  0.64008412
   0.92007000  0.74447074  0.10660468
   0.87923975  0.78943525  0.96431723
   0.31662065  0.89026045  0.73778873
   0.31250010  0.85039588  0.60987307
   0.34041283  0.91197105  0.07986524
   0.33174777  0.87332551  0.93817190
   0.99595132  0.55980191  0.43016028
   0.99036827  0.51962551  0.30739715
   0.79508818  0.32009861  0.76452342
   0.83782284  0.31910902  0.63960931
   0.74368786  0.34362458  0.09236581
   0.78972970  0.34251781  0.95868215
   0.45228462  0.98631961  0.41224426
   0.49877437  0.98076447  0.29370337
   0.61835453  0.44135211  0.34685305
   0.84444638  0.08736976  0.63001179
   0.78927703  0.21726106  0.12436966
   0.13930565  0.16915821  0.50715030
   0.70146945  0.12833036  0.50915366
   0.03201516  0.47705581  0.85183067
   0.17675347  0.69288784  0.53096884
   0.49644990  0.02325993  0.83910671
   0.18923329  0.16913597  0.80422807
   0.63991812  0.19108500  0.82129072
   0.19052404  0.61403825  0.85749024
   0.81132019  0.83122055  0.18417944
   0.35050414  0.80613881  0.15460810
   0.83061725  0.37011968  0.17820405
   0.86390887  0.83435438  0.48635485
   0.30251422  0.86294463  0.45594018
   0.97881616  0.53166980  0.15370073
   0.84126700  0.30325502  0.48899419
   0.49972277  0.96871579  0.13974208
   0.70762218  0.33436849  0.49160607
   0.28206927  0.02202455  0.79330288
   0.63758070  0.33371850  0.19342588
   0.96348206  0.69032995  0.48431230
   0.35376659  0.95276052  0.45847681
   0.35171159  0.02402448  0.12846139
   0.71036466  0.97561323  0.18632218
   0.34614192  0.66326239  0.74505680
   0.73144589  0.27869172  0.02102979
   0.97967359  0.31650884  0.18683799
   0.31356847  0.70630076  0.18564373
   0.97635814  0.38497831  0.85545631
   0.64679364  0.97033971  0.85251751
   0.03208840  0.62572426  0.15010693
   0.64128742  0.03919938  0.52080710
   0.02881429  0.69374774  0.82144255
   0.30322597  0.62594231  0.57443261
   0.04510897  0.31882899  0.51874894
   0.70477080  0.43761441  0.37623613
   0.61867868  0.44303336  0.01499739
   0.78982660  0.21161572  0.69611525
Direct configuration=   116
   0.05885779  0.25839458  0.31449424
   0.03352673  0.30184459  0.94988297
   0.10247220  0.26222554  0.71670245
   0.68561137  0.05419783  0.31535867
   0.66323361  0.03294717  0.95751580
   0.63760116  0.09999100  0.71863953
   0.02461105  0.39717603  0.65362243
   0.27522822  0.66909011  0.34356096
   0.32189591  0.64038886  0.98105610
   0.28956952  0.59243137  0.79044934
   0.58530062  0.01537110  0.64847865
   0.29345806  0.03422076  0.35506293
   0.22574450  0.07573169  0.59321173
   0.27032852  0.08021177  0.99903847
   0.66686211  0.28808356  0.43937057
   0.73311048  0.20082751  0.56956083
   0.01026654  0.63321350  0.71127658
   0.03431707  0.56641652  0.94983164
   0.65235757  0.26806742  0.02412987
   0.04191062  0.67408557  0.37905059
   0.08498968  0.69623752  0.62355906
   0.36295519  0.00172148  0.68699230
   0.40357820  0.02855266  0.92583715
   0.09142455  0.64437441  0.02608286
   0.70302731  0.95983674  0.62487352
   0.77109683  0.92145992  0.38811644
   0.72746716  0.91509777  0.98445660
   0.35805718  0.69780887  0.51890402
   0.29468635  0.77761607  0.35415350
   0.00541067  0.37359371  0.28512395
   0.97413160  0.44381324  0.05668926
   0.33802998  0.72833566  0.94044173
   0.96202455  0.34564301  0.61740350
   0.92380532  0.31417126  0.38625617
   0.63216490  0.99141413  0.29211662
   0.59151045  0.96585424  0.05035906
   0.91738189  0.36505911  0.98487440
   0.94802275  0.75032641  0.68650993
   0.97277470  0.70635810  0.04813434
   0.90356920  0.74355629  0.28126910
   0.30683660  0.94214559  0.66211818
   0.33080987  0.96286839  0.01952374
   0.35721590  0.89467838  0.25508634
   0.98686252  0.61126322  0.35227615
   0.76121380  0.29549835  0.70943059
   0.68718631  0.36516867  0.01206592
   0.74660339  0.35652548  0.28197265
   0.41076341  0.97622014  0.33113560
   0.58802214  0.42028643  0.26085316
   0.62799736  0.47904042  0.25302205
   0.64437009  0.42174578  0.51805968
   0.82942896  0.17875532  0.20978751
   0.85491835  0.12344378  0.69246360
   0.83537200  0.05061269  0.57045569
   0.10946628  0.21566977  0.23325925
   0.15021758  0.16921760  0.35255039
   0.08531779  0.26182028  0.89094416
   0.12442560  0.21477795  0.03045735
   0.67783283  0.10512305  0.23660616
   0.68736242  0.14262160  0.35855646
   0.65320207  0.08392704  0.89492878
   0.66132382  0.12272720  0.03691287
   0.01527153  0.44857226  0.57522052
   0.02050234  0.48904573  0.69809720
   0.23073925  0.66075591  0.26994715
   0.18040382  0.67532366  0.38261639
   0.28525923  0.62067376  0.95031620
   0.23522974  0.63604221  0.08070958
   0.54374898  0.00559176  0.56681913
   0.49720853  0.01118891  0.68533022
   0.24290339  0.07542408  0.41800655
   0.20399579  0.12326804  0.28059721
   0.21921668  0.12259843  0.07835950
   0.17838760  0.16899372  0.95891062
   0.69462925  0.22939499  0.44212674
   0.67880141  0.19748946  0.29604177
   0.01921220  0.58264739  0.77351405
   0.01124330  0.54379854  0.63148318
   0.66028135  0.21663887  0.09846645
   0.65274127  0.17777373  0.97367629
   0.08425016  0.68087026  0.44676036
   0.13371303  0.66826173  0.31113247
   0.40392047  0.01119739  0.75051611
   0.45196780  0.00208075  0.61377322
   0.13573637  0.64810782  0.11374958
   0.18775648  0.63082495  0.00620540
   0.75511397  0.92118508  0.56391645
   0.79615378  0.87611208  0.70631930
   0.78042536  0.87574032  0.90738452
   0.82286304  0.83181031  0.03054419
   0.32371098  0.75554990  0.51121572
   0.32292603  0.79479835  0.67029247
   0.99242412  0.42602780  0.23001143
   0.99990881  0.46472218  0.37361375
   0.33442551  0.77890129  0.87322904
   0.33996221  0.81831885  0.00067619
   0.92352024  0.33134873  0.56159971
   0.87876058  0.33592801  0.70407627
   0.59134031  0.98185371  0.22658218
   0.54384687  0.99009200  0.36503060
   0.87730532  0.35321345  0.90411991
   0.83123342  0.35748187  0.02504693
   0.89501574  0.78978689  0.76328332
   0.85250295  0.83369827  0.64008241
   0.92008647  0.74449097  0.10660462
   0.87924853  0.78944885  0.96431276
   0.31660031  0.89026262  0.73774586
   0.31245777  0.85040894  0.60984307
   0.34042759  0.91195121  0.07974065
   0.33174418  0.87332340  0.93806881
   0.99597217  0.55981261  0.43014190
   0.99038978  0.51963580  0.30736999
   0.79511415  0.32006684  0.76453956
   0.83785702  0.31907431  0.63964581
   0.74368955  0.34363022  0.09238599
   0.78975201  0.34251106  0.95865266
   0.45228018  0.98631602  0.41227828
   0.49876826  0.98075046  0.29375466
   0.61835922  0.44134400  0.34681029
   0.84440535  0.08736632  0.62973735
   0.78923777  0.21726285  0.12432602
   0.13929882  0.16914939  0.50715290
   0.70143736  0.12832273  0.50917789
   0.03205057  0.47706401  0.85181178
   0.17675352  0.69289201  0.53096530
   0.49643024  0.02327452  0.83912460
   0.18922845  0.16914269  0.80426604
   0.63987289  0.19110149  0.82135033
   0.19053576  0.61404016  0.85747781
   0.81132245  0.83122438  0.18417641
   0.35048741  0.80613133  0.15451366
   0.83060962  0.37014658  0.17818058
   0.86391172  0.83436115  0.48635433
   0.30243951  0.86297532  0.45589902
   0.97884148  0.53168477  0.15367955
   0.84128964  0.30323400  0.48902467
   0.49971937  0.96870519  0.13981141
   0.70765151  0.33435379  0.49167163
   0.28206369  0.02201223  0.79330705
   0.63759013  0.33369785  0.19352196
   0.96348961  0.69034886  0.48433567
   0.35377261  0.95275091  0.45844476
   0.35167779  0.02401890  0.12844670
   0.71035343  0.97560522  0.18632395
   0.34612611  0.66327728  0.74500026
   0.73141675  0.27871032  0.02104896
   0.97968016  0.31652804  0.18682479
   0.31358355  0.70629168  0.18557023
   0.97636292  0.38499330  0.85546417
   0.64679087  0.97032176  0.85256260
   0.03209607  0.62574070  0.15008223
   0.64127941  0.03918692  0.52081308
   0.02882730  0.69376092  0.82144974
   0.30324035  0.62590910  0.57447252
   0.04511474  0.31884762  0.51877672
   0.70479893  0.43758564  0.37632059
   0.61867352  0.44306864  0.01502804
   0.78979846  0.21159008  0.69625533
Direct configuration=   117
   0.05886057  0.25840082  0.31451149
   0.03353180  0.30186139  0.94991164
   0.10247658  0.26223109  0.71672753
   0.68559833  0.05419955  0.31536290
   0.66322990  0.03294836  0.95751964
   0.63759127  0.09998793  0.71866008
   0.02460545  0.39718760  0.65361661
   0.27523976  0.66908168  0.34356847
   0.32189465  0.64039892  0.98103061
   0.28959609  0.59241366  0.79047898
   0.58529991  0.01536775  0.64849440
   0.29344708  0.03421007  0.35503471
   0.22574410  0.07573011  0.59322100
   0.27032044  0.08021040  0.99903708
   0.66687171  0.28807415  0.43943292
   0.73309880  0.20082475  0.56961689
   0.01027006  0.63322152  0.71127413
   0.03432545  0.56642150  0.94982706
   0.65233999  0.26806537  0.02415965
   0.04191355  0.67409262  0.37904626
   0.08500350  0.69623030  0.62356109
   0.36295339  0.00171632  0.68698135
   0.40356907  0.02855542  0.92584698
   0.09143314  0.64437875  0.02606483
   0.70302914  0.95983761  0.62488307
   0.77109572  0.92146045  0.38811032
   0.72746727  0.91509126  0.98444873
   0.35805872  0.69780998  0.51884035
   0.29467245  0.77761300  0.35414163
   0.00540577  0.37360665  0.28513618
   0.97413916  0.44382058  0.05667751
   0.33804529  0.72832743  0.94040658
   0.96202733  0.34564383  0.61738825
   0.92381702  0.31417236  0.38626349
   0.63216555  0.99139943  0.29216395
   0.59150645  0.96584979  0.05037560
   0.91738071  0.36506486  0.98487401
   0.94803051  0.75033593  0.68651881
   0.97278265  0.70636920  0.04814196
   0.90358033  0.74356530  0.28127175
   0.30682207  0.94214810  0.66208077
   0.33081092  0.96286182  0.01949873
   0.35722881  0.89466541  0.25503575
   0.98687057  0.61126826  0.35226975
   0.76122630  0.29548035  0.70945255
   0.68719052  0.36517353  0.01207086
   0.74661167  0.35651580  0.28197736
   0.41075811  0.97622023  0.33113603
   0.58803145  0.42028489  0.26087105
   0.62801221  0.47903227  0.25304067
   0.64437893  0.42173635  0.51808878
   0.82941759  0.17874181  0.20973334
   0.85489191  0.12342538  0.69248413
   0.83535798  0.05061989  0.57015806
   0.10946818  0.21567262  0.23328144
   0.15021842  0.16921556  0.35255036
   0.08532006  0.26183103  0.89097449
   0.12442655  0.21478567  0.03048285
   0.67782079  0.10512726  0.23662212
   0.68734876  0.14262047  0.35858569
   0.65319389  0.08392999  0.89494840
   0.66131286  0.12272767  0.03692008
   0.01527454  0.44858169  0.57521439
   0.02051176  0.48905225  0.69808938
   0.23074674  0.66075262  0.26993393
   0.18041182  0.67532299  0.38260893
   0.28526956  0.62066663  0.95032639
   0.23524047  0.63603669  0.08070284
   0.54374819  0.00558704  0.56683294
   0.49720432  0.01118558  0.68534228
   0.24289708  0.07541912  0.41800834
   0.20399428  0.12326510  0.28060185
   0.21920882  0.12260074  0.07835852
   0.17838453  0.16900175  0.95892616
   0.69461928  0.22939195  0.44216015
   0.67878718  0.19748773  0.29608389
   0.01921940  0.58265406  0.77350624
   0.01125301  0.54380453  0.63147592
   0.66026359  0.21664230  0.09851855
   0.65272266  0.17777808  0.97371533
   0.08425745  0.68086898  0.44675572
   0.13371714  0.66826009  0.31112462
   0.40390844  0.01119863  0.75051515
   0.45196053  0.00208482  0.61379403
   0.13574339  0.64810933  0.11374450
   0.18776598  0.63082245  0.00619845
   0.75511336  0.92118615  0.56391851
   0.79615440  0.87611225  0.70631245
   0.78042750  0.87573897  0.90737169
   0.82286545  0.83181361  0.03054362
   0.32369913  0.75555418  0.51116938
   0.32292212  0.79479991  0.67026242
   0.99242667  0.42603630  0.23001035
   0.99991442  0.46473078  0.37360910
   0.33442689  0.77890017  0.87319327
   0.33995619  0.81831866  0.00062747
   0.92352100  0.33135357  0.56160265
   0.87876502  0.33592596  0.70408011
   0.59134362  0.98184669  0.22661291
   0.54384944  0.99008271  0.36504546
   0.87730653  0.35321521  0.90413055
   0.83124030  0.35748191  0.02504879
   0.89502086  0.78979289  0.76328176
   0.85250459  0.83370113  0.64007798
   0.92009353  0.74450175  0.10660663
   0.87925218  0.78945608  0.96431177
   0.31659036  0.89026718  0.73772277
   0.31243649  0.85041666  0.60981373
   0.34043672  0.91193753  0.07971128
   0.33174518  0.87331967  0.93803048
   0.99598264  0.55981766  0.43013106
   0.99040054  0.51964027  0.30736102
   0.79512574  0.32005308  0.76455391
   0.83786559  0.31906111  0.63966100
   0.74368933  0.34362968  0.09238278
   0.78976271  0.34250600  0.95864574
   0.45227223  0.98631157  0.41229220
   0.49876823  0.98074403  0.29377706
   0.61836723  0.44133892  0.34681450
   0.84438892  0.08737185  0.62961631
   0.78922381  0.21725880  0.12431496
   0.13929607  0.16914592  0.50715171
   0.70142228  0.12832024  0.50919353
   0.03206732  0.47706755  0.85180357
   0.17675386  0.69289583  0.53096825
   0.49642036  0.02327945  0.83913850
   0.18922869  0.16914488  0.80427812
   0.63985324  0.19110910  0.82139197
   0.19054203  0.61403983  0.85746841
   0.81132548  0.83122485  0.18417205
   0.35047838  0.80612669  0.15448208
   0.83060465  0.37015920  0.17816323
   0.86391360  0.83436466  0.48635243
   0.30240589  0.86298812  0.45589451
   0.97885435  0.53169065  0.15367053
   0.84130219  0.30322112  0.48903159
   0.49971672  0.96869915  0.13983202
   0.70766390  0.33434654  0.49170806
   0.28205809  0.02200832  0.79329709
   0.63759380  0.33369274  0.19356433
   0.96349474  0.69035687  0.48433918
   0.35377723  0.95274217  0.45841843
   0.35166253  0.02401524  0.12844453
   0.71034799  0.97560117  0.18632893
   0.34612089  0.66328216  0.74497685
   0.73140580  0.27871709  0.02106644
   0.97968163  0.31653644  0.18682371
   0.31359094  0.70628804  0.18552964
   0.97636474  0.38500036  0.85546700
   0.64679180  0.97031469  0.85258362
   0.03210048  0.62574734  0.15007243
   0.64127366  0.03918206  0.52082017
   0.02883351  0.69376745  0.82144837
   0.30324845  0.62589569  0.57448466
   0.04511524  0.31885847  0.51879594
   0.70481340  0.43757123  0.37635694
   0.61867228  0.44308230  0.01503549
   0.78978495  0.21157989  0.69632978
Direct configuration=   118
   0.05886604  0.25841308  0.31454537
   0.03354178  0.30189440  0.94996797
   0.10248518  0.26224201  0.71677681
   0.68557272  0.05420293  0.31537119
   0.66322260  0.03295071  0.95752718
   0.63757183  0.09998190  0.71870044
   0.02459446  0.39721032  0.65360518
   0.27526244  0.66906512  0.34358322
   0.32189218  0.64041867  0.98098055
   0.28964829  0.59237886  0.79053720
   0.58529852  0.01536118  0.64852536
   0.29342550  0.03418907  0.35497927
   0.22574332  0.07572701  0.59323921
   0.27030457  0.08020770  0.99903434
   0.66689057  0.28805567  0.43955542
   0.73307585  0.20081932  0.56972702
   0.01027700  0.63323728  0.71126931
   0.03434191  0.56643129  0.94981808
   0.65230546  0.26806136  0.02421815
   0.04191930  0.67410646  0.37903776
   0.08503065  0.69621613  0.62356507
   0.36294985  0.00170618  0.68695983
   0.40355115  0.02856085  0.92586628
   0.09145000  0.64438729  0.02602940
   0.70303274  0.95983933  0.62490182
   0.77109355  0.92146150  0.38809831
   0.72746749  0.91507847  0.98443325
   0.35806173  0.69781217  0.51871527
   0.29464514  0.77760697  0.35411830
   0.00539615  0.37363207  0.28516021
   0.97415401  0.44383500  0.05665442
   0.33807538  0.72831128  0.94033752
   0.96203279  0.34564545  0.61735828
   0.92384002  0.31417452  0.38627787
   0.63216684  0.99137057  0.29225693
   0.59149860  0.96584104  0.05040811
   0.91737839  0.36507616  0.98487322
   0.94804576  0.75035463  0.68653627
   0.97279825  0.70639101  0.04815692
   0.90360219  0.74358300  0.28127697
   0.30679352  0.94215302  0.66200728
   0.33081297  0.96284892  0.01944958
   0.35725417  0.89463993  0.25493636
   0.98688639  0.61127817  0.35225717
   0.76125085  0.29544499  0.70949571
   0.68719879  0.36518308  0.01208056
   0.74662794  0.35649679  0.28198662
   0.41074770  0.97622041  0.33113688
   0.58804972  0.42028185  0.26090620
   0.62804139  0.47901625  0.25307724
   0.64439631  0.42171781  0.51814594
   0.82939524  0.17871529  0.20962692
   0.85483997  0.12338923  0.69252445
   0.83533043  0.05063404  0.56957332
   0.10947191  0.21567822  0.23332505
   0.15022008  0.16921153  0.35255029
   0.08532451  0.26185214  0.89103408
   0.12442841  0.21480084  0.03053295
   0.67779716  0.10513554  0.23665348
   0.68732193  0.14261824  0.35864311
   0.65317784  0.08393579  0.89498694
   0.66129134  0.12272860  0.03693424
   0.01528047  0.44860022  0.57520234
   0.02053025  0.48906507  0.69807403
   0.23076144  0.66074615  0.26990796
   0.18042753  0.67532167  0.38259427
   0.28528986  0.62065262  0.95034642
   0.23526156  0.63602584  0.08068959
   0.54374663  0.00557778  0.56686008
   0.49719605  0.01117906  0.68536597
   0.24288466  0.07540940  0.41801188
   0.20399131  0.12325933  0.28061096
   0.21919338  0.12260529  0.07835660
   0.17837848  0.16901752  0.95895670
   0.69459969  0.22938599  0.44222581
   0.67875922  0.19748433  0.29616665
   0.01923354  0.58266718  0.77349091
   0.01127209  0.54381628  0.63146165
   0.66022870  0.21664904  0.09862090
   0.65268610  0.17778662  0.97379203
   0.08427177  0.68086646  0.44674660
   0.13372523  0.66825686  0.31110918
   0.40388479  0.01120105  0.75051328
   0.45194626  0.00209281  0.61383492
   0.13575717  0.64811228  0.11373454
   0.18778465  0.63081755  0.00618479
   0.75511215  0.92118825  0.56392255
   0.79615564  0.87611259  0.70629899
   0.78043170  0.87573631  0.90734649
   0.82287019  0.83182010  0.03054249
   0.32367586  0.75556257  0.51107833
   0.32291446  0.79480297  0.67020338
   0.99243166  0.42605299  0.23000824
   0.99992543  0.46474768  0.37359998
   0.33442960  0.77889798  0.87312299
   0.33994436  0.81831828  0.00053174
   0.92352247  0.33136308  0.56160840
   0.87877375  0.33592193  0.70408765
   0.59135011  0.98183289  0.22667328
   0.54385447  0.99006447  0.36507463
   0.87730890  0.35321867  0.90415146
   0.83125380  0.35748198  0.02505243
   0.89503092  0.78980467  0.76327870
   0.85250782  0.83370675  0.64006926
   0.92010739  0.74452292  0.10661056
   0.87925934  0.78947027  0.96430982
   0.31657081  0.89027613  0.73767742
   0.31239467  0.85043182  0.60975608
   0.34045466  0.91191064  0.07965359
   0.33174714  0.87331234  0.93795519
   0.99600320  0.55982758  0.43010978
   0.99042168  0.51964904  0.30734339
   0.79514851  0.32002605  0.76458210
   0.83788243  0.31903519  0.63969083
   0.74368890  0.34362861  0.09237649
   0.78978372  0.34249605  0.95863214
   0.45225662  0.98630283  0.41231954
   0.49876816  0.98073140  0.29382107
   0.61838298  0.44132893  0.34682276
   0.84435665  0.08738272  0.62937851
   0.78919640  0.21725085  0.12429323
   0.13929066  0.16913910  0.50714939
   0.70139265  0.12831533  0.50922425
   0.03210021  0.47707452  0.85178744
   0.17675452  0.69290335  0.53097406
   0.49640096  0.02328914  0.83916582
   0.18922915  0.16914917  0.80430187
   0.63981464  0.19112405  0.82147377
   0.19055433  0.61403917  0.85744994
   0.81133145  0.83122577  0.18416348
   0.35046064  0.80611756  0.15442003
   0.83059489  0.37018400  0.17812917
   0.86391728  0.83437157  0.48634870
   0.30233984  0.86301326  0.45588566
   0.97887962  0.53170219  0.15365281
   0.84132684  0.30319581  0.48904517
   0.49971152  0.96868727  0.13987251
   0.70768825  0.33433229  0.49177962
   0.28204708  0.02200064  0.79327754
   0.63760101  0.33368270  0.19364756
   0.96350483  0.69037259  0.48434607
   0.35378630  0.95272500  0.45836671
   0.35163254  0.02400807  0.12844026
   0.71033730  0.97559321  0.18633872
   0.34611062  0.66329177  0.74493087
   0.73138429  0.27873040  0.02110077
   0.97968453  0.31655293  0.18682158
   0.31360548  0.70628088  0.18544988
   0.97636831  0.38501423  0.85547256
   0.64679363  0.97030079  0.85262494
   0.03210914  0.62576037  0.15005317
   0.64126237  0.03917249  0.52083409
   0.02884571  0.69378029  0.82144568
   0.30326438  0.62586935  0.57450850
   0.04511624  0.31887980  0.51883368
   0.70484185  0.43754292  0.37642834
   0.61866986  0.44310912  0.01505013
   0.78975841  0.21155988  0.69647604
Direct configuration=   119
   0.05886741  0.25841751  0.31456103
   0.03354461  0.30190533  0.94998681
   0.10248848  0.26224502  0.71679324
   0.68556435  0.05420355  0.31537408
   0.66322016  0.03295070  0.95753232
   0.63756523  0.09998051  0.71871193
   0.02459095  0.39721797  0.65360163
   0.27526975  0.66905872  0.34358962
   0.32189122  0.64042553  0.98096568
   0.28966448  0.59236677  0.79055620
   0.58529765  0.01535839  0.64853351
   0.29341899  0.03418156  0.35496126
   0.22574318  0.07572585  0.59324640
   0.27029907  0.08020708  0.99903306
   0.66689608  0.28805014  0.43959274
   0.73306963  0.20081558  0.56976737
   0.01027903  0.63324248  0.71126774
   0.03434743  0.56643466  0.94981439
   0.65229413  0.26806046  0.02423698
   0.04192164  0.67411128  0.37903671
   0.08503944  0.69621125  0.62356394
   0.36294738  0.00170287  0.68695594
   0.40354504  0.02856251  0.92587292
   0.09145558  0.64439018  0.02601895
   0.70303371  0.95984005  0.62490805
   0.77109243  0.92146201  0.38809502
   0.72746750  0.91507433  0.98442808
   0.35806252  0.69781239  0.51867505
   0.29463623  0.77760576  0.35411010
   0.00539259  0.37363991  0.28516777
   0.97415853  0.44383980  0.05664552
   0.33808461  0.72830624  0.94031575
   0.96203388  0.34564634  0.61735159
   0.92384615  0.31417573  0.38628326
   0.63216801  0.99136081  0.29228337
   0.59149545  0.96583868  0.05041915
   0.91737819  0.36508022  0.98487298
   0.94805119  0.75036036  0.68654153
   0.97280355  0.70639841  0.04816089
   0.90360912  0.74358874  0.28128036
   0.30678409  0.94215555  0.66198200
   0.33081293  0.96284610  0.01943255
   0.35726133  0.89463130  0.25490414
   0.98689143  0.61128148  0.35225249
   0.76125838  0.29543397  0.70951183
   0.68720145  0.36518627  0.01208425
   0.74663332  0.35649058  0.28198971
   0.41074409  0.97622073  0.33113380
   0.58805457  0.42028048  0.26091438
   0.62805054  0.47901164  0.25308775
   0.64440141  0.42171248  0.51815568
   0.82938652  0.17870792  0.20958849
   0.85482461  0.12338225  0.69254580
   0.83532272  0.05064507  0.56938973
   0.10947269  0.21568091  0.23333907
   0.15022071  0.16920977  0.35255027
   0.08532652  0.26185829  0.89105427
   0.12442886  0.21480614  0.03054901
   0.67778954  0.10513756  0.23666326
   0.68731218  0.14261786  0.35866075
   0.65317249  0.08393704  0.89499840
   0.66128470  0.12272906  0.03694068
   0.01528254  0.44860619  0.57519837
   0.02053628  0.48906940  0.69806857
   0.23076743  0.66074373  0.26990048
   0.18043206  0.67532155  0.38259029
   0.28529708  0.62064809  0.95035110
   0.23526817  0.63602242  0.08069006
   0.54374684  0.00557503  0.56687117
   0.49719357  0.01117781  0.68537087
   0.24287991  0.07540735  0.41800915
   0.20398975  0.12325748  0.28061398
   0.21918865  0.12260675  0.07835667
   0.17837652  0.16902247  0.95896556
   0.69459320  0.22938480  0.44224692
   0.67875034  0.19748460  0.29619535
   0.01923823  0.58267120  0.77348572
   0.01127856  0.54381995  0.63145693
   0.66021732  0.21665176  0.09865078
   0.65267339  0.17778867  0.97381551
   0.08427552  0.68086592  0.44674594
   0.13372851  0.66825594  0.31110588
   0.40387739  0.01120168  0.75051377
   0.45194234  0.00209478  0.61384410
   0.13576198  0.64811302  0.11372957
   0.18778987  0.63081607  0.00618049
   0.75511194  0.92118896  0.56392276
   0.79615603  0.87611291  0.70629417
   0.78043249  0.87573599  0.90733914
   0.82287190  0.83182216  0.03054052
   0.32366957  0.75556457  0.51104760
   0.32291140  0.79480286  0.67018510
   0.99243312  0.42605910  0.23000857
   0.99992886  0.46475298  0.37359576
   0.33442981  0.77889661  0.87309895
   0.33994165  0.81831858  0.00050241
   0.92352523  0.33136531  0.56160887
   0.87877655  0.33592038  0.70409095
   0.59135166  0.98182856  0.22669601
   0.54385602  0.99005864  0.36508916
   0.87731039  0.35322015  0.90415927
   0.83125784  0.35748175  0.02505223
   0.89503407  0.78980884  0.76327760
   0.85250910  0.83370846  0.64006543
   0.92011193  0.74452992  0.10661179
   0.87926182  0.78947496  0.96430975
   0.31656419  0.89027919  0.73765851
   0.31238147  0.85043692  0.60973954
   0.34046014  0.91190265  0.07963826
   0.33174832  0.87330953  0.93793366
   0.99601003  0.55983067  0.43010340
   0.99042865  0.51965230  0.30733828
   0.79515534  0.32001738  0.76459327
   0.83788704  0.31902793  0.63969694
   0.74369016  0.34362693  0.09237040
   0.78978925  0.34249227  0.95863442
   0.45225185  0.98629977  0.41232893
   0.49876802  0.98072722  0.29383505
   0.61839131  0.44132494  0.34684013
   0.84434333  0.08737456  0.62928055
   0.78918851  0.21724723  0.12428825
   0.13928916  0.16913705  0.50714754
   0.70138331  0.12831377  0.50923811
   0.03211070  0.47707679  0.85178136
   0.17675518  0.69290595  0.53097447
   0.49639462  0.02329149  0.83917469
   0.18922983  0.16915050  0.80430866
   0.63980256  0.19112896  0.82150431
   0.19055858  0.61403858  0.85744311
   0.81133386  0.83122578  0.18416034
   0.35045437  0.80611472  0.15439977
   0.83059142  0.37019208  0.17811859
   0.86391864  0.83437393  0.48634659
   0.30231862  0.86302121  0.45588344
   0.97888809  0.53170553  0.15364726
   0.84133532  0.30318675  0.48904867
   0.49970963  0.96868311  0.13988257
   0.70769569  0.33432748  0.49180351
   0.28204283  0.02199866  0.79326850
   0.63760338  0.33368029  0.19367362
   0.96350859  0.69037748  0.48434625
   0.35378933  0.95271830  0.45834692
   0.35162356  0.02400557  0.12843923
   0.71033381  0.97559080  0.18634275
   0.34610836  0.66329451  0.74491371
   0.73137800  0.27873399  0.02111294
   0.97968504  0.31655810  0.18682299
   0.31361027  0.70627846  0.18542357
   0.97636917  0.38501879  0.85547336
   0.64679471  0.97029698  0.85263808
   0.03211231  0.62576430  0.15004719
   0.64125826  0.03916997  0.52084074
   0.02884974  0.69378456  0.82144346
   0.30326984  0.62586181  0.57451212
   0.04511611  0.31888700  0.51884734
   0.70485134  0.43753350  0.37645054
   0.61866965  0.44311666  0.01505270
   0.78974950  0.21155415  0.69652687
Direct configuration=   120
   0.05887153  0.25843078  0.31460799
   0.03355312  0.30193813  0.95004336
   0.10249838  0.26225405  0.71684254
   0.68553922  0.05420542  0.31538272
   0.66321285  0.03295068  0.95754772
   0.63754544  0.09997631  0.71874641
   0.02458040  0.39724095  0.65359099
   0.27529166  0.66903950  0.34360884
   0.32188833  0.64044612  0.98092109
   0.28971305  0.59233050  0.79061318
   0.58529506  0.01535001  0.64855793
   0.29339947  0.03415901  0.35490724
   0.22574276  0.07572237  0.59326797
   0.27028256  0.08020522  0.99902922
   0.66691263  0.28803354  0.43970470
   0.73305095  0.20080439  0.56988844
   0.01028514  0.63325809  0.71126303
   0.03436400  0.56644477  0.94980332
   0.65226012  0.26805778  0.02429344
   0.04192866  0.67412574  0.37903357
   0.08506579  0.69619664  0.62356053
   0.36293998  0.00169295  0.68694429
   0.40352671  0.02856747  0.92589284
   0.09147230  0.64439886  0.02598762
   0.70303664  0.95984222  0.62492676
   0.77108905  0.92146355  0.38808518
   0.72746754  0.91506191  0.98441257
   0.35806488  0.69781303  0.51855441
   0.29460947  0.77760211  0.35408549
   0.00538191  0.37366344  0.28519044
   0.97417208  0.44385420  0.05661882
   0.33811231  0.72829114  0.94025043
   0.96203716  0.34564903  0.61733151
   0.92386457  0.31417938  0.38629943
   0.63217152  0.99133153  0.29236270
   0.59148599  0.96583162  0.05045225
   0.91737760  0.36509241  0.98487226
   0.94806747  0.75037757  0.68655731
   0.97281946  0.70642062  0.04817278
   0.90362993  0.74360598  0.28129053
   0.30675580  0.94216314  0.66190617
   0.33081283  0.96283765  0.01938146
   0.35728284  0.89460543  0.25480747
   0.98690653  0.61129141  0.35223846
   0.76128098  0.29540093  0.70956020
   0.68720942  0.36519583  0.01209531
   0.74664946  0.35647194  0.28199899
   0.41073328  0.97622169  0.33112458
   0.58806913  0.42027637  0.26093890
   0.62807798  0.47899779  0.25311927
   0.64441672  0.42169649  0.51818490
   0.82936037  0.17868581  0.20947318
   0.85477854  0.12336132  0.69260987
   0.83529959  0.05067815  0.56883896
   0.10947502  0.21568895  0.23338111
   0.15022261  0.16920449  0.35255020
   0.08533257  0.26187672  0.89111482
   0.12443019  0.21482204  0.03059721
   0.67776669  0.10514362  0.23669259
   0.68728292  0.14261673  0.35871370
   0.65315644  0.08394082  0.89503279
   0.66126478  0.12273045  0.03696000
   0.01528873  0.44862412  0.57518644
   0.02055440  0.48908242  0.69805218
   0.23078540  0.66073645  0.26987806
   0.18044566  0.67532120  0.38257838
   0.28531875  0.62063450  0.95036513
   0.23528800  0.63601215  0.08069146
   0.54374747  0.00556680  0.56690446
   0.49718611  0.01117406  0.68538558
   0.24286566  0.07540119  0.41800098
   0.20398507  0.12325195  0.28062304
   0.21917444  0.12261114  0.07835687
   0.17837064  0.16903732  0.95899212
   0.69457370  0.22938125  0.44231027
   0.67872370  0.19748538  0.29628145
   0.01925231  0.58268327  0.77347015
   0.01129795  0.54383096  0.63144275
   0.66018320  0.21665992  0.09874042
   0.65263525  0.17779481  0.97388597
   0.08428677  0.68086429  0.44674399
   0.13373836  0.66825320  0.31109601
   0.40385520  0.01120356  0.75051523
   0.45193058  0.00210070  0.61387164
   0.13577641  0.64811525  0.11371467
   0.18780554  0.63081160  0.00616759
   0.75511130  0.92119109  0.56392338
   0.79615720  0.87611387  0.70627972
   0.78043485  0.87573503  0.90731708
   0.82287702  0.83182835  0.03053463
   0.32365070  0.75557055  0.51095541
   0.32290221  0.79480251  0.67013027
   0.99243749  0.42607740  0.23000956
   0.99993915  0.46476889  0.37358308
   0.33443046  0.77889251  0.87302682
   0.33993352  0.81831947  0.00041444
   0.92353350  0.33137199  0.56161025
   0.87878496  0.33591572  0.70410082
   0.59135630  0.98181557  0.22676420
   0.54386066  0.99004114  0.36513275
   0.87731485  0.35322459  0.90418269
   0.83126993  0.35748106  0.02505160
   0.89504354  0.78982133  0.76327429
   0.85251294  0.83371358  0.64005394
   0.92012555  0.74455095  0.10661550
   0.87926927  0.78948901  0.96430957
   0.31654434  0.89028838  0.73760178
   0.31234187  0.85045224  0.60968994
   0.34047657  0.91187865  0.07959226
   0.33175187  0.87330109  0.93786907
   0.99603051  0.55983994  0.43008427
   0.99044957  0.51966207  0.30732294
   0.79517585  0.31999137  0.76462677
   0.83790087  0.31900614  0.63971527
   0.74369394  0.34362188  0.09235212
   0.78980584  0.34248091  0.95864125
   0.45223755  0.98629062  0.41235709
   0.49876759  0.98071466  0.29387698
   0.61841629  0.44131298  0.34689225
   0.84430334  0.08735010  0.62898667
   0.78916486  0.21723638  0.12427331
   0.13928465  0.16913090  0.50714199
   0.70135529  0.12830910  0.50927970
   0.03214220  0.47708360  0.85176313
   0.17675715  0.69291373  0.53097572
   0.49637560  0.02329856  0.83920131
   0.18923184  0.16915451  0.80432906
   0.63976634  0.19114368  0.82159591
   0.19057131  0.61403680  0.85742264
   0.81134111  0.83122580  0.18415091
   0.35043557  0.80610620  0.15433898
   0.83058102  0.37021635  0.17808688
   0.86392272  0.83438102  0.48634026
   0.30225496  0.86304507  0.45587676
   0.97891347  0.53171555  0.15363061
   0.84136076  0.30315959  0.48905916
   0.49970397  0.96867063  0.13991274
   0.70771801  0.33431305  0.49187518
   0.28203009  0.02199269  0.79324141
   0.63761046  0.33367306  0.19375181
   0.96351985  0.69039215  0.48434681
   0.35379840  0.95269820  0.45828755
   0.35159662  0.02399806  0.12843613
   0.71032336  0.97558355  0.18635484
   0.34610158  0.66330272  0.74486222
   0.73135913  0.27874474  0.02114944
   0.97968658  0.31657361  0.18682722
   0.31362465  0.70627121  0.18534463
   0.97637174  0.38503247  0.85547575
   0.64679795  0.97028553  0.85267749
   0.03212182  0.62577610  0.15002925
   0.64124594  0.03916243  0.52086068
   0.02886182  0.69379737  0.82143680
   0.30328623  0.62583919  0.57452297
   0.04511572  0.31890861  0.51888832
   0.70487980  0.43750524  0.37651714
   0.61866901  0.44313926  0.01506040
   0.78972279  0.21153697  0.69667933
Direct configuration=   121
   0.05887079  0.25842841  0.31459961
   0.03355160  0.30193228  0.95003327
   0.10249661  0.26225244  0.71683374
   0.68554371  0.05420509  0.31538118
   0.66321415  0.03295068  0.95754497
   0.63754898  0.09997706  0.71874025
   0.02458228  0.39723685  0.65359289
   0.27528775  0.66904293  0.34360541
   0.32188885  0.64044244  0.98092905
   0.28970438  0.59233697  0.79060300
   0.58529553  0.01535151  0.64855357
   0.29340295  0.03416304  0.35491688
   0.22574284  0.07572299  0.59326412
   0.27028551  0.08020555  0.99902990
   0.66690968  0.28803650  0.43968471
   0.73305428  0.20080638  0.56986683
   0.01028405  0.63325531  0.71126387
   0.03436104  0.56644297  0.94980530
   0.65226620  0.26805826  0.02428336
   0.04192740  0.67412316  0.37903413
   0.08506108  0.69619925  0.62356113
   0.36294130  0.00169472  0.68694637
   0.40352999  0.02856658  0.92588928
   0.09146931  0.64439731  0.02599321
   0.70303612  0.95984184  0.62492342
   0.77108965  0.92146327  0.38808694
   0.72746753  0.91506413  0.98441534
   0.35806446  0.69781291  0.51857595
   0.29461425  0.77760276  0.35408989
   0.00538382  0.37365924  0.28518640
   0.97416966  0.44385163  0.05662359
   0.33810736  0.72829383  0.94026209
   0.96203658  0.34564855  0.61733509
   0.92386128  0.31417873  0.38629654
   0.63217089  0.99133675  0.29234854
   0.59148768  0.96583288  0.05044634
   0.91737771  0.36509024  0.98487239
   0.94806456  0.75037450  0.68655449
   0.97281662  0.70641666  0.04817066
   0.90362622  0.74360291  0.28128871
   0.30676085  0.94216178  0.66191971
   0.33081285  0.96283916  0.01939058
   0.35727900  0.89461005  0.25482473
   0.98690384  0.61128964  0.35224096
   0.76127694  0.29540683  0.70955156
   0.68720800  0.36519412  0.01209333
   0.74664658  0.35647526  0.28199733
   0.41073521  0.97622152  0.33112622
   0.58806653  0.42027710  0.26093453
   0.62807308  0.47900026  0.25311364
   0.64441398  0.42169935  0.51817968
   0.82936504  0.17868975  0.20949376
   0.85478676  0.12336505  0.69259843
   0.83530372  0.05067224  0.56893729
   0.10947461  0.21568752  0.23337361
   0.15022227  0.16920543  0.35255021
   0.08533149  0.26187343  0.89110401
   0.12442995  0.21481920  0.03058860
   0.67777077  0.10514254  0.23668736
   0.68728814  0.14261693  0.35870425
   0.65315931  0.08394014  0.89502665
   0.66126833  0.12273021  0.03695655
   0.01528763  0.44862092  0.57518857
   0.02055116  0.48908010  0.69805511
   0.23078219  0.66073775  0.26988206
   0.18044324  0.67532126  0.38258050
   0.28531488  0.62063692  0.95036262
   0.23528446  0.63601399  0.08069121
   0.54374735  0.00556827  0.56689851
   0.49718744  0.01117473  0.68538296
   0.24286820  0.07540229  0.41800244
   0.20398591  0.12325294  0.28062142
   0.21917698  0.12261035  0.07835683
   0.17837169  0.16903467  0.95898738
   0.69457718  0.22938188  0.44229896
   0.67872846  0.19748524  0.29626608
   0.01924980  0.58268112  0.77347293
   0.01129449  0.54382899  0.63144528
   0.66018929  0.21665846  0.09872441
   0.65264206  0.17779371  0.97387340
   0.08428476  0.68086458  0.44674434
   0.13373660  0.66825369  0.31109777
   0.40385916  0.01120322  0.75051497
   0.45193268  0.00209964  0.61386673
   0.13577384  0.64811485  0.11371733
   0.18780274  0.63081240  0.00616989
   0.75511142  0.92119071  0.56392327
   0.79615699  0.87611370  0.70628230
   0.78043443  0.87573520  0.90732102
   0.82287610  0.83182725  0.03053568
   0.32365407  0.75556948  0.51097187
   0.32290385  0.79480257  0.67014006
   0.99243671  0.42607414  0.23000938
   0.99993731  0.46476605  0.37358534
   0.33443035  0.77889324  0.87303969
   0.33993497  0.81831931  0.00043015
   0.92353203  0.33137080  0.56161000
   0.87878345  0.33591655  0.70409906
   0.59135547  0.98181789  0.22675203
   0.54385983  0.99004426  0.36512497
   0.87731405  0.35322380  0.90417851
   0.83126777  0.35748119  0.02505171
   0.89504185  0.78981910  0.76327488
   0.85251225  0.83371266  0.64005599
   0.92012312  0.74454719  0.10661484
   0.87926794  0.78948650  0.96430960
   0.31654789  0.89028674  0.73761191
   0.31234894  0.85044950  0.60969880
   0.34047363  0.91188294  0.07960047
   0.33175124  0.87330260  0.93788060
   0.99602685  0.55983829  0.43008769
   0.99044584  0.51966032  0.30732568
   0.79517219  0.31999601  0.76462079
   0.83789840  0.31901003  0.63971200
   0.74369327  0.34362278  0.09235538
   0.78980288  0.34248294  0.95864003
   0.45224011  0.98629226  0.41235206
   0.49876767  0.98071690  0.29386949
   0.61841183  0.44131511  0.34688295
   0.84431048  0.08735446  0.62903913
   0.78916908  0.21723832  0.12427598
   0.13928546  0.16913200  0.50714298
   0.70136029  0.12830993  0.50927228
   0.03213658  0.47708238  0.85176639
   0.17675679  0.69291234  0.53097550
   0.49637899  0.02329730  0.83919656
   0.18923148  0.16915379  0.80432542
   0.63977280  0.19114105  0.82157955
   0.19056903  0.61403712  0.85742630
   0.81133982  0.83122580  0.18415260
   0.35043893  0.80610772  0.15434984
   0.83058288  0.37021202  0.17809254
   0.86392199  0.83437975  0.48634139
   0.30226633  0.86304081  0.45587795
   0.97890894  0.53171376  0.15363358
   0.84135622  0.30316444  0.48905729
   0.49970498  0.96867286  0.13990735
   0.70771403  0.33431562  0.49186239
   0.28203236  0.02199376  0.79324625
   0.63760920  0.33367435  0.19373785
   0.96351784  0.69038953  0.48434671
   0.35379678  0.95270179  0.45829815
   0.35160143  0.02399940  0.12843668
   0.71032523  0.97558485  0.18635268
   0.34610279  0.66330125  0.74487141
   0.73136250  0.27874282  0.02114292
   0.97968630  0.31657084  0.18682647
   0.31362208  0.70627250  0.18535872
   0.97637129  0.38503003  0.85547532
   0.64679737  0.97028757  0.85267046
   0.03212012  0.62577399  0.15003245
   0.64124814  0.03916378  0.52085712
   0.02885967  0.69379509  0.82143799
   0.30328331  0.62584323  0.57452104
   0.04511579  0.31890476  0.51888101
   0.70487472  0.43751029  0.37650525
   0.61866912  0.44313523  0.01505903
   0.78972756  0.21154003  0.69665211
Direct configuration=   122
   0.05887126  0.25843139  0.31461539
   0.03355316  0.30193823  0.95004440
   0.10249869  0.26225373  0.71684501
   0.68553885  0.05420475  0.31538325
   0.66321288  0.03294891  0.95755362
   0.63754467  0.09997761  0.71874350
   0.02458048  0.39724175  0.65359133
   0.27529186  0.66903784  0.34360953
   0.32188814  0.64044680  0.98092422
   0.28971209  0.59232875  0.79061196
   0.58529479  0.01534894  0.64855704
   0.29339890  0.03415849  0.35490909
   0.22574276  0.07572241  0.59326705
   0.27028159  0.08020566  0.99902774
   0.66691046  0.28803594  0.43969798
   0.73305072  0.20080196  0.56988908
   0.01028487  0.63325842  0.71126323
   0.03436433  0.56644533  0.94980081
   0.65225958  0.26805961  0.02429563
   0.04192870  0.67412618  0.37903465
   0.08506581  0.69619633  0.62355877
   0.36293721  0.00169280  0.68694814
   0.40352542  0.02856698  0.92588981
   0.09147186  0.64439906  0.02598871
   0.70303633  0.95984253  0.62492736
   0.77108827  0.92146384  0.38808698
   0.72746724  0.91506208  0.98441281
   0.35806414  0.69781273  0.51855563
   0.29460753  0.77760483  0.35407633
   0.00538105  0.37366337  0.28519020
   0.97417207  0.44385423  0.05661981
   0.33811155  0.72829153  0.94025086
   0.96203733  0.34565051  0.61734089
   0.92386215  0.31417979  0.38629637
   0.63217418  0.99133081  0.29235826
   0.59148561  0.96583283  0.05045833
   0.91737878  0.36509326  0.98487300
   0.94806801  0.75037744  0.68655629
   0.97281993  0.70642142  0.04817108
   0.90362955  0.74360643  0.28129329
   0.30675558  0.94216469  0.66190321
   0.33081211  0.96283804  0.01938089
   0.35728225  0.89460400  0.25481385
   0.98690653  0.61129192  0.35223740
   0.76128054  0.29540173  0.70956501
   0.68720900  0.36519612  0.01209500
   0.74664958  0.35647170  0.28199885
   0.41073247  0.97622187  0.33112015
   0.58806826  0.42027596  0.26093578
   0.62807793  0.47899816  0.25311985
   0.64441659  0.42169729  0.51817518
   0.82936067  0.17868468  0.20947216
   0.85477787  0.12335899  0.69260712
   0.83529825  0.05067570  0.56882147
   0.10947429  0.21569053  0.23338078
   0.15022165  0.16920467  0.35255343
   0.08533332  0.26187636  0.89111420
   0.12442966  0.21482303  0.03059747
   0.67776643  0.10514160  0.23669172
   0.68728122  0.14261766  0.35871340
   0.65315599  0.08393928  0.89502957
   0.66126491  0.12273091  0.03696634
   0.01528904  0.44862424  0.57518685
   0.02055485  0.48908227  0.69805236
   0.23078690  0.66073625  0.26988442
   0.18044453  0.67532163  0.38257935
   0.28532012  0.62063463  0.95036265
   0.23528764  0.63601194  0.08069632
   0.54374768  0.00556687  0.56690808
   0.49718647  0.01117584  0.68538505
   0.24286592  0.07540133  0.41799572
   0.20398399  0.12325208  0.28062097
   0.21917553  0.12261049  0.07835902
   0.17837109  0.16903666  0.95898936
   0.69457620  0.22937992  0.44232116
   0.67872342  0.19748791  0.29628311
   0.01925279  0.58268304  0.77347101
   0.01129855  0.54383098  0.63144154
   0.66018279  0.21665962  0.09873552
   0.65263395  0.17779464  0.97388665
   0.08428658  0.68086466  0.44674637
   0.13374054  0.66825355  0.31109903
   0.40385711  0.01120379  0.75052163
   0.45193047  0.00209920  0.61386301
   0.13577725  0.64811486  0.11371199
   0.18780497  0.63081167  0.00616781
   0.75511163  0.92119111  0.56392049
   0.79615739  0.87611408  0.70627873
   0.78043400  0.87573571  0.90731966
   0.82287740  0.83182827  0.03053146
   0.32365439  0.75556759  0.51096192
   0.32290059  0.79480149  0.67012708
   0.99243709  0.42607851  0.23000801
   0.99993911  0.46476862  0.37358146
   0.33442965  0.77889136  0.87302271
   0.33993568  0.81831881  0.00042204
   0.92353592  0.33137026  0.56160984
   0.87878460  0.33591527  0.70410252
   0.59135390  0.98181454  0.22676129
   0.54385981  0.99004130  0.36514117
   0.87731664  0.35322466  0.90417833
   0.83126810  0.35748077  0.02505020
   0.89504353  0.78982191  0.76327444
   0.85251350  0.83371339  0.64005275
   0.92012612  0.74455101  0.10661563
   0.87926992  0.78948914  0.96431000
   0.31654376  0.89028786  0.73759464
   0.31234270  0.85045181  0.60969835
   0.34047493  0.91188189  0.07958827
   0.33175224  0.87330137  0.93786992
   0.99603092  0.55983990  0.43008587
   0.99044990  0.51966300  0.30732282
   0.79517507  0.31999111  0.76462979
   0.83790112  0.31900783  0.63970937
   0.74369701  0.34361969  0.09234933
   0.78980385  0.34247985  0.95865190
   0.45223986  0.98629073  0.41235748
   0.49876663  0.98071420  0.29387706
   0.61842022  0.44131198  0.34690825
   0.84430392  0.08735424  0.62898802
   0.78916330  0.21723747  0.12427021
   0.13928507  0.16913099  0.50714044
   0.70135535  0.12830899  0.50928693
   0.03214214  0.47708382  0.85176065
   0.17675815  0.69291371  0.53097119
   0.49637543  0.02329727  0.83919955
   0.18923237  0.16915472  0.80432904
   0.63976633  0.19114412  0.82160093
   0.19057187  0.61403626  0.85742180
   0.81134182  0.83122547  0.18415047
   0.35043451  0.80610670  0.15433460
   0.83058057  0.37021672  0.17808904
   0.86392303  0.83438129  0.48633838
   0.30225425  0.86304530  0.45587397
   0.97891416  0.53171506  0.15363059
   0.84136167  0.30315809  0.48905923
   0.49970376  0.96867014  0.13991022
   0.70771788  0.33431223  0.49187569
   0.28202905  0.02199339  0.79323837
   0.63761058  0.33367400  0.19375093
   0.96352067  0.69039211  0.48434413
   0.35379815  0.95269650  0.45828300
   0.35159784  0.02399785  0.12843589
   0.71032321  0.97558388  0.18635570
   0.34610350  0.66330249  0.74485517
   0.73135982  0.27874370  0.02115020
   0.97968606  0.31657361  0.18683066
   0.31362486  0.70627073  0.18534471
   0.97637121  0.38503282  0.85547382
   0.64679841  0.97028663  0.85267771
   0.03212259  0.62577590  0.15002908
   0.64124529  0.03916339  0.52086453
   0.02886219  0.69379761  0.82143488
   0.30328684  0.62584032  0.57451685
   0.04511535  0.31890894  0.51889048
   0.70488056  0.43750458  0.37651610
   0.61867003  0.44313749  0.01505803
   0.78972220  0.21153750  0.69668677
Direct configuration=   123
   0.05887266  0.25844036  0.31466273
   0.03355786  0.30195609  0.95007782
   0.10250491  0.26225761  0.71687880
   0.68552430  0.05420374  0.31538948
   0.66320905  0.03294359  0.95757956
   0.63753174  0.09997927  0.71875323
   0.02457507  0.39725646  0.65358665
   0.27530421  0.66902260  0.34362191
   0.32188601  0.64045985  0.98090972
   0.28973523  0.59230408  0.79063882
   0.58529257  0.01534124  0.64856744
   0.29338673  0.03414485  0.35488572
   0.22574251  0.07572069  0.59327585
   0.27026982  0.08020600  0.99902124
   0.66691283  0.28803425  0.43973778
   0.73304002  0.20078868  0.56995585
   0.01028732  0.63326777  0.71126132
   0.03437421  0.56645242  0.94978733
   0.65223973  0.26806364  0.02433242
   0.04193261  0.67413526  0.37903622
   0.08507998  0.69618760  0.62355169
   0.36292495  0.00168704  0.68695343
   0.40351173  0.02856816  0.92589140
   0.09147948  0.64440430  0.02597519
   0.70303695  0.95984461  0.62493917
   0.77108412  0.92146555  0.38808710
   0.72746636  0.91505595  0.98440525
   0.35806319  0.69781220  0.51849464
   0.29458736  0.77761105  0.35403565
   0.00537274  0.37367576  0.28520160
   0.97417930  0.44386205  0.05660847
   0.33812412  0.72828464  0.94021715
   0.96203959  0.34565640  0.61735829
   0.92386475  0.31418295  0.38629587
   0.63218403  0.99131296  0.29238743
   0.59147939  0.96583268  0.05049428
   0.91738201  0.36510233  0.98487483
   0.94807835  0.75038626  0.68656167
   0.97282987  0.70643572  0.04817233
   0.90363955  0.74361699  0.28130704
   0.30673976  0.94217343  0.66185373
   0.33080990  0.96283468  0.01935183
   0.35729202  0.89458585  0.25478119
   0.98691459  0.61129879  0.35222670
   0.76129133  0.29538642  0.70960536
   0.68721202  0.36520214  0.01209999
   0.74665859  0.35646102  0.28200339
   0.41072426  0.97622292  0.33110193
   0.58807345  0.42027252  0.26093953
   0.62809247  0.47899187  0.25313850
   0.64442442  0.42169114  0.51816167
   0.82934756  0.17866948  0.20940735
   0.85475118  0.12334079  0.69263318
   0.83528183  0.05068608  0.56847403
   0.10947335  0.21569957  0.23340230
   0.15021978  0.16920239  0.35256307
   0.08533882  0.26188517  0.89114479
   0.12442876  0.21483454  0.03062408
   0.67775342  0.10513878  0.23670481
   0.68726043  0.14261982  0.35874086
   0.65314605  0.08393668  0.89503830
   0.66125463  0.12273301  0.03699570
   0.01529328  0.44863422  0.57518171
   0.02056592  0.48908881  0.69804412
   0.23080102  0.66073175  0.26989150
   0.18044842  0.67532271  0.38257589
   0.28533583  0.62062773  0.95036272
   0.23529720  0.63600582  0.08071163
   0.54374867  0.00556267  0.56693679
   0.49718357  0.01117920  0.68539132
   0.24285907  0.07539847  0.41797554
   0.20397822  0.12324951  0.28061962
   0.21917118  0.12261089  0.07836558
   0.17836930  0.16904264  0.95899531
   0.69457327  0.22937405  0.44238775
   0.67870833  0.19749592  0.29633421
   0.01926176  0.58268880  0.77346525
   0.01131075  0.54383693  0.63143029
   0.66016330  0.21666308  0.09876884
   0.65260963  0.17779741  0.97392640
   0.08429202  0.68086490  0.44675245
   0.13375234  0.66825313  0.31110281
   0.40385095  0.01120550  0.75054160
   0.45192386  0.00209789  0.61385187
   0.13578750  0.64811488  0.11369596
   0.18781163  0.63080949  0.00616155
   0.75511228  0.92119228  0.56391215
   0.79615857  0.87611523  0.70626804
   0.78043273  0.87573725  0.90731560
   0.82288131  0.83183136  0.03051880
   0.32365534  0.75556191  0.51093207
   0.32289079  0.79479823  0.67008813
   0.99243825  0.42609163  0.23000388
   0.99994451  0.46477631  0.37356979
   0.33442755  0.77888570  0.87297177
   0.33993780  0.81831732  0.00039772
   0.92354760  0.33136863  0.56160935
   0.87878802  0.33591142  0.70411290
   0.59134921  0.98180451  0.22678909
   0.54385976  0.99003243  0.36518975
   0.87732441  0.35322724  0.90417778
   0.83126908  0.35747953  0.02504565
   0.89504860  0.78983033  0.76327310
   0.85251724  0.83371557  0.64004301
   0.92013511  0.74456245  0.10661803
   0.87927586  0.78949705  0.96431122
   0.31653136  0.89029124  0.73754285
   0.31232399  0.85045872  0.60969701
   0.34047884  0.91187875  0.07955169
   0.33175525  0.87329768  0.93783788
   0.99604313  0.55984475  0.43008043
   0.99046210  0.51967105  0.30731427
   0.79518371  0.31997643  0.76465680
   0.83790929  0.31900121  0.63970148
   0.74370825  0.34361041  0.09233118
   0.78980677  0.34247059  0.95868751
   0.45223912  0.98628615  0.41237374
   0.49876353  0.98070611  0.29389976
   0.61844540  0.44130260  0.34698418
   0.84428422  0.08735357  0.62883469
   0.78914594  0.21723492  0.12425292
   0.13928391  0.16912798  0.50713280
   0.70134054  0.12830616  0.50933090
   0.03215881  0.47708811  0.85174343
   0.17676222  0.69291780  0.53095828
   0.49636475  0.02329718  0.83920854
   0.18923505  0.16915750  0.80433990
   0.63974689  0.19115332  0.82166505
   0.19058037  0.61403368  0.85740829
   0.81134784  0.83122450  0.18414409
   0.35042126  0.80610366  0.15428891
   0.83057366  0.37023082  0.17807855
   0.86392616  0.83438591  0.48632934
   0.30221803  0.86305880  0.45586202
   0.97892980  0.53171896  0.15362162
   0.84137802  0.30313905  0.48906504
   0.49970010  0.96866197  0.13991884
   0.70772942  0.33430205  0.49191559
   0.28201911  0.02199228  0.79321474
   0.63761474  0.33367294  0.19379017
   0.96352917  0.69039985  0.48433640
   0.35380225  0.95268062  0.45823753
   0.35158709  0.02399318  0.12843353
   0.71031718  0.97558098  0.18636476
   0.34610563  0.66330619  0.74480642
   0.73135180  0.27874633  0.02117201
   0.97968531  0.31658191  0.18684323
   0.31363318  0.70626539  0.18530265
   0.97637098  0.38504119  0.85546931
   0.64680152  0.97028381  0.85269946
   0.03212999  0.62578165  0.15001895
   0.64123674  0.03916222  0.52088676
   0.02886975  0.69380520  0.82142557
   0.30329744  0.62583159  0.57450430
   0.04511404  0.31892148  0.51891890
   0.70489807  0.43748748  0.37654866
   0.61867273  0.44314430  0.01505504
   0.78970613  0.21152989  0.69679075
