Li C  O                                 
   1.00000000000000     
    30.0000000000000000    0.0000000000000000    0.0000000000000000
     0.0000000000000000   30.0000000000000000    0.0000000000000000
     0.0000000000000000    0.0000000000000000   30.0000000000000000
   Li   C    O 
     2     1     3
Direct
  0.9905921514757926  0.2212505762799113  0.1951334932351537
  0.0403994412138441  0.1994909888946658  0.2518581467386411
  0.0015870156521157  0.1949880804545835  0.2330182950838609
  0.0168185058291725  0.2397396746423658  0.1892089698521790
 -0.0042312720363578  0.1589671921030352  0.2232016896858610
  0.9739164071301175  0.2003040717547836  0.2581830943822024
 
  0.00000000E+00  0.00000000E+00  0.00000000E+00
  0.00000000E+00  0.00000000E+00  0.00000000E+00
  0.00000000E+00  0.00000000E+00  0.00000000E+00
  0.00000000E+00  0.00000000E+00  0.00000000E+00
  0.00000000E+00  0.00000000E+00  0.00000000E+00
  0.00000000E+00  0.00000000E+00  0.00000000E+00
