Li C  O                                 
   1.00000000000000     
     3.5508519767669053   -0.4423741216521820    0.0054255856246784
    -3.4154118519572632    5.8818462071703754   -0.7477473434260826
    -1.8302211605696634   -0.0137553998282518    3.2790922420175890
   Li   C    O 
     2     1     3
Direct
  0.5007926333841927  0.7034105036842510  0.3170135813838880
  0.7690502051265327  0.4969535739276579  0.7511595614540317
  0.5347933566358635  0.5893894130470338  0.6155937091220444
  0.5559626878298525  0.6646157995515467  0.0946056999123441
  0.5446280856769756  0.1079806498642430  0.0138045393433522
  0.2224249754954699  0.5653020784605972  0.7078229002531017
 
  0.00000000E+00  0.00000000E+00  0.00000000E+00
  0.00000000E+00  0.00000000E+00  0.00000000E+00
  0.00000000E+00  0.00000000E+00  0.00000000E+00
  0.00000000E+00  0.00000000E+00  0.00000000E+00
  0.00000000E+00  0.00000000E+00  0.00000000E+00
  0.00000000E+00  0.00000000E+00  0.00000000E+00
