Li C  O                                 
   1.00000000000000     
     3.6054929459347784   -0.4569811890094734    0.0232249923769344
    -3.4512916941582286    6.2370117094300612   -0.7806125309242128
    -1.8426722684504608   -0.0193675155430908    3.3543559622330239
   Li   C    O 
     2     1     3
Direct
  0.4919570781010440  0.6982805556640415  0.3158939085621318
  0.7678742545965415  0.5048218043930137  0.7443621645979955
  0.5326928504003305  0.5896504147227974  0.6101330441124284
  0.5483673383981962  0.6619670115586167  0.1012444362413998
  0.5462730694156760  0.1029343099184162  0.0209923785948536
  0.2404873532370984  0.5699979222784428  0.7073740593599529
 
  0.00000000E+00  0.00000000E+00  0.00000000E+00
  0.00000000E+00  0.00000000E+00  0.00000000E+00
  0.00000000E+00  0.00000000E+00  0.00000000E+00
  0.00000000E+00  0.00000000E+00  0.00000000E+00
  0.00000000E+00  0.00000000E+00  0.00000000E+00
  0.00000000E+00  0.00000000E+00  0.00000000E+00
