Li C  O                                 
   1.00000000000000     
    30.0    0.0    0.0
    0.0    30.0    0.0
    0.0    0.0    30.0
   Li   C    O 
     2     1     3
Cartesian
 -1.0022462903676526  7.2627273484631578  5.6923283654320231
  1.9729815482699902  5.8370483954601946  7.1558302845475144
 -0.1290644488892817  5.7996245646311557  6.9423053920703373
  0.6361185518864180  6.7334785504493935  6.2962120054060771
  0.4959395009550714  4.9496239414707670  7.6810045474488371
 -1.4012613839137478  5.8597147234057037  6.7504300744324084
 
  0.00000000E+00  0.00000000E+00  0.00000000E+00
  0.00000000E+00  0.00000000E+00  0.00000000E+00
  0.00000000E+00  0.00000000E+00  0.00000000E+00
  0.00000000E+00  0.00000000E+00  0.00000000E+00
  0.00000000E+00  0.00000000E+00  0.00000000E+00
  0.00000000E+00  0.00000000E+00  0.00000000E+00
