O  C  H  Co
 1.00000000
   25.98693002   0.00147765   -0.00028417
   12.99474432   22.50351615   -0.00057691
   -0.00007409   -0.00013281   6.80983206
   O   C   H   Co
   48   64   16   18
Direct
  0.06144361  0.25194818  0.32233747
  0.03793774  0.29658713  0.96034921
  0.10626997  0.25677954  0.72507409
  0.68920985  0.05931222  0.32262773
  0.66782870  0.03587342  0.96117520
  0.63954968  0.10403581  0.72535635
  0.02438473  0.39149799  0.65540488
  0.25409713  0.68751181  0.32192574
  0.29856551  0.66661480  0.95928238
  0.25888385  0.63779546  0.72458907
  0.58716754  0.02171049  0.65565470
  0.30001751  0.03424702  0.37626680
  0.23174145  0.07409519  0.61172283
  0.27649944  0.07889578  0.01447822
  0.66882995  0.29765119  0.37572763
  0.69697894  0.22951830  0.61160602
  0.00006966  0.63151319  0.71013484
  0.02910926  0.56310098  0.94534568
  0.64751201  0.27418247  0.01428631
  0.03678612  0.66605488  0.37660836
  0.07652070  0.69469156  0.61176316
  0.37129708  0.99772466  0.70986733
  0.41075786  0.02659792  0.94528857
  0.08132564  0.64506150  0.01455097
  0.70312230  0.96461760  0.62757398
  0.77136240  0.92486698  0.39193665
  0.72672856  0.91995716  0.98911713
  0.33604632  0.70035796  0.62580797
  0.30716757  0.76888283  0.39115225
  0.00355950  0.36771987  0.29333164
  0.97453118  0.43614445  0.05819138
  0.35678003  0.72404512  0.98844750
  0.96672740  0.33328034  0.62685229
  0.92694636  0.30473577  0.39156574
  0.63184947  0.00080713  0.29405743
  0.59252903  0.97179078  0.05856426
  0.92211268  0.35429188  0.98882024
  0.94201686  0.74734144  0.68124721
  0.96555568  0.70263996  0.04313887
  0.89724947  0.74237824  0.27854800
  0.31372379  0.93950463  0.68103843
  0.33480003  0.96306227  0.04294705
  0.36356478  0.89470704  0.27824512
  0.97924018  0.60772952  0.34815809
  0.74952197  0.31160627  0.68097118
  0.70479886  0.33279045  0.04250057
  0.74443050  0.36140820  0.27814332
  0.41596415  0.97683450  0.34803610
  0.11314137  0.21060568  0.24269221
  0.15424192  0.16523738  0.36421737
  0.08948215  0.25663580  0.90001815
  0.12874835  0.21023931  0.04114276
  0.67888077  0.11098731  0.24288908
  0.68323710  0.15205128  0.36429619
  0.65640039  0.08732162  0.90040532
  0.66362241  0.12657407  0.04133938
  0.01331085  0.44345534  0.57591345
  0.01685037  0.48494047  0.69754929
  0.21280032  0.67709627  0.24231592
  0.16750214  0.68126722  0.36396069
  0.25871810  0.65482286  0.89942475
  0.21242169  0.66185174  0.04076821
  0.54630287  0.01061876  0.57614083
  0.50125420  0.01420129  0.69770614
  0.24848866  0.07421275  0.43671293
  0.20919665  0.12060259  0.29562229
  0.22479601  0.12023762  0.09408277
  0.18370384  0.16560446  0.97255866
  0.68020767  0.24621452  0.43649364
  0.67301585  0.20695190  0.29554807
  0.01217711  0.57980330  0.77034443
  0.00569931  0.54019088  0.62911679
  0.65778665  0.22252401  0.09399472
  0.65339869  0.18147643  0.97260159
  0.07665331  0.67778517  0.43679672
  0.12294826  0.67081415  0.29554320
  0.41096702  0.00970919  0.77023977
  0.45711054  0.00314459  0.62911863
  0.12258854  0.65555028  0.09403507
  0.16786546  0.65139842  0.97236742
  0.75467568  0.92473621  0.56701380
  0.79408117  0.87841658  0.70807019
  0.77850441  0.87873320  0.90958803
  0.81968302  0.83344161  0.03112031
  0.32415086  0.75204349  0.56602559
  0.33101258  0.79140147  0.70738124
  0.99147103  0.41942789  0.23317924
  0.99796701  0.45902371  0.37442537
  0.34625741  0.77580485  0.90891714
  0.35030722  0.81701071  0.03053613
  0.92682528  0.32161488  0.56656575
  0.88050533  0.32858967  0.70768878
  0.59225344  0.98872996  0.23358772
  0.54610930  0.99525784  0.37465704
  0.88084311  0.34382644  0.90923825
  0.83553171  0.34796997  0.03075314
  0.89027684  0.78858988  0.76094997
  0.84909549  0.83390312  0.63945239
  0.91400888  0.74254525  0.10357763
  0.87468829  0.78891283  0.96249799
  0.32438712  0.88769436  0.76060034
  0.32039413  0.84647029  0.63896165
  0.34660635  0.91145751  0.10329263
  0.33969950  0.87207394  0.96210359
  0.99034657  0.55575993  0.42763571
  0.98682114  0.51427159  0.30599038
  0.79071335  0.32218629  0.76061203
  0.83599164  0.31809622  0.63908230
  0.74464969  0.34447808  0.10314494
  0.79101816  0.33747665  0.96214317
  0.45689351  0.98782050  0.42760529
  0.50197419  0.98418837  0.30607207
  0.14276713  0.16507887  0.51816110
  0.69487228  0.14058941  0.51824529
  0.02856651  0.47355342  0.85148061
  0.16734930  0.69291311  0.51788254
  0.50091393  0.02591205  0.85165755
  0.19518483  0.16576497  0.81862413
  0.64174662  0.19295144  0.81867164
  0.16801787  0.63974865  0.81845153
  0.80823049  0.83323862  0.18506060
  0.36198240  0.80554299  0.18445212
  0.83532431  0.35963371  0.18469221
  0.86054309  0.83410556  0.48550539
  0.30873465  0.85793083  0.48503418
  0.97510827  0.52565604  0.15205670
  0.83619002  0.30645098  0.48513028
  0.50231915  0.97247035  0.15212602
  0.68908514  0.35769999  0.47774938
  0.29072163  0.01855460  0.81108630
  0.62443061  0.35321818  0.14439659
  0.95620745  0.68688785  0.47801695
  0.35989683  0.95375103  0.47781126
  0.35552342  0.02283254  0.14471099
  0.71228971  0.98027331  0.19258563
  0.37941586  0.64508795  0.85820093
  0.69354094  0.28849574  0.81089557
  0.98245449  0.30813826  0.19223307
  0.31044036  0.71004294  0.19175942
  0.97827280  0.37715927  0.85868153
  0.64760273  0.97582959  0.85898571
  0.02527725  0.62211550  0.14489720
  0.64310231  0.04500319  0.52590208
  0.02102306  0.69120151  0.81117470
  0.31451586  0.64099823  0.52510284
  0.04735083  0.31235972  0.52557929
