O  C  H  Co Li                          
   1.00000000000000     
    25.9292854531717190   -0.1678557168399467   -0.0185319960984695
    12.8189486798062884   22.2403227804722086   -0.0382848105047359
    -0.0050785310755919   -0.0087141373946119    6.7956182702877124
   O    C    H    Co   Li
    58    74    18    18     2
Direct
  0.0625831269900273  0.2522686261746321  0.3088122073999001
  0.0384780612955315  0.2966989082981475  0.9427106834707026
  0.1080212267429290  0.2585701013853252  0.7112140768476092
  0.3919545584539819  0.5831532916034521  0.6352630622491308
  0.6910767457202434  0.0605941200070134  0.3030942150284554
  0.6699915197840258  0.0359686264166479  0.9413159135362481
  0.6387423713142029  0.1063329209464334  0.7091246000573289
  0.0268824010856237  0.3941969305622229  0.6444256381600693
  0.2532890252656060  0.6871461127054587  0.3007196281822141
  0.2973260386775833  0.6659738818098176  0.9372531326028004
  0.2581834333455003  0.6354192816187337  0.7028246391916898
  0.5893673662519424  0.0225216059939331  0.6356730348740224
  0.3013599129658662  0.0340333038942379  0.3566999302693591
  0.2337264322323811  0.0748354515870447  0.5955856572955686
  0.6287356159648518  0.3603413470116321  0.6889978601098452
  0.5642496725065790  0.4111647664677304  0.9283976439127838
  0.2784795096423064  0.0817264880628810  0.0002291817943179
  0.6844686232853462  0.2960734271472713  0.3433652822396080
  0.6972137150939900  0.2324919349297005  0.5905265277577073
  0.9884193522289050  0.6429305452849472  0.7101939311312729
  0.0242990431851532  0.5719819315115923  0.9402042175767532
  0.6437617835768854  0.2791105508486049  0.9980855471471127
  0.0414603678694037  0.6556814026441080  0.3758013172330258
  0.0775887678215489  0.6934757236935204  0.5935428672757066
  0.3717886722756942  0.0002333188594633  0.6901839801785856
  0.4115347132941085  0.0305707316695416  0.9241069805109797
  0.0842324437773983  0.6357942746565299  0.9973019205969161
  0.7047279643439185  0.9666340142628256  0.6082605038096308
  0.7738050893636655  0.9289551871174306  0.3736003976183182
  0.3688765117100515  0.6290745078784830  0.2730285390156447
  0.4368935485951178  0.5884822765885694  0.0368647926387119
  0.7279128959037221  0.9190554398123318  0.9678831265076011
  0.3347817777231374  0.7005406508054024  0.6055084888561301
  0.3062874839410497  0.7695603859600386  0.3704013991158981
  0.0081786474270261  0.3682225045379378  0.2774999737048514
  0.9771004645585066  0.4382554077718793  0.0458695015167294
  0.3560824794024994  0.7243685905582430  0.9679454511318217
  0.9678238902059343  0.3360631934837308  0.6098073702912827
  0.9273112180859425  0.3075289844904843  0.3739360791668713
  0.6358346218119411 -0.0008639000501759  0.2768343641177485
  0.5952662317568893  0.9708133078849320  0.0395506611291408
  0.9236729497447135  0.3566183484663698  0.9739446164523222
  0.9469140389012486  0.7541948817876205  0.6599068102452723
  0.9743438030123610  0.7144312249477072  0.0451243816663133
  0.8997405106645592  0.7470178263060856  0.2574350587749560
  0.6078914108839666  0.4124469039426425  0.3307302828028055
  0.3129876477671780  0.9420751379744621  0.6636432048535990
  0.3382912508367867  0.9643625768206093  0.0229209535715087
  0.3668235734772508  0.8949678754534741  0.2577715456325489
  0.9741076989012373  0.6142182201114569  0.3290680745995368
  0.7509929585496340  0.3124312120248372  0.6677953404049174
  0.6972823382317477  0.3514890445213815  0.0103594379858185
  0.7420311150152898  0.3712345285099293  0.2582929664210361
  0.4168746800799934  0.9783566993572710  0.3295025738336096
  0.6838902566478712  0.4399164647240736  0.6212624108418906
  0.6083069717166621  0.5332967643841285  0.6636600091090020
  0.6671051621431856  0.5105271005150366  0.3905406235257223
  0.8170978785222760  0.1747600964677807  0.9964058571733969
  0.1143197166479579  0.2112284973459460  0.2286578437484628
  0.1556445169472830  0.1656831641553234  0.3497488033118161
  0.0906897693320993  0.2576676712886066  0.8852369371743959
  0.1299235552687214  0.2114525620415041  0.0268838160393382
  0.4433346065997639  0.5415304498576133  0.5548859890057687
  0.4840570241040496  0.4953126120834487  0.6752765239261403
  0.6796609433271447  0.1132317034639586  0.2252645496878772
  0.6847595000678961  0.1547925980973469  0.3459707088531772
  0.6567592925119558  0.0887043091766932  0.8834874354883488
  0.6629744909101311  0.1290976495829028  0.0243390296510280
  0.0150412657988299  0.4469102575785364  0.5651817137144026
  0.0162954514754670  0.4903891232447635  0.6871472144792941
  0.2126925818447809  0.6751284055872121  0.2219872049867695
  0.1678013487757018  0.6788783832556603  0.3442687558994642
  0.2582113226675282  0.6525872490817671  0.8782039308603896
  0.2127355433439935  0.6581664229171539  0.0213140019197582
  0.5483263978066553  0.0112915180444468  0.5564090498033454
  0.5029419792243528  0.0157614440995236  0.6782631911209631
  0.2506001969678502  0.0744732644585270  0.4193939753859908
  0.2107958638186248  0.1216124522767782  0.2806674368220798
  0.5795280362994150  0.4044631916456815  0.7472620423031752
  0.5391465255280464  0.4509255092074622  0.6062900492647555
  0.2263522652553765  0.1221631140540696  0.0795475051027929
  0.1850871819904336  0.1674653772014659  0.9581707597015372
  0.6853859012739245  0.2490530141713139  0.4131976814924185
  0.6739094519593912  0.2103852422450989  0.2769962985911279
  0.0055988891227547  0.5890777277126211  0.7652991432282492
  0.0030950106716936  0.5470638086568129  0.6196554236015922
  0.6557784372022429  0.2266441887065841  0.0778014790786913
  0.6509849194443963  0.1851059472748407  0.9563972814255607
  0.0793902337267101  0.6724185416424940  0.4223487707120462
  0.1243697337230354  0.6658385927430028  0.2784848797377760
  0.4117039966666221  0.0124095524704277  0.7495193715038920
  0.4584031604163221  0.0049701496014982  0.6094067624786902
  0.1247082650725658  0.6482469981733265  0.0785825278087622
  0.1695401671327552  0.6448378679044976  0.9555190743732530
  0.7563880026369925  0.9276889838631814  0.5479579758485524
  0.7963248422032413  0.8809499684098484  0.6870780087516060
  0.4201237427818951  0.5887240901197186  0.2123574760635034
  0.4590126690864016  0.5420276985542634  0.3537268156178027
  0.7805747749363994  0.8797769065149719  0.8878802354364125
  0.8227585138897793  0.8351218668877253  0.0088315516610608
  0.3231805909987621  0.7525974114707654  0.5455080411151243
  0.3303018883218901  0.7923895957306012  0.6875081433103077
  0.9947798565650160  0.4210709026143341  0.2203094191745220
  0.0002907222827196  0.4616078548118933  0.3627259701170998
  0.3459980504084799  0.7764889235323260  0.8890454143709975
  0.3509667539995812  0.8177654381928712  0.0111889987571324
  0.9279375503214237  0.3240095196065810  0.5498801490244623
  0.8817782632524112  0.3306231179043649  0.6917150730700294
  0.5955244012606519  0.9879420687853566  0.2153670649010975
  0.5485631530720637  0.9952315932864330  0.3549049651372596
  0.8821876084986637  0.3464311928246839  0.8934834727770876
  0.8362647009839702  0.3515253220870216  0.0142008669372720
  0.8945245525136106  0.7934849825218845  0.7400100097024582
  0.8521296849972884  0.8382317857931304  0.6188426422018236
  0.9194623038228747  0.7490960947291719  0.0876191786672815
  0.8790169353986160  0.7927595194418052  0.9417118838554953
  0.5547577526895734  0.4522850939236297  0.4064870136798572
  0.5139941617677711  0.4978412900944437  0.2852517351469427
  0.3242682522283712  0.8895015655306101  0.7422046326866413
  0.3196837321893002  0.8480171406369794  0.6199025011787052
  0.3489923159093387  0.9127205679101515  0.0831460516095365
  0.3406343676024068  0.8733281653064754  0.9433202940662094
  0.9884761510183037  0.5615038692347017  0.4150287982344044
  0.9875561777592426  0.5177659684866771  0.2944709054124777
  0.7914468654031147  0.3242275008853934  0.7451729408118960
  0.8374188946600365  0.3192190321853801  0.6240149361638180
  0.7413364552219230  0.3548222927166801  0.0813137860228208
  0.7909153960560277  0.3419246137898589  0.9458991095508420
  0.4584618698635809  0.9889660259718709  0.4077368643295621
  0.5040622424576656  0.9842903486140477  0.2860983716112006
  0.6501155150778533  0.4990938944875243  0.5508574817608196
  0.7747618454504199  0.2136580262379345  0.9287956612241882
  0.1441006342525178  0.1649618288469824  0.5035995194130473
  0.4723601295902232  0.4949286103904946  0.8290891396623626
  0.6983286874192092  0.1427064453599652  0.4986113345693586
  0.0273620904994285  0.4794815793436427  0.8419425386967812
  0.1670695887708529  0.6919030458200899  0.4974675067695883
  0.5026373407012082  0.0281418348199027  0.8320575864755572
  0.1966322630864092  0.1682126201229374  0.8043145110954112
  0.6381159452665391  0.1970712289376745  0.8031519713462371
  0.1705667977560862  0.6316910871424680  0.8021434187185936
  0.8113896281280452  0.8338144379876085  0.1625451445555409
  0.3633049147353689  0.8058290738173641  0.1647032599309405
  0.8371036095774047  0.3629283245593004  0.1684664052916446
  0.8635897310829891  0.8397250917726438  0.4655776528144648
  0.5253355177544413  0.4991788984210794  0.1317133801220707
  0.3074482086807812  0.8597703270815850  0.4662136921203759
  0.9761808567626776  0.5287149092228419  0.1399116899019626
  0.8385756156414880  0.3053249376089822  0.4713461225889554
  0.5044317769702080  0.9718926632242921  0.1322963969340924
  0.3135282684601795  0.6400971428802343  0.5043790804989323
  0.0495104287567395  0.3139840239136286  0.5118804008858682
  0.6438511432933219  0.0487828886981381  0.5064132438737963
  0.0238457540702244  0.6944546750021293  0.8032522373784162
  0.3588257910992175  0.0260947480670991  0.1262721335586288
  0.2904381827492309  0.0221917209795247  0.7977839945330625
  0.6236066835462150  0.3555629035077095  0.1217430710881414
  0.7097255573942902  0.2759787901119857  0.8153029178841955
  0.0294551799489614  0.6221146000271400  0.1483347185266911
  0.6481262422736680  0.9750541210626075  0.8363741934167408
  0.9844360543555916  0.3092893121817070  0.1767783646233201
  0.3783599067091879  0.6446562123742247  0.8374498009697370
  0.7172017017240605  0.9792641863263888  0.1689732705837146
  0.9805378967842403  0.3790881441097461  0.8449411665230302
  0.3097860383656568  0.7100097269517959  0.1696923713254147
  0.6834309117483267  0.3689645837672586  0.4905802053954054
  0.9529794693680184  0.6934161359013171  0.4620493965617726
  0.3622606305029601  0.9518009070372755  0.4623487641357418
  0.7368730400055614  0.4371954944864330  0.3989643207695832
  0.6348749367091798  0.4732967389521298  0.8548244807610256
 
  0.00000000E+00  0.00000000E+00  0.00000000E+00
  0.00000000E+00  0.00000000E+00  0.00000000E+00
  0.00000000E+00  0.00000000E+00  0.00000000E+00
  0.00000000E+00  0.00000000E+00  0.00000000E+00
  0.00000000E+00  0.00000000E+00  0.00000000E+00
  0.00000000E+00  0.00000000E+00  0.00000000E+00
  0.00000000E+00  0.00000000E+00  0.00000000E+00
  0.00000000E+00  0.00000000E+00  0.00000000E+00
  0.00000000E+00  0.00000000E+00  0.00000000E+00
  0.00000000E+00  0.00000000E+00  0.00000000E+00
  0.00000000E+00  0.00000000E+00  0.00000000E+00
  0.00000000E+00  0.00000000E+00  0.00000000E+00
  0.00000000E+00  0.00000000E+00  0.00000000E+00
  0.00000000E+00  0.00000000E+00  0.00000000E+00
  0.00000000E+00  0.00000000E+00  0.00000000E+00
  0.00000000E+00  0.00000000E+00  0.00000000E+00
  0.00000000E+00  0.00000000E+00  0.00000000E+00
  0.00000000E+00  0.00000000E+00  0.00000000E+00
  0.00000000E+00  0.00000000E+00  0.00000000E+00
  0.00000000E+00  0.00000000E+00  0.00000000E+00
  0.00000000E+00  0.00000000E+00  0.00000000E+00
  0.00000000E+00  0.00000000E+00  0.00000000E+00
  0.00000000E+00  0.00000000E+00  0.00000000E+00
  0.00000000E+00  0.00000000E+00  0.00000000E+00
  0.00000000E+00  0.00000000E+00  0.00000000E+00
  0.00000000E+00  0.00000000E+00  0.00000000E+00
  0.00000000E+00  0.00000000E+00  0.00000000E+00
  0.00000000E+00  0.00000000E+00  0.00000000E+00
  0.00000000E+00  0.00000000E+00  0.00000000E+00
  0.00000000E+00  0.00000000E+00  0.00000000E+00
  0.00000000E+00  0.00000000E+00  0.00000000E+00
  0.00000000E+00  0.00000000E+00  0.00000000E+00
  0.00000000E+00  0.00000000E+00  0.00000000E+00
  0.00000000E+00  0.00000000E+00  0.00000000E+00
  0.00000000E+00  0.00000000E+00  0.00000000E+00
  0.00000000E+00  0.00000000E+00  0.00000000E+00
  0.00000000E+00  0.00000000E+00  0.00000000E+00
  0.00000000E+00  0.00000000E+00  0.00000000E+00
  0.00000000E+00  0.00000000E+00  0.00000000E+00
  0.00000000E+00  0.00000000E+00  0.00000000E+00
  0.00000000E+00  0.00000000E+00  0.00000000E+00
  0.00000000E+00  0.00000000E+00  0.00000000E+00
  0.00000000E+00  0.00000000E+00  0.00000000E+00
  0.00000000E+00  0.00000000E+00  0.00000000E+00
  0.00000000E+00  0.00000000E+00  0.00000000E+00
  0.00000000E+00  0.00000000E+00  0.00000000E+00
  0.00000000E+00  0.00000000E+00  0.00000000E+00
  0.00000000E+00  0.00000000E+00  0.00000000E+00
  0.00000000E+00  0.00000000E+00  0.00000000E+00
  0.00000000E+00  0.00000000E+00  0.00000000E+00
  0.00000000E+00  0.00000000E+00  0.00000000E+00
  0.00000000E+00  0.00000000E+00  0.00000000E+00
  0.00000000E+00  0.00000000E+00  0.00000000E+00
  0.00000000E+00  0.00000000E+00  0.00000000E+00
  0.00000000E+00  0.00000000E+00  0.00000000E+00
  0.00000000E+00  0.00000000E+00  0.00000000E+00
  0.00000000E+00  0.00000000E+00  0.00000000E+00
  0.00000000E+00  0.00000000E+00  0.00000000E+00
  0.00000000E+00  0.00000000E+00  0.00000000E+00
  0.00000000E+00  0.00000000E+00  0.00000000E+00
  0.00000000E+00  0.00000000E+00  0.00000000E+00
  0.00000000E+00  0.00000000E+00  0.00000000E+00
  0.00000000E+00  0.00000000E+00  0.00000000E+00
  0.00000000E+00  0.00000000E+00  0.00000000E+00
  0.00000000E+00  0.00000000E+00  0.00000000E+00
  0.00000000E+00  0.00000000E+00  0.00000000E+00
  0.00000000E+00  0.00000000E+00  0.00000000E+00
  0.00000000E+00  0.00000000E+00  0.00000000E+00
  0.00000000E+00  0.00000000E+00  0.00000000E+00
  0.00000000E+00  0.00000000E+00  0.00000000E+00
  0.00000000E+00  0.00000000E+00  0.00000000E+00
  0.00000000E+00  0.00000000E+00  0.00000000E+00
  0.00000000E+00  0.00000000E+00  0.00000000E+00
  0.00000000E+00  0.00000000E+00  0.00000000E+00
  0.00000000E+00  0.00000000E+00  0.00000000E+00
  0.00000000E+00  0.00000000E+00  0.00000000E+00
  0.00000000E+00  0.00000000E+00  0.00000000E+00
  0.00000000E+00  0.00000000E+00  0.00000000E+00
  0.00000000E+00  0.00000000E+00  0.00000000E+00
  0.00000000E+00  0.00000000E+00  0.00000000E+00
  0.00000000E+00  0.00000000E+00  0.00000000E+00
  0.00000000E+00  0.00000000E+00  0.00000000E+00
  0.00000000E+00  0.00000000E+00  0.00000000E+00
  0.00000000E+00  0.00000000E+00  0.00000000E+00
  0.00000000E+00  0.00000000E+00  0.00000000E+00
  0.00000000E+00  0.00000000E+00  0.00000000E+00
  0.00000000E+00  0.00000000E+00  0.00000000E+00
  0.00000000E+00  0.00000000E+00  0.00000000E+00
  0.00000000E+00  0.00000000E+00  0.00000000E+00
  0.00000000E+00  0.00000000E+00  0.00000000E+00
  0.00000000E+00  0.00000000E+00  0.00000000E+00
  0.00000000E+00  0.00000000E+00  0.00000000E+00
  0.00000000E+00  0.00000000E+00  0.00000000E+00
  0.00000000E+00  0.00000000E+00  0.00000000E+00
  0.00000000E+00  0.00000000E+00  0.00000000E+00
  0.00000000E+00  0.00000000E+00  0.00000000E+00
  0.00000000E+00  0.00000000E+00  0.00000000E+00
  0.00000000E+00  0.00000000E+00  0.00000000E+00
  0.00000000E+00  0.00000000E+00  0.00000000E+00
  0.00000000E+00  0.00000000E+00  0.00000000E+00
  0.00000000E+00  0.00000000E+00  0.00000000E+00
  0.00000000E+00  0.00000000E+00  0.00000000E+00
  0.00000000E+00  0.00000000E+00  0.00000000E+00
  0.00000000E+00  0.00000000E+00  0.00000000E+00
  0.00000000E+00  0.00000000E+00  0.00000000E+00
  0.00000000E+00  0.00000000E+00  0.00000000E+00
  0.00000000E+00  0.00000000E+00  0.00000000E+00
  0.00000000E+00  0.00000000E+00  0.00000000E+00
  0.00000000E+00  0.00000000E+00  0.00000000E+00
  0.00000000E+00  0.00000000E+00  0.00000000E+00
  0.00000000E+00  0.00000000E+00  0.00000000E+00
  0.00000000E+00  0.00000000E+00  0.00000000E+00
  0.00000000E+00  0.00000000E+00  0.00000000E+00
  0.00000000E+00  0.00000000E+00  0.00000000E+00
  0.00000000E+00  0.00000000E+00  0.00000000E+00
  0.00000000E+00  0.00000000E+00  0.00000000E+00
  0.00000000E+00  0.00000000E+00  0.00000000E+00
  0.00000000E+00  0.00000000E+00  0.00000000E+00
  0.00000000E+00  0.00000000E+00  0.00000000E+00
  0.00000000E+00  0.00000000E+00  0.00000000E+00
  0.00000000E+00  0.00000000E+00  0.00000000E+00
  0.00000000E+00  0.00000000E+00  0.00000000E+00
  0.00000000E+00  0.00000000E+00  0.00000000E+00
  0.00000000E+00  0.00000000E+00  0.00000000E+00
  0.00000000E+00  0.00000000E+00  0.00000000E+00
  0.00000000E+00  0.00000000E+00  0.00000000E+00
  0.00000000E+00  0.00000000E+00  0.00000000E+00
  0.00000000E+00  0.00000000E+00  0.00000000E+00
  0.00000000E+00  0.00000000E+00  0.00000000E+00
  0.00000000E+00  0.00000000E+00  0.00000000E+00
  0.00000000E+00  0.00000000E+00  0.00000000E+00
  0.00000000E+00  0.00000000E+00  0.00000000E+00
  0.00000000E+00  0.00000000E+00  0.00000000E+00
  0.00000000E+00  0.00000000E+00  0.00000000E+00
  0.00000000E+00  0.00000000E+00  0.00000000E+00
  0.00000000E+00  0.00000000E+00  0.00000000E+00
  0.00000000E+00  0.00000000E+00  0.00000000E+00
  0.00000000E+00  0.00000000E+00  0.00000000E+00
  0.00000000E+00  0.00000000E+00  0.00000000E+00
  0.00000000E+00  0.00000000E+00  0.00000000E+00
  0.00000000E+00  0.00000000E+00  0.00000000E+00
  0.00000000E+00  0.00000000E+00  0.00000000E+00
  0.00000000E+00  0.00000000E+00  0.00000000E+00
  0.00000000E+00  0.00000000E+00  0.00000000E+00
  0.00000000E+00  0.00000000E+00  0.00000000E+00
  0.00000000E+00  0.00000000E+00  0.00000000E+00
  0.00000000E+00  0.00000000E+00  0.00000000E+00
  0.00000000E+00  0.00000000E+00  0.00000000E+00
  0.00000000E+00  0.00000000E+00  0.00000000E+00
  0.00000000E+00  0.00000000E+00  0.00000000E+00
  0.00000000E+00  0.00000000E+00  0.00000000E+00
  0.00000000E+00  0.00000000E+00  0.00000000E+00
  0.00000000E+00  0.00000000E+00  0.00000000E+00
  0.00000000E+00  0.00000000E+00  0.00000000E+00
  0.00000000E+00  0.00000000E+00  0.00000000E+00
  0.00000000E+00  0.00000000E+00  0.00000000E+00
  0.00000000E+00  0.00000000E+00  0.00000000E+00
  0.00000000E+00  0.00000000E+00  0.00000000E+00
  0.00000000E+00  0.00000000E+00  0.00000000E+00
  0.00000000E+00  0.00000000E+00  0.00000000E+00
  0.00000000E+00  0.00000000E+00  0.00000000E+00
  0.00000000E+00  0.00000000E+00  0.00000000E+00
  0.00000000E+00  0.00000000E+00  0.00000000E+00
  0.00000000E+00  0.00000000E+00  0.00000000E+00
  0.00000000E+00  0.00000000E+00  0.00000000E+00
  0.00000000E+00  0.00000000E+00  0.00000000E+00
  0.00000000E+00  0.00000000E+00  0.00000000E+00
  0.00000000E+00  0.00000000E+00  0.00000000E+00
  0.00000000E+00  0.00000000E+00  0.00000000E+00
  0.00000000E+00  0.00000000E+00  0.00000000E+00
