O  C  H  Co Li                          
   1.00000000000000     
    25.9527842173992696   -0.2369320485926465   -0.0031281857156886
    12.7706980780577393   22.1550702023492967   -0.0381765153312093
    -0.0010444091816695   -0.0109660075970173    6.7934352709209920
   O    C    H    Co   Li
    58    74    18    18     2
Direct
  0.0639047620090993  0.2519144374701709  0.3081321265986205
  0.0397802463000477  0.2967080599553997  0.9429938721087986
  0.1089436274061976  0.2589373065331360  0.7102376501470664
  0.3911370690354456  0.5811084916571736  0.6347426526817839
  0.6906484961805543  0.0611267180656966  0.3012360552411310
  0.6692416066396644  0.0365175095105491  0.9402053868013214
  0.6384618076795622  0.1068780629549380  0.7073841138516339
  0.0267865360197093  0.3947904499095385  0.6442810714258700
  0.2529382548830760  0.6858087492017272  0.3007274389836781
  0.2968671088020018  0.6643521924219469  0.9365054354419974
  0.2575209479268539  0.6337583805734590  0.7028102054490826
  0.5897215216271235  0.0216977336765210  0.6331681888083872
  0.3020169484595055  0.0334680246497471  0.3538456067072612
  0.2344422985284242  0.0741568249348450  0.5927691432828471
  0.6288064158036863  0.3600018730291358  0.6866746534701517
  0.5649948330170304  0.4113382333037841  0.9271645916815857
  0.2791077015544056  0.0813791602168859 -0.0028930750739850
  0.6859871029385666  0.2967083885119094  0.3401547417042992
  0.6990557154597918  0.2327850484891899  0.5875042375196941
  0.9844702035733622  0.6457200025368580  0.7149911804754293
  0.0213796344634766  0.5738036309101561  0.9417533916040225
  0.6446319529444196  0.2799358266838699  0.9965264902919495
  0.0408226783789479  0.6551613051668932  0.3798784900251090
  0.0779021632041968  0.6924132002039417  0.5962033866376593
  0.3721442209196985 -0.0003583287151166  0.6872109530247974
  0.4118720469042347  0.0301143856027067  0.9210284008409331
  0.0830399091966117  0.6354613290648016  0.9992791629619171
  0.7048903655599308  0.9667740837000574  0.6065800792104509
  0.7740353461880806  0.9295202678917708  0.3721783764728809
  0.3677460869751339  0.6272821818792127  0.2717179435510312
  0.4358996972312698  0.5872745701244902  0.0361387397447952
  0.7280380448759379  0.9192311031552514  0.9664006836328383
  0.3348425605120027  0.6986820429008490  0.6043625581374791
  0.3060534101422578  0.7680977567658150  0.3699232191958947
  0.0085927903271078  0.3683855116890286  0.2774949324811994
  0.9766254827217244  0.4387022521263156  0.0461544943885869
  0.3554882193474741  0.7230758310347628  0.9671683170812899
  0.9692970273043426  0.3346760027276983  0.6106695045850890
  0.9287061888653962  0.3062231276707697  0.3745864291135426
  0.6361395195460285 -0.0015963763746558  0.2751698101037490
  0.5959419687979260  0.9697012149185700  0.0371680817771134
  0.9252101173054342  0.3554681811860944  0.9746159891094610
  0.9478608851107052  0.7564425454599248  0.6611738573348138
  0.9746285172321834  0.7164228276430634  0.0488834111665607
  0.8997470710104148  0.7493458588543201  0.2595997828716707
  0.6081575329943311  0.4134915065340609  0.3304594091402133
  0.3134529379054654  0.9410209072937431  0.6614045475644058
  0.3385375395522602  0.9636559526741699  0.0204412924161823
  0.3670103625917704  0.8941133150966736  0.2553365552644491
  0.9711856655232577  0.6165706217996869  0.3308561440052427
  0.7512154842440707  0.3135317423219129  0.6683696410560699
  0.6954648239962898  0.3577017095693242  0.0070662234359546
  0.7417233121391338  0.3745226709102424  0.2575795831721595
  0.4171893838284932  0.9776970175354014  0.3262145007294616
  0.6849965629941400  0.4390720862075261  0.6283918365984185
  0.6088207593470990  0.5301073866822572  0.6958923718923323
  0.6640204945803021  0.5156353249175538  0.4173853003696136
  0.8172837745981493  0.1768115907665837  0.9978968443873576
  0.1155207831876625  0.2110360564466102  0.2274117517942982
  0.1568076937493117  0.1653883416819336  0.3479664141974542
  0.0918050968938719  0.2577859181885382  0.8844290092643707
  0.1310480606328761  0.2114123371796685  0.0254880603135369
  0.4426170075938272  0.5399811851479464  0.5541016482094724
  0.4835944092746765  0.4938792293919840  0.6740859755047104
  0.6796870746865642  0.1137815298362864  0.2232263149466247
  0.6855104922068843  0.1551601615921247  0.3436420737904309
  0.6563524601537376  0.0892768995246515  0.8818333616825744
  0.6628865579258263  0.1297435100329241  0.0224524564967771
  0.0138716673586720  0.4480437883274921  0.5656448925376716
  0.0143053818198428  0.4920159796044663  0.6880445683296951
  0.2122465895933193  0.6739632913492689  0.2223000926660381
  0.1673013794581921  0.6780286699741376  0.3449424070640426
  0.2576468898731548  0.6510556546184840  0.8780789311701092
  0.2121685316005891  0.6568892634924425  0.0216530014620828
  0.5488199490787724  0.0102887802483302  0.5537675744991506
  0.5034080687580383  0.0147941923446540  0.6754237368297829
  0.2513567541965462  0.0739574171865762  0.4166825107796556
  0.2117561543224077  0.1212612828694452  0.2782381187781924
  0.5797148535259475  0.4042192711281144  0.7454887569315444
  0.5389415026676673  0.4503250362533648  0.6047913569702781
  0.2272103580697540  0.1219072749892178  0.0768977348481589
  0.1860555571721312  0.1674349470019510  0.9561058491913309
  0.6869622549901254  0.2494902705988780  0.4103777746487329
  0.6750737862254124  0.2108165293595520  0.2747019053407931
  0.0023447392746776  0.5913259044151962  0.7677693564835387
  0.0003470554818810  0.5491284560707143  0.6211031625380107
  0.6566194103351879  0.2272475723065463  0.0759654969418226
  0.6512963286970397  0.1858262433483910  0.9545897769086042
  0.0791009826613274  0.6716664761377199  0.4248959134211294
  0.1237387774204240  0.6651055335922885  0.2798308497834255
  0.4120751073466247  0.0117992287979563  0.7464900517723873
  0.4588077229768304  0.0041677453559404  0.6063686269075511
  0.1238246109169062  0.6475493871992583  0.0798893138717094
  0.1687298401212924  0.6438269358666250  0.9565146097269781
  0.7567161959230636  0.9282163384294136  0.5465889611868335
  0.7968022993415663  0.8818847664919691  0.6865458477146628
  0.4191493573297878  0.5873414588490047  0.2116170703446386
  0.4582847319152583  0.5409382172285897  0.3530825282852175
  0.7808693080269499  0.8804595987847306  0.8871363808798495
  0.8230836168296336  0.8361586976483458  0.0086350799451503
  0.3231352461900912  0.7509864667354210  0.5448283247378408
  0.3302850906508957  0.7909860201084129  0.6864569449356622
  0.9943141231514917  0.4216610685837499  0.2207344584720645
 -0.0011366789755797  0.4628330031140171  0.3634729990167289
  0.3457060527692516  0.7752248817583128  0.8881484560698316
  0.3507655745852199  0.8167013098588224  0.0097898647191145
  0.9293070003885731  0.3227863770370829  0.5505648969473725
  0.8829784385348584  0.3298174278648773  0.6925189421460299
  0.5960514841174480  0.9869306540946378  0.2130350982522786
  0.5490921042685256  0.9941125256070772  0.3521660511240378
  0.8833756475947527  0.3458714459310298  0.8942174192007527
  0.8369130536034857  0.3522424606698138  0.0145715258526700
  0.8953206877859530  0.7952418702907949  0.7411525043330495
  0.8528520733073756  0.8397379379430382  0.6194187256412403
  0.9197534006650102  0.7510832544995831  0.0897623391023363
  0.8795520598760775  0.7943085363414952  0.9426914771492321
  0.5546375235960155  0.4523574154106876  0.4056764747347926
  0.5135954665069488  0.4976166668201591  0.2845094515971580
  0.3245573587493400  0.8883485092555683  0.7400935248116506
  0.3199421330332448  0.8466514436529998  0.6181798252106563
  0.3491401671509023  0.9118851422426996  0.0807278990846473
  0.3406990644817060  0.8722936872763710  0.9412917437482349
  0.9857252407759513  0.5636201887245728  0.4166958811811790
  0.9852841374569921  0.5194788923639276  0.2958053891298425
  0.7918043972158131  0.3251410421980757  0.7457701610091757
  0.8382473739190439  0.3190298638280973  0.6249324879159189
  0.7407244005323373  0.3585079385985337  0.0800993645901328
  0.7910301014282968  0.3435603155440310  0.9459539603746480
  0.4588415628956688  0.9881160846999978  0.4045829339654257
  0.5045924714513521  0.9832044075396040  0.2831536633657382
  0.6494334399586705  0.4997181413531788  0.5741685593826573
  0.7748967221279774  0.2154593183592075  0.9302043574866873
  0.1454045051781926  0.1645511421368697  0.5019686840816319
  0.4720551820857687  0.4929716848216187  0.8278457583556198
  0.6992280734943025  0.1428907359251007  0.4960194341360457
  0.0254179109570998  0.4811307120711561  0.8427786273851412
  0.1666964132130107  0.6910960631078269  0.4981989759325784
  0.5030812541830980  0.0271597224777842  0.8294397187659681
  0.1974907992038383  0.1683760820264315  0.8021353241503756
  0.6383324351933518  0.1979482959010354  0.8015077606868906
  0.1694625174308016  0.6307412880993999  0.8031599975579418
  0.8115259633328936  0.8348045719559433  0.1621130026448886
  0.3629645154513693  0.8049324460268403  0.1635310589076677
  0.8375610234353535  0.3641929560162780  0.1684624044557653
  0.8643772319824712  0.8414130251157427  0.4662351140689180
  0.5249218240752209  0.4995846823372217  0.1312958529215275
  0.3078880024250130  0.8583096910660584  0.4642510093287487
  0.9737632719294048  0.5304077947461661  0.1413657013614764
  0.8393043125932662  0.3050443657003550  0.4722905037030494
  0.5050605261260055  0.9706862746940383  0.1292358018792045
  0.3129891053816017  0.6382297778859004  0.5040261874727873
  0.0502510415641404  0.3140329609767976  0.5112965401907149
  0.6437905629470043  0.0488012198696659  0.5048252391209688
  0.0233139152161824  0.6950538756312260  0.8054828915463560
  0.3592424340016829  0.0256197599390293  0.1233900863641465
  0.2908719768061596  0.0215341024438972  0.7952189871120804
  0.6243384415983407  0.3563472454812440  0.1213378227047677
  0.7099554195897240  0.2769555101013496  0.8139496375069142
  0.0275822336142179  0.6231000301534539  0.1511081002928209
  0.6482999916909483  0.9747747576068144  0.8342495169610250
  0.9857461635208101  0.3084618893841538  0.1772448677012942
  0.3779055588942241  0.6429573642217342  0.8363790622551424
  0.7170632628840303  0.9795210903253428  0.1675744493838741
  0.9812580708539212  0.3788011823990492  0.8449844110273518
  0.3092624094004506  0.7086338742908888  0.1689281457931162
  0.6836723417316548  0.3698808538660712  0.4908665096423540
  0.9520211584461300  0.6954743934744723  0.4650264133768621
  0.3624891958144379  0.9510985814851731  0.4598809917590647
  0.7333570297736941  0.4419819959645104  0.4021887741949345
  0.6389076869962488  0.4646543696635402  0.8713550920548241
 
  0.00000000E+00  0.00000000E+00  0.00000000E+00
  0.00000000E+00  0.00000000E+00  0.00000000E+00
  0.00000000E+00  0.00000000E+00  0.00000000E+00
  0.00000000E+00  0.00000000E+00  0.00000000E+00
  0.00000000E+00  0.00000000E+00  0.00000000E+00
  0.00000000E+00  0.00000000E+00  0.00000000E+00
  0.00000000E+00  0.00000000E+00  0.00000000E+00
  0.00000000E+00  0.00000000E+00  0.00000000E+00
  0.00000000E+00  0.00000000E+00  0.00000000E+00
  0.00000000E+00  0.00000000E+00  0.00000000E+00
  0.00000000E+00  0.00000000E+00  0.00000000E+00
  0.00000000E+00  0.00000000E+00  0.00000000E+00
  0.00000000E+00  0.00000000E+00  0.00000000E+00
  0.00000000E+00  0.00000000E+00  0.00000000E+00
  0.00000000E+00  0.00000000E+00  0.00000000E+00
  0.00000000E+00  0.00000000E+00  0.00000000E+00
  0.00000000E+00  0.00000000E+00  0.00000000E+00
  0.00000000E+00  0.00000000E+00  0.00000000E+00
  0.00000000E+00  0.00000000E+00  0.00000000E+00
  0.00000000E+00  0.00000000E+00  0.00000000E+00
  0.00000000E+00  0.00000000E+00  0.00000000E+00
  0.00000000E+00  0.00000000E+00  0.00000000E+00
  0.00000000E+00  0.00000000E+00  0.00000000E+00
  0.00000000E+00  0.00000000E+00  0.00000000E+00
  0.00000000E+00  0.00000000E+00  0.00000000E+00
  0.00000000E+00  0.00000000E+00  0.00000000E+00
  0.00000000E+00  0.00000000E+00  0.00000000E+00
  0.00000000E+00  0.00000000E+00  0.00000000E+00
  0.00000000E+00  0.00000000E+00  0.00000000E+00
  0.00000000E+00  0.00000000E+00  0.00000000E+00
  0.00000000E+00  0.00000000E+00  0.00000000E+00
  0.00000000E+00  0.00000000E+00  0.00000000E+00
  0.00000000E+00  0.00000000E+00  0.00000000E+00
  0.00000000E+00  0.00000000E+00  0.00000000E+00
  0.00000000E+00  0.00000000E+00  0.00000000E+00
  0.00000000E+00  0.00000000E+00  0.00000000E+00
  0.00000000E+00  0.00000000E+00  0.00000000E+00
  0.00000000E+00  0.00000000E+00  0.00000000E+00
  0.00000000E+00  0.00000000E+00  0.00000000E+00
  0.00000000E+00  0.00000000E+00  0.00000000E+00
  0.00000000E+00  0.00000000E+00  0.00000000E+00
  0.00000000E+00  0.00000000E+00  0.00000000E+00
  0.00000000E+00  0.00000000E+00  0.00000000E+00
  0.00000000E+00  0.00000000E+00  0.00000000E+00
  0.00000000E+00  0.00000000E+00  0.00000000E+00
  0.00000000E+00  0.00000000E+00  0.00000000E+00
  0.00000000E+00  0.00000000E+00  0.00000000E+00
  0.00000000E+00  0.00000000E+00  0.00000000E+00
  0.00000000E+00  0.00000000E+00  0.00000000E+00
  0.00000000E+00  0.00000000E+00  0.00000000E+00
  0.00000000E+00  0.00000000E+00  0.00000000E+00
  0.00000000E+00  0.00000000E+00  0.00000000E+00
  0.00000000E+00  0.00000000E+00  0.00000000E+00
  0.00000000E+00  0.00000000E+00  0.00000000E+00
  0.00000000E+00  0.00000000E+00  0.00000000E+00
  0.00000000E+00  0.00000000E+00  0.00000000E+00
  0.00000000E+00  0.00000000E+00  0.00000000E+00
  0.00000000E+00  0.00000000E+00  0.00000000E+00
  0.00000000E+00  0.00000000E+00  0.00000000E+00
  0.00000000E+00  0.00000000E+00  0.00000000E+00
  0.00000000E+00  0.00000000E+00  0.00000000E+00
  0.00000000E+00  0.00000000E+00  0.00000000E+00
  0.00000000E+00  0.00000000E+00  0.00000000E+00
  0.00000000E+00  0.00000000E+00  0.00000000E+00
  0.00000000E+00  0.00000000E+00  0.00000000E+00
  0.00000000E+00  0.00000000E+00  0.00000000E+00
  0.00000000E+00  0.00000000E+00  0.00000000E+00
  0.00000000E+00  0.00000000E+00  0.00000000E+00
  0.00000000E+00  0.00000000E+00  0.00000000E+00
  0.00000000E+00  0.00000000E+00  0.00000000E+00
  0.00000000E+00  0.00000000E+00  0.00000000E+00
  0.00000000E+00  0.00000000E+00  0.00000000E+00
  0.00000000E+00  0.00000000E+00  0.00000000E+00
  0.00000000E+00  0.00000000E+00  0.00000000E+00
  0.00000000E+00  0.00000000E+00  0.00000000E+00
  0.00000000E+00  0.00000000E+00  0.00000000E+00
  0.00000000E+00  0.00000000E+00  0.00000000E+00
  0.00000000E+00  0.00000000E+00  0.00000000E+00
  0.00000000E+00  0.00000000E+00  0.00000000E+00
  0.00000000E+00  0.00000000E+00  0.00000000E+00
  0.00000000E+00  0.00000000E+00  0.00000000E+00
  0.00000000E+00  0.00000000E+00  0.00000000E+00
  0.00000000E+00  0.00000000E+00  0.00000000E+00
  0.00000000E+00  0.00000000E+00  0.00000000E+00
  0.00000000E+00  0.00000000E+00  0.00000000E+00
  0.00000000E+00  0.00000000E+00  0.00000000E+00
  0.00000000E+00  0.00000000E+00  0.00000000E+00
  0.00000000E+00  0.00000000E+00  0.00000000E+00
  0.00000000E+00  0.00000000E+00  0.00000000E+00
  0.00000000E+00  0.00000000E+00  0.00000000E+00
  0.00000000E+00  0.00000000E+00  0.00000000E+00
  0.00000000E+00  0.00000000E+00  0.00000000E+00
  0.00000000E+00  0.00000000E+00  0.00000000E+00
  0.00000000E+00  0.00000000E+00  0.00000000E+00
  0.00000000E+00  0.00000000E+00  0.00000000E+00
  0.00000000E+00  0.00000000E+00  0.00000000E+00
  0.00000000E+00  0.00000000E+00  0.00000000E+00
  0.00000000E+00  0.00000000E+00  0.00000000E+00
  0.00000000E+00  0.00000000E+00  0.00000000E+00
  0.00000000E+00  0.00000000E+00  0.00000000E+00
  0.00000000E+00  0.00000000E+00  0.00000000E+00
  0.00000000E+00  0.00000000E+00  0.00000000E+00
  0.00000000E+00  0.00000000E+00  0.00000000E+00
  0.00000000E+00  0.00000000E+00  0.00000000E+00
  0.00000000E+00  0.00000000E+00  0.00000000E+00
  0.00000000E+00  0.00000000E+00  0.00000000E+00
  0.00000000E+00  0.00000000E+00  0.00000000E+00
  0.00000000E+00  0.00000000E+00  0.00000000E+00
  0.00000000E+00  0.00000000E+00  0.00000000E+00
  0.00000000E+00  0.00000000E+00  0.00000000E+00
  0.00000000E+00  0.00000000E+00  0.00000000E+00
  0.00000000E+00  0.00000000E+00  0.00000000E+00
  0.00000000E+00  0.00000000E+00  0.00000000E+00
  0.00000000E+00  0.00000000E+00  0.00000000E+00
  0.00000000E+00  0.00000000E+00  0.00000000E+00
  0.00000000E+00  0.00000000E+00  0.00000000E+00
  0.00000000E+00  0.00000000E+00  0.00000000E+00
  0.00000000E+00  0.00000000E+00  0.00000000E+00
  0.00000000E+00  0.00000000E+00  0.00000000E+00
  0.00000000E+00  0.00000000E+00  0.00000000E+00
  0.00000000E+00  0.00000000E+00  0.00000000E+00
  0.00000000E+00  0.00000000E+00  0.00000000E+00
  0.00000000E+00  0.00000000E+00  0.00000000E+00
  0.00000000E+00  0.00000000E+00  0.00000000E+00
  0.00000000E+00  0.00000000E+00  0.00000000E+00
  0.00000000E+00  0.00000000E+00  0.00000000E+00
  0.00000000E+00  0.00000000E+00  0.00000000E+00
  0.00000000E+00  0.00000000E+00  0.00000000E+00
  0.00000000E+00  0.00000000E+00  0.00000000E+00
  0.00000000E+00  0.00000000E+00  0.00000000E+00
  0.00000000E+00  0.00000000E+00  0.00000000E+00
  0.00000000E+00  0.00000000E+00  0.00000000E+00
  0.00000000E+00  0.00000000E+00  0.00000000E+00
  0.00000000E+00  0.00000000E+00  0.00000000E+00
  0.00000000E+00  0.00000000E+00  0.00000000E+00
  0.00000000E+00  0.00000000E+00  0.00000000E+00
  0.00000000E+00  0.00000000E+00  0.00000000E+00
  0.00000000E+00  0.00000000E+00  0.00000000E+00
  0.00000000E+00  0.00000000E+00  0.00000000E+00
  0.00000000E+00  0.00000000E+00  0.00000000E+00
  0.00000000E+00  0.00000000E+00  0.00000000E+00
  0.00000000E+00  0.00000000E+00  0.00000000E+00
  0.00000000E+00  0.00000000E+00  0.00000000E+00
  0.00000000E+00  0.00000000E+00  0.00000000E+00
  0.00000000E+00  0.00000000E+00  0.00000000E+00
  0.00000000E+00  0.00000000E+00  0.00000000E+00
  0.00000000E+00  0.00000000E+00  0.00000000E+00
  0.00000000E+00  0.00000000E+00  0.00000000E+00
  0.00000000E+00  0.00000000E+00  0.00000000E+00
  0.00000000E+00  0.00000000E+00  0.00000000E+00
  0.00000000E+00  0.00000000E+00  0.00000000E+00
  0.00000000E+00  0.00000000E+00  0.00000000E+00
  0.00000000E+00  0.00000000E+00  0.00000000E+00
  0.00000000E+00  0.00000000E+00  0.00000000E+00
  0.00000000E+00  0.00000000E+00  0.00000000E+00
  0.00000000E+00  0.00000000E+00  0.00000000E+00
  0.00000000E+00  0.00000000E+00  0.00000000E+00
  0.00000000E+00  0.00000000E+00  0.00000000E+00
  0.00000000E+00  0.00000000E+00  0.00000000E+00
  0.00000000E+00  0.00000000E+00  0.00000000E+00
  0.00000000E+00  0.00000000E+00  0.00000000E+00
  0.00000000E+00  0.00000000E+00  0.00000000E+00
  0.00000000E+00  0.00000000E+00  0.00000000E+00
  0.00000000E+00  0.00000000E+00  0.00000000E+00
  0.00000000E+00  0.00000000E+00  0.00000000E+00
  0.00000000E+00  0.00000000E+00  0.00000000E+00
  0.00000000E+00  0.00000000E+00  0.00000000E+00
  0.00000000E+00  0.00000000E+00  0.00000000E+00
  0.00000000E+00  0.00000000E+00  0.00000000E+00
  0.00000000E+00  0.00000000E+00  0.00000000E+00
