O  C  H  Co Li                          
   1.00000000000000     
    25.9613118174696922   -0.2472065771436530    0.0014179751739974
    12.7658967422419565   22.1309419745771514   -0.0320642663467659
     0.0001610259471372   -0.0097677314021965    6.7972031628766230
   O    C    H    Co   Li
    58    74    18    18     2
Direct
  0.0642911856974560  0.2518439191337002  0.3079449223846507
  0.0402768173727806  0.2968484099935476  0.9435464685420686
  0.1092221358262864  0.2588555983398258  0.7103344618149888
  0.3909655157717809  0.5807305241518859  0.6336553916578003
  0.6906000711291899  0.0613222379950700  0.3013778209535277
  0.6690429672420094  0.0366832053185162  0.9404004600036225
  0.6385402567847411  0.1070274017382981  0.7075906371132170
  0.0268105514951957  0.3949492479140615  0.6444657206576813
  0.2528101241044196  0.6853226834172216  0.3003194633561169
  0.2964283041743326  0.6641644871143095  0.9364710236538392
  0.2575900423515096  0.6330361571155919  0.7028352981249890
  0.5895796726805329  0.0219238086066109  0.6330528707394222
  0.3022374837235048  0.0331207830302057  0.3539585493947604
  0.2347422377608469  0.0738879826802557  0.5928675363037407
  0.6289322494891064  0.3599183380772374  0.6853074168320146
  0.5648978511951390  0.4107913607045158  0.9256110557833944
  0.2793601421750207  0.0810326117844779 -0.0027398090906093
  0.6868855077377910  0.2966149157408439  0.3382925641367249
  0.6991791372142633  0.2331570837070177  0.5867058317377960
  0.9835716982156038  0.6464952918018565  0.7163759418776970
  0.0205503670049136  0.5743194108793214  0.9422085027173784
  0.6448035512795871  0.2801459611343363  0.9962494515438221
  0.0405389987143101  0.6550866097799143  0.3806292846994202
  0.0780767637148605  0.6920645111507222  0.5967247300162143
  0.3723901567197173 -0.0007024619634058  0.6872906652895659
  0.4121816018194002  0.0296519382618361  0.9209173175775993
  0.0827509657548595  0.6352675256500678  0.9997489501915803
  0.7047584412373844  0.9670829376783638  0.6059381798862239
  0.7739016524673862  0.9297783848424545  0.3715965035289293
  0.3674962145604668  0.6267912848023121  0.2704741249922583
  0.4357043440863855  0.5868581261333085  0.0351190349658182
  0.7279852902357440  0.9193816682951013  0.9658969655446712
  0.3346616747763258  0.6983623264979987  0.6038519427481147
  0.3059335372607346  0.7678043761457872  0.3694412752046350
  0.0083711870591484  0.3685535443419922  0.2785996427469241
  0.9767396253634884  0.4386604686301444  0.0464992593489104
  0.3553597944208037  0.7226193833765369  0.9664716426585224
  0.9698480612920408  0.3339112148325578  0.6114455425577242
  0.9289261732246684  0.3061206582792384  0.3746382410024084
  0.6361677904602698 -0.0016120110630738  0.2746600098280388
  0.5956811106059074  0.9700370356569015  0.0368143147602081
  0.9255744752551494  0.3551275927729611  0.9744508347195973
  0.9478740463012113  0.7569400079688154  0.6610602982413987
  0.9749383997321059  0.7170774526732465  0.0492036006044781
  0.9001144595240607  0.7497791154430705  0.2595043122316424
  0.6080788729978349  0.4135729459947947  0.3297287700392894
  0.3135406443134955  0.9407660438140691  0.6607428730196142
  0.3386990250329939  0.9632707946274963  0.0198359018543161
  0.3670899460034977  0.8937608885488387  0.2547529493723162
  0.9702712800272978  0.6172764469193031  0.3311507640262331
  0.7512296789797944  0.3138250979414699  0.6688861623319226
  0.6939489192377237  0.3615137378654504  0.0050652491950372
  0.7419321954459400  0.3751590507379043  0.2570833959133751
  0.4174449308257525  0.9773570738685666  0.3261592204556331
  0.6858509204546547  0.4384339109751995  0.6285610275955519
  0.6095081315943442  0.5283688677963414  0.7070742146687741
  0.6631277390858404  0.5173947202373913  0.4271894215282631
  0.8171300649023089  0.1777629469558529  0.9982165409649150
  0.1159173196835809  0.2109037786986027  0.2272757189787099
  0.1571277096132336  0.1652223202354450  0.3478064199743821
  0.0921819120227198  0.2577905556350754  0.8846116841572463
  0.1314159334344391  0.2112970690045262  0.0254545771730168
  0.4424847714441588  0.5396444096865544  0.5529592506436568
  0.4834897193613193  0.4935557660445317  0.6731144933691183
  0.6797603462362057  0.1139770636846344  0.2233016613488965
  0.6856700766270644  0.1553669191037309  0.3434901626103681
  0.6563176594770670  0.0894503062826264  0.8820261664976302
  0.6629755998834145  0.1299120135898730  0.0226505627352643
  0.0136255422719557  0.4483667695884547  0.5658390999578680
  0.0137739814022189  0.4925105809279937  0.6882092003597378
  0.2121044311902241  0.6735467865783346  0.2218664682793124
  0.1672170874356867  0.6776680713373375  0.3446924432539077
  0.2574581995548745  0.6505209810500302  0.8779226750444625
  0.2119546795808935  0.6563816890152057  0.0214702245433715
  0.5488294751022974  0.0102468909633230  0.5537668469313307
  0.5034971633496914  0.0145697168025722  0.6754032303928013
  0.2515919454516784  0.0736618938777629  0.4167401383640431
  0.2120230624347167  0.1210202852526595  0.2781510569146496
  0.5796362762742634  0.4039231300162137  0.7442187228199619
  0.5388528828311558  0.4500690580427502  0.6038643885156174
  0.2274959093122971  0.1216567084711439  0.0768977814862804
  0.1863648867232138  0.1672516031690926  0.9560673474006646
  0.6873875102722879  0.2496391928146229  0.4093546219837126
  0.6753309924687334  0.2110018147723581  0.2742458057744457
  0.0015050320749381  0.5919574301443824  0.7684459864489629
 -0.0004420260717194  0.5497706269171891  0.6214492351630427
  0.6567988847953695  0.2274169323118381  0.0757772614615626
  0.6514187118849860  0.1860162457299062  0.9546846238933421
  0.0789110127957717  0.6714985531374044  0.4254387997222413
  0.1235610551011029  0.6648842160894616  0.2798983427153007
  0.4123283292665619  0.0114306510748123  0.7464418778387747
  0.4589871800506428  0.0038805504530721  0.6061937993462201
  0.1236370721194715  0.6472670602047291  0.0801275149444273
  0.1685091902921861  0.6433683875931505  0.9565499634759073
  0.7566063800564278  0.9285118856919253  0.5460028423496812
  0.7967898879348365  0.8822628397426749  0.6864159920792953
  0.4189801906333679  0.5869707087864517  0.2105829292475735
  0.4581991524690513  0.5406824472725483  0.3522237271932765
  0.7809104533193801  0.8808179854272162  0.8866483527901624
  0.8232842681787859  0.8366270534952204  0.0083693795924217
  0.3230157964949338  0.7506917235071913  0.5442715652895598
  0.3302757606458727  0.7906420882990295  0.6857612602784052
  0.9942372309042281  0.4217826338956095  0.2212071948219769
 -0.0013687581186989  0.4631254362842057  0.3637462237790421
  0.3456996856845473  0.7747921790111578  0.8872657181381091
  0.3507933538267911  0.8162492548101953  0.0089942993545921
  0.9296896182056797  0.3223455218056339  0.5508255484057785
  0.8832368336200990  0.3295495074944833  0.6927327464288130
  0.5959902213316054  0.9870303511713202  0.2127289478868387
  0.5491114923155376  0.9941179844130551  0.3522905319744160
  0.8836038650281886  0.3457105674327183  0.8942272568111959
  0.8369616168213829  0.3524995295230171  0.0143628894695525
  0.8953142041969888  0.7957393268126423  0.7411510248000562
  0.8528540692968735  0.8401265710201875  0.6194555067193673
  0.9200643882478757  0.7515862691820923  0.0898265684222213
  0.8797392726961561  0.7948214425143177  0.9427751075955941
  0.5545537584184609  0.4523233892359660  0.4049325531241902
  0.5135627656844088  0.4975388072245547  0.2837523002114664
  0.3246101186065253  0.8880353246535682  0.7395550380096388
  0.3199950352080246  0.8463501305485861  0.6176152055255852
  0.3492820548307666  0.9114660773422184  0.0801893016804986
  0.3407338353246788  0.8719262018415789  0.9408033396731639
  0.9849747268108928  0.5642316876510706  0.4170898536447029
  0.9847673815680001  0.5199332002808374  0.2961916589545643
  0.7918303685714975  0.3253961422140832  0.7458172120561191
  0.8384227235865369  0.3189451583111027  0.6251371284977746
  0.7402354644124914  0.3601759104853545  0.0790159002546160
  0.7908478564396060  0.3442147135983636  0.9455073040453962
  0.4590393440273131  0.9878754263120867  0.4043999307992994
  0.5047016143843744  0.9831448405684824  0.2831541436631696
  0.6495737192397605  0.4995892985859540  0.5814656950577515
  0.7745402369471566  0.2164165914750511  0.9306253917433636
  0.1457465614877874  0.1643280929562905  0.5016499195253129
  0.4718334846529212  0.4927937518646650  0.8268227751537389
  0.6994574977020960  0.1432412726883752  0.4958206928425921
  0.0249040012646395  0.4817440949824157  0.8428434145593989
  0.1668552815390356  0.6906466170021426  0.4977643576220697
  0.5029573030730606  0.0269869715148335  0.8294033591477785
  0.1977085473158360  0.1682620955443121  0.8020836784461359
  0.6384567888175011  0.1982178594790831  0.8018379540452383
  0.1693016730283821  0.6302427833231965  0.8034125798315549
  0.8116871439901805  0.8352495766169864  0.1618138866024325
  0.3630482403879014  0.8041666141506929  0.1623864814886778
  0.8374328803963174  0.3647388252123431  0.1679605142344679
  0.8643777426574729  0.8417990170190716  0.4663198881820513
  0.5247999342519782  0.4998232331853504  0.1308301731348717
  0.3079519501916487  0.8579034993359531  0.4638039831972532
  0.9731249072859118  0.5308671520187912  0.1418308664875412
  0.8395915412289798  0.3047806081809410  0.4727980250442515
  0.5052737661867860  0.9707459242846942  0.1292763735492774
  0.3128189528687089  0.6379168908853298  0.5035153212714064
  0.0504867603749824  0.3139311480409731  0.5114407903760219
  0.6435435725108734  0.0490654401651830  0.5043191163199374
  0.0233176079339506  0.6952670193037860  0.8055466379092615
  0.3595092350350688  0.0250648002620359  0.1231325132459036
  0.2911899646636799  0.0212292818711556  0.7949427113648897
  0.6244090977748797  0.3565984845025592  0.1207018065799543
  0.7095372626572867  0.2775693436414556  0.8134010729822613
  0.0269662436629564  0.6234299554567950  0.1519178773782625
  0.6482050185452283  0.9748600473763509  0.8336331785542349
  0.9860157839719065  0.3083474735773054  0.1772206133814122
  0.3774149214751111  0.6424693556108960  0.8360441932280408
  0.7169895860816695  0.9797166994434217  0.1670104242868714
  0.9814828736449327  0.3787093659238702  0.8448925683423782
  0.3091731730520360  0.7082942690654745  0.1686733683904901
  0.6839082635058086  0.3700025743774235  0.4899288777727434
  0.9516805505161688  0.6959824085444171  0.4660503415501102
  0.3627702256757718  0.9507150656753210  0.4595267911726091
  0.7321461403783123  0.4435698250866301  0.4015749904940277
  0.6415788583270320  0.4601125475282183  0.8752068925822977
 
  0.00000000E+00  0.00000000E+00  0.00000000E+00
  0.00000000E+00  0.00000000E+00  0.00000000E+00
  0.00000000E+00  0.00000000E+00  0.00000000E+00
  0.00000000E+00  0.00000000E+00  0.00000000E+00
  0.00000000E+00  0.00000000E+00  0.00000000E+00
  0.00000000E+00  0.00000000E+00  0.00000000E+00
  0.00000000E+00  0.00000000E+00  0.00000000E+00
  0.00000000E+00  0.00000000E+00  0.00000000E+00
  0.00000000E+00  0.00000000E+00  0.00000000E+00
  0.00000000E+00  0.00000000E+00  0.00000000E+00
  0.00000000E+00  0.00000000E+00  0.00000000E+00
  0.00000000E+00  0.00000000E+00  0.00000000E+00
  0.00000000E+00  0.00000000E+00  0.00000000E+00
  0.00000000E+00  0.00000000E+00  0.00000000E+00
  0.00000000E+00  0.00000000E+00  0.00000000E+00
  0.00000000E+00  0.00000000E+00  0.00000000E+00
  0.00000000E+00  0.00000000E+00  0.00000000E+00
  0.00000000E+00  0.00000000E+00  0.00000000E+00
  0.00000000E+00  0.00000000E+00  0.00000000E+00
  0.00000000E+00  0.00000000E+00  0.00000000E+00
  0.00000000E+00  0.00000000E+00  0.00000000E+00
  0.00000000E+00  0.00000000E+00  0.00000000E+00
  0.00000000E+00  0.00000000E+00  0.00000000E+00
  0.00000000E+00  0.00000000E+00  0.00000000E+00
  0.00000000E+00  0.00000000E+00  0.00000000E+00
  0.00000000E+00  0.00000000E+00  0.00000000E+00
  0.00000000E+00  0.00000000E+00  0.00000000E+00
  0.00000000E+00  0.00000000E+00  0.00000000E+00
  0.00000000E+00  0.00000000E+00  0.00000000E+00
  0.00000000E+00  0.00000000E+00  0.00000000E+00
  0.00000000E+00  0.00000000E+00  0.00000000E+00
  0.00000000E+00  0.00000000E+00  0.00000000E+00
  0.00000000E+00  0.00000000E+00  0.00000000E+00
  0.00000000E+00  0.00000000E+00  0.00000000E+00
  0.00000000E+00  0.00000000E+00  0.00000000E+00
  0.00000000E+00  0.00000000E+00  0.00000000E+00
  0.00000000E+00  0.00000000E+00  0.00000000E+00
  0.00000000E+00  0.00000000E+00  0.00000000E+00
  0.00000000E+00  0.00000000E+00  0.00000000E+00
  0.00000000E+00  0.00000000E+00  0.00000000E+00
  0.00000000E+00  0.00000000E+00  0.00000000E+00
  0.00000000E+00  0.00000000E+00  0.00000000E+00
  0.00000000E+00  0.00000000E+00  0.00000000E+00
  0.00000000E+00  0.00000000E+00  0.00000000E+00
  0.00000000E+00  0.00000000E+00  0.00000000E+00
  0.00000000E+00  0.00000000E+00  0.00000000E+00
  0.00000000E+00  0.00000000E+00  0.00000000E+00
  0.00000000E+00  0.00000000E+00  0.00000000E+00
  0.00000000E+00  0.00000000E+00  0.00000000E+00
  0.00000000E+00  0.00000000E+00  0.00000000E+00
  0.00000000E+00  0.00000000E+00  0.00000000E+00
  0.00000000E+00  0.00000000E+00  0.00000000E+00
  0.00000000E+00  0.00000000E+00  0.00000000E+00
  0.00000000E+00  0.00000000E+00  0.00000000E+00
  0.00000000E+00  0.00000000E+00  0.00000000E+00
  0.00000000E+00  0.00000000E+00  0.00000000E+00
  0.00000000E+00  0.00000000E+00  0.00000000E+00
  0.00000000E+00  0.00000000E+00  0.00000000E+00
  0.00000000E+00  0.00000000E+00  0.00000000E+00
  0.00000000E+00  0.00000000E+00  0.00000000E+00
  0.00000000E+00  0.00000000E+00  0.00000000E+00
  0.00000000E+00  0.00000000E+00  0.00000000E+00
  0.00000000E+00  0.00000000E+00  0.00000000E+00
  0.00000000E+00  0.00000000E+00  0.00000000E+00
  0.00000000E+00  0.00000000E+00  0.00000000E+00
  0.00000000E+00  0.00000000E+00  0.00000000E+00
  0.00000000E+00  0.00000000E+00  0.00000000E+00
  0.00000000E+00  0.00000000E+00  0.00000000E+00
  0.00000000E+00  0.00000000E+00  0.00000000E+00
  0.00000000E+00  0.00000000E+00  0.00000000E+00
  0.00000000E+00  0.00000000E+00  0.00000000E+00
  0.00000000E+00  0.00000000E+00  0.00000000E+00
  0.00000000E+00  0.00000000E+00  0.00000000E+00
  0.00000000E+00  0.00000000E+00  0.00000000E+00
  0.00000000E+00  0.00000000E+00  0.00000000E+00
  0.00000000E+00  0.00000000E+00  0.00000000E+00
  0.00000000E+00  0.00000000E+00  0.00000000E+00
  0.00000000E+00  0.00000000E+00  0.00000000E+00
  0.00000000E+00  0.00000000E+00  0.00000000E+00
  0.00000000E+00  0.00000000E+00  0.00000000E+00
  0.00000000E+00  0.00000000E+00  0.00000000E+00
  0.00000000E+00  0.00000000E+00  0.00000000E+00
  0.00000000E+00  0.00000000E+00  0.00000000E+00
  0.00000000E+00  0.00000000E+00  0.00000000E+00
  0.00000000E+00  0.00000000E+00  0.00000000E+00
  0.00000000E+00  0.00000000E+00  0.00000000E+00
  0.00000000E+00  0.00000000E+00  0.00000000E+00
  0.00000000E+00  0.00000000E+00  0.00000000E+00
  0.00000000E+00  0.00000000E+00  0.00000000E+00
  0.00000000E+00  0.00000000E+00  0.00000000E+00
  0.00000000E+00  0.00000000E+00  0.00000000E+00
  0.00000000E+00  0.00000000E+00  0.00000000E+00
  0.00000000E+00  0.00000000E+00  0.00000000E+00
  0.00000000E+00  0.00000000E+00  0.00000000E+00
  0.00000000E+00  0.00000000E+00  0.00000000E+00
  0.00000000E+00  0.00000000E+00  0.00000000E+00
  0.00000000E+00  0.00000000E+00  0.00000000E+00
  0.00000000E+00  0.00000000E+00  0.00000000E+00
  0.00000000E+00  0.00000000E+00  0.00000000E+00
  0.00000000E+00  0.00000000E+00  0.00000000E+00
  0.00000000E+00  0.00000000E+00  0.00000000E+00
  0.00000000E+00  0.00000000E+00  0.00000000E+00
  0.00000000E+00  0.00000000E+00  0.00000000E+00
  0.00000000E+00  0.00000000E+00  0.00000000E+00
  0.00000000E+00  0.00000000E+00  0.00000000E+00
  0.00000000E+00  0.00000000E+00  0.00000000E+00
  0.00000000E+00  0.00000000E+00  0.00000000E+00
  0.00000000E+00  0.00000000E+00  0.00000000E+00
  0.00000000E+00  0.00000000E+00  0.00000000E+00
  0.00000000E+00  0.00000000E+00  0.00000000E+00
  0.00000000E+00  0.00000000E+00  0.00000000E+00
  0.00000000E+00  0.00000000E+00  0.00000000E+00
  0.00000000E+00  0.00000000E+00  0.00000000E+00
  0.00000000E+00  0.00000000E+00  0.00000000E+00
  0.00000000E+00  0.00000000E+00  0.00000000E+00
  0.00000000E+00  0.00000000E+00  0.00000000E+00
  0.00000000E+00  0.00000000E+00  0.00000000E+00
  0.00000000E+00  0.00000000E+00  0.00000000E+00
  0.00000000E+00  0.00000000E+00  0.00000000E+00
  0.00000000E+00  0.00000000E+00  0.00000000E+00
  0.00000000E+00  0.00000000E+00  0.00000000E+00
  0.00000000E+00  0.00000000E+00  0.00000000E+00
  0.00000000E+00  0.00000000E+00  0.00000000E+00
  0.00000000E+00  0.00000000E+00  0.00000000E+00
  0.00000000E+00  0.00000000E+00  0.00000000E+00
  0.00000000E+00  0.00000000E+00  0.00000000E+00
  0.00000000E+00  0.00000000E+00  0.00000000E+00
  0.00000000E+00  0.00000000E+00  0.00000000E+00
  0.00000000E+00  0.00000000E+00  0.00000000E+00
  0.00000000E+00  0.00000000E+00  0.00000000E+00
  0.00000000E+00  0.00000000E+00  0.00000000E+00
  0.00000000E+00  0.00000000E+00  0.00000000E+00
  0.00000000E+00  0.00000000E+00  0.00000000E+00
  0.00000000E+00  0.00000000E+00  0.00000000E+00
  0.00000000E+00  0.00000000E+00  0.00000000E+00
  0.00000000E+00  0.00000000E+00  0.00000000E+00
  0.00000000E+00  0.00000000E+00  0.00000000E+00
  0.00000000E+00  0.00000000E+00  0.00000000E+00
  0.00000000E+00  0.00000000E+00  0.00000000E+00
  0.00000000E+00  0.00000000E+00  0.00000000E+00
  0.00000000E+00  0.00000000E+00  0.00000000E+00
  0.00000000E+00  0.00000000E+00  0.00000000E+00
  0.00000000E+00  0.00000000E+00  0.00000000E+00
  0.00000000E+00  0.00000000E+00  0.00000000E+00
  0.00000000E+00  0.00000000E+00  0.00000000E+00
  0.00000000E+00  0.00000000E+00  0.00000000E+00
  0.00000000E+00  0.00000000E+00  0.00000000E+00
  0.00000000E+00  0.00000000E+00  0.00000000E+00
  0.00000000E+00  0.00000000E+00  0.00000000E+00
  0.00000000E+00  0.00000000E+00  0.00000000E+00
  0.00000000E+00  0.00000000E+00  0.00000000E+00
  0.00000000E+00  0.00000000E+00  0.00000000E+00
  0.00000000E+00  0.00000000E+00  0.00000000E+00
  0.00000000E+00  0.00000000E+00  0.00000000E+00
  0.00000000E+00  0.00000000E+00  0.00000000E+00
  0.00000000E+00  0.00000000E+00  0.00000000E+00
  0.00000000E+00  0.00000000E+00  0.00000000E+00
  0.00000000E+00  0.00000000E+00  0.00000000E+00
  0.00000000E+00  0.00000000E+00  0.00000000E+00
  0.00000000E+00  0.00000000E+00  0.00000000E+00
  0.00000000E+00  0.00000000E+00  0.00000000E+00
  0.00000000E+00  0.00000000E+00  0.00000000E+00
  0.00000000E+00  0.00000000E+00  0.00000000E+00
  0.00000000E+00  0.00000000E+00  0.00000000E+00
  0.00000000E+00  0.00000000E+00  0.00000000E+00
  0.00000000E+00  0.00000000E+00  0.00000000E+00
  0.00000000E+00  0.00000000E+00  0.00000000E+00
  0.00000000E+00  0.00000000E+00  0.00000000E+00
  0.00000000E+00  0.00000000E+00  0.00000000E+00
  0.00000000E+00  0.00000000E+00  0.00000000E+00
