O  C  H  Co Li                          
   1.00000000000000     
    25.9869300222800774    0.0014776472087939   -0.0002841704448074
    12.9947443186480527   22.5035161465627063   -0.0005769115704474
    -0.0000740905812471   -0.0001328080293999    6.8098320633878924
   O    C    H    Co   Li
    58    74    18    18     2
Direct
  0.0624566000224315  0.2527058562042257  0.3094841284439206
  0.0378745236618129  0.2967902408978128  0.9429211351225955
  0.1075399377249519  0.2586478364860387  0.7122693931719776
  0.3909810745617540  0.5833722016316448  0.6337585912215814
  0.6902293192960274  0.0617121524882032  0.3045175494514724
  0.6717498273179694  0.0359256918378067  0.9388541651964921
  0.6395013105083872  0.1060487679537675  0.7071113387383078
  0.0265660516659214  0.3940953160000396  0.6441646999222296
  0.2534130466805750  0.6880917116713934  0.2964681567975050
  0.2999747231754594  0.6638466341860449  0.9396022858063567
  0.2590098696948036  0.6363094052573989  0.7010659769280349
  0.5890544966896203  0.0225623883597724  0.6380386235372497
  0.3010896367373813  0.0338078979000770  0.3582065961517161
  0.2334475730552928  0.0747467226802932  0.5966333099930554
  0.6285479942992052  0.3609551436786703  0.6889675918995123
  0.5639781496488389  0.4117485898248390  0.9275890654162294
  0.2779805979318128  0.0813046517239442  0.0018300177468833
  0.6834200262448473  0.2967147132155813  0.3433989314439203
  0.6962107189108974  0.2331974807654465  0.5901954660254026
 -0.0131918596069538  0.6425358200214895  0.7128197130776041
  0.0268281723316341  0.5705088434403582  0.9373569299317159
  0.6428599304897695  0.2797358409732296  0.9971894755611367
  0.0436806616772056  0.6536099169510012  0.3750221964998509
  0.0806937879663826  0.6903244316394602  0.5924442901961010
  0.3714874153490240  0.0002719772554004  0.6920852511806457
  0.4113601386806314  0.0302168566426594  0.9263889772800894
  0.0837104123409360  0.6381286223870204 -0.0058440725490296
  0.7035594922584918  0.9644033340270870  0.6060151853030507
  0.7727929902199796  0.9268441293048056  0.3734718330556204
  0.3692127000576531  0.6315238304213975  0.2745817244119989
  0.4377924371728795  0.5905132514357029  0.0396765444019841
  0.7288653019976747  0.9196981846439185  0.9712322347064419
  0.3349200478771602  0.7004659951457063  0.6074311201869844
  0.3052971074060581  0.7704613488345496  0.3745057784454802
  0.0081423009987234  0.3682105837552092  0.2772554292581338
  0.9767777285120840  0.4382940132738552  0.0458388275790709
  0.3567513749833827  0.7238969306566738  0.9682138974199955
  0.9672005361875378  0.3367180184853533  0.6096145532289459
  0.9269333901639792  0.3077782222188113  0.3746060084526026
  0.6325410737188129  0.0032774902569985  0.2725500025435617
  0.5943090890880092  0.9713607118291714  0.0402974548985049
  0.9232049245082836  0.3569134186573084  0.9740996625746523
  0.9466538203789616  0.7537185602787443  0.6626957788670658
  0.9744670396426456  0.7115940389737592  0.0425570233069655
  0.9014382349450679  0.7462169406055554  0.2609704793406203
  0.6071497389716900  0.4126161343903005  0.3303864041098364
  0.3133787780285268  0.9417314238950580  0.6654726639729056
  0.3378616151573123  0.9642243623566877  0.0250840538834954
  0.3670398110202598  0.8947145256774628  0.2594260697266486
  0.9756489068871219  0.6133298576530534  0.3279809325845039
  0.7507205301398214  0.3124585390987699  0.6674412088841164
  0.6971915037601493  0.3509795791371726  0.0104747981199874
  0.7421274079327780  0.3702714931703159  0.2584055302494954
  0.4167178387365381  0.9779151330409220  0.3320710348329540
  0.6840303900336164  0.4400238615815921  0.6178942420560617
  0.6087519170293406  0.5339242877304113  0.6544011052198279
  0.6681970974592732  0.5090692619647670  0.3828928345540123
  0.8165671899692438  0.1747493743260156  0.9952677532099921
  0.1140822128296149  0.2115550829711403  0.2296148641088952
  0.1554538512480508  0.1658699694221406  0.3508094494638262
  0.0902155804300518  0.2578140531784572  0.8860053566725195
  0.1296206262796590  0.2116629237566075  0.0279209255163212
  0.4426545808944239  0.5421490071352226  0.5540475292456810
  0.4835663078653998  0.4959174109528510  0.6745422366625187
  0.6789577240641189  0.1140347002111618  0.2249503453990034
  0.6838996076145657  0.1556321685866211  0.3453645139214574
  0.6572566883888795  0.0890156051142477  0.8815654491400869
  0.6625327725610098  0.1297052490108296  0.0236968086105668
  0.0152497734488947  0.4465471815932664  0.5645876563774903
  0.0169467988749658  0.4897234956723165  0.6860492818719111
  0.2133855784582788  0.6753042197087635  0.2183319477472940
  0.1689431987554082  0.6783616982587786  0.3410931729023343
  0.2598366049497260  0.6525357486846024  0.8774511920373851
  0.2135389339342425  0.6585197872750773  0.0177671439573751
  0.5478579384372029  0.0117541597518862  0.5582087477615015
  0.5025462359950305  0.0159262467556881  0.6798684376168278
  0.2503245581471408  0.0743188560052829  0.4207853994428153
  0.2104927073897972  0.1215338638995897  0.2819421805777118
  0.5792538549963243  0.4050947799021393  0.7468737704576982
  0.5386899832872708  0.4515025011826884  0.6057327396461684
  0.2260293062883547  0.1219486781014736  0.0808341561870497
  0.1847284164165932  0.1674731622866640  0.9594448865689044
  0.6843963228505698  0.2497292301127126  0.4130541006498624
  0.6730375938482128  0.2111484038443172  0.2763321126372953
  0.0064733342526265  0.5879279721686235  0.7646403497527374
  0.0041094640727815  0.5461650059770947  0.6183762536152797
  0.6549416708780986  0.2273500312367182  0.0771257878868969
  0.6503362897912375  0.1857364960790383  0.9558560325379164
  0.0816548061341079  0.6705343001889046  0.4206631301573848
  0.1255805524633391  0.6653768591766633  0.2750502266286298
  0.4114553766325303  0.0122922775884367  0.7517635526183456
  0.4580484682948031  0.0050165612810666  0.6115252610533427
  0.1251823736664024  0.6490321704550137  0.0742662771337235
  0.1700780406445797  0.6456591596618303  0.9514780503947795
  0.7558634152939758  0.9259414503022589  0.5477516746524190
  0.7961057297000314  0.8801908475680597  0.6895691363641994
  0.4200073999460980  0.5905610079776137  0.2140407083320955
  0.4584381484085951  0.5428157511109081  0.3532552433677663
  0.7809211441428359  0.8796334931961494  0.8913607896165530
  0.8233625583119715  0.8348321898175450  0.0126387577113643
  0.3231764304795378  0.7526437211972241  0.5488037459613707
  0.3306773740845087  0.7922301004801254  0.6896814804982838
  0.9947574678926424  0.4209947788952819  0.2199774354893363
  0.0006550949962746  0.4613200339559842  0.3620171508820547
  0.3466135043293184  0.7761827501824723  0.8907134086143785
  0.3516816187039862  0.8172916468441821  0.0126820191671997
  0.9274623891684303  0.3243975577182415  0.5502252106582367
  0.8813802067949068  0.3308747407834584  0.6919338187214746
  0.5936286612095013  0.9895141645649421  0.2145305270366171
  0.5476254274074904  0.9959823689129789  0.3564180882302807
  0.8818398831964299  0.3465681525834879  0.8936207765514227
  0.8360523652255614  0.3513362968234550  0.0141344411441236
  0.8943353408150750  0.7928632600260733  0.7434199701468956
  0.8517588446426808  0.8372380512804783  0.6214442926817449
  0.9203395414706687  0.7475998567993584  0.0893864134866624
  0.8793718341012761  0.7920873918878566  0.9452126689820620
  0.5541013993587398  0.4526121285549509  0.4058283810708899
  0.5132757149511927  0.4982880049888256  0.2846911611268301
  0.3247027414063610  0.8890995911153705  0.7440755541599423
  0.3200213392579047  0.8478567398811098  0.6219811069418534
  0.3490776669018415  0.9124145750768119  0.0848884322990781
  0.3410820330213077  0.8729167209088073  0.9449012625032058
  0.9895904972749657  0.5608128749108748  0.4137262551132969
  0.9884922557843902  0.5172182556904855  0.2933260857218846
  0.7912092471997053  0.3241539362716491  0.7451495934260572
  0.8370628190699064  0.3194010648236948  0.6242608060249628
  0.7413152074796774  0.3542099381557927  0.0813101892805037
  0.7907709085576516  0.3416158154436462  0.9458210320212059
  0.4579491135130935  0.9889837803741492  0.4101723276994985
  0.5032452947442009  0.9848200611566562  0.2882963150732422
  0.6507044434882288  0.4987787827619848  0.5438200989540347
  0.7741483472019772  0.2138274665946993  0.9281229989440560
  0.1440363091813086  0.1652917611779174  0.5045834927737810
  0.4719243044545844  0.4953609356460064  0.8280830765156856
  0.6972554309828890  0.1436346977035400  0.4981347077399046
  0.0279329933941143  0.4788939488589014  0.8408318669978949
  0.1685473271574875  0.6908310185062612  0.4945538943297553
  0.5023860670266193  0.0280131568851562  0.8336693593516602
  0.1962008446552249  0.1680710806794660  0.8056836805875685
  0.6376551690171504  0.1975929392274318  0.8025351933584928
  0.1706457351434948  0.6331455885817213  0.7979986471047321
  0.8121973325405238  0.8341898495246269  0.1666489164583023
  0.3641743874168378  0.8053720127974301  0.1660831640984252
  0.8370238587576564  0.3624650251133624  0.1683995575313429
  0.8628916473519558  0.8381280447900677  0.4675555272504258
  0.5246472825741998  0.4995617963478978  0.1314882149157562
  0.3076320748844477  0.8597470273354514  0.4685495641484118
  0.9773278367218773  0.5280381959759292  0.1387246461193348
  0.8382227317499624  0.3055679062880876  0.4717447737835813
  0.5035437848043727  0.9726747778296805  0.1344871020635527
  0.3117983999813144  0.6411009061615126  0.4995367474431581
  0.0491474798513892  0.3140725506308727  0.5122246776796217
  0.6444411853621839  0.0464655727508342  0.5061678444172141
  0.0227993212428395  0.6940366028113020  0.7923595490848291
  0.3586918881509442  0.0256225301735426  0.1281578304039777
  0.2901244651347603  0.0219408187264675  0.7994932253830435
  0.6231035014338712  0.3559268065414904  0.1213729832774057
  0.7090997512146974  0.2764952613557533  0.8148603083018788
  0.0310410800373976  0.6214721782407999  0.1455683055540507
  0.6494516864200599  0.9756446150305318  0.8407477245928254
  0.9839709798177104  0.3095389529649395  0.1774885812411484
  0.3820825424226559  0.6427701336765539  0.8347420323430836
  0.7138831075014316  0.9816938863916336  0.1734975951958471
  0.9800348844431993  0.3794504245477821  0.8447982261107067
  0.3090628291417573  0.7133149603226050  0.1711405185119889
  0.6832665910012794  0.3690720636366700  0.4898085946858208
  0.9560314762005074  0.6919688971260283  0.4639037142965058
  0.3620768599340443  0.9516696782282417  0.4641983541100026
  0.7381153918627661  0.4357292169407446  0.3973302453746545
  0.6348312897413531  0.4752211235365374  0.8498063973849358
 
  0.00000000E+00  0.00000000E+00  0.00000000E+00
  0.00000000E+00  0.00000000E+00  0.00000000E+00
  0.00000000E+00  0.00000000E+00  0.00000000E+00
  0.00000000E+00  0.00000000E+00  0.00000000E+00
  0.00000000E+00  0.00000000E+00  0.00000000E+00
  0.00000000E+00  0.00000000E+00  0.00000000E+00
  0.00000000E+00  0.00000000E+00  0.00000000E+00
  0.00000000E+00  0.00000000E+00  0.00000000E+00
  0.00000000E+00  0.00000000E+00  0.00000000E+00
  0.00000000E+00  0.00000000E+00  0.00000000E+00
  0.00000000E+00  0.00000000E+00  0.00000000E+00
  0.00000000E+00  0.00000000E+00  0.00000000E+00
  0.00000000E+00  0.00000000E+00  0.00000000E+00
  0.00000000E+00  0.00000000E+00  0.00000000E+00
  0.00000000E+00  0.00000000E+00  0.00000000E+00
  0.00000000E+00  0.00000000E+00  0.00000000E+00
  0.00000000E+00  0.00000000E+00  0.00000000E+00
  0.00000000E+00  0.00000000E+00  0.00000000E+00
  0.00000000E+00  0.00000000E+00  0.00000000E+00
  0.00000000E+00  0.00000000E+00  0.00000000E+00
  0.00000000E+00  0.00000000E+00  0.00000000E+00
  0.00000000E+00  0.00000000E+00  0.00000000E+00
  0.00000000E+00  0.00000000E+00  0.00000000E+00
  0.00000000E+00  0.00000000E+00  0.00000000E+00
  0.00000000E+00  0.00000000E+00  0.00000000E+00
  0.00000000E+00  0.00000000E+00  0.00000000E+00
  0.00000000E+00  0.00000000E+00  0.00000000E+00
  0.00000000E+00  0.00000000E+00  0.00000000E+00
  0.00000000E+00  0.00000000E+00  0.00000000E+00
  0.00000000E+00  0.00000000E+00  0.00000000E+00
  0.00000000E+00  0.00000000E+00  0.00000000E+00
  0.00000000E+00  0.00000000E+00  0.00000000E+00
  0.00000000E+00  0.00000000E+00  0.00000000E+00
  0.00000000E+00  0.00000000E+00  0.00000000E+00
  0.00000000E+00  0.00000000E+00  0.00000000E+00
  0.00000000E+00  0.00000000E+00  0.00000000E+00
  0.00000000E+00  0.00000000E+00  0.00000000E+00
  0.00000000E+00  0.00000000E+00  0.00000000E+00
  0.00000000E+00  0.00000000E+00  0.00000000E+00
  0.00000000E+00  0.00000000E+00  0.00000000E+00
  0.00000000E+00  0.00000000E+00  0.00000000E+00
  0.00000000E+00  0.00000000E+00  0.00000000E+00
  0.00000000E+00  0.00000000E+00  0.00000000E+00
  0.00000000E+00  0.00000000E+00  0.00000000E+00
  0.00000000E+00  0.00000000E+00  0.00000000E+00
  0.00000000E+00  0.00000000E+00  0.00000000E+00
  0.00000000E+00  0.00000000E+00  0.00000000E+00
  0.00000000E+00  0.00000000E+00  0.00000000E+00
  0.00000000E+00  0.00000000E+00  0.00000000E+00
  0.00000000E+00  0.00000000E+00  0.00000000E+00
  0.00000000E+00  0.00000000E+00  0.00000000E+00
  0.00000000E+00  0.00000000E+00  0.00000000E+00
  0.00000000E+00  0.00000000E+00  0.00000000E+00
  0.00000000E+00  0.00000000E+00  0.00000000E+00
  0.00000000E+00  0.00000000E+00  0.00000000E+00
  0.00000000E+00  0.00000000E+00  0.00000000E+00
  0.00000000E+00  0.00000000E+00  0.00000000E+00
  0.00000000E+00  0.00000000E+00  0.00000000E+00
  0.00000000E+00  0.00000000E+00  0.00000000E+00
  0.00000000E+00  0.00000000E+00  0.00000000E+00
  0.00000000E+00  0.00000000E+00  0.00000000E+00
  0.00000000E+00  0.00000000E+00  0.00000000E+00
  0.00000000E+00  0.00000000E+00  0.00000000E+00
  0.00000000E+00  0.00000000E+00  0.00000000E+00
  0.00000000E+00  0.00000000E+00  0.00000000E+00
  0.00000000E+00  0.00000000E+00  0.00000000E+00
  0.00000000E+00  0.00000000E+00  0.00000000E+00
  0.00000000E+00  0.00000000E+00  0.00000000E+00
  0.00000000E+00  0.00000000E+00  0.00000000E+00
  0.00000000E+00  0.00000000E+00  0.00000000E+00
  0.00000000E+00  0.00000000E+00  0.00000000E+00
  0.00000000E+00  0.00000000E+00  0.00000000E+00
  0.00000000E+00  0.00000000E+00  0.00000000E+00
  0.00000000E+00  0.00000000E+00  0.00000000E+00
  0.00000000E+00  0.00000000E+00  0.00000000E+00
  0.00000000E+00  0.00000000E+00  0.00000000E+00
  0.00000000E+00  0.00000000E+00  0.00000000E+00
  0.00000000E+00  0.00000000E+00  0.00000000E+00
  0.00000000E+00  0.00000000E+00  0.00000000E+00
  0.00000000E+00  0.00000000E+00  0.00000000E+00
  0.00000000E+00  0.00000000E+00  0.00000000E+00
  0.00000000E+00  0.00000000E+00  0.00000000E+00
  0.00000000E+00  0.00000000E+00  0.00000000E+00
  0.00000000E+00  0.00000000E+00  0.00000000E+00
  0.00000000E+00  0.00000000E+00  0.00000000E+00
  0.00000000E+00  0.00000000E+00  0.00000000E+00
  0.00000000E+00  0.00000000E+00  0.00000000E+00
  0.00000000E+00  0.00000000E+00  0.00000000E+00
  0.00000000E+00  0.00000000E+00  0.00000000E+00
  0.00000000E+00  0.00000000E+00  0.00000000E+00
  0.00000000E+00  0.00000000E+00  0.00000000E+00
  0.00000000E+00  0.00000000E+00  0.00000000E+00
  0.00000000E+00  0.00000000E+00  0.00000000E+00
  0.00000000E+00  0.00000000E+00  0.00000000E+00
  0.00000000E+00  0.00000000E+00  0.00000000E+00
  0.00000000E+00  0.00000000E+00  0.00000000E+00
  0.00000000E+00  0.00000000E+00  0.00000000E+00
  0.00000000E+00  0.00000000E+00  0.00000000E+00
  0.00000000E+00  0.00000000E+00  0.00000000E+00
  0.00000000E+00  0.00000000E+00  0.00000000E+00
  0.00000000E+00  0.00000000E+00  0.00000000E+00
  0.00000000E+00  0.00000000E+00  0.00000000E+00
  0.00000000E+00  0.00000000E+00  0.00000000E+00
  0.00000000E+00  0.00000000E+00  0.00000000E+00
  0.00000000E+00  0.00000000E+00  0.00000000E+00
  0.00000000E+00  0.00000000E+00  0.00000000E+00
  0.00000000E+00  0.00000000E+00  0.00000000E+00
  0.00000000E+00  0.00000000E+00  0.00000000E+00
  0.00000000E+00  0.00000000E+00  0.00000000E+00
  0.00000000E+00  0.00000000E+00  0.00000000E+00
  0.00000000E+00  0.00000000E+00  0.00000000E+00
  0.00000000E+00  0.00000000E+00  0.00000000E+00
  0.00000000E+00  0.00000000E+00  0.00000000E+00
  0.00000000E+00  0.00000000E+00  0.00000000E+00
  0.00000000E+00  0.00000000E+00  0.00000000E+00
  0.00000000E+00  0.00000000E+00  0.00000000E+00
  0.00000000E+00  0.00000000E+00  0.00000000E+00
  0.00000000E+00  0.00000000E+00  0.00000000E+00
  0.00000000E+00  0.00000000E+00  0.00000000E+00
  0.00000000E+00  0.00000000E+00  0.00000000E+00
  0.00000000E+00  0.00000000E+00  0.00000000E+00
  0.00000000E+00  0.00000000E+00  0.00000000E+00
  0.00000000E+00  0.00000000E+00  0.00000000E+00
  0.00000000E+00  0.00000000E+00  0.00000000E+00
  0.00000000E+00  0.00000000E+00  0.00000000E+00
  0.00000000E+00  0.00000000E+00  0.00000000E+00
  0.00000000E+00  0.00000000E+00  0.00000000E+00
  0.00000000E+00  0.00000000E+00  0.00000000E+00
  0.00000000E+00  0.00000000E+00  0.00000000E+00
  0.00000000E+00  0.00000000E+00  0.00000000E+00
  0.00000000E+00  0.00000000E+00  0.00000000E+00
  0.00000000E+00  0.00000000E+00  0.00000000E+00
  0.00000000E+00  0.00000000E+00  0.00000000E+00
  0.00000000E+00  0.00000000E+00  0.00000000E+00
  0.00000000E+00  0.00000000E+00  0.00000000E+00
  0.00000000E+00  0.00000000E+00  0.00000000E+00
  0.00000000E+00  0.00000000E+00  0.00000000E+00
  0.00000000E+00  0.00000000E+00  0.00000000E+00
  0.00000000E+00  0.00000000E+00  0.00000000E+00
  0.00000000E+00  0.00000000E+00  0.00000000E+00
  0.00000000E+00  0.00000000E+00  0.00000000E+00
  0.00000000E+00  0.00000000E+00  0.00000000E+00
  0.00000000E+00  0.00000000E+00  0.00000000E+00
  0.00000000E+00  0.00000000E+00  0.00000000E+00
  0.00000000E+00  0.00000000E+00  0.00000000E+00
  0.00000000E+00  0.00000000E+00  0.00000000E+00
  0.00000000E+00  0.00000000E+00  0.00000000E+00
  0.00000000E+00  0.00000000E+00  0.00000000E+00
  0.00000000E+00  0.00000000E+00  0.00000000E+00
  0.00000000E+00  0.00000000E+00  0.00000000E+00
  0.00000000E+00  0.00000000E+00  0.00000000E+00
  0.00000000E+00  0.00000000E+00  0.00000000E+00
  0.00000000E+00  0.00000000E+00  0.00000000E+00
  0.00000000E+00  0.00000000E+00  0.00000000E+00
  0.00000000E+00  0.00000000E+00  0.00000000E+00
  0.00000000E+00  0.00000000E+00  0.00000000E+00
  0.00000000E+00  0.00000000E+00  0.00000000E+00
  0.00000000E+00  0.00000000E+00  0.00000000E+00
  0.00000000E+00  0.00000000E+00  0.00000000E+00
  0.00000000E+00  0.00000000E+00  0.00000000E+00
  0.00000000E+00  0.00000000E+00  0.00000000E+00
  0.00000000E+00  0.00000000E+00  0.00000000E+00
  0.00000000E+00  0.00000000E+00  0.00000000E+00
  0.00000000E+00  0.00000000E+00  0.00000000E+00
  0.00000000E+00  0.00000000E+00  0.00000000E+00
  0.00000000E+00  0.00000000E+00  0.00000000E+00
  0.00000000E+00  0.00000000E+00  0.00000000E+00
  0.00000000E+00  0.00000000E+00  0.00000000E+00
  0.00000000E+00  0.00000000E+00  0.00000000E+00
  0.00000000E+00  0.00000000E+00  0.00000000E+00
