O  C  H  Co Li                          
   1.00000000000000     
    25.9370738468305504    0.0002086711031327   -0.0220546389199632
    12.9685124720881539   22.4287967517309497   -0.0047045730763573
    -0.0058225143407163    0.0019388651284556    6.8524525173169986
   O    C    H    Co   Li
    58    74    18    18     2
Direct
  0.0619952004688600  0.2533225767968003  0.3045884511394927
  0.0384810460348219  0.2983863711419925  0.9453712863226710
  0.1064186252532716  0.2582094831674399  0.7100704375956555
  0.3940220348631261  0.5864894615264241  0.6410330143164201
  0.6902464579564063  0.0615780465119556  0.3075591056005641
  0.6666080187020479  0.0374866282937893  0.9533252738922384
  0.6402479511657216  0.1047438830162300  0.7140890945704923
  0.0235004779679544  0.3931258555739104  0.6386710064142024
  0.2553806014624516  0.6888017749644215  0.3060706066056672
  0.3003954605528352  0.6671344725582101  0.9473908679627149
  0.2595773215623096  0.6401506137620232  0.7113299971722020
  0.5888982445186809  0.0235465214772105  0.6425604130970466
  0.3010283840848494  0.0342392820373380  0.3551320248611951
  0.2329284745685535  0.0748150490052702  0.5909154586198820
  0.6286434564795766  0.3593246351132310  0.6886123181896253
  0.5638671651845522  0.4094579062264692  0.9269529905026880
  0.2784534879048050  0.0811401247897317 -0.0008358721390328
  0.6828878058267344  0.2951685445497113  0.3428208189323860
  0.6960036031764057  0.2321117211010823  0.5884688359978979
  0.0046387816665306  0.6316641614839743  0.6900641021458921
  0.0320681812163717  0.5634492755225295  0.9259795782858828
  0.6439296842835944  0.2773735946068183  0.9969921989331932
  0.0367424262946924  0.6686332550485705  0.3572468419581266
  0.0775480267898708  0.6962204499678678  0.5925248615454903
  0.3700057532621935  0.0034377286917848  0.6879845158494337
  0.4114300469805710  0.0292318230890477  0.9269157270885120
  0.0822101456870289  0.6463177564990653  0.0004329012760556
  0.7044368766172419  0.9672827065993730  0.6196195682700052
  0.7729414763461041  0.9268940938236043  0.3850969687825198
  0.3711710931097083  0.6325400415987187  0.2822102603045051
  0.4383499235298041  0.5900604245700003  0.0453112476486594
  0.7284701553686712  0.9219213771915458  0.9772808883044036
  0.3358365420683499  0.7028050921018990  0.6141863682614499
  0.3082244370721516  0.7707303416326982  0.3779827458394270
  0.0023188896192840  0.3696009809736556  0.2799779244745388
  0.9753634987316978  0.4372759313395154  0.0434166164008165
  0.3567187985254977  0.7267451235836352  0.9729996909327517
  0.9685188871901699  0.3316555307038145  0.6132777624032161
  0.9252022271677004  0.3090610629679100  0.3725602562461178
  0.6356390708226710 -0.0003074033258044  0.2859529745427887
  0.5956231426774158  0.9712659688022379  0.0506154318217022
  0.9222475390826208  0.3556334997090151  0.9693951154162019
  0.9430816467486522  0.7480510175963462  0.6696221440378542
  0.9664604128163087  0.7008926023969728  0.0231427862473661
  0.8996250487787145  0.7427414040015464  0.2625257202093452
  0.6059798751120816  0.4094105420794077  0.3302044835389998
  0.3157495903894479  0.9418472167231537  0.6656769058693611
  0.3382252446709658  0.9651321400989442  0.0221378769098118
  0.3652686818229631  0.8969652561421734  0.2581851182723485
  0.9802079036996766  0.6093563490992019  0.3335961240155018
  0.7493437608111073  0.3127892810381637  0.6645469323682978
  0.6973175316772421  0.3477038202007074  0.0093908645504959
  0.7425383372415604  0.3660784586900297  0.2554442506055359
  0.4171893125689843  0.9793769105027865  0.3340973466088025
  0.6803728940835130  0.4405450765988939  0.6016121444426972
  0.6110676595971135  0.5377912820031152  0.5945303125740552
  0.6862286028860215  0.5006055713937816  0.3711743929247358
  0.8183336866280317  0.1739316031736300  0.9816346741799475
  0.1139928855320247  0.2121240574076707  0.2253048005692392
  0.1554575199134396  0.1667186238465552  0.3460322700426512
  0.0899402481648314  0.2581876494532586  0.8843987645147833
  0.1295248313323307  0.2118177990888096  0.0249331006240102
  0.4445412098735342  0.5436690463767784  0.5601318467996471
  0.4851991962162613  0.4969306555009855  0.6790099938321698
  0.6788869239128041  0.1135437138928452  0.2274409651764133
  0.6837236196483146  0.1549265566568291  0.3462716720670080
  0.6562369248986355  0.0883304858582451  0.8895226052657242
  0.6629651593766540  0.1286324468806335  0.0270759371580455
  0.0130909484154682  0.4450793645295951  0.5596454668174484
  0.0172322275751433  0.4863180216732783  0.6806784124288634
  0.2140782170012720  0.6782799335937754  0.2267920657528765
  0.1688714185218858  0.6821370275063431  0.3476472116377583
  0.2599102720779966  0.6563797082106652  0.8859550505105745
  0.2134685312956636  0.6634013015466278  0.0260001722912332
  0.5480172397891440  0.0124266441939380  0.5628875144063844
  0.5024781411998092  0.0165337257253759  0.6827721408644372
  0.2501017364360417  0.0748618061835787  0.4168126810821933
  0.2106882734427275  0.1220700927537813  0.2782041347196367
  0.5795406992940569  0.4033510190206770  0.7478215854290473
  0.5394535874909806  0.4507624254967343  0.6086926720092184
  0.2263395176789205  0.1219990188877494  0.0780934522721236
  0.1848248092566467  0.1673641771292722  0.9573326737614921
  0.6842089858926733  0.2483863380745473  0.4122844886095264
  0.6733021235954577  0.2098539089060443  0.2765268172457910
  0.0148460537710003  0.5807155666421047  0.7517153038125655
  0.0069098204565976  0.5414859552938696  0.6128137765104433
  0.6559773755929239  0.2254580741865825  0.0776528236984693
  0.6517258286388430  0.1838587827124728  0.9579206071544220
  0.0772891936786158  0.6793330933427654  0.4183113997814779
  0.1240293774072630  0.6719975563429216  0.2792552708872293
  0.4108162980240436  0.0132569036190437  0.7515665517324304
  0.4579018750753241  0.0060422282158301  0.6138214111414395
  0.1234921531776055  0.6569811769121441  0.0786329856082265
  0.1687045533338845  0.6531556516350387  0.9577274835752287
  0.7557461856045903  0.9268484437760315  0.5588834426460850
  0.7951919726133622  0.8798229026990410  0.6977115209542135
  0.4214193040818206  0.5907396375197028  0.2195730194357670
  0.4594326417657819  0.5429106227800794  0.3587577776624658
  0.7800755114163945  0.8802454965219830  0.8987440434112893
  0.8215488035003298  0.8345160468907726  0.0189528230454232
  0.3248136928223144  0.7541544622309373  0.5524069244090067
  0.3318967791022540  0.7937169182766832  0.6922329016685626
  0.9914196256259007  0.4209632780751479  0.2183439804599520
 -0.0018842905803947  0.4605642789991881  0.3589919634079441
  0.3466018588017926  0.7784137416811159  0.8933027121473989
  0.3506918420274957  0.8197863109226984  0.0139314483039089
  0.9268437530526124  0.3233004823047741  0.5488489740461379
  0.8800320030046958  0.3308335840861081  0.6885609665903896
  0.5952730739611632  0.9889387302824690  0.2244074528350158
  0.5480648098930483  0.9969044046366120  0.3623869698455854
  0.8807736836097355  0.3457048949306356  0.8890028532053073
  0.8350598204801536  0.3501989436176386  0.0088708364756077
  0.8912792992985740  0.7892358574336529  0.7488714111614209
  0.8498738302191502  0.8347763865216747  0.6284907752524492
  0.9160762275031374  0.7420295954240388  0.0872049771400435
  0.8762517241102722  0.7894600579139424  0.9496408877419725
  0.5538786564837533  0.4506226535954145  0.4079879471746409
  0.5130637698513028  0.4966383269807235  0.2885750314834976
  0.3260539047163709  0.8899973195943207  0.7441708135446986
  0.3219573562504096  0.8486016029283058  0.6234901269494810
  0.3485307926778581  0.9140117879572303  0.0837713042447294
  0.3409221790789194  0.8746163071497768  0.9449993512660569
  0.9913975939420727  0.5572218238954242  0.4124845644355719
  0.9875208242333522  0.5158032323438517  0.2913554226083803
  0.7896719637113350  0.3244356854867662  0.7417738946617812
  0.8352833422342487  0.3202116960524077  0.6210859724906175
  0.7409723973388862  0.3516569504970780  0.0788098924139554
  0.7896997490539870  0.3407876769065336  0.9418314981164700
  0.4579782128633434  0.9906852283688463  0.4134773312915190
  0.5033776917241715  0.9866139567772796  0.2933407333914024
  0.6572699556449803  0.4970544131342960  0.5129727295897173
  0.7750620308725023  0.2129496535509361  0.9182209911979843
  0.1439400834870617  0.1663498067239957  0.4987496081426353
  0.4738457117614766  0.4970948575878701  0.8322944274002616
  0.6967854881532661  0.1431817235897203  0.4983522345882020
  0.0289982326739622  0.4747066784930692  0.8335962638593535
  0.1690042525229017  0.6934855320465610  0.5007926226952832
  0.5021051667734311  0.0284047455858978  0.8356495950619562
  0.1963215949488393  0.1677252027178187  0.8045540520846937
  0.6395253741796336  0.1954094236051622  0.8051701854764762
  0.1686709873110859  0.6418012685159215  0.8045185787439992
  0.8103607141277591  0.8343949035625382  0.1721855162321215
  0.3620382293724986  0.8084310385329138  0.1672123440603166
  0.8363647443982493  0.3608749339011225  0.1620865198943557
  0.8611344933458780  0.8349297475651686  0.4753505634950874
  0.5238745169987209  0.4965470178489617  0.1350904168801112
  0.3106290109152785  0.8598704534360928  0.4701328318684557
  0.9758113907864497  0.5273529556715001  0.1383409740024961
  0.8366474232141117  0.3061589549653543  0.4699873899272586
  0.5037808995826244  0.9746531593701103  0.1405505160067425
  0.3146162059750130  0.6434816089065702  0.5110805877114957
  0.0479434702384555  0.3131918446235876  0.5088281641884701
  0.6448668951414243  0.0482402268244371  0.5098928533803238
  0.0243904545578548  0.6927277287186082  0.7938159548833023
  0.3591097444601106  0.0251184898529925  0.1303372229221579
  0.2891827429922528  0.0229066543402670  0.7953377504090001
  0.6229870673960983  0.3536050332828872  0.1195120732893295
  0.7087892717367309  0.2757010971818602  0.8111199941561034
  0.0276786726850223  0.6198873467549461  0.1301676717577689
  0.6471165433608533  0.9760581095924193  0.8464659851315410
  0.9825503912638134  0.3097245075585418  0.1741091825861495
  0.3806862952803586  0.6468224156062147  0.8446975628337441
  0.7163425371971686  0.9803089567343141  0.1836142394155775
  0.9787040394032612  0.3786377505251974  0.8424741331620070
  0.3114503929542032  0.7124349520614026  0.1766186566302512
  0.6822792312933955  0.3679792401750723  0.4847989110519696
  0.9558524298391509  0.6899027406308668  0.4659379299147007
  0.3620719842301235  0.9532981319479367  0.4598561644285799
  0.7485982447956098  0.4236400458660947  0.4093389336775454
  0.6200029353168345  0.4862503432910225  0.7966757375286384
 
  0.00000000E+00  0.00000000E+00  0.00000000E+00
  0.00000000E+00  0.00000000E+00  0.00000000E+00
  0.00000000E+00  0.00000000E+00  0.00000000E+00
  0.00000000E+00  0.00000000E+00  0.00000000E+00
  0.00000000E+00  0.00000000E+00  0.00000000E+00
  0.00000000E+00  0.00000000E+00  0.00000000E+00
  0.00000000E+00  0.00000000E+00  0.00000000E+00
  0.00000000E+00  0.00000000E+00  0.00000000E+00
  0.00000000E+00  0.00000000E+00  0.00000000E+00
  0.00000000E+00  0.00000000E+00  0.00000000E+00
  0.00000000E+00  0.00000000E+00  0.00000000E+00
  0.00000000E+00  0.00000000E+00  0.00000000E+00
  0.00000000E+00  0.00000000E+00  0.00000000E+00
  0.00000000E+00  0.00000000E+00  0.00000000E+00
  0.00000000E+00  0.00000000E+00  0.00000000E+00
  0.00000000E+00  0.00000000E+00  0.00000000E+00
  0.00000000E+00  0.00000000E+00  0.00000000E+00
  0.00000000E+00  0.00000000E+00  0.00000000E+00
  0.00000000E+00  0.00000000E+00  0.00000000E+00
  0.00000000E+00  0.00000000E+00  0.00000000E+00
  0.00000000E+00  0.00000000E+00  0.00000000E+00
  0.00000000E+00  0.00000000E+00  0.00000000E+00
  0.00000000E+00  0.00000000E+00  0.00000000E+00
  0.00000000E+00  0.00000000E+00  0.00000000E+00
  0.00000000E+00  0.00000000E+00  0.00000000E+00
  0.00000000E+00  0.00000000E+00  0.00000000E+00
  0.00000000E+00  0.00000000E+00  0.00000000E+00
  0.00000000E+00  0.00000000E+00  0.00000000E+00
  0.00000000E+00  0.00000000E+00  0.00000000E+00
  0.00000000E+00  0.00000000E+00  0.00000000E+00
  0.00000000E+00  0.00000000E+00  0.00000000E+00
  0.00000000E+00  0.00000000E+00  0.00000000E+00
  0.00000000E+00  0.00000000E+00  0.00000000E+00
  0.00000000E+00  0.00000000E+00  0.00000000E+00
  0.00000000E+00  0.00000000E+00  0.00000000E+00
  0.00000000E+00  0.00000000E+00  0.00000000E+00
  0.00000000E+00  0.00000000E+00  0.00000000E+00
  0.00000000E+00  0.00000000E+00  0.00000000E+00
  0.00000000E+00  0.00000000E+00  0.00000000E+00
  0.00000000E+00  0.00000000E+00  0.00000000E+00
  0.00000000E+00  0.00000000E+00  0.00000000E+00
  0.00000000E+00  0.00000000E+00  0.00000000E+00
  0.00000000E+00  0.00000000E+00  0.00000000E+00
  0.00000000E+00  0.00000000E+00  0.00000000E+00
  0.00000000E+00  0.00000000E+00  0.00000000E+00
  0.00000000E+00  0.00000000E+00  0.00000000E+00
  0.00000000E+00  0.00000000E+00  0.00000000E+00
  0.00000000E+00  0.00000000E+00  0.00000000E+00
  0.00000000E+00  0.00000000E+00  0.00000000E+00
  0.00000000E+00  0.00000000E+00  0.00000000E+00
  0.00000000E+00  0.00000000E+00  0.00000000E+00
  0.00000000E+00  0.00000000E+00  0.00000000E+00
  0.00000000E+00  0.00000000E+00  0.00000000E+00
  0.00000000E+00  0.00000000E+00  0.00000000E+00
  0.00000000E+00  0.00000000E+00  0.00000000E+00
  0.00000000E+00  0.00000000E+00  0.00000000E+00
  0.00000000E+00  0.00000000E+00  0.00000000E+00
  0.00000000E+00  0.00000000E+00  0.00000000E+00
  0.00000000E+00  0.00000000E+00  0.00000000E+00
  0.00000000E+00  0.00000000E+00  0.00000000E+00
  0.00000000E+00  0.00000000E+00  0.00000000E+00
  0.00000000E+00  0.00000000E+00  0.00000000E+00
  0.00000000E+00  0.00000000E+00  0.00000000E+00
  0.00000000E+00  0.00000000E+00  0.00000000E+00
  0.00000000E+00  0.00000000E+00  0.00000000E+00
  0.00000000E+00  0.00000000E+00  0.00000000E+00
  0.00000000E+00  0.00000000E+00  0.00000000E+00
  0.00000000E+00  0.00000000E+00  0.00000000E+00
  0.00000000E+00  0.00000000E+00  0.00000000E+00
  0.00000000E+00  0.00000000E+00  0.00000000E+00
  0.00000000E+00  0.00000000E+00  0.00000000E+00
  0.00000000E+00  0.00000000E+00  0.00000000E+00
  0.00000000E+00  0.00000000E+00  0.00000000E+00
  0.00000000E+00  0.00000000E+00  0.00000000E+00
  0.00000000E+00  0.00000000E+00  0.00000000E+00
  0.00000000E+00  0.00000000E+00  0.00000000E+00
  0.00000000E+00  0.00000000E+00  0.00000000E+00
  0.00000000E+00  0.00000000E+00  0.00000000E+00
  0.00000000E+00  0.00000000E+00  0.00000000E+00
  0.00000000E+00  0.00000000E+00  0.00000000E+00
  0.00000000E+00  0.00000000E+00  0.00000000E+00
  0.00000000E+00  0.00000000E+00  0.00000000E+00
  0.00000000E+00  0.00000000E+00  0.00000000E+00
  0.00000000E+00  0.00000000E+00  0.00000000E+00
  0.00000000E+00  0.00000000E+00  0.00000000E+00
  0.00000000E+00  0.00000000E+00  0.00000000E+00
  0.00000000E+00  0.00000000E+00  0.00000000E+00
  0.00000000E+00  0.00000000E+00  0.00000000E+00
  0.00000000E+00  0.00000000E+00  0.00000000E+00
  0.00000000E+00  0.00000000E+00  0.00000000E+00
  0.00000000E+00  0.00000000E+00  0.00000000E+00
  0.00000000E+00  0.00000000E+00  0.00000000E+00
  0.00000000E+00  0.00000000E+00  0.00000000E+00
  0.00000000E+00  0.00000000E+00  0.00000000E+00
  0.00000000E+00  0.00000000E+00  0.00000000E+00
  0.00000000E+00  0.00000000E+00  0.00000000E+00
  0.00000000E+00  0.00000000E+00  0.00000000E+00
  0.00000000E+00  0.00000000E+00  0.00000000E+00
  0.00000000E+00  0.00000000E+00  0.00000000E+00
  0.00000000E+00  0.00000000E+00  0.00000000E+00
  0.00000000E+00  0.00000000E+00  0.00000000E+00
  0.00000000E+00  0.00000000E+00  0.00000000E+00
  0.00000000E+00  0.00000000E+00  0.00000000E+00
  0.00000000E+00  0.00000000E+00  0.00000000E+00
  0.00000000E+00  0.00000000E+00  0.00000000E+00
  0.00000000E+00  0.00000000E+00  0.00000000E+00
  0.00000000E+00  0.00000000E+00  0.00000000E+00
  0.00000000E+00  0.00000000E+00  0.00000000E+00
  0.00000000E+00  0.00000000E+00  0.00000000E+00
  0.00000000E+00  0.00000000E+00  0.00000000E+00
  0.00000000E+00  0.00000000E+00  0.00000000E+00
  0.00000000E+00  0.00000000E+00  0.00000000E+00
  0.00000000E+00  0.00000000E+00  0.00000000E+00
  0.00000000E+00  0.00000000E+00  0.00000000E+00
  0.00000000E+00  0.00000000E+00  0.00000000E+00
  0.00000000E+00  0.00000000E+00  0.00000000E+00
  0.00000000E+00  0.00000000E+00  0.00000000E+00
  0.00000000E+00  0.00000000E+00  0.00000000E+00
  0.00000000E+00  0.00000000E+00  0.00000000E+00
  0.00000000E+00  0.00000000E+00  0.00000000E+00
  0.00000000E+00  0.00000000E+00  0.00000000E+00
  0.00000000E+00  0.00000000E+00  0.00000000E+00
  0.00000000E+00  0.00000000E+00  0.00000000E+00
  0.00000000E+00  0.00000000E+00  0.00000000E+00
  0.00000000E+00  0.00000000E+00  0.00000000E+00
  0.00000000E+00  0.00000000E+00  0.00000000E+00
  0.00000000E+00  0.00000000E+00  0.00000000E+00
  0.00000000E+00  0.00000000E+00  0.00000000E+00
  0.00000000E+00  0.00000000E+00  0.00000000E+00
  0.00000000E+00  0.00000000E+00  0.00000000E+00
  0.00000000E+00  0.00000000E+00  0.00000000E+00
  0.00000000E+00  0.00000000E+00  0.00000000E+00
  0.00000000E+00  0.00000000E+00  0.00000000E+00
  0.00000000E+00  0.00000000E+00  0.00000000E+00
  0.00000000E+00  0.00000000E+00  0.00000000E+00
  0.00000000E+00  0.00000000E+00  0.00000000E+00
  0.00000000E+00  0.00000000E+00  0.00000000E+00
  0.00000000E+00  0.00000000E+00  0.00000000E+00
  0.00000000E+00  0.00000000E+00  0.00000000E+00
  0.00000000E+00  0.00000000E+00  0.00000000E+00
  0.00000000E+00  0.00000000E+00  0.00000000E+00
  0.00000000E+00  0.00000000E+00  0.00000000E+00
  0.00000000E+00  0.00000000E+00  0.00000000E+00
  0.00000000E+00  0.00000000E+00  0.00000000E+00
  0.00000000E+00  0.00000000E+00  0.00000000E+00
  0.00000000E+00  0.00000000E+00  0.00000000E+00
  0.00000000E+00  0.00000000E+00  0.00000000E+00
  0.00000000E+00  0.00000000E+00  0.00000000E+00
  0.00000000E+00  0.00000000E+00  0.00000000E+00
  0.00000000E+00  0.00000000E+00  0.00000000E+00
  0.00000000E+00  0.00000000E+00  0.00000000E+00
  0.00000000E+00  0.00000000E+00  0.00000000E+00
  0.00000000E+00  0.00000000E+00  0.00000000E+00
  0.00000000E+00  0.00000000E+00  0.00000000E+00
  0.00000000E+00  0.00000000E+00  0.00000000E+00
  0.00000000E+00  0.00000000E+00  0.00000000E+00
  0.00000000E+00  0.00000000E+00  0.00000000E+00
  0.00000000E+00  0.00000000E+00  0.00000000E+00
  0.00000000E+00  0.00000000E+00  0.00000000E+00
  0.00000000E+00  0.00000000E+00  0.00000000E+00
  0.00000000E+00  0.00000000E+00  0.00000000E+00
  0.00000000E+00  0.00000000E+00  0.00000000E+00
  0.00000000E+00  0.00000000E+00  0.00000000E+00
  0.00000000E+00  0.00000000E+00  0.00000000E+00
  0.00000000E+00  0.00000000E+00  0.00000000E+00
  0.00000000E+00  0.00000000E+00  0.00000000E+00
  0.00000000E+00  0.00000000E+00  0.00000000E+00
  0.00000000E+00  0.00000000E+00  0.00000000E+00
  0.00000000E+00  0.00000000E+00  0.00000000E+00
  0.00000000E+00  0.00000000E+00  0.00000000E+00
