O  C  H  Co Li                          
   1.00000000000000     
    25.9869300222800774    0.0014776472087939   -0.0002841704448074
    12.9947443186480527   22.5035161465627063   -0.0005769115704474
    -0.0000740905812471   -0.0001328080293999    6.8098320633878924
   O    C    H    Co   Li
    58    74    18    18     2
Direct
  0.0622542458569814  0.2489474441753399  0.3143659863441026
  0.0340504948051350  0.2937042028601932  0.9386227596912476
  0.1063628394618821  0.2585824612938271  0.7206836462669578
  0.3952411568235955  0.5842143856079819  0.6587672331658855
  0.6945810070446702  0.0597831561966485  0.3143031327054471
  0.6791282295600352  0.0303656453243384  0.9408136640704853
  0.6426766484976967  0.1018736832188739  0.7197994795196417
  0.0282908817920884  0.3932172800713465  0.6487553251562869
  0.2497055543741082  0.6932540301384778  0.3226352458127646
  0.2947828084614488  0.6773409320512276  0.9485699797175107
  0.2603436502979831  0.6398133454384539  0.7292136850069804
  0.5849752814254693  0.0250524535683809  0.6489730871477059
  0.3052171957088518  0.0420134586301651  0.3668256480874660
  0.2327515371836938  0.0762771146591222  0.5842344605339597
  0.6288695628657758  0.3606571054564053  0.6785702917507233
  0.5635077967578727  0.4059035555549513  0.9179611840459602
  0.2764668134101946  0.0861203130461554  0.9904606050783865
  0.6741438522869287  0.2976759261235246  0.3417226298427889
  0.7035745788852470  0.2275983746719462  0.5696662024173683
  0.9924866123393200  0.6360549368972144  0.7015022949321391
  0.0310637536260961  0.5634844751989202  0.9184456273036301
  0.6474076192214167  0.2716720748003273  0.9852225806867732
  0.0429447428953274  0.6569320915963224  0.3688197525639905
  0.0771080093310801  0.6949005082649100  0.5876029507930303
  0.3763828871659163  0.9917608606639032  0.7001782190252078
  0.4111907059001070  0.0293628735352386  0.9178326489177584
  0.0873908689415367  0.6419135034659224  0.9933321156044587
  0.7005223312920578  0.9592700161132852  0.6074127521760558
  0.7729800465331258  0.9248808116850438  0.3900362853343475
  0.3655734473719094  0.6294183578527159  0.2842142017586263
  0.4374127892180468  0.5936468396076240  0.0646813504637978
  0.7292332224476747  0.9148954024428630  0.9835559713288490
  0.3427124916856484  0.7001890250091134  0.6162470716719547
  0.3060685084537961  0.7718006153848256  0.3953231623969899
  0.0129922437757522  0.3645066350024686  0.2722000641664793
  0.9745944702816476  0.4371005604100426  0.0553594766551504
  0.3591975897400250  0.7289201261603256  0.9890918224882406
  0.9632454986431140  0.3425420760500404  0.6049985873491821
  0.9261316163893002  0.3088967733188574  0.3811304863379709
  0.6295943462809050  0.0087908207223068  0.2739342957991704
  0.5944190735329076  0.9718090654378622  0.0553257802960841
  0.9179826167481675  0.3589889978441898  0.9771789550123643
  0.9428774505618892  0.7514227077166701  0.6584664350884957
  0.9716880547065007  0.7072482970847436  0.0350210852796879
  0.8991751957815849  0.7416303576971461  0.2521966267031900
  0.6023540995929940  0.4142189697581078  0.3211442342950561
  0.3107248287895461  0.9416407056752620  0.6590670643481126
  0.3263845080063013  0.9706915287873220  0.0338591128111267
  0.3634444863844277  0.8987085589358338  0.2532706106529523
  0.9772963496409965  0.6072410179936462  0.3247504760382792
  0.7509909099628852  0.3148866654515133  0.6495314993734773
  0.6999432385911818  0.3413221208927704  0.0031092458228740
  0.7386965852598725  0.3707341684075530  0.2350735295756413
  0.4206519676484858  0.9760708523894767  0.3241555702772448
  0.6786993373296332  0.4459766644722296  0.5795267386738262
  0.6208021050284084  0.5450552452890615  0.6105135650987015
  0.7044661303572457  0.5068076578059170  0.4268415529487224
  0.8143896992201271  0.1668321755440018  0.9561804595368886
  0.1132745375240905  0.2109079024436496  0.2278901636554066
  0.1561843979815016  0.1662808198330914  0.3451319578494995
  0.0878062823657150  0.2568657586778960  0.8888493138873280
  0.1272417858826370  0.2118595314766665  0.0283083816532029
  0.4452763115551667  0.5448893003082516  0.5709430089161917
  0.4881677801428596  0.4993455503228451  0.6861855356378589
  0.6830043757899468  0.1100699680275103  0.2261013830644825
  0.6858631851916068  0.1528811269878378  0.3406456405521206
  0.6626709522269409  0.0837982106716578  0.8885489985464364
  0.6684080698085768  0.1235527942832859  0.0261930207869385
  0.0154105404944962  0.4442100135992519  0.5622806357763923
  0.0171304669133718  0.4870992356613140  0.6796241823814627
  0.2118091831815214  0.6803487524967297  0.2350580617417779
  0.1670950279602360  0.6818014918348788  0.3510302085571104
  0.2582000674078785  0.6602685247878377  0.8974989984860255
  0.2128880507477353  0.6657354090820009  0.0351560801260190
  0.5465846409797387  0.0126426458718728  0.5623122879345664
  0.5016925925272283  0.0148472062823422  0.6793648035095963
  0.2512875103784281  0.0783069908568913  0.4162813532748302
  0.2115556035019973  0.1231712607214383  0.2767989149035100
  0.5803083439120088  0.4030625842087702  0.7428162341593986
  0.5413601293781667  0.4531103105948394  0.6113534840094358
  0.2254727082906488  0.1240992176980504  0.0771662582474009
  0.1825418592107880  0.1686614845800373  0.9598696692123329
  0.6847445052622911  0.2466297830696187  0.4007737955568096
  0.6752024698786846  0.2073239027871014  0.2690185232799462
  0.0102888691823642  0.5820760308966806  0.7507259890447487
  0.0050424062894926  0.5423988635675159  0.6112023950690590
  0.6592594794019641  0.2211967075948961  0.0712231808817519
  0.6567088412674948  0.1783551819456344  0.9554810941508943
  0.0792033215714558  0.6744970292327687  0.4193231291817490
  0.1241579564326069  0.6695424446469528  0.2809348068683902
  0.4130473399845893  0.0089147246993840  0.7498373079847744
  0.4581746100748663  0.0032671138160192  0.6105592031443249
  0.1252041908213311  0.6549869916121174  0.0809664389741002
  0.1698236572825991  0.6536850394398165  0.9648299874043708
  0.7543831809461934  0.9228197986175111  0.5579098745689365
  0.7939749666133749  0.8776991258813852  0.6970351006147492
  0.4187706381395405  0.5915683821753425  0.2325043630950069
  0.4575148208593712  0.5450041626720186  0.3691597765433754
  0.7800980015892077  0.8767158106696408  0.8966766712127470
  0.8229237268066805  0.8318987702987073  0.0136082841134673
  0.3263170614003079  0.7535804569033620  0.5638002618630977
  0.3323398794684679  0.7931597318891941  0.7013384221745959
  0.9953248847867107  0.4184594112819327  0.2231132351530449
  0.0006007069195325  0.4580979810919901  0.3626397985007903
  0.3467940224308959  0.7795987098048595  0.9013416115125024
  0.3487784507182578  0.8225782417986680  0.0172759196129875
  0.9250629065575058  0.3279387966243502  0.5511631253958682
  0.8791574538923731  0.3344931426455228  0.6880010965085789
  0.5926559490356588  0.9920575334047635  0.2235691695546552
  0.5474129863220468  0.9978991715312708  0.3625986091494898
  0.8791985308543153  0.3475987642881470  0.8889330263980042
  0.8342776143036122  0.3494054537235208  0.0047318840933575
  0.8919913291924947  0.7895797252726587  0.7452285389402722
  0.8491629611654526  0.8343711495682821  0.6282463515077529
  0.9177463234857294  0.7436191040716574  0.0843062207517479
  0.8781271377188697  0.7885951213452489  0.9448756375915721
  0.5527752214318181  0.4534425884232797  0.4085274811203694
  0.5104392427058984  0.4995397511410034  0.2950165307669149
  0.3230623504509773  0.8909863190727386  0.7468071233903495
  0.3210560322395035  0.8480071095448395  0.6308446517523773
  0.3431679824462336  0.9170883819272855  0.0849176842825922
  0.3374353932680210  0.8774594577858220  0.9468624158480141
  0.9902049057959802  0.5562945102008021  0.4115225233830149
  0.9884836371385006  0.5134036758180610  0.2942084561115874
  0.7897764352293619  0.3263292113393866  0.7334835852854614
  0.8353536403833889  0.3234090026456830  0.6175411612402399
  0.7404391740453292  0.3513822294740296  0.0645553056400196
  0.7889591586208498  0.3411536282382787  0.9331816430440453
  0.4590062319336938  0.9885385557665719  0.4108257066939666
  0.5038616111040886  0.9863869862219493  0.2937150646478627
  0.6671403654468312  0.5033952608265037  0.5340614820712285
  0.7752688673301221  0.2090951723611815  0.8950433191033387
  0.1444423751980460  0.1651885899034522  0.4952260820709466
  0.4767941212464124  0.4983565546500373  0.8367268233808260
  0.6990827726386547  0.1413127532145215  0.4905898350449708
  0.0298612213579842  0.4753786897648233  0.8297961279545285
  0.1657452001571984  0.6944699586595131  0.5014383466730902
  0.5007346875981631  0.0275553366076314  0.8295339619800600
  0.1942281220890350  0.1697131812039886  0.8097000659009064
  0.6437282864578127  0.1896442092357416  0.8052082187725296
  0.1711262861056976  0.6411475057631879  0.8142915253113020
  0.8112425201707462  0.8308047380127144  0.1637506258729754
  0.3612046357259934  0.8112794278247556  0.1678493117697507
  0.8356068025631138  0.3590051118515822  0.1567060755494968
  0.8608846284397889  0.8354395362793805  0.4781210900442390
  0.5208272854258297  0.5000322388219560  0.1431606377498945
  0.3086138875349045  0.8593010013886345  0.4802796503607694
  0.9756983791562187  0.5251461737094142  0.1440913381712383
  0.8378961659858885  0.3083579602104245  0.4690931895864845
  0.5048254289374329  0.9737286088871433  0.1434728543896147
  0.3150906575111156  0.6414660892880811  0.5244074868514661
  0.0499968138430839  0.3138175765090624  0.5141434216402772
  0.6425243376215428  0.0466090785530206  0.5141599763790852
  0.0220861345653383  0.6939288272635219  0.7933477443626257
  0.3558043250395949  0.0285652974603367  0.1243888182915719
  0.2889508421989943  0.0211564704851463  0.7910995108793564
  0.6213626447484334  0.3509985087077508  0.1165082427929930
  0.7082606271022653  0.2767148626871974  0.7951165062985676
  0.0298745901501567  0.6197942225383497  0.1254526868962291
  0.6499439502713413  0.9725739618377081  0.8494573900285399
  0.9833324574591844  0.3068328730677113  0.1782386632638718
  0.3819021065001464  0.6492236374581783  0.8573238032280051
  0.7167689465470796  0.9798495051460374  0.1832573826147450
  0.9759470110485661  0.3808999255304064  0.8476168973907137
  0.3070763392413580  0.7155874061572016  0.1894393574235954
  0.6803485973393258  0.3731868553747986  0.4716592625936994
  0.9554456996311107  0.6864894054081905  0.4588163392374713
  0.3629335320278588  0.9545997655166892  0.4587757073807572
  0.7461827693860920  0.4272083561460049  0.3869521777645231
  0.6025022288494123  0.4922533572279657  0.7131882962178296
