O  C  H  Co                             
   1.00000000000000     
    24.0625472337866313    1.2540655346941725   -0.1580278816454563
    13.3229426663907269   19.7547220529799219   -0.0226067221883231
    -0.0329065648463461    0.0299646459525106    6.8001885782406077
   O    C    H    Co
    48    64    16    18
Direct
  0.0024658106502150  0.2595583490721495  0.3246456079887086
  0.9673392663439115  0.3095767644049766  0.9343584942068430
  0.0517502357502592  0.2583733602427203  0.7147893794440781
  0.6542116003913578  0.1141342689735290  0.3116815951638062
  0.6486339927213411  0.0777662555268381  0.9473057396547976
  0.5937794066476468  0.1588858539326393  0.7116118934481788
  0.9932369302502203  0.3967695868674268  0.6638454637525933
  0.3745838197056734  0.5789667340434098  0.3456599298678318
  0.4295934086437600  0.5391329954088224  0.9766378732172897
  0.3758512692222565  0.5214952031785264  0.7457614647783889
  0.5728003018007628  0.0457977190045457  0.6465248931346305
  0.2972674046950848  0.0026820837216346  0.3704811337580826
  0.2178451483666632  0.0438198119733403  0.6053308289175030
  0.2614684462474197  0.0553345440477303  0.0122419736051840
  0.4798769730862102  0.4223516094914186  0.3851290583011872
  0.5663285714174476  0.3462004888477795  0.5981957703416342
  0.0488104067961512  0.6092917591311184  0.7255134944611517
  0.0657859200200278  0.5344657570610526  0.9582205958518349
  0.5381789610950565  0.3796167427528053  0.0117857510472602
  0.1054417623467662  0.6220270278261488  0.3938761151588648
  0.1582847156173835  0.6414455461234494  0.6243531037023835
  0.3754015293009101  0.9742288885960851  0.7069693529598849
  0.4037063995487105  0.0189668276284933  0.9396975449976479
  0.1593489541332775  0.5820258603090759  0.0293215476529006
  0.7035428497633650  0.9930906403237916  0.6179885416297770
  0.7831429511987795  0.9551000514711429  0.3868585538049736
  0.7393308125575719  0.9444174527045417  0.9827508254218076
  0.5259859516714355  0.5751130460396489  0.6197906760523173
  0.4407278413693469  0.6504361936604907  0.4031470872193034
  0.9685545851903308  0.3805164232965629  0.2793704524093463
  0.9418964363401595  0.4625816168633439  0.0629536648802960
  0.4669822504368468  0.6182593197814118  0.9908978864829082
  0.8936690482847236  0.3917566407017058  0.6066713348877484
  0.8464975697487251  0.3620846851553234  0.3879798282398461
  0.6212883320652989  0.0286973476623390  0.2824550928292828
  0.5949125368419678  0.9823767295717825  0.0502633279964105
  0.8444312135498501  0.4186011544022746  0.9874035873372429
  0.0014876916581510  0.7419565246878932  0.6915810424383140
  0.0298099557489455  0.6880209203876825  0.0620066206189805
  0.9471312351966190  0.7462123396391198  0.2854834583653917
  0.3460962460803322  0.8844345898094986  0.6878932939970032
  0.3563637602127714  0.9208354267589287  0.0425373225460768
  0.4054336074210962  0.8413787096693641  0.2858318381089986
  0.0162416580106969  0.5970083106628845  0.3597896922214822
  0.6324564174392899  0.4179901116269928  0.6610288052529221
  0.5758960145374181  0.4584409464516943  0.0281380341180741
  0.6294952489036211  0.4756230458587987  0.2610619889197895
  0.4286733070692277  0.9510034183113211  0.3474738323603677
  0.0642784691267539  0.2105584530071945  0.2411340545085776
  0.1171365345476160  0.1560557882470634  0.3618604970350398
  0.0307926928283035  0.2612675555459337  0.8881129662292587
  0.0800215661250890  0.2088472630607311  0.0368495676434688
  0.6213078821824596  0.1786620676417365  0.2320215106171708
  0.5982965878321596  0.2349444013399659  0.3575204726194273
  0.6170956184691464  0.1413482551715821  0.8867182260566574
  0.6067088767627605  0.1940232290535087  0.0266265492381449
  0.9984978832731359  0.4451760699197975  0.5841880851094292
  0.0197275785896951  0.4764256850586208  0.7074585764578472
  0.3253087839593758  0.5759407597984060  0.2628644247149915
  0.2692586469999367  0.5955824828858467  0.3810673216266169
  0.3788298690152308  0.5370209936943280  0.9207017674243123
  0.3248436293676227  0.5562298882763927  0.0646667297770169
  0.5379362454284620  0.0234454602845245  0.5680163443396204
  0.4936711668031904  0.0201021264630222  0.6905402253102618
  0.2349621929079055  0.0472204461953064  0.4318446724956601
  0.1833163529319747  0.1030629133423712  0.2930685065968284
  0.1991923700982920  0.1031996146732192  0.0912227496168780
  0.1464324370102045  0.1561582846022574  0.9692343335663582
  0.5376773322681137  0.3590233432710946  0.4319208036010904
  0.5646453946824903  0.3030277497860267  0.2860876836441999
  0.0483650156722568  0.5581728516617597  0.7828623027775411
  0.0257026521311806  0.5279746199314423  0.6407135843572989
  0.5584492276116035  0.3169641135093770  0.0794217962601050
  0.5773519993630223  0.2616741119344513  0.9549277509492744
  0.1563606511568912  0.6215815139704024  0.4515255463521705
  0.2133071590942618  0.5976034286258231  0.3127714143192342
  0.4095735502850237  0.9966609473592960  0.7653745175796823
  0.4560743072121747  0.9965075010382412  0.6245778149939557
  0.2118965788431895  0.5792728996507237  0.1130282659386287
  0.2688564482721981  0.5579518742235113  0.9962047955851748
  0.7667035893344127  0.9512739237797738  0.5603115165869439
  0.8191053792672152  0.8980694995548021  0.7037033491234015
  0.8022483267604937  0.8985494118654839  0.9051711010554888
  0.8546749004727984  0.8472690049922008  0.0307961407495197
  0.4681020255291569  0.6381334985312827  0.5711882567720553
  0.4394648347380636  0.6947198131076349  0.7156648082358005
  0.9626066154959140  0.4368154310177053  0.2346809168942918
  0.9829554157837898  0.4669785967054478  0.3822795680571399
  0.4451959198098916  0.6813330103392466  0.9225808824799941
  0.4243692891280598  0.7375013331175478  0.0463925966422370
  0.8470876359538585  0.3841559020954863  0.5583409947440590
  0.7922715129934846  0.4027153817783846  0.6999075276825053
  0.5888971094062301  0.0041069720513797  0.2248258762814186
  0.5436726074945001  0.0026655209087625  0.3673085544574385
  0.7932623642239548  0.4196545506290173  0.9012101395123090
  0.7369930463094794  0.4384355516026227  0.0171004874432310
  0.9387020712739502  0.7928068680597837  0.7646888159503960
  0.8864831180524587  0.8463077963463610  0.6394675811754085
  0.9686103729563533  0.7407307611271851  0.1114428316532448
  0.9212933489618421  0.7949068718153210  0.9658017728358007
  0.3801781673287210  0.8196283226074255  0.7672030281125176
  0.4046166195742513  0.7628510000018555  0.6426106955052123
  0.3839492440747627  0.8587370034595813  0.1086818739734312
  0.3942461123783687  0.8050910366033465  0.9727602575587144
  0.0102185756994236  0.5494906627270237  0.4386508158813061
  0.9882424513009741  0.5189621294589168  0.3162234419344940
  0.6814583632855434  0.4211782479112252  0.7453071747339947
  0.7373747210680466  0.4032064903634979  0.6289551237387010
  0.6268835459341324  0.4598754939370062  0.0860264751579231
  0.6815059070666714  0.4401246337939853  0.9447459141802574
  0.4624218097438901  0.9749276556477919  0.4246091252956458
  0.5062774530327283  0.9788012128240114  0.3015978840308965
  0.1060545737066153  0.1556777502779047  0.5167234443387978
  0.6052039749057837  0.2252049890875248  0.5157163856182115
  0.0316182497244522  0.4599612191521032  0.8614736030604293
  0.2693624660936997  0.6104767061868487  0.5324180283552671
  0.4891545044513222  0.0360632800031487  0.8431703521805918
  0.1579286823490520  0.1561473070789523  0.8145710774231164
  0.5700271943541547  0.2714005710418205  0.7970449505447074
  0.2687939521306843  0.5433560110703987  0.8442562092737272
  0.8421306264690517  0.8477027844031818  0.1844220364034895
  0.4313226500328109  0.7284180854246453  0.2047927457053754
  0.7368157353894782  0.4517465952352884  0.1705745331952033
  0.8985252481335364  0.8464145724964640  0.4854063755523011
  0.3974480069085768  0.7725508811083532  0.4846218103343768
  0.9758443604735165  0.5356910020105696  0.1624426456455310
  0.7376394615702576  0.3895758703744433  0.4758479653349964
  0.5107230702082356  0.9629751131040374  0.1488225664428272
  0.4457606752537898  0.5101223688302451  0.5484184794798437
  0.9994419051316946  0.3262007309802144  0.5078737093092410
  0.6183985872631267  0.0848410279349745  0.5148800281849762
  0.0938318208550922  0.6551978848408708  0.8291304848209056
  0.3568505479811783  0.0014330813989355  0.1430402661789885
  0.2910546314267544  0.9835216905346051  0.8070050541945223
  0.5202611528591365  0.4541362390815685  0.2196261140646682
  0.5591052875952116  0.4153731575450365  0.7735831723659591
  0.0806755195633784  0.5854362490935751  0.1587808378266389
  0.6456065901027584  0.9993882978725139  0.8518406537668675
  0.9139783080916721  0.3439455426031519  0.1869421258535682
  0.4855994086519879  0.5432362460018555  0.7850451759734752
  0.7063348320273466  0.0175169405048023  0.1866926069948446
  0.9222243584605296  0.4129336454259691  0.8640841754536520
  0.4474191663802375  0.5811572517938223  0.2301065006677673
  0.5605754320155492  0.4865793582466419  0.4582437398716153
  0.0056797067263056  0.6792934560451651  0.4938573371587048
  0.3820662277491646  0.9122939495614221  0.4844977778929611
 
  0.00000000E+00  0.00000000E+00  0.00000000E+00
  0.00000000E+00  0.00000000E+00  0.00000000E+00
  0.00000000E+00  0.00000000E+00  0.00000000E+00
  0.00000000E+00  0.00000000E+00  0.00000000E+00
  0.00000000E+00  0.00000000E+00  0.00000000E+00
  0.00000000E+00  0.00000000E+00  0.00000000E+00
  0.00000000E+00  0.00000000E+00  0.00000000E+00
  0.00000000E+00  0.00000000E+00  0.00000000E+00
  0.00000000E+00  0.00000000E+00  0.00000000E+00
  0.00000000E+00  0.00000000E+00  0.00000000E+00
  0.00000000E+00  0.00000000E+00  0.00000000E+00
  0.00000000E+00  0.00000000E+00  0.00000000E+00
  0.00000000E+00  0.00000000E+00  0.00000000E+00
  0.00000000E+00  0.00000000E+00  0.00000000E+00
  0.00000000E+00  0.00000000E+00  0.00000000E+00
  0.00000000E+00  0.00000000E+00  0.00000000E+00
  0.00000000E+00  0.00000000E+00  0.00000000E+00
  0.00000000E+00  0.00000000E+00  0.00000000E+00
  0.00000000E+00  0.00000000E+00  0.00000000E+00
  0.00000000E+00  0.00000000E+00  0.00000000E+00
  0.00000000E+00  0.00000000E+00  0.00000000E+00
  0.00000000E+00  0.00000000E+00  0.00000000E+00
  0.00000000E+00  0.00000000E+00  0.00000000E+00
  0.00000000E+00  0.00000000E+00  0.00000000E+00
  0.00000000E+00  0.00000000E+00  0.00000000E+00
  0.00000000E+00  0.00000000E+00  0.00000000E+00
  0.00000000E+00  0.00000000E+00  0.00000000E+00
  0.00000000E+00  0.00000000E+00  0.00000000E+00
  0.00000000E+00  0.00000000E+00  0.00000000E+00
  0.00000000E+00  0.00000000E+00  0.00000000E+00
  0.00000000E+00  0.00000000E+00  0.00000000E+00
  0.00000000E+00  0.00000000E+00  0.00000000E+00
  0.00000000E+00  0.00000000E+00  0.00000000E+00
  0.00000000E+00  0.00000000E+00  0.00000000E+00
  0.00000000E+00  0.00000000E+00  0.00000000E+00
  0.00000000E+00  0.00000000E+00  0.00000000E+00
  0.00000000E+00  0.00000000E+00  0.00000000E+00
  0.00000000E+00  0.00000000E+00  0.00000000E+00
  0.00000000E+00  0.00000000E+00  0.00000000E+00
  0.00000000E+00  0.00000000E+00  0.00000000E+00
  0.00000000E+00  0.00000000E+00  0.00000000E+00
  0.00000000E+00  0.00000000E+00  0.00000000E+00
  0.00000000E+00  0.00000000E+00  0.00000000E+00
  0.00000000E+00  0.00000000E+00  0.00000000E+00
  0.00000000E+00  0.00000000E+00  0.00000000E+00
  0.00000000E+00  0.00000000E+00  0.00000000E+00
  0.00000000E+00  0.00000000E+00  0.00000000E+00
  0.00000000E+00  0.00000000E+00  0.00000000E+00
  0.00000000E+00  0.00000000E+00  0.00000000E+00
  0.00000000E+00  0.00000000E+00  0.00000000E+00
  0.00000000E+00  0.00000000E+00  0.00000000E+00
  0.00000000E+00  0.00000000E+00  0.00000000E+00
  0.00000000E+00  0.00000000E+00  0.00000000E+00
  0.00000000E+00  0.00000000E+00  0.00000000E+00
  0.00000000E+00  0.00000000E+00  0.00000000E+00
  0.00000000E+00  0.00000000E+00  0.00000000E+00
  0.00000000E+00  0.00000000E+00  0.00000000E+00
  0.00000000E+00  0.00000000E+00  0.00000000E+00
  0.00000000E+00  0.00000000E+00  0.00000000E+00
  0.00000000E+00  0.00000000E+00  0.00000000E+00
  0.00000000E+00  0.00000000E+00  0.00000000E+00
  0.00000000E+00  0.00000000E+00  0.00000000E+00
  0.00000000E+00  0.00000000E+00  0.00000000E+00
  0.00000000E+00  0.00000000E+00  0.00000000E+00
  0.00000000E+00  0.00000000E+00  0.00000000E+00
  0.00000000E+00  0.00000000E+00  0.00000000E+00
  0.00000000E+00  0.00000000E+00  0.00000000E+00
  0.00000000E+00  0.00000000E+00  0.00000000E+00
  0.00000000E+00  0.00000000E+00  0.00000000E+00
  0.00000000E+00  0.00000000E+00  0.00000000E+00
  0.00000000E+00  0.00000000E+00  0.00000000E+00
  0.00000000E+00  0.00000000E+00  0.00000000E+00
  0.00000000E+00  0.00000000E+00  0.00000000E+00
  0.00000000E+00  0.00000000E+00  0.00000000E+00
  0.00000000E+00  0.00000000E+00  0.00000000E+00
  0.00000000E+00  0.00000000E+00  0.00000000E+00
  0.00000000E+00  0.00000000E+00  0.00000000E+00
  0.00000000E+00  0.00000000E+00  0.00000000E+00
  0.00000000E+00  0.00000000E+00  0.00000000E+00
  0.00000000E+00  0.00000000E+00  0.00000000E+00
  0.00000000E+00  0.00000000E+00  0.00000000E+00
  0.00000000E+00  0.00000000E+00  0.00000000E+00
  0.00000000E+00  0.00000000E+00  0.00000000E+00
  0.00000000E+00  0.00000000E+00  0.00000000E+00
  0.00000000E+00  0.00000000E+00  0.00000000E+00
  0.00000000E+00  0.00000000E+00  0.00000000E+00
  0.00000000E+00  0.00000000E+00  0.00000000E+00
  0.00000000E+00  0.00000000E+00  0.00000000E+00
  0.00000000E+00  0.00000000E+00  0.00000000E+00
  0.00000000E+00  0.00000000E+00  0.00000000E+00
  0.00000000E+00  0.00000000E+00  0.00000000E+00
  0.00000000E+00  0.00000000E+00  0.00000000E+00
  0.00000000E+00  0.00000000E+00  0.00000000E+00
  0.00000000E+00  0.00000000E+00  0.00000000E+00
  0.00000000E+00  0.00000000E+00  0.00000000E+00
  0.00000000E+00  0.00000000E+00  0.00000000E+00
  0.00000000E+00  0.00000000E+00  0.00000000E+00
  0.00000000E+00  0.00000000E+00  0.00000000E+00
  0.00000000E+00  0.00000000E+00  0.00000000E+00
  0.00000000E+00  0.00000000E+00  0.00000000E+00
  0.00000000E+00  0.00000000E+00  0.00000000E+00
  0.00000000E+00  0.00000000E+00  0.00000000E+00
  0.00000000E+00  0.00000000E+00  0.00000000E+00
  0.00000000E+00  0.00000000E+00  0.00000000E+00
  0.00000000E+00  0.00000000E+00  0.00000000E+00
  0.00000000E+00  0.00000000E+00  0.00000000E+00
  0.00000000E+00  0.00000000E+00  0.00000000E+00
  0.00000000E+00  0.00000000E+00  0.00000000E+00
  0.00000000E+00  0.00000000E+00  0.00000000E+00
  0.00000000E+00  0.00000000E+00  0.00000000E+00
  0.00000000E+00  0.00000000E+00  0.00000000E+00
  0.00000000E+00  0.00000000E+00  0.00000000E+00
  0.00000000E+00  0.00000000E+00  0.00000000E+00
  0.00000000E+00  0.00000000E+00  0.00000000E+00
  0.00000000E+00  0.00000000E+00  0.00000000E+00
  0.00000000E+00  0.00000000E+00  0.00000000E+00
  0.00000000E+00  0.00000000E+00  0.00000000E+00
  0.00000000E+00  0.00000000E+00  0.00000000E+00
  0.00000000E+00  0.00000000E+00  0.00000000E+00
  0.00000000E+00  0.00000000E+00  0.00000000E+00
  0.00000000E+00  0.00000000E+00  0.00000000E+00
  0.00000000E+00  0.00000000E+00  0.00000000E+00
  0.00000000E+00  0.00000000E+00  0.00000000E+00
  0.00000000E+00  0.00000000E+00  0.00000000E+00
  0.00000000E+00  0.00000000E+00  0.00000000E+00
  0.00000000E+00  0.00000000E+00  0.00000000E+00
  0.00000000E+00  0.00000000E+00  0.00000000E+00
  0.00000000E+00  0.00000000E+00  0.00000000E+00
  0.00000000E+00  0.00000000E+00  0.00000000E+00
  0.00000000E+00  0.00000000E+00  0.00000000E+00
  0.00000000E+00  0.00000000E+00  0.00000000E+00
  0.00000000E+00  0.00000000E+00  0.00000000E+00
  0.00000000E+00  0.00000000E+00  0.00000000E+00
  0.00000000E+00  0.00000000E+00  0.00000000E+00
  0.00000000E+00  0.00000000E+00  0.00000000E+00
  0.00000000E+00  0.00000000E+00  0.00000000E+00
  0.00000000E+00  0.00000000E+00  0.00000000E+00
  0.00000000E+00  0.00000000E+00  0.00000000E+00
  0.00000000E+00  0.00000000E+00  0.00000000E+00
  0.00000000E+00  0.00000000E+00  0.00000000E+00
  0.00000000E+00  0.00000000E+00  0.00000000E+00
  0.00000000E+00  0.00000000E+00  0.00000000E+00
  0.00000000E+00  0.00000000E+00  0.00000000E+00
  0.00000000E+00  0.00000000E+00  0.00000000E+00
  0.00000000E+00  0.00000000E+00  0.00000000E+00
  0.00000000E+00  0.00000000E+00  0.00000000E+00
