O  C  H  Co                             
   1.00000000000000     
    23.9431529754353178    1.4323025409831578   -0.1702814812476491
    13.3950097379054807   19.9024372233332407    0.0053172493105802
    -0.0365952130110686    0.0422071289209901    6.8012839580555431
   O    C    H    Co
    48    64    16    18
Direct
 -0.0001010528639241  0.2578855558840753  0.3221476569837472
  0.9655981442344083  0.3089863062050779  0.9301491023004077
  0.0505469183009355  0.2534806069619834  0.7113220402913220
  0.6508538541842956  0.1191033529032342  0.3143175359530958
  0.6413634745892383  0.0845034573182059  0.9540304644802960
  0.5880397442915156  0.1647346559445390  0.7144278077972709
  0.0011904695801197  0.3887270962299426  0.6573684310129410
  0.3731303150771184  0.5818549698547081  0.3448379684308004
  0.4274620083238906  0.5441227777659388  0.9749366998588020
  0.3745381794827559  0.5244816422373796  0.7462885374543545
  0.5696855295804490  0.0501956789702680  0.6494625076375174
  0.2977345905137768  0.0001873574088500  0.3729183406167678
  0.2175847517767175  0.0404091083042660  0.6066510670768981
  0.2607690764850673  0.0508266827292107  0.0138194574247653
  0.4772418312494924  0.4262379501854082  0.3884023950058838
  0.5646593948705971  0.3490906370005902  0.6014594927161139
  0.0500625658803850  0.6045992889505197  0.7208701534652210
  0.0698449661628890  0.5290417699494411  0.9546748281576860
  0.5338353598628470  0.3839611638525361  0.0134140778580983
  0.1035851833415068  0.6219796468447651  0.3901358582218002
  0.1568647133147549  0.6398570573232926  0.6237230067533028
  0.3761695170605205  0.9732303244759123  0.7091740723215311
  0.4033127431241346  0.0181568608917118  0.9435934916600716
  0.1587881073584850  0.5814068498862566  0.0287493718219012
  0.7022585321596636  0.0011379776751558  0.6253475972212220
  0.7815322800049694  0.9594120010769461  0.3892424910980903
  0.7379879842232335  0.9508703049284201  0.9849803274162815
  0.5287517869683959  0.5741056754238585  0.6207000141760134
  0.4422576587451517  0.6505135885451635  0.4046316310701558
  0.9754241410652679  0.3739118974927348  0.2708035052426920
  0.9495067000857418  0.4559040981270742  0.0562624785314053
  0.4713150308339932  0.6170825773660172  0.9936165486345929
  0.8949050990220954  0.3939431135765388  0.5988823705689624
  0.8440236771980497  0.3681199979156172  0.3823296107568454
  0.6201944594161615  0.0315402364317454  0.2893624956758467
  0.5925305351566333  0.9875969346406266  0.0540039951858606
  0.8446837210405159  0.4233137838638290  0.9815170361837657
 -0.0020973869881503  0.7385133565972355  0.6883372467935371
  0.0257490190235240  0.6839991169584421  0.0555806065604926
  0.9436499431449977  0.7433765149992090  0.2820667489857216
  0.3491263324502862  0.8823316301996469  0.6891946256885194
  0.3603696695456076  0.9180711357978598  0.0437997778440204
  0.4113215118065454  0.8387163385608777  0.2877157057546940
  0.0183034123055154  0.5920586032556585  0.3569467785249684
  0.6333552261882994  0.4182052373341454  0.6653902187533627
  0.5784276877674733  0.4562578494411256  0.0340201624986042
  0.6311507562902819  0.4758314267723180  0.2637407081912715
  0.4299121374607641  0.9507915909964939  0.3514893195151998
  0.0617524249540514  0.2071848618575790  0.2388847178283676
  0.1147986536489473  0.1522606413188412  0.3601988585640341
  0.0288908039106924  0.2580149869746377  0.8846754611603872
  0.0774113957596866  0.2047198358012334  0.0343635671298272
  0.6176932377866410  0.1835583264876644  0.2342949800198719
  0.5962680062150056  0.2390863996901235  0.3595198882701227
  0.6107906376390330  0.1474316545532234  0.8904554749937948
  0.6011436705589274  0.1995891502512588  0.0295915955111519
  0.0064678353800985  0.4368606763842714  0.5778718741848217
  0.0265156417184087  0.4687176132148053  0.7023453972581584
  0.3240775157919122  0.5779595997829412  0.2630690928959970
  0.2682696416844770  0.5959289381328776  0.3815974280018575
  0.3772742016931545  0.5406533710599416  0.9203508584074404
  0.3235192405347094  0.5588584062607256  0.0646108399414951
  0.5358504398222590  0.0266401855571715  0.5718138973274480
  0.4922847744159708  0.0219907981192311  0.6943868209888276
  0.2345489442069181  0.0438722126231430  0.4330769636866136
  0.1817521104776875  0.0989397522335824  0.2928966915733897
  0.1975453854844545  0.0984486661372624  0.0908676381010131
  0.1441202097561322  0.1509138463247678  0.9674932421327688
  0.5355170025158558  0.3626252443418179  0.4350280480184321
  0.5619277160127781  0.3072159940638197  0.2886070127920081
  0.0515963462438908  0.5527110247160129  0.7793319913501934
  0.0306208424639007  0.5213103994495502  0.6369802645868935
  0.5539726587228723  0.3216536299834842  0.0818133935240421
  0.5711259304165497  0.2671765094068791  0.9576774820323882
  0.1549575673360912  0.6208212904256325  0.4501712814820838
  0.2124069662885763  0.5973649240522921  0.3124929865945940
  0.4096350287700193  0.9962016442080275  0.7689784007766410
  0.4557631266774247  0.9972173432987113  0.6286438912717818
  0.2110714165885045  0.5795587764425121  0.1125822440381728
  0.2678650805183158  0.5596755761663242  0.9957778814067506
  0.7651593393347815  0.9567050983885810  0.5637761005454118
  0.8175727956434512  0.9014920094799996  0.7052696966113987
  0.8008232443086455  0.9025260143558660  0.9070924111380563
  0.8526741476159606  0.8491496414398602  0.0312638307369741
  0.4705603611911658  0.6374441387026035  0.5722187296124197
  0.4427883228220370  0.6934124116566225  0.7173382968577521
  0.9703373917459638  0.4295046066766336  0.2276359355196955
  0.9911315124679986  0.4586732587918676  0.3757342297756282
  0.4500767001201670  0.6796081323562936  0.9244204330176886
  0.4311362696946384  0.7349505594572071  0.0477034906271761
  0.8462772085735630  0.3887995968328087  0.5528170472735457
  0.7915244866897576  0.4077007320710286  0.6960365838225648
  0.5870833741674949  0.0080720750137086  0.2294066367260214
  0.5420396423025753  0.0058787920202107  0.3715701670719485
  0.7930239714077751  0.4244857410536750  0.8967707763485898
  0.7370597944984952  0.4423535958290440  0.0146085833926413
  0.9358139050423778  0.7915696204973456  0.7625698138708743
  0.8843771945294049  0.8471097175444969  0.6388950411458796
  0.9651451396123346  0.7379656804335275  0.1079756859589492
  0.9185438618940737  0.7941058473772662  0.9641680664770940
  0.3840270023257762  0.8176717101936929  0.7692736353042355
  0.4072308839776786  0.7615317356560090  0.6448792168459441
  0.3894966799403167  0.8558912351982967  0.1103745559207891
  0.4001598196585843  0.8025403308596930  0.9741620056425896
  0.0150437312654617  0.5428428208407622  0.4348237734602492
  0.9954693801766346  0.5109879825122007  0.3105221074149586
  0.6817191675733532  0.4232057997893030  0.7469514418211073
  0.7367491601763042  0.4070648748779506  0.6280426418656624
  0.6285010835199182  0.4598057100666686  0.0894254917679253
  0.6820697019773688  0.4422131921519106  0.9456573181872991
  0.4625280370399321  0.9757674154551902  0.4288536273201607
  0.5057562722461818  0.9808590621622438  0.3060405673477233
  0.1033666933525203  0.1524593713618383  0.5149251623857121
  0.6050092426877802  0.2286107475353488  0.5172942458536711
  0.0381988670880502  0.4523132299634691  0.8564091731402740
  0.2681156539542519  0.6102950558180451  0.5335875507398414
  0.4873404247536560  0.0379256954660649  0.8470410982076907
  0.1558282865449669  0.1500533303939711  0.8127767794424717
  0.5619168683759305  0.2772965702786713  0.8000388190528623
  0.2678138607106783  0.5457568034634956  0.8432967453169460
  0.8401245674509868  0.8499942925061731  0.1851187286527004
  0.4399715630002383  0.7252683249845060  0.2055611573027636
  0.7372295065572747  0.4557270164725290  0.1675465958910451
  0.8964991363336003  0.8467601289902226  0.4846369345342565
  0.3986320087593404  0.7715365371700974  0.4869122439419843
  0.9837915807224447  0.5274657534488021  0.1565016593643057
  0.7368611997649853  0.3931910940553449  0.4755528316522509
  0.5108861944684616  0.9648137485611357  0.1533885607538999
  0.4447692397329127  0.5129869931466035  0.5496983434929698
  0.0022733028911536  0.3214947170058994  0.5019509672096664
  0.6146732002878181  0.0902524533999351  0.5178395639364414
  0.0918565145459705  0.6529619247660082  0.8262452768457423
  0.3569055467692883 -0.0001764016128733  0.1463913797090134
  0.2924596559502853  0.9802398497096683  0.8079386638887098
  0.5201065972347932  0.4554359326572242  0.2229837881080517
  0.5588310737166369  0.4171550688448774  0.7776394632855207
  0.0814513235803554  0.5822528546436999  0.1562186402559590
  0.6430179285950929  0.0050229315685245  0.8548189708871538
  0.9132139513346118  0.3455918801977140  0.1820714591687961
  0.4858353596070107  0.5449012887822817  0.7856539364675075
  0.7038064745093333  0.0228526840253319  0.1896628012292016
  0.9262840636968126  0.4104898045418772  0.8562331894757235
  0.4474364576916473  0.5827052194990768  0.2302823004160745
  0.5613773750022349  0.4869183585218452  0.4601924751208878
  0.0037072697509744  0.6759011689494048  0.4899996184573530
  0.3851184987631570  0.9103381877657865  0.4866441531566795
 
  0.00000000E+00  0.00000000E+00  0.00000000E+00
  0.00000000E+00  0.00000000E+00  0.00000000E+00
  0.00000000E+00  0.00000000E+00  0.00000000E+00
  0.00000000E+00  0.00000000E+00  0.00000000E+00
  0.00000000E+00  0.00000000E+00  0.00000000E+00
  0.00000000E+00  0.00000000E+00  0.00000000E+00
  0.00000000E+00  0.00000000E+00  0.00000000E+00
  0.00000000E+00  0.00000000E+00  0.00000000E+00
  0.00000000E+00  0.00000000E+00  0.00000000E+00
  0.00000000E+00  0.00000000E+00  0.00000000E+00
  0.00000000E+00  0.00000000E+00  0.00000000E+00
  0.00000000E+00  0.00000000E+00  0.00000000E+00
  0.00000000E+00  0.00000000E+00  0.00000000E+00
  0.00000000E+00  0.00000000E+00  0.00000000E+00
  0.00000000E+00  0.00000000E+00  0.00000000E+00
  0.00000000E+00  0.00000000E+00  0.00000000E+00
  0.00000000E+00  0.00000000E+00  0.00000000E+00
  0.00000000E+00  0.00000000E+00  0.00000000E+00
  0.00000000E+00  0.00000000E+00  0.00000000E+00
  0.00000000E+00  0.00000000E+00  0.00000000E+00
  0.00000000E+00  0.00000000E+00  0.00000000E+00
  0.00000000E+00  0.00000000E+00  0.00000000E+00
  0.00000000E+00  0.00000000E+00  0.00000000E+00
  0.00000000E+00  0.00000000E+00  0.00000000E+00
  0.00000000E+00  0.00000000E+00  0.00000000E+00
  0.00000000E+00  0.00000000E+00  0.00000000E+00
  0.00000000E+00  0.00000000E+00  0.00000000E+00
  0.00000000E+00  0.00000000E+00  0.00000000E+00
  0.00000000E+00  0.00000000E+00  0.00000000E+00
  0.00000000E+00  0.00000000E+00  0.00000000E+00
  0.00000000E+00  0.00000000E+00  0.00000000E+00
  0.00000000E+00  0.00000000E+00  0.00000000E+00
  0.00000000E+00  0.00000000E+00  0.00000000E+00
  0.00000000E+00  0.00000000E+00  0.00000000E+00
  0.00000000E+00  0.00000000E+00  0.00000000E+00
  0.00000000E+00  0.00000000E+00  0.00000000E+00
  0.00000000E+00  0.00000000E+00  0.00000000E+00
  0.00000000E+00  0.00000000E+00  0.00000000E+00
  0.00000000E+00  0.00000000E+00  0.00000000E+00
  0.00000000E+00  0.00000000E+00  0.00000000E+00
  0.00000000E+00  0.00000000E+00  0.00000000E+00
  0.00000000E+00  0.00000000E+00  0.00000000E+00
  0.00000000E+00  0.00000000E+00  0.00000000E+00
  0.00000000E+00  0.00000000E+00  0.00000000E+00
  0.00000000E+00  0.00000000E+00  0.00000000E+00
  0.00000000E+00  0.00000000E+00  0.00000000E+00
  0.00000000E+00  0.00000000E+00  0.00000000E+00
  0.00000000E+00  0.00000000E+00  0.00000000E+00
  0.00000000E+00  0.00000000E+00  0.00000000E+00
  0.00000000E+00  0.00000000E+00  0.00000000E+00
  0.00000000E+00  0.00000000E+00  0.00000000E+00
  0.00000000E+00  0.00000000E+00  0.00000000E+00
  0.00000000E+00  0.00000000E+00  0.00000000E+00
  0.00000000E+00  0.00000000E+00  0.00000000E+00
  0.00000000E+00  0.00000000E+00  0.00000000E+00
  0.00000000E+00  0.00000000E+00  0.00000000E+00
  0.00000000E+00  0.00000000E+00  0.00000000E+00
  0.00000000E+00  0.00000000E+00  0.00000000E+00
  0.00000000E+00  0.00000000E+00  0.00000000E+00
  0.00000000E+00  0.00000000E+00  0.00000000E+00
  0.00000000E+00  0.00000000E+00  0.00000000E+00
  0.00000000E+00  0.00000000E+00  0.00000000E+00
  0.00000000E+00  0.00000000E+00  0.00000000E+00
  0.00000000E+00  0.00000000E+00  0.00000000E+00
  0.00000000E+00  0.00000000E+00  0.00000000E+00
  0.00000000E+00  0.00000000E+00  0.00000000E+00
  0.00000000E+00  0.00000000E+00  0.00000000E+00
  0.00000000E+00  0.00000000E+00  0.00000000E+00
  0.00000000E+00  0.00000000E+00  0.00000000E+00
  0.00000000E+00  0.00000000E+00  0.00000000E+00
  0.00000000E+00  0.00000000E+00  0.00000000E+00
  0.00000000E+00  0.00000000E+00  0.00000000E+00
  0.00000000E+00  0.00000000E+00  0.00000000E+00
  0.00000000E+00  0.00000000E+00  0.00000000E+00
  0.00000000E+00  0.00000000E+00  0.00000000E+00
  0.00000000E+00  0.00000000E+00  0.00000000E+00
  0.00000000E+00  0.00000000E+00  0.00000000E+00
  0.00000000E+00  0.00000000E+00  0.00000000E+00
  0.00000000E+00  0.00000000E+00  0.00000000E+00
  0.00000000E+00  0.00000000E+00  0.00000000E+00
  0.00000000E+00  0.00000000E+00  0.00000000E+00
  0.00000000E+00  0.00000000E+00  0.00000000E+00
  0.00000000E+00  0.00000000E+00  0.00000000E+00
  0.00000000E+00  0.00000000E+00  0.00000000E+00
  0.00000000E+00  0.00000000E+00  0.00000000E+00
  0.00000000E+00  0.00000000E+00  0.00000000E+00
  0.00000000E+00  0.00000000E+00  0.00000000E+00
  0.00000000E+00  0.00000000E+00  0.00000000E+00
  0.00000000E+00  0.00000000E+00  0.00000000E+00
  0.00000000E+00  0.00000000E+00  0.00000000E+00
  0.00000000E+00  0.00000000E+00  0.00000000E+00
  0.00000000E+00  0.00000000E+00  0.00000000E+00
  0.00000000E+00  0.00000000E+00  0.00000000E+00
  0.00000000E+00  0.00000000E+00  0.00000000E+00
  0.00000000E+00  0.00000000E+00  0.00000000E+00
  0.00000000E+00  0.00000000E+00  0.00000000E+00
  0.00000000E+00  0.00000000E+00  0.00000000E+00
  0.00000000E+00  0.00000000E+00  0.00000000E+00
  0.00000000E+00  0.00000000E+00  0.00000000E+00
  0.00000000E+00  0.00000000E+00  0.00000000E+00
  0.00000000E+00  0.00000000E+00  0.00000000E+00
  0.00000000E+00  0.00000000E+00  0.00000000E+00
  0.00000000E+00  0.00000000E+00  0.00000000E+00
  0.00000000E+00  0.00000000E+00  0.00000000E+00
  0.00000000E+00  0.00000000E+00  0.00000000E+00
  0.00000000E+00  0.00000000E+00  0.00000000E+00
  0.00000000E+00  0.00000000E+00  0.00000000E+00
  0.00000000E+00  0.00000000E+00  0.00000000E+00
  0.00000000E+00  0.00000000E+00  0.00000000E+00
  0.00000000E+00  0.00000000E+00  0.00000000E+00
  0.00000000E+00  0.00000000E+00  0.00000000E+00
  0.00000000E+00  0.00000000E+00  0.00000000E+00
  0.00000000E+00  0.00000000E+00  0.00000000E+00
  0.00000000E+00  0.00000000E+00  0.00000000E+00
  0.00000000E+00  0.00000000E+00  0.00000000E+00
  0.00000000E+00  0.00000000E+00  0.00000000E+00
  0.00000000E+00  0.00000000E+00  0.00000000E+00
  0.00000000E+00  0.00000000E+00  0.00000000E+00
  0.00000000E+00  0.00000000E+00  0.00000000E+00
  0.00000000E+00  0.00000000E+00  0.00000000E+00
  0.00000000E+00  0.00000000E+00  0.00000000E+00
  0.00000000E+00  0.00000000E+00  0.00000000E+00
  0.00000000E+00  0.00000000E+00  0.00000000E+00
  0.00000000E+00  0.00000000E+00  0.00000000E+00
  0.00000000E+00  0.00000000E+00  0.00000000E+00
  0.00000000E+00  0.00000000E+00  0.00000000E+00
  0.00000000E+00  0.00000000E+00  0.00000000E+00
  0.00000000E+00  0.00000000E+00  0.00000000E+00
  0.00000000E+00  0.00000000E+00  0.00000000E+00
  0.00000000E+00  0.00000000E+00  0.00000000E+00
  0.00000000E+00  0.00000000E+00  0.00000000E+00
  0.00000000E+00  0.00000000E+00  0.00000000E+00
  0.00000000E+00  0.00000000E+00  0.00000000E+00
  0.00000000E+00  0.00000000E+00  0.00000000E+00
  0.00000000E+00  0.00000000E+00  0.00000000E+00
  0.00000000E+00  0.00000000E+00  0.00000000E+00
  0.00000000E+00  0.00000000E+00  0.00000000E+00
  0.00000000E+00  0.00000000E+00  0.00000000E+00
  0.00000000E+00  0.00000000E+00  0.00000000E+00
  0.00000000E+00  0.00000000E+00  0.00000000E+00
  0.00000000E+00  0.00000000E+00  0.00000000E+00
  0.00000000E+00  0.00000000E+00  0.00000000E+00
  0.00000000E+00  0.00000000E+00  0.00000000E+00
  0.00000000E+00  0.00000000E+00  0.00000000E+00
  0.00000000E+00  0.00000000E+00  0.00000000E+00
  0.00000000E+00  0.00000000E+00  0.00000000E+00
