O  C  H  Co                             
   1.00000000000000     
    23.9695549579960776    1.4316318575383642   -0.1694251454206308
    13.4102085594406013   19.8856358595673655    0.0022881362357212
    -0.0363180394673644    0.0409218485312997    6.8010916650892712
   O    C    H    Co
    48    64    16    18
Direct
 -0.0000806192749815  0.2586312371449342  0.3223662383655062
  0.9655576422909754  0.3096442676080974  0.9306827034666644
  0.0505063543751483  0.2544834370200444  0.7116403497197825
  0.6509285664165609  0.1183441430019406  0.3134531210864460
  0.6415146988462024  0.0837918351817266  0.9531889087702095
  0.5883191618444376  0.1641048424888815  0.7135411012424139
  0.9998584438749335  0.3902377636584246  0.6578508971766776
  0.3734014391499460  0.5811370269738824  0.3449114726038755
  0.4277857108661535  0.5433535285702520  0.9749528059389087
  0.3749742396259447  0.5235990958547783  0.7463738201753168
  0.5700459208276073  0.0493956325424229  0.6488536091593186
  0.2976549156779664  0.0006783806458366  0.3729812977070317
  0.2175370176611348  0.0412704132845754  0.6069365222486703
  0.2608376801402577  0.0514309964123423  0.0141292428022571
  0.4777957187017743  0.4255435994791096  0.3883709860979241
  0.5654483745675229  0.3483799388015457  0.6010982362957300
  0.0494080976612803  0.6055698625884389  0.7219321813175503
  0.0689641194760086  0.5299244420247611  0.9551523906931005
  0.5344161373747259  0.3833126904230932  0.0133213390127721
  0.1044025813924413  0.6208252768115927  0.3914726552464008
  0.1575854825637970  0.6390924404353256  0.6240477470689028
  0.3762967341039101  0.9730606315459690  0.7093453766861332
  0.4036557603281569  0.0178332377845747  0.9436385043849850
  0.1593901919625955  0.5804733354764993  0.0290356942533134
  0.7024689879996466  0.0002198527983138  0.6244544690180850
  0.7817167145904985  0.9587694391054064  0.3884442145285467
  0.7382533874859922  0.9500710245153351  0.9842107238644309
  0.5282391490449752  0.5742665260069189  0.6204171579220421
  0.4417502696427173  0.6504668460763507  0.4041695728889862
  0.9742417882074237  0.3752909612569786  0.2715667326703186
  0.9480372892246934  0.4573662721338594  0.0567516085710268
  0.4705678328239284  0.6172323691784015  0.9928562858298849
  0.8943951881729328  0.3943001335630080  0.5994865446978677
  0.8438958781027722  0.3681889394854648  0.3825877190996081
  0.6204717135426315  0.0306718544033801  0.2887640618878697
  0.5928131575926138  0.9867440662673899  0.0534537476745675
  0.8442193594604448  0.4236228188062039  0.9817922878577928
 -0.0010958268940668  0.7388347711849842  0.6887742101060694
  0.0269544683297000  0.6845302290063625  0.0571888123951832
  0.9446001010072421  0.7441108727555104  0.2827020978826958
  0.3486381089915338  0.8827025175082602  0.6889323319479654
  0.3598924903021068  0.9183253853714306  0.0438657100094660
  0.4108201537916288  0.8388302479229486  0.2874060993746714
  0.0176619686316696  0.5930698819285465  0.3570911953978751
  0.6334461817927520  0.4180314847719902  0.6656623888007333
  0.5785790447928715  0.4559809109027557  0.0343819412762201
  0.6311164959404542  0.4756729202580063  0.2641597151837949
  0.4299062807795227  0.9505266335112992  0.3513931583250263
  0.0618516976348812  0.2080187270395816  0.2391392735325033
  0.1149257609678327  0.1531563253721040  0.3604873421749318
  0.0289062846180340  0.2588670914979143  0.8850264398870594
  0.0775405011590108  0.2055848815174748  0.0346042886717956
  0.6179415217586506  0.1828213380469573  0.2335995145296208
  0.5966918249726135  0.2383199335208510  0.3588762680005282
  0.6110042881991963  0.1467685101400210  0.8896232301757845
  0.6014471139127822  0.1989305987097603  0.0289192823499132
  0.0050374687357922  0.4384345333601832  0.5782159209596920
  0.0251611405530055  0.4702228166505193  0.7026609458455114
  0.3244960988264224  0.5771018587440147  0.2631839986815878
  0.2687716132955366  0.5950115560282971  0.3817894918258600
  0.3776923953981418  0.5398086691712588  0.9204419092000823
  0.3239717711745029  0.5579608884242432  0.0647504597910443
  0.5361500644200643  0.0259362554525314  0.5713257339668457
  0.4926393750266062  0.0213725457669697  0.6940797689320415
  0.2345460580017812  0.0446192149383056  0.4333245167268462
  0.1818724036870921  0.0997751292709501  0.2932027657523630
  0.1976543865795459  0.0992263520065888  0.0911834939578206
  0.1442891025639284  0.1517519152883277  0.9677263679299967
  0.5361965289842480  0.3618801214513335  0.4348845224796546
  0.5625136804195259  0.3064607288302808  0.2881528056316199
  0.0507185720315479  0.5537708143247529  0.7799472597033056
  0.0294528837889981  0.5226923254132949  0.6373288915436791
  0.5545010542373564  0.3209784151814719  0.0814145218718278
  0.5715738842812320  0.2665375770113891  0.9571076361869231
  0.1556819375637794  0.6198568723211325  0.4507220074941725
  0.2129984713413763  0.5964066110491451  0.3127559915873056
  0.4098813011337515  0.9958803296025585  0.7689916720676045
  0.4560313726535314  0.9967389748532408  0.6285349733268333
  0.2116480214727995  0.5785877695657148  0.1128173341498515
  0.2683826644608877  0.5587310615496199  0.9959788996783190
  0.7654205673466573  0.9560136176754985  0.5629977711544076
  0.8179842052456129  0.9010680256074443  0.7047031139088036
  0.8012609001707712  0.9021064811740594  0.9064897980101825
  0.8533696261705357  0.8491422328686963  0.0310499449064455
  0.4700202041615895  0.6375485962894748  0.5716589467971347
  0.4421240776438043  0.6936133530592891  0.7166552571473341
  0.9689204346384972  0.4310343095500221  0.2281990874308226
  0.9896226542544232  0.4603227481361430  0.3761699224331311
  0.4493755046698213  0.6797807819787061  0.9237634006640022
  0.4304102957978310  0.7351673412036948  0.0471096962540760
  0.8459632653533160  0.3889582793160704  0.5531613639026810
  0.7912875215313447  0.4077708588914795  0.6963303270331246
  0.5873438651439638  0.0072564518415299  0.2288378449769389
  0.5422864131626728  0.0051837429723761  0.3710510612859188
  0.7927337277856230  0.4245975259850195  0.8970362550519958
  0.7368929840206737  0.4423280896158243  0.0149681363047743
  0.9366711560859133  0.7917334656188935  0.7627074101850103
  0.8849759617160350  0.8469952892521040  0.6386718663766499
  0.9661898868484504  0.7384987529743549  0.1086689796955534
  0.9194468859330753  0.7943543284531661  0.9643368758996539
  0.3834369791636068  0.8179722863116764  0.7688120345284579
  0.4066197915042389  0.7617944007875878  0.6443139159936583
  0.3889944335720584  0.8560775893223213  0.1101015540789454
  0.3995489274685408  0.8027736418175466  0.9737089118635909
  0.0139495719219461  0.5441935091630535  0.4350999627148073
  0.9940530457130624  0.5125717590777870  0.3109942438300716
  0.6817055093253007  0.4230868409653687  0.7472846199572301
  0.7366600367580506  0.4070083533647798  0.6283806242742908
  0.6285160852612187  0.4596077373172776  0.0898533411618497
  0.6820147105702689  0.4421012401479193  0.9460557670633967
  0.4626951984261727  0.9753191408537920  0.4286475737033735
  0.5059155380501323  0.9802941710139680  0.3056508091224466
  0.1034915570582173  0.1534296159266203  0.5152078514044196
  0.6054220760821767  0.2277846464717689  0.5165268985357089
  0.0368595412855486  0.4537729563895292  0.8567906340446609
  0.2685808991261567  0.6093840740055598  0.5338262398024860
  0.4878038388695751  0.0372598226466105  0.8466969518866624
  0.1560639072186828  0.1508401462661471  0.8130470867839799
  0.5623971026929012  0.2766864935507890  0.7995412283973024
  0.2683611143896745  0.5448406284200036  0.8434241142916419
  0.8408740024737887  0.8500906554910099  0.1849995395862829
  0.4391910141525873  0.7254815418433437  0.2049104878497036
  0.7370213130964839  0.4557220021216667  0.1679564761795808
  0.8970736972583074  0.8466026150835197  0.4844025330459638
  0.3981471816939327  0.7717637718549779  0.4863912201162127
  0.9823867834018222  0.5290854690528247  0.1570336392923226
  0.7367793204113749  0.3931211083431051  0.4758995024119251
  0.5108949283256089  0.9643277747506035  0.1529762088405487
  0.4450662134218318  0.5123838492925210  0.5498049495731449
  0.0016769558948584  0.3225496231640494  0.5024397044228899
  0.6148956198820368  0.0894457542257089  0.5170731838109930
  0.0925965714670069  0.6526415860312179  0.8269923880733510
  0.3569490815362883 -0.0001125882417485  0.1463615247375120
  0.2922995557366531  0.9807473959396441  0.8080793853132463
  0.5204656925209702  0.4549100671528291  0.2230368772061101
  0.5591480785105362  0.4166646589415892  0.7775777764173264
  0.0814143414537602  0.5824518436870341  0.1566797746279321
  0.6433536388290597  0.0040877092692313  0.8540740175666024
  0.9129360640804094  0.3460873308711079  0.1823784853376218
  0.4858075971030432  0.5446455855306650  0.7855716914594949
  0.7038859615259131  0.0220785384739688  0.1887926620077213
  0.9254303211213132  0.4114614085850732  0.8566140200000102
  0.4473714690096356  0.5823371454643717  0.2299537121672456
  0.5613826158908216  0.4867029755629190  0.4604791868279147
  0.0041884045219231  0.6763471896347485  0.4905773336284074
  0.3848516032926189  0.9104557270114892  0.4864425280959467
 
  0.00000000E+00  0.00000000E+00  0.00000000E+00
  0.00000000E+00  0.00000000E+00  0.00000000E+00
  0.00000000E+00  0.00000000E+00  0.00000000E+00
  0.00000000E+00  0.00000000E+00  0.00000000E+00
  0.00000000E+00  0.00000000E+00  0.00000000E+00
  0.00000000E+00  0.00000000E+00  0.00000000E+00
  0.00000000E+00  0.00000000E+00  0.00000000E+00
  0.00000000E+00  0.00000000E+00  0.00000000E+00
  0.00000000E+00  0.00000000E+00  0.00000000E+00
  0.00000000E+00  0.00000000E+00  0.00000000E+00
  0.00000000E+00  0.00000000E+00  0.00000000E+00
  0.00000000E+00  0.00000000E+00  0.00000000E+00
  0.00000000E+00  0.00000000E+00  0.00000000E+00
  0.00000000E+00  0.00000000E+00  0.00000000E+00
  0.00000000E+00  0.00000000E+00  0.00000000E+00
  0.00000000E+00  0.00000000E+00  0.00000000E+00
  0.00000000E+00  0.00000000E+00  0.00000000E+00
  0.00000000E+00  0.00000000E+00  0.00000000E+00
  0.00000000E+00  0.00000000E+00  0.00000000E+00
  0.00000000E+00  0.00000000E+00  0.00000000E+00
  0.00000000E+00  0.00000000E+00  0.00000000E+00
  0.00000000E+00  0.00000000E+00  0.00000000E+00
  0.00000000E+00  0.00000000E+00  0.00000000E+00
  0.00000000E+00  0.00000000E+00  0.00000000E+00
  0.00000000E+00  0.00000000E+00  0.00000000E+00
  0.00000000E+00  0.00000000E+00  0.00000000E+00
  0.00000000E+00  0.00000000E+00  0.00000000E+00
  0.00000000E+00  0.00000000E+00  0.00000000E+00
  0.00000000E+00  0.00000000E+00  0.00000000E+00
  0.00000000E+00  0.00000000E+00  0.00000000E+00
  0.00000000E+00  0.00000000E+00  0.00000000E+00
  0.00000000E+00  0.00000000E+00  0.00000000E+00
  0.00000000E+00  0.00000000E+00  0.00000000E+00
  0.00000000E+00  0.00000000E+00  0.00000000E+00
  0.00000000E+00  0.00000000E+00  0.00000000E+00
  0.00000000E+00  0.00000000E+00  0.00000000E+00
  0.00000000E+00  0.00000000E+00  0.00000000E+00
  0.00000000E+00  0.00000000E+00  0.00000000E+00
  0.00000000E+00  0.00000000E+00  0.00000000E+00
  0.00000000E+00  0.00000000E+00  0.00000000E+00
  0.00000000E+00  0.00000000E+00  0.00000000E+00
  0.00000000E+00  0.00000000E+00  0.00000000E+00
  0.00000000E+00  0.00000000E+00  0.00000000E+00
  0.00000000E+00  0.00000000E+00  0.00000000E+00
  0.00000000E+00  0.00000000E+00  0.00000000E+00
  0.00000000E+00  0.00000000E+00  0.00000000E+00
  0.00000000E+00  0.00000000E+00  0.00000000E+00
  0.00000000E+00  0.00000000E+00  0.00000000E+00
  0.00000000E+00  0.00000000E+00  0.00000000E+00
  0.00000000E+00  0.00000000E+00  0.00000000E+00
  0.00000000E+00  0.00000000E+00  0.00000000E+00
  0.00000000E+00  0.00000000E+00  0.00000000E+00
  0.00000000E+00  0.00000000E+00  0.00000000E+00
  0.00000000E+00  0.00000000E+00  0.00000000E+00
  0.00000000E+00  0.00000000E+00  0.00000000E+00
  0.00000000E+00  0.00000000E+00  0.00000000E+00
  0.00000000E+00  0.00000000E+00  0.00000000E+00
  0.00000000E+00  0.00000000E+00  0.00000000E+00
  0.00000000E+00  0.00000000E+00  0.00000000E+00
  0.00000000E+00  0.00000000E+00  0.00000000E+00
  0.00000000E+00  0.00000000E+00  0.00000000E+00
  0.00000000E+00  0.00000000E+00  0.00000000E+00
  0.00000000E+00  0.00000000E+00  0.00000000E+00
  0.00000000E+00  0.00000000E+00  0.00000000E+00
  0.00000000E+00  0.00000000E+00  0.00000000E+00
  0.00000000E+00  0.00000000E+00  0.00000000E+00
  0.00000000E+00  0.00000000E+00  0.00000000E+00
  0.00000000E+00  0.00000000E+00  0.00000000E+00
  0.00000000E+00  0.00000000E+00  0.00000000E+00
  0.00000000E+00  0.00000000E+00  0.00000000E+00
  0.00000000E+00  0.00000000E+00  0.00000000E+00
  0.00000000E+00  0.00000000E+00  0.00000000E+00
  0.00000000E+00  0.00000000E+00  0.00000000E+00
  0.00000000E+00  0.00000000E+00  0.00000000E+00
  0.00000000E+00  0.00000000E+00  0.00000000E+00
  0.00000000E+00  0.00000000E+00  0.00000000E+00
  0.00000000E+00  0.00000000E+00  0.00000000E+00
  0.00000000E+00  0.00000000E+00  0.00000000E+00
  0.00000000E+00  0.00000000E+00  0.00000000E+00
  0.00000000E+00  0.00000000E+00  0.00000000E+00
  0.00000000E+00  0.00000000E+00  0.00000000E+00
  0.00000000E+00  0.00000000E+00  0.00000000E+00
  0.00000000E+00  0.00000000E+00  0.00000000E+00
  0.00000000E+00  0.00000000E+00  0.00000000E+00
  0.00000000E+00  0.00000000E+00  0.00000000E+00
  0.00000000E+00  0.00000000E+00  0.00000000E+00
  0.00000000E+00  0.00000000E+00  0.00000000E+00
  0.00000000E+00  0.00000000E+00  0.00000000E+00
  0.00000000E+00  0.00000000E+00  0.00000000E+00
  0.00000000E+00  0.00000000E+00  0.00000000E+00
  0.00000000E+00  0.00000000E+00  0.00000000E+00
  0.00000000E+00  0.00000000E+00  0.00000000E+00
  0.00000000E+00  0.00000000E+00  0.00000000E+00
  0.00000000E+00  0.00000000E+00  0.00000000E+00
  0.00000000E+00  0.00000000E+00  0.00000000E+00
  0.00000000E+00  0.00000000E+00  0.00000000E+00
  0.00000000E+00  0.00000000E+00  0.00000000E+00
  0.00000000E+00  0.00000000E+00  0.00000000E+00
  0.00000000E+00  0.00000000E+00  0.00000000E+00
  0.00000000E+00  0.00000000E+00  0.00000000E+00
  0.00000000E+00  0.00000000E+00  0.00000000E+00
  0.00000000E+00  0.00000000E+00  0.00000000E+00
  0.00000000E+00  0.00000000E+00  0.00000000E+00
  0.00000000E+00  0.00000000E+00  0.00000000E+00
  0.00000000E+00  0.00000000E+00  0.00000000E+00
  0.00000000E+00  0.00000000E+00  0.00000000E+00
  0.00000000E+00  0.00000000E+00  0.00000000E+00
  0.00000000E+00  0.00000000E+00  0.00000000E+00
  0.00000000E+00  0.00000000E+00  0.00000000E+00
  0.00000000E+00  0.00000000E+00  0.00000000E+00
  0.00000000E+00  0.00000000E+00  0.00000000E+00
  0.00000000E+00  0.00000000E+00  0.00000000E+00
  0.00000000E+00  0.00000000E+00  0.00000000E+00
  0.00000000E+00  0.00000000E+00  0.00000000E+00
  0.00000000E+00  0.00000000E+00  0.00000000E+00
  0.00000000E+00  0.00000000E+00  0.00000000E+00
  0.00000000E+00  0.00000000E+00  0.00000000E+00
  0.00000000E+00  0.00000000E+00  0.00000000E+00
  0.00000000E+00  0.00000000E+00  0.00000000E+00
  0.00000000E+00  0.00000000E+00  0.00000000E+00
  0.00000000E+00  0.00000000E+00  0.00000000E+00
  0.00000000E+00  0.00000000E+00  0.00000000E+00
  0.00000000E+00  0.00000000E+00  0.00000000E+00
  0.00000000E+00  0.00000000E+00  0.00000000E+00
  0.00000000E+00  0.00000000E+00  0.00000000E+00
  0.00000000E+00  0.00000000E+00  0.00000000E+00
  0.00000000E+00  0.00000000E+00  0.00000000E+00
  0.00000000E+00  0.00000000E+00  0.00000000E+00
  0.00000000E+00  0.00000000E+00  0.00000000E+00
  0.00000000E+00  0.00000000E+00  0.00000000E+00
  0.00000000E+00  0.00000000E+00  0.00000000E+00
  0.00000000E+00  0.00000000E+00  0.00000000E+00
  0.00000000E+00  0.00000000E+00  0.00000000E+00
  0.00000000E+00  0.00000000E+00  0.00000000E+00
  0.00000000E+00  0.00000000E+00  0.00000000E+00
  0.00000000E+00  0.00000000E+00  0.00000000E+00
  0.00000000E+00  0.00000000E+00  0.00000000E+00
  0.00000000E+00  0.00000000E+00  0.00000000E+00
  0.00000000E+00  0.00000000E+00  0.00000000E+00
  0.00000000E+00  0.00000000E+00  0.00000000E+00
  0.00000000E+00  0.00000000E+00  0.00000000E+00
  0.00000000E+00  0.00000000E+00  0.00000000E+00
  0.00000000E+00  0.00000000E+00  0.00000000E+00
  0.00000000E+00  0.00000000E+00  0.00000000E+00
  0.00000000E+00  0.00000000E+00  0.00000000E+00
  0.00000000E+00  0.00000000E+00  0.00000000E+00
