O  C  H  Co                             
   1.00000000000000     
    23.4082907911447577    2.1467170669734679   -0.2408243380809937
    13.5897729222468566   21.2556881171612986   -0.4028366611520899
    -0.0520228077630453   -0.0944491549242588    6.7700565000660875
   O    C    H    Co
    48    64    16    18
Direct
  0.0003019058528586  0.2721778436385638  0.3127183284630032
  0.9735703331141680  0.3203739103730623  0.9408669365619641
  0.0598311611543631  0.2630928514015402  0.7152454288359253
  0.6736733665310113  0.1005285929801917  0.3502971605470415
  0.6573918481563660  0.0724208237603869  0.9777737963498113
  0.6032941773966989  0.1515204077570139  0.7533732177923707
  0.9858732184197626  0.4092158344700432  0.6472619516392573
  0.3939220632124402  0.5694500436048835  0.3265494770136046
  0.4340343308224973  0.5519076113018121  0.9391441787267047
  0.4082083637266449  0.4939672675541025  0.7584049612554691
  0.5705222306857788  0.0505481755578743  0.6660771847949589
  0.2955365428584687  0.0095182002963531  0.3728040506691504
  0.2117777124769175  0.0583928594419992  0.6069345364840659
  0.2643155421991755  0.0565570478982685  0.0101253718439917
  0.5210781797934410  0.3907716372042409  0.4825071944463815
  0.6098925872272200  0.3106195525024411  0.6727194281786364
  0.0613014361340602  0.5959399841493499  0.6989720051778330
  0.0785920233738001  0.5262408590938966  0.9302207457610410
  0.5641054461740260  0.3519066435448240  0.0902914448465848
  0.1098732227570553  0.6203562713171004  0.3699229207782845
  0.1668238788068831  0.6316033521637064  0.6169057149037860
  0.3869546272337220  0.9614828940048811  0.7146835094078468
  0.4151225302927792  0.0043696426967710  0.9527771871951134
  0.1706202763060073  0.5757928986643074  0.0140046651395986
  0.7111322543329850  0.9928628610330134  0.6412156745637918
  0.7923010021480840  0.9426444742032304  0.3990788296029240
  0.7436066301539561  0.9435245397440780 -0.0028038067003331
  0.4611010245540950  0.6220615147818760  0.4930842065781646
  0.3616808740128512  0.7049208243170749  0.3464042074811403
  0.9484947422304023  0.3995624314032004  0.2849263086448818
  0.9394985769763735  0.4631806762729953  0.0470175688634095
  0.4297540169980946  0.6511672268321266  0.9206292479226853
  0.8918158450668217  0.3852459021227389  0.6108092541471457
  0.8354202983843054  0.3697522240089154  0.3760445145728846
  0.6198135541783473  0.0358104099303245  0.3015504293936832
  0.5918340151648674  0.9933456066114218  0.0613726035184484
  0.8368101610162855  0.4255812640427052  0.9802302008274761
  0.0028493041343565  0.7251895610587722  0.6801490574472207
  0.0278498818034617  0.6730738336863635  0.0392819933921697
  0.9435441774741569  0.7303055550579595  0.2719656430571514
  0.3263382506171688  0.9027087252872391  0.6658271592195094
  0.3458558366945687  0.9280156132367159  0.0352159323333381
  0.3917141918379682  0.8508180438288984  0.2656526836460169
  0.0291319795954088  0.5822845466839111  0.3379724138489806
  0.6175017429018234  0.4219106671158303  0.6928043100395913
  0.5732860638307264  0.4490947195566641  0.0688938813888944
  0.6020209363684276  0.5016782005755268  0.2658877370937941
  0.4361861988255080  0.9467502984391337  0.3482751831940175
  0.0635077696612623  0.2191706029071096  0.2345197296528345
  0.1133481712073163  0.1656766477272369  0.3568946969017053
  0.0370675315555336  0.2686257024766910  0.8885336602211160
  0.0830206916778322  0.2152600687281521  0.0331341385411925
  0.6448643540958165  0.1613067823921756  0.2776989095842702
  0.6324767415236191  0.2109515882070564  0.4108353402020088
  0.6280786160124969  0.1326448442958560  0.9268023334660264
  0.6235818069486212  0.1791050663396224  0.0762209707215864
 -0.0041407781976873  0.4511429655663889  0.5675562995710500
  0.0211760421387420  0.4784202810052234  0.6886348516227206
  0.3412649788094254  0.5664815527687359  0.2558987253471679
  0.2835128390423315  0.5863146720512080  0.3769145623882100
  0.3991182490569968  0.5276543693555263  0.9143155263020413
  0.3434209677933586  0.5446203748338028  0.0581564317605611
  0.5380893435823422  0.0258916974871254  0.5850161810253480
  0.4971766829951552  0.0168631635419247  0.7055043828185715
  0.2311522911076490  0.0571764801816719  0.4322661272618127
  0.1813488563083225  0.1105065303492774  0.2901530304523899
  0.2007125980446815  0.1073825412438481  0.0889348327877783
  0.1507383342361584  0.1600685700151612  0.9665946569084370
  0.5778916734543338  0.3277648100620884  0.5088008690267180
  0.5992538623392196  0.2764596467991154  0.3529946292331546
  0.0592886297366104  0.5490551695429585  0.7567754810051781
  0.0327142651625593  0.5224776235663019  0.6168985764818786
  0.5846147695506723  0.2922315672302503  0.1499090583219911
  0.5949616677979324  0.2435691554730745  0.0163792093474710
  0.1639442667340453  0.6154755829399086  0.4386887552458405
  0.2253403802094444  0.5896450855132367  0.3028037310889340
  0.4198624325976683 -0.0148471012000037  0.7744687349353464
  0.4632737320492937  0.9901181272322399  0.6333167819093266
  0.2254646189472894  0.5703489927682744  0.1016283611177784
  0.2870650636411008  0.5450789793563773 -0.0125386769925365
  0.7740050141003419  0.9440079233885192  0.5751988737831030
  0.8238881888823105  0.8889537328175396  0.7122741796763528
  0.8059119131064045  0.8919285221379484  0.9148906198442278
  0.8554823510790521  0.8379642751976962  0.0337228372098214
  0.4018512050452032  0.6843902976513693  0.4971573852491026
  0.3873228718560988  0.7309066680731220  0.6619379832953017
  0.9549968408613990  0.4431533570142516  0.2228106761697025
  0.9823127728664347  0.4689728313234707  0.3633674975473832
  0.4061728698817905  0.7122393195007383  0.8631706530377197
  0.3965203470313591  0.7604521452238443 -0.0018621593821862
  0.8387555454272406  0.3866313497229545  0.5522067011165832
  0.7812714081392295  0.4091033234271320  0.6978545127210616
  0.5868713394977230  0.0123443942654516  0.2400603421406296
  0.5434261487109956  0.0072753197143905  0.3812590911347765
  0.7823145891957431  0.4292197165289081  0.8974392649316518
  0.7224082589531932  0.4533892631192414  0.0177507957531972
  0.9400746685304726  0.7780025483440630  0.7592350498203880
  0.8902193544121121  0.8326797322201647  0.6401255245637776
  0.9663439793967288  0.7257579343872618  0.0985059840130247
  0.9211423466679456  0.7813954230906790  0.9614067013152852
  0.3498874511349871  0.8435893488722713  0.7399651693729673
  0.3568600363584532  0.7961595933325044  0.6073309917404872
  0.3692032036492514  0.8696339076198075  0.0906368560558198
  0.3702159993329022  0.8247707280269240  0.9410042258553040
  0.0195186071530570  0.5399917089573272  0.4137652040522202
  0.9945576143301649  0.5123996030828025  0.2919129904616529
  0.6682120524118766  0.4278298999351430  0.7618273965142787
  0.7245876515285630  0.4084306366700933  0.6359142112636532
  0.6108339688336037  0.4703803443972090  0.1038359395498741
  0.6660438513057496  0.4524803612715856  0.9568308426487050
  0.4686934464621340  0.9713527866319607  0.4295313148220966
  0.5095303220021874  0.9805762232995681  0.3090920717558583
  0.0994769169358133  0.1677841941710598  0.5112794132250330
  0.6462498948263826  0.1981777259801043  0.5657637468414214
  0.0316339985880980  0.4651176446299687  0.8438057516381061
  0.2818335542695016  0.6024816206320132  0.5300270972837672
  0.4920282353989909  0.0308338786562684  0.8615177703579092
  0.1656580563608174  0.1576527121500256  0.8131111791201382
  0.5813293072737720  0.2552810046448830  0.8615238889088565
  0.2890696801358929  0.5279685779668659  0.8363762908545496
  0.8413470715132383  0.8405352746714684  0.1878168815675596
  0.4100714874644342  0.7482078103449118  0.1533120206942435
  0.7216823429277509  0.4713433033643837  0.1667447562943479
  0.9032116996531965  0.8307557889631136  0.4850789655116052
  0.3413365119181748  0.8100998122958053  0.4540060382433057
  0.9841894252117410  0.5256153472863234  0.1367566732563063
  0.7257506070032828  0.3901676797673841  0.4863542830862609
  0.5147817688193553  0.9669234360921756  0.1528924215196585
  0.4512077071808928  0.5034837693140578  0.5311669911173559
 -0.0061200506455492  0.3333092272717139  0.5140954890826614
  0.6246059360486335  0.0821558431345065  0.5445731570901696
  0.0985319176845586  0.6444760714927498  0.8175471766628539
  0.3598878893198542 -0.0057094034327007  0.1461479899807772
  0.2894057651261187 -0.0101628669390063  0.7997466009039037
  0.5337127841201862  0.4295456719465156  0.2713492581630867
  0.5815050157696490  0.3842114616794594  0.8604751945860840
  0.0911789592382625  0.5763395272079129  0.1336315496738516
  0.6468634598292963  0.0042761191446953  0.8672964983807312
  0.9079967698007885  0.3539237993228849  0.1774045377641079
  0.4661169247776106  0.5731542319845222  0.7075094834817076
  0.7150676724245222  0.0114231377938923  0.2102696553060702
  0.9195002969946582  0.4164180560916885  0.8480745857090529
  0.4131505220077351  0.6221050348836469  0.1649736790559455
  0.5635229261410271  0.4850890781337773  0.4939977743190249
  0.0083503193888649  0.6657367497175319  0.4757814011685294
  0.3785222209367770  0.9185382164238812  0.4692722907670486
 
  0.00000000E+00  0.00000000E+00  0.00000000E+00
  0.00000000E+00  0.00000000E+00  0.00000000E+00
  0.00000000E+00  0.00000000E+00  0.00000000E+00
  0.00000000E+00  0.00000000E+00  0.00000000E+00
  0.00000000E+00  0.00000000E+00  0.00000000E+00
  0.00000000E+00  0.00000000E+00  0.00000000E+00
  0.00000000E+00  0.00000000E+00  0.00000000E+00
  0.00000000E+00  0.00000000E+00  0.00000000E+00
  0.00000000E+00  0.00000000E+00  0.00000000E+00
  0.00000000E+00  0.00000000E+00  0.00000000E+00
  0.00000000E+00  0.00000000E+00  0.00000000E+00
  0.00000000E+00  0.00000000E+00  0.00000000E+00
  0.00000000E+00  0.00000000E+00  0.00000000E+00
  0.00000000E+00  0.00000000E+00  0.00000000E+00
  0.00000000E+00  0.00000000E+00  0.00000000E+00
  0.00000000E+00  0.00000000E+00  0.00000000E+00
  0.00000000E+00  0.00000000E+00  0.00000000E+00
  0.00000000E+00  0.00000000E+00  0.00000000E+00
  0.00000000E+00  0.00000000E+00  0.00000000E+00
  0.00000000E+00  0.00000000E+00  0.00000000E+00
  0.00000000E+00  0.00000000E+00  0.00000000E+00
  0.00000000E+00  0.00000000E+00  0.00000000E+00
  0.00000000E+00  0.00000000E+00  0.00000000E+00
  0.00000000E+00  0.00000000E+00  0.00000000E+00
  0.00000000E+00  0.00000000E+00  0.00000000E+00
  0.00000000E+00  0.00000000E+00  0.00000000E+00
  0.00000000E+00  0.00000000E+00  0.00000000E+00
  0.00000000E+00  0.00000000E+00  0.00000000E+00
  0.00000000E+00  0.00000000E+00  0.00000000E+00
  0.00000000E+00  0.00000000E+00  0.00000000E+00
  0.00000000E+00  0.00000000E+00  0.00000000E+00
  0.00000000E+00  0.00000000E+00  0.00000000E+00
  0.00000000E+00  0.00000000E+00  0.00000000E+00
  0.00000000E+00  0.00000000E+00  0.00000000E+00
  0.00000000E+00  0.00000000E+00  0.00000000E+00
  0.00000000E+00  0.00000000E+00  0.00000000E+00
  0.00000000E+00  0.00000000E+00  0.00000000E+00
  0.00000000E+00  0.00000000E+00  0.00000000E+00
  0.00000000E+00  0.00000000E+00  0.00000000E+00
  0.00000000E+00  0.00000000E+00  0.00000000E+00
  0.00000000E+00  0.00000000E+00  0.00000000E+00
  0.00000000E+00  0.00000000E+00  0.00000000E+00
  0.00000000E+00  0.00000000E+00  0.00000000E+00
  0.00000000E+00  0.00000000E+00  0.00000000E+00
  0.00000000E+00  0.00000000E+00  0.00000000E+00
  0.00000000E+00  0.00000000E+00  0.00000000E+00
  0.00000000E+00  0.00000000E+00  0.00000000E+00
  0.00000000E+00  0.00000000E+00  0.00000000E+00
  0.00000000E+00  0.00000000E+00  0.00000000E+00
  0.00000000E+00  0.00000000E+00  0.00000000E+00
  0.00000000E+00  0.00000000E+00  0.00000000E+00
  0.00000000E+00  0.00000000E+00  0.00000000E+00
  0.00000000E+00  0.00000000E+00  0.00000000E+00
  0.00000000E+00  0.00000000E+00  0.00000000E+00
  0.00000000E+00  0.00000000E+00  0.00000000E+00
  0.00000000E+00  0.00000000E+00  0.00000000E+00
  0.00000000E+00  0.00000000E+00  0.00000000E+00
  0.00000000E+00  0.00000000E+00  0.00000000E+00
  0.00000000E+00  0.00000000E+00  0.00000000E+00
  0.00000000E+00  0.00000000E+00  0.00000000E+00
  0.00000000E+00  0.00000000E+00  0.00000000E+00
  0.00000000E+00  0.00000000E+00  0.00000000E+00
  0.00000000E+00  0.00000000E+00  0.00000000E+00
  0.00000000E+00  0.00000000E+00  0.00000000E+00
  0.00000000E+00  0.00000000E+00  0.00000000E+00
  0.00000000E+00  0.00000000E+00  0.00000000E+00
  0.00000000E+00  0.00000000E+00  0.00000000E+00
  0.00000000E+00  0.00000000E+00  0.00000000E+00
  0.00000000E+00  0.00000000E+00  0.00000000E+00
  0.00000000E+00  0.00000000E+00  0.00000000E+00
  0.00000000E+00  0.00000000E+00  0.00000000E+00
  0.00000000E+00  0.00000000E+00  0.00000000E+00
  0.00000000E+00  0.00000000E+00  0.00000000E+00
  0.00000000E+00  0.00000000E+00  0.00000000E+00
  0.00000000E+00  0.00000000E+00  0.00000000E+00
  0.00000000E+00  0.00000000E+00  0.00000000E+00
  0.00000000E+00  0.00000000E+00  0.00000000E+00
  0.00000000E+00  0.00000000E+00  0.00000000E+00
  0.00000000E+00  0.00000000E+00  0.00000000E+00
  0.00000000E+00  0.00000000E+00  0.00000000E+00
  0.00000000E+00  0.00000000E+00  0.00000000E+00
  0.00000000E+00  0.00000000E+00  0.00000000E+00
  0.00000000E+00  0.00000000E+00  0.00000000E+00
  0.00000000E+00  0.00000000E+00  0.00000000E+00
  0.00000000E+00  0.00000000E+00  0.00000000E+00
  0.00000000E+00  0.00000000E+00  0.00000000E+00
  0.00000000E+00  0.00000000E+00  0.00000000E+00
  0.00000000E+00  0.00000000E+00  0.00000000E+00
  0.00000000E+00  0.00000000E+00  0.00000000E+00
  0.00000000E+00  0.00000000E+00  0.00000000E+00
  0.00000000E+00  0.00000000E+00  0.00000000E+00
  0.00000000E+00  0.00000000E+00  0.00000000E+00
  0.00000000E+00  0.00000000E+00  0.00000000E+00
  0.00000000E+00  0.00000000E+00  0.00000000E+00
  0.00000000E+00  0.00000000E+00  0.00000000E+00
  0.00000000E+00  0.00000000E+00  0.00000000E+00
  0.00000000E+00  0.00000000E+00  0.00000000E+00
  0.00000000E+00  0.00000000E+00  0.00000000E+00
  0.00000000E+00  0.00000000E+00  0.00000000E+00
  0.00000000E+00  0.00000000E+00  0.00000000E+00
  0.00000000E+00  0.00000000E+00  0.00000000E+00
  0.00000000E+00  0.00000000E+00  0.00000000E+00
  0.00000000E+00  0.00000000E+00  0.00000000E+00
  0.00000000E+00  0.00000000E+00  0.00000000E+00
  0.00000000E+00  0.00000000E+00  0.00000000E+00
  0.00000000E+00  0.00000000E+00  0.00000000E+00
  0.00000000E+00  0.00000000E+00  0.00000000E+00
  0.00000000E+00  0.00000000E+00  0.00000000E+00
  0.00000000E+00  0.00000000E+00  0.00000000E+00
  0.00000000E+00  0.00000000E+00  0.00000000E+00
  0.00000000E+00  0.00000000E+00  0.00000000E+00
  0.00000000E+00  0.00000000E+00  0.00000000E+00
  0.00000000E+00  0.00000000E+00  0.00000000E+00
  0.00000000E+00  0.00000000E+00  0.00000000E+00
  0.00000000E+00  0.00000000E+00  0.00000000E+00
  0.00000000E+00  0.00000000E+00  0.00000000E+00
  0.00000000E+00  0.00000000E+00  0.00000000E+00
  0.00000000E+00  0.00000000E+00  0.00000000E+00
  0.00000000E+00  0.00000000E+00  0.00000000E+00
  0.00000000E+00  0.00000000E+00  0.00000000E+00
  0.00000000E+00  0.00000000E+00  0.00000000E+00
  0.00000000E+00  0.00000000E+00  0.00000000E+00
  0.00000000E+00  0.00000000E+00  0.00000000E+00
  0.00000000E+00  0.00000000E+00  0.00000000E+00
  0.00000000E+00  0.00000000E+00  0.00000000E+00
  0.00000000E+00  0.00000000E+00  0.00000000E+00
  0.00000000E+00  0.00000000E+00  0.00000000E+00
  0.00000000E+00  0.00000000E+00  0.00000000E+00
  0.00000000E+00  0.00000000E+00  0.00000000E+00
  0.00000000E+00  0.00000000E+00  0.00000000E+00
  0.00000000E+00  0.00000000E+00  0.00000000E+00
  0.00000000E+00  0.00000000E+00  0.00000000E+00
  0.00000000E+00  0.00000000E+00  0.00000000E+00
  0.00000000E+00  0.00000000E+00  0.00000000E+00
  0.00000000E+00  0.00000000E+00  0.00000000E+00
  0.00000000E+00  0.00000000E+00  0.00000000E+00
  0.00000000E+00  0.00000000E+00  0.00000000E+00
  0.00000000E+00  0.00000000E+00  0.00000000E+00
  0.00000000E+00  0.00000000E+00  0.00000000E+00
  0.00000000E+00  0.00000000E+00  0.00000000E+00
  0.00000000E+00  0.00000000E+00  0.00000000E+00
  0.00000000E+00  0.00000000E+00  0.00000000E+00
  0.00000000E+00  0.00000000E+00  0.00000000E+00
  0.00000000E+00  0.00000000E+00  0.00000000E+00
  0.00000000E+00  0.00000000E+00  0.00000000E+00
  0.00000000E+00  0.00000000E+00  0.00000000E+00
