O  C  H  Co                             
   1.00000000000000     
    24.1141694632565269    1.1062472268410051   -0.1406477736324556
    13.2268430354062492   19.8219583349571273   -0.1113002014963649
    -0.0264046722472975   -0.0048566932019467    6.8259927239224751
   O    C    H    Co
    48    64    16    18
Direct
  0.0051097884620708  0.2614653236881387  0.3243299434791980
  0.9750354623291039  0.3131270330396116  0.9562414594350110
  0.0552813037153850  0.2576179868649808  0.7276616932689431
  0.6561063534680064  0.1120987529210038  0.3157477795253531
  0.6537855001518966  0.0744475059365823  0.9536700743870395
  0.6059512840961928  0.1531222532800367  0.7166835660172419
  0.9814031609906074  0.4093907930360866  0.6606708772069475
  0.3770230170524310  0.5754268201816559  0.3390887541639588
  0.4327517697576406  0.5335799791606691  0.9719328877157704
  0.3760700844811952  0.5201922865400962  0.7402481527022166
  0.5748023630062572  0.0445767959506252  0.6515732419287843
  0.2955907495542467  0.0048636453555978  0.3751528456911215
  0.2180386547961505  0.0462322928827725  0.6127970517899800
  0.2606124251131098  0.0552055487279944  0.0166170537959030
  0.4814740309813387  0.4194573161261947  0.3848970885309773
  0.5628430361988264  0.3455125072917832  0.6058604369797728
  0.0486254532204881  0.6127648733917030  0.7114351950235344
  0.0656267366921175  0.5380214691450556  0.9411116694179760
  0.5477767902936652  0.3748319513572537  0.0252499748175557
  0.1037265865830173  0.6284922907535059  0.3798720822992291
  0.1591413103275684  0.6423362648569153  0.6165276947232003
  0.3767885818258394  0.9728139369094335  0.7093241000334980
  0.4063909337149609  0.0150783619020815  0.9455799921175085
  0.1575090973253993  0.5888498628141546  0.0191249946465939
  0.7056928912272405  0.9903555025842506  0.6208814650866650
  0.7842678568862663  0.9535781422629291  0.3887278426217877
  0.7412796287064112  0.9417277013960125 -0.0167335154203807
  0.5229634796804854  0.5784943636289920  0.6075205842844486
  0.4386620372803393  0.6513561341479968  0.3924896415294207
  0.9499157653025332  0.3955194731569897  0.2974657600204008
  0.9371454152215639  0.4660575576414513  0.0609630725282608
  0.4593476184503174  0.6211275357327484  0.9737888044432679
  0.8961429177126307  0.3786047725420597  0.6253822936351040
  0.8457795997783464  0.3567846331283027  0.3938914419858464
  0.6245648051204871  0.0253195848922294  0.2893673682985295
  0.5935047728341101  0.9846886194593442  0.0523168367264348
  0.8453867329338492  0.4121117501524243 -0.0079861549873978
  0.0015330904910568  0.7448408091654446  0.6836655738272041
  0.0286587503100981  0.6893407942850811  0.0500740451278170
  0.9474490929400879  0.7462897771478026  0.2765227753604040
  0.3457358635112969  0.8849451108227915  0.6823670423428625
  0.3499759765447912  0.9219327107468074  0.0439873906332188
  0.3999825997176477  0.8429472056083499  0.2809021055898835
  0.0197462912179344  0.5971420961785788  0.3465878389239992
  0.6310862589322392  0.4149407235907835  0.6724367476702682
  0.5725624093961292  0.4625704679618428  0.0426108705167419
  0.6318580620337557  0.4721748896934538  0.2744161978746917
  0.4258737212394517  0.9547213757401976  0.3477206978330115
  0.0662145462371544  0.2101813491198972  0.2467521153550259
  0.1174940767561383  0.1565918365944946  0.3683946954961718
  0.0355076755276559  0.2617184562790887  0.9020887368489346
  0.0825437350293453  0.2076202925584225  0.0449447416094674
  0.6253390851101734  0.1757751692436967  0.2379298647199354
  0.5983621364508170  0.2330249275128360  0.3630535515717718
  0.6269824050562443  0.1365763113009139  0.8921459235652188
  0.6171858942926026  0.1890769865739140  0.0322108935640280
 -0.0103310459404894  0.4551247321059760  0.5796711819795632
  0.0117861416407871  0.4861188309062623  0.6999856728432726
  0.3268988350335945  0.5738856198846352  0.2576248969373131
  0.2706954424631104  0.5943839867730771  0.3750433520691165
  0.3803559668732211  0.5345586040104964  0.9155595426977147
  0.3257262826937756  0.5553889104191483  0.0584123783858069
  0.5390166342560334  0.0230706468465169  0.5720445317739045
  0.4950650887440428  0.0191731297599327  0.6941240854845119
  0.2341414955679146  0.0491004553285356  0.4386239321087221
  0.1830702675411770  0.1035676035138819  0.2997156939590701
  0.1991363301340544  0.1024462192505241  0.0976914132976163
  0.1475779607978533  0.1544005003835969  0.9761456176058843
  0.5386542970808705  0.3571656124346203  0.4347287359180776
  0.5679249645115803  0.2998550314631343  0.2913309984149742
  0.0470501090410013  0.5623979595783215  0.7685084890533310
  0.0223518508829177  0.5337671152787511  0.6287352277935188
  0.5675684565230444  0.3118361676509938  0.0868602017131582
  0.5912602151784002  0.2555418166134389 -0.0391213230817193
  0.1560092976804574  0.6246731442179163  0.4421265161251161
  0.2135442688706313  0.5992157277579604  0.3049500662797180
  0.4111230349617920 -0.0048250984857453  0.7697100149828550
  0.4565130717467270  0.9964750730233884  0.6275210932513093
  0.2111856643254110  0.5830461521891498  0.1043113728033892
  0.2683592924197477  0.5604797910847750 -0.0120532404923211
  0.7681513454949815  0.9494656249079488  0.5617710301799186
  0.8201813212998896  0.8970994506316233  0.7029087752565094
  0.8035636072768415  0.8971635039139966  0.9037607687468677
  0.8559569009040644  0.8466388693027289  0.0264611006749144
  0.4661332615207275  0.6398483129157779  0.5589399523025899
  0.4366358258629041  0.6965790012829540  0.7036960115842799
  0.9532799456401388  0.4443024680403554  0.2360305261116331
  0.9774489496533122  0.4735218245662732  0.3762963940452235
  0.4392414089160048  0.6837604252762850  0.9089537044932592
  0.4175543302928021  0.7395172586003861  0.0351577585535678
  0.8469555274727070  0.3761278458370663  0.5670071161173598
  0.7915469019601002  0.3972601288846369  0.7077828062477431
  0.5892384226090109  0.0042377109451138  0.2284386185887991
  0.5434405516208879  0.0037095018961723  0.3707831302363221
  0.7933877748442523  0.4144895473802948  0.9080790044675831
  0.7369075915245010  0.4347579792503691  0.0245852172190909
  0.9391534929119416  0.7940007173641455  0.7592675197791379
  0.8870523874513971  0.8467454476873925  0.6369074232232346
  0.9686497972227718  0.7413550161163995  0.1027719167520245
  0.9219317554608598  0.7954644232763460  0.9597592372906313
  0.3783308748603353  0.8208540040143329  0.7596361808020489
  0.4042867910743254  0.7639569221386143  0.6334223863128620
  0.3788082285768549  0.8594608908039918  0.1054396268854676
  0.3897560950103272  0.8064538008567962  0.9649885323660280
  0.0103630239112982  0.5520283985298100  0.4256292657010549
  0.9878081547142158  0.5213863977827059  0.3052595112224213
  0.6802494072265406  0.4181955680620519  0.7560977734711826
  0.7361605223629392  0.3985822857306265  0.6389518603944305
  0.6262868404545433  0.4592429657610281  0.0990129942528581
  0.6806067582897605  0.4378016061800845  0.9543021261345772
  0.4611172535998888  0.9769640389382576  0.4264550825106368
  0.5047498294850743  0.9812049887792446  0.3041290124355315
  0.1059067878201754  0.1573054545614267  0.5227556202261029
  0.6003915773060968  0.2248176590264669  0.5204557482654183
  0.0209565840735206  0.4722786287490141  0.8547496006100301
  0.2715447005451029  0.6083269763260157  0.5268222026040859
  0.4916013791353736  0.0338655518248042  0.8474983623207899
  0.1594326081019580  0.1535731142260595  0.8221813448432465
  0.5893999778849746  0.2635858559303915  0.8034107960882038
  0.2669387014382419  0.5481216148952285  0.8346665899907568
  0.8440673793241763  0.8462891121923662  0.1795523839096966
  0.4224366208722481  0.7301741887793156  0.1924729398652362
  0.7368810127723738  0.4482026729804954  0.1776324480060399
  0.8988298721623568  0.8474884806045742  0.4834663380176573
  0.4002593033877636  0.7730890488611335  0.4760825475554067
  0.9785080217080466  0.5354650421822728  0.1506020195912668
  0.7363865565510695  0.3836214559065371  0.4875372577206654
  0.5082394583853406  0.9665839812350071  0.1506984627261127
  0.4473662676941847  0.5052865295739889  0.5475794076048308
 -0.0070988603662320  0.3275154515212004  0.5270299179085237
  0.6225156957043433  0.0814034613078212  0.5213466046709609
  0.0923501239065823  0.6589139483340578  0.8179823655538100
  0.3540808159819708 -0.0007084303359172  0.1425334465568120
  0.2932574119079757 -0.0175787128716698  0.8087875679437563
  0.5247609382581928  0.4483941776316562  0.2309096749744183
  0.5570281641451885  0.4146905390531876  0.7804745751453207
  0.0816752438202756  0.5879735634121979  0.1426335956867106
  0.6475672872265076 -0.0016542821718965  0.8563543006279999
  0.9140436122738310  0.3432974888250613  0.1944536999300183
  0.4858707024252983  0.5420198028488139  0.7739037781350929
  0.7087676687997803  0.0147794972289207  0.1906324190429337
  0.9204887971458269  0.4132952427692027  0.8646607118235065
  0.4431636949102913  0.5848597632861857  0.2154600497431305
  0.5627567539533781  0.4828154739996657  0.4743830533022118
  0.0057202232466470  0.6818713831993573  0.4851679703417389
  0.3795202753129346  0.9158785155002699  0.4785212723206362
 
  0.00000000E+00  0.00000000E+00  0.00000000E+00
  0.00000000E+00  0.00000000E+00  0.00000000E+00
  0.00000000E+00  0.00000000E+00  0.00000000E+00
  0.00000000E+00  0.00000000E+00  0.00000000E+00
  0.00000000E+00  0.00000000E+00  0.00000000E+00
  0.00000000E+00  0.00000000E+00  0.00000000E+00
  0.00000000E+00  0.00000000E+00  0.00000000E+00
  0.00000000E+00  0.00000000E+00  0.00000000E+00
  0.00000000E+00  0.00000000E+00  0.00000000E+00
  0.00000000E+00  0.00000000E+00  0.00000000E+00
  0.00000000E+00  0.00000000E+00  0.00000000E+00
  0.00000000E+00  0.00000000E+00  0.00000000E+00
  0.00000000E+00  0.00000000E+00  0.00000000E+00
  0.00000000E+00  0.00000000E+00  0.00000000E+00
  0.00000000E+00  0.00000000E+00  0.00000000E+00
  0.00000000E+00  0.00000000E+00  0.00000000E+00
  0.00000000E+00  0.00000000E+00  0.00000000E+00
  0.00000000E+00  0.00000000E+00  0.00000000E+00
  0.00000000E+00  0.00000000E+00  0.00000000E+00
  0.00000000E+00  0.00000000E+00  0.00000000E+00
  0.00000000E+00  0.00000000E+00  0.00000000E+00
  0.00000000E+00  0.00000000E+00  0.00000000E+00
  0.00000000E+00  0.00000000E+00  0.00000000E+00
  0.00000000E+00  0.00000000E+00  0.00000000E+00
  0.00000000E+00  0.00000000E+00  0.00000000E+00
  0.00000000E+00  0.00000000E+00  0.00000000E+00
  0.00000000E+00  0.00000000E+00  0.00000000E+00
  0.00000000E+00  0.00000000E+00  0.00000000E+00
  0.00000000E+00  0.00000000E+00  0.00000000E+00
  0.00000000E+00  0.00000000E+00  0.00000000E+00
  0.00000000E+00  0.00000000E+00  0.00000000E+00
  0.00000000E+00  0.00000000E+00  0.00000000E+00
  0.00000000E+00  0.00000000E+00  0.00000000E+00
  0.00000000E+00  0.00000000E+00  0.00000000E+00
  0.00000000E+00  0.00000000E+00  0.00000000E+00
  0.00000000E+00  0.00000000E+00  0.00000000E+00
  0.00000000E+00  0.00000000E+00  0.00000000E+00
  0.00000000E+00  0.00000000E+00  0.00000000E+00
  0.00000000E+00  0.00000000E+00  0.00000000E+00
  0.00000000E+00  0.00000000E+00  0.00000000E+00
  0.00000000E+00  0.00000000E+00  0.00000000E+00
  0.00000000E+00  0.00000000E+00  0.00000000E+00
  0.00000000E+00  0.00000000E+00  0.00000000E+00
  0.00000000E+00  0.00000000E+00  0.00000000E+00
  0.00000000E+00  0.00000000E+00  0.00000000E+00
  0.00000000E+00  0.00000000E+00  0.00000000E+00
  0.00000000E+00  0.00000000E+00  0.00000000E+00
  0.00000000E+00  0.00000000E+00  0.00000000E+00
  0.00000000E+00  0.00000000E+00  0.00000000E+00
  0.00000000E+00  0.00000000E+00  0.00000000E+00
  0.00000000E+00  0.00000000E+00  0.00000000E+00
  0.00000000E+00  0.00000000E+00  0.00000000E+00
  0.00000000E+00  0.00000000E+00  0.00000000E+00
  0.00000000E+00  0.00000000E+00  0.00000000E+00
  0.00000000E+00  0.00000000E+00  0.00000000E+00
  0.00000000E+00  0.00000000E+00  0.00000000E+00
  0.00000000E+00  0.00000000E+00  0.00000000E+00
  0.00000000E+00  0.00000000E+00  0.00000000E+00
  0.00000000E+00  0.00000000E+00  0.00000000E+00
  0.00000000E+00  0.00000000E+00  0.00000000E+00
  0.00000000E+00  0.00000000E+00  0.00000000E+00
  0.00000000E+00  0.00000000E+00  0.00000000E+00
  0.00000000E+00  0.00000000E+00  0.00000000E+00
  0.00000000E+00  0.00000000E+00  0.00000000E+00
  0.00000000E+00  0.00000000E+00  0.00000000E+00
  0.00000000E+00  0.00000000E+00  0.00000000E+00
  0.00000000E+00  0.00000000E+00  0.00000000E+00
  0.00000000E+00  0.00000000E+00  0.00000000E+00
  0.00000000E+00  0.00000000E+00  0.00000000E+00
  0.00000000E+00  0.00000000E+00  0.00000000E+00
  0.00000000E+00  0.00000000E+00  0.00000000E+00
  0.00000000E+00  0.00000000E+00  0.00000000E+00
  0.00000000E+00  0.00000000E+00  0.00000000E+00
  0.00000000E+00  0.00000000E+00  0.00000000E+00
  0.00000000E+00  0.00000000E+00  0.00000000E+00
  0.00000000E+00  0.00000000E+00  0.00000000E+00
  0.00000000E+00  0.00000000E+00  0.00000000E+00
  0.00000000E+00  0.00000000E+00  0.00000000E+00
  0.00000000E+00  0.00000000E+00  0.00000000E+00
  0.00000000E+00  0.00000000E+00  0.00000000E+00
  0.00000000E+00  0.00000000E+00  0.00000000E+00
  0.00000000E+00  0.00000000E+00  0.00000000E+00
  0.00000000E+00  0.00000000E+00  0.00000000E+00
  0.00000000E+00  0.00000000E+00  0.00000000E+00
  0.00000000E+00  0.00000000E+00  0.00000000E+00
  0.00000000E+00  0.00000000E+00  0.00000000E+00
  0.00000000E+00  0.00000000E+00  0.00000000E+00
  0.00000000E+00  0.00000000E+00  0.00000000E+00
  0.00000000E+00  0.00000000E+00  0.00000000E+00
  0.00000000E+00  0.00000000E+00  0.00000000E+00
  0.00000000E+00  0.00000000E+00  0.00000000E+00
  0.00000000E+00  0.00000000E+00  0.00000000E+00
  0.00000000E+00  0.00000000E+00  0.00000000E+00
  0.00000000E+00  0.00000000E+00  0.00000000E+00
  0.00000000E+00  0.00000000E+00  0.00000000E+00
  0.00000000E+00  0.00000000E+00  0.00000000E+00
  0.00000000E+00  0.00000000E+00  0.00000000E+00
  0.00000000E+00  0.00000000E+00  0.00000000E+00
  0.00000000E+00  0.00000000E+00  0.00000000E+00
  0.00000000E+00  0.00000000E+00  0.00000000E+00
  0.00000000E+00  0.00000000E+00  0.00000000E+00
  0.00000000E+00  0.00000000E+00  0.00000000E+00
  0.00000000E+00  0.00000000E+00  0.00000000E+00
  0.00000000E+00  0.00000000E+00  0.00000000E+00
  0.00000000E+00  0.00000000E+00  0.00000000E+00
  0.00000000E+00  0.00000000E+00  0.00000000E+00
  0.00000000E+00  0.00000000E+00  0.00000000E+00
  0.00000000E+00  0.00000000E+00  0.00000000E+00
  0.00000000E+00  0.00000000E+00  0.00000000E+00
  0.00000000E+00  0.00000000E+00  0.00000000E+00
  0.00000000E+00  0.00000000E+00  0.00000000E+00
  0.00000000E+00  0.00000000E+00  0.00000000E+00
  0.00000000E+00  0.00000000E+00  0.00000000E+00
  0.00000000E+00  0.00000000E+00  0.00000000E+00
  0.00000000E+00  0.00000000E+00  0.00000000E+00
  0.00000000E+00  0.00000000E+00  0.00000000E+00
  0.00000000E+00  0.00000000E+00  0.00000000E+00
  0.00000000E+00  0.00000000E+00  0.00000000E+00
  0.00000000E+00  0.00000000E+00  0.00000000E+00
  0.00000000E+00  0.00000000E+00  0.00000000E+00
  0.00000000E+00  0.00000000E+00  0.00000000E+00
  0.00000000E+00  0.00000000E+00  0.00000000E+00
  0.00000000E+00  0.00000000E+00  0.00000000E+00
  0.00000000E+00  0.00000000E+00  0.00000000E+00
  0.00000000E+00  0.00000000E+00  0.00000000E+00
  0.00000000E+00  0.00000000E+00  0.00000000E+00
  0.00000000E+00  0.00000000E+00  0.00000000E+00
  0.00000000E+00  0.00000000E+00  0.00000000E+00
  0.00000000E+00  0.00000000E+00  0.00000000E+00
  0.00000000E+00  0.00000000E+00  0.00000000E+00
  0.00000000E+00  0.00000000E+00  0.00000000E+00
  0.00000000E+00  0.00000000E+00  0.00000000E+00
  0.00000000E+00  0.00000000E+00  0.00000000E+00
  0.00000000E+00  0.00000000E+00  0.00000000E+00
  0.00000000E+00  0.00000000E+00  0.00000000E+00
  0.00000000E+00  0.00000000E+00  0.00000000E+00
  0.00000000E+00  0.00000000E+00  0.00000000E+00
  0.00000000E+00  0.00000000E+00  0.00000000E+00
  0.00000000E+00  0.00000000E+00  0.00000000E+00
  0.00000000E+00  0.00000000E+00  0.00000000E+00
  0.00000000E+00  0.00000000E+00  0.00000000E+00
  0.00000000E+00  0.00000000E+00  0.00000000E+00
  0.00000000E+00  0.00000000E+00  0.00000000E+00
  0.00000000E+00  0.00000000E+00  0.00000000E+00
  0.00000000E+00  0.00000000E+00  0.00000000E+00
  0.00000000E+00  0.00000000E+00  0.00000000E+00
