O  C  H  Co                             
   1.00000000000000     
    24.5049919880144280    1.2207073501963319   -0.4169673126613868
    13.3229603000889174   21.8679260565228581   -0.4208329265141854
    -0.1060013153530978   -0.0652945645515984    6.8721376102944252
   O    C    H    Co
    48    64    16    18
Direct
  0.0231108397811518  0.2635976802571591  0.2994611412486518
 -0.0006011324199093  0.3128482241650520  0.9432141055107319
  0.0754860880924109  0.2624585367542770  0.7144428156026505
  0.6840689748756875  0.0767447756141321  0.3512195385478787
  0.6636785186481766  0.0519914756797199  0.9894509228239114
  0.6278985426183086  0.1232782362336028  0.7568472989653973
 -0.0010126812977660  0.4015713666528801  0.6448389849861274
  0.3278830581606785  0.6307785594118427  0.3375526891085750
  0.3691304298931725  0.6049249502922363 -0.0346106421306017
  0.3386405854045182  0.5527027709647195  0.7784314893337816
  0.5844905584802760  0.0311576760158307  0.6666110081291798
  0.2900467960026544  0.0220997161458120  0.3490615145796866
  0.2165097528321198  0.0671274192046215  0.5863347720758335
  0.2622233561352740  0.0694689159549459 -0.0022896274400843
  0.5896463079432842  0.3455737314800336  0.4734451227613150
  0.6507232148180268  0.2660265381240546  0.6714649743632560
  0.0339270904521012  0.6139315588983942  0.7207389256126927
  0.0512565357036417  0.5462249232046532  0.9504457830089177
  0.6203333323340263  0.3065541102899301  0.0825241635471672
  0.0778691516930477  0.6416954263851672  0.3961360058296655
  0.1300189525913778  0.6571961252225296  0.6408229831870741
  0.3689390689795676 -0.0103682299324616  0.6896507988104579
  0.4075265951885983  0.0193496419524831  0.9359755934766785
  0.1318949258026633  0.6032208918369978  0.0436698541767471
  0.7130202854686192  0.9766223401925976  0.6531621460579869
  0.7867832455005822  0.9317411133852895  0.4164818358169760
  0.7410648302261341  0.9294510474003298  0.0051871363621831
  0.4149143326225707  0.6528312519266349  0.5305749292042828
  0.3537651234440307  0.7322624239668779  0.3321288624909180
 -0.0300840573403413  0.3854791689313767  0.2835121159518758
  0.9521532828925935  0.4533863078458402  0.0539192001115999
  0.3835169556071560  0.6921424165342233  0.9209563677112996
  0.9254324990663885  0.3586127820118648  0.6081049942600111
  0.8739365927426710  0.3418512926407233  0.3645197452350545
  0.6338110221059990  0.0103056785513238  0.3128829018804082
  0.5956932776926162  0.9797887764170077  0.0675543729598704
  0.8717171440590388  0.3962066666414010  0.9614660285438624
  0.9805844981759320  0.7359593594627738  0.7051188856662879
  0.0041032493638583  0.6865815960808347  0.0610794382035285
  0.9281958491030451  0.7371416252682793  0.2901894590692589
  0.3198031576353151  0.9219267916438003  0.6519477235190809
  0.3403059894936409  0.9467264060618611  0.0130013793086223
  0.3753814859459635  0.8758297454694343  0.2465481738669199
  0.0047313088493952  0.5979714026965628  0.3596183427828774
  0.6759828165703982  0.3684064332707738  0.6662764380428606
  0.6348221101936471  0.3937187419159282  0.0381319540315092
  0.6645249414495975  0.4465436644785821  0.2250841687610023
  0.4186826740118291  0.9682020621854940  0.3368632051488231
  0.0804090277951218  0.2165295444114622  0.2217992417549031
  0.1265500755970677  0.1667143623245976  0.3413713057147040
  0.0553589622756073  0.2654539469201281  0.8855610740532686
  0.0974999580375351  0.2143394738124922  0.0234189274237489
  0.6652936244173142  0.1327603126820562  0.2778270838336986
  0.6598651154804294  0.1784579382444051  0.4074814281048481
  0.6467214428991384  0.1064445953440954  0.9312862974409457
  0.6490351994919833  0.1491559897438146  0.0772665122888753
 -0.0002029701995471  0.4491184716832932  0.5718256377605672
  0.0145497243461397  0.4838363665900898  0.6973363993498675
  0.2811429260553776  0.6208307020073696  0.2696616416292392
  0.2280738583798726  0.6367793955647906  0.3874442306196546
  0.3342524081148531  0.5810087881302741  0.9411468348197245
  0.2852710002156512  0.5937230576145576  0.0819350468029848
  0.5449806306607680  0.0157307374014161  0.5819002462241527
  0.4994506158732533  0.0153123501651900  0.6978751125663609
  0.2332052471689190  0.0663587825793244  0.4129881631045899
  0.1878163021541341  0.1166997574021451  0.2747281868386936
  0.2044932722839315  0.1149604873169930  0.0760596258713014
  0.1582580889210058  0.1639501237274902  0.9560914659791087
  0.6278489511988997  0.2848218156605246  0.5004692499633379
  0.6401429677492587  0.2383093720689090  0.3472011240280680
  0.0349686046305713  0.5660186848953460  0.7771028982374739
  0.0168664708667144  0.5336722467704763  0.6331941982357824
  0.6296716452302502  0.2526436271204992  0.1455827067808768
  0.6320836949997598  0.2081305856052585  0.0158548601407020
  0.1261338420224226  0.6434133118385431  0.4629774098179048
  0.1788685902713850  0.6277046042884908  0.3252885293151330
  0.4089365034452608  0.0031549343022151  0.7588449391232343
  0.4565873640393675 -0.0002318856854612  0.6235462267989362
  0.1801883710321192  0.6056154458812243  0.1300073740690179
  0.2350139474989116  0.5868660592123415  0.0171209143422091
  0.7699738310374998  0.9325186101119232  0.5897229915600850
  0.8154388470181277  0.8822441663670274  0.7282617199637005
  0.7987279548844104  0.8840600528484369  0.9270069528468510
  0.8450370685173786  0.8351425677211167  0.0472684207177733
  0.3765354213508211  0.7135727658629315  0.5032203631385298
  0.3638626941637546  0.7602868662317267  0.6562919426223127
  0.9686597948285960  0.4335134818202170  0.2272483199343849
 -0.0132269909076374  0.4658866553920161  0.3709713249607534
  0.3741578780208681  0.7460653365531860  0.8579695155493029
  0.3715754259843829  0.7906826307535297 -0.0123441003218136
  0.8775846522866756  0.3560765915883481  0.5420819819124092
  0.8249616690441374  0.3714490231485699  0.6798751862668005
  0.5940837294374177  0.9963646594816532  0.2443894611890574
  0.5464774506356926  0.9997561473589940  0.3798822088442558
  0.8235523260007843  0.3935030959716146  0.8753727404853314
  0.7687636784585247  0.4120801600106540  0.9880754488132583
  0.9230663174558482  0.7827178409630474  0.7820754206177986
  0.8767222345734524  0.8323144402611958  0.6619033849630201
  0.9482092110274535  0.7339680416413136  0.1189096304660941
  0.9059244931024515  0.7849137937336823  0.9806010403692901
  0.3385571907259474  0.8659064642405850  0.7253863697455635
  0.3440528004737076  0.8201474949346759  0.5958486551225279
  0.3569049593625644  0.8924440247515301  0.0718035233975478
  0.3546772910938406  0.8496258872330130  0.9260317803565794
  0.0038534250614238  0.5504231005830676  0.4322862925747987
  0.9890992986908611  0.5157050339931257  0.3067252791822176
  0.7227745414282100  0.3782363352694380  0.7347068734674405
  0.7757668155470308  0.3624523265433003  0.6170507446765661
  0.6693946264978959  0.4179323578382271  0.0626807799110033
  0.7185705300550924  0.4052030277713474  0.9226674527877483
  0.4581144103497655  0.9837526983569871  0.4216025379343549
  0.5035897060723713  0.9842287924187898  0.3055688714056853
  0.1142315529656555  0.1676380831836085  0.4929846812358715
  0.6692907993124260  0.1673400937397238  0.5615686351885002
  0.0246389249519864  0.4711382546021539  0.8503592448394808
  0.2230487651561641  0.6588827094871416  0.5306733689148319
  0.4976413804755194  0.0275316027333574  0.8519614938840510
  0.1707987138955531  0.1627842057748453  0.8046990672573213
  0.6218455932791308  0.2188567988283641  0.8618584542226906
  0.2360290480448226  0.5699774596871346  0.8687964600348044
  0.8324040619775939  0.8363413415765683  0.1985754563825048
  0.3817292875848892  0.7800398137836322  0.1417257767232395
  0.7675714919140372  0.4291159610314854  0.1362016925411758
  0.8889984320693693  0.8312705645873846  0.5101913841096246
  0.3345987316822193  0.8312738226317683  0.4417495410248654
  0.9790308295822950  0.5283199729273004  0.1536340260412061
  0.7807443367306978  0.3406265745981029  0.4735564086420909
  0.5053333941654617  0.9720624159337924  0.1514227663692095
  0.3486371902792571  0.5878586682652528  0.5689322523997904
  0.0178635975660096  0.3208660685611505  0.5071069828522579
  0.6391137084824513  0.0596458033120654  0.5494622700695397
  0.0682647831341519  0.6637322509770459  0.8401916359216378
  0.3515031541749746  0.0126973447494865  0.1292187916560283
  0.2843158353439210  0.0068546199488373  0.7857937548860755
  0.6093723559666331  0.3724175131942334  0.2617882006516599
  0.6363597266906351  0.3353034571276909  0.8362786034595301
  0.0604093967750402  0.5968194522857275  0.1586984684423067
  0.6517253554144140  0.9863556291910568  0.8742212881475614
  0.9353918398792547  0.3356640618558757  0.1648514763705280
  0.3945469459446885  0.6262811699275903  0.7414734704457813
  0.7190129134692201  0.9920037998029776  0.2169587246255925
  0.9432205202972912  0.4026851021157812  0.8457881310900250
  0.3676556118436403  0.6632778417208036  0.1669328081530390
  0.6547474013011220  0.4112625596570553  0.4344350399240716
  0.9858698853097184  0.6786741336740930  0.4976332935947851
  0.3641880379295227  0.9396080973592082  0.4538060690975570
 
  0.00000000E+00  0.00000000E+00  0.00000000E+00
  0.00000000E+00  0.00000000E+00  0.00000000E+00
  0.00000000E+00  0.00000000E+00  0.00000000E+00
  0.00000000E+00  0.00000000E+00  0.00000000E+00
  0.00000000E+00  0.00000000E+00  0.00000000E+00
  0.00000000E+00  0.00000000E+00  0.00000000E+00
  0.00000000E+00  0.00000000E+00  0.00000000E+00
  0.00000000E+00  0.00000000E+00  0.00000000E+00
  0.00000000E+00  0.00000000E+00  0.00000000E+00
  0.00000000E+00  0.00000000E+00  0.00000000E+00
  0.00000000E+00  0.00000000E+00  0.00000000E+00
  0.00000000E+00  0.00000000E+00  0.00000000E+00
  0.00000000E+00  0.00000000E+00  0.00000000E+00
  0.00000000E+00  0.00000000E+00  0.00000000E+00
  0.00000000E+00  0.00000000E+00  0.00000000E+00
  0.00000000E+00  0.00000000E+00  0.00000000E+00
  0.00000000E+00  0.00000000E+00  0.00000000E+00
  0.00000000E+00  0.00000000E+00  0.00000000E+00
  0.00000000E+00  0.00000000E+00  0.00000000E+00
  0.00000000E+00  0.00000000E+00  0.00000000E+00
  0.00000000E+00  0.00000000E+00  0.00000000E+00
  0.00000000E+00  0.00000000E+00  0.00000000E+00
  0.00000000E+00  0.00000000E+00  0.00000000E+00
  0.00000000E+00  0.00000000E+00  0.00000000E+00
  0.00000000E+00  0.00000000E+00  0.00000000E+00
  0.00000000E+00  0.00000000E+00  0.00000000E+00
  0.00000000E+00  0.00000000E+00  0.00000000E+00
  0.00000000E+00  0.00000000E+00  0.00000000E+00
  0.00000000E+00  0.00000000E+00  0.00000000E+00
  0.00000000E+00  0.00000000E+00  0.00000000E+00
  0.00000000E+00  0.00000000E+00  0.00000000E+00
  0.00000000E+00  0.00000000E+00  0.00000000E+00
  0.00000000E+00  0.00000000E+00  0.00000000E+00
  0.00000000E+00  0.00000000E+00  0.00000000E+00
  0.00000000E+00  0.00000000E+00  0.00000000E+00
  0.00000000E+00  0.00000000E+00  0.00000000E+00
  0.00000000E+00  0.00000000E+00  0.00000000E+00
  0.00000000E+00  0.00000000E+00  0.00000000E+00
  0.00000000E+00  0.00000000E+00  0.00000000E+00
  0.00000000E+00  0.00000000E+00  0.00000000E+00
  0.00000000E+00  0.00000000E+00  0.00000000E+00
  0.00000000E+00  0.00000000E+00  0.00000000E+00
  0.00000000E+00  0.00000000E+00  0.00000000E+00
  0.00000000E+00  0.00000000E+00  0.00000000E+00
  0.00000000E+00  0.00000000E+00  0.00000000E+00
  0.00000000E+00  0.00000000E+00  0.00000000E+00
  0.00000000E+00  0.00000000E+00  0.00000000E+00
  0.00000000E+00  0.00000000E+00  0.00000000E+00
  0.00000000E+00  0.00000000E+00  0.00000000E+00
  0.00000000E+00  0.00000000E+00  0.00000000E+00
  0.00000000E+00  0.00000000E+00  0.00000000E+00
  0.00000000E+00  0.00000000E+00  0.00000000E+00
  0.00000000E+00  0.00000000E+00  0.00000000E+00
  0.00000000E+00  0.00000000E+00  0.00000000E+00
  0.00000000E+00  0.00000000E+00  0.00000000E+00
  0.00000000E+00  0.00000000E+00  0.00000000E+00
  0.00000000E+00  0.00000000E+00  0.00000000E+00
  0.00000000E+00  0.00000000E+00  0.00000000E+00
  0.00000000E+00  0.00000000E+00  0.00000000E+00
  0.00000000E+00  0.00000000E+00  0.00000000E+00
  0.00000000E+00  0.00000000E+00  0.00000000E+00
  0.00000000E+00  0.00000000E+00  0.00000000E+00
  0.00000000E+00  0.00000000E+00  0.00000000E+00
  0.00000000E+00  0.00000000E+00  0.00000000E+00
  0.00000000E+00  0.00000000E+00  0.00000000E+00
  0.00000000E+00  0.00000000E+00  0.00000000E+00
  0.00000000E+00  0.00000000E+00  0.00000000E+00
  0.00000000E+00  0.00000000E+00  0.00000000E+00
  0.00000000E+00  0.00000000E+00  0.00000000E+00
  0.00000000E+00  0.00000000E+00  0.00000000E+00
  0.00000000E+00  0.00000000E+00  0.00000000E+00
  0.00000000E+00  0.00000000E+00  0.00000000E+00
  0.00000000E+00  0.00000000E+00  0.00000000E+00
  0.00000000E+00  0.00000000E+00  0.00000000E+00
  0.00000000E+00  0.00000000E+00  0.00000000E+00
  0.00000000E+00  0.00000000E+00  0.00000000E+00
  0.00000000E+00  0.00000000E+00  0.00000000E+00
  0.00000000E+00  0.00000000E+00  0.00000000E+00
  0.00000000E+00  0.00000000E+00  0.00000000E+00
  0.00000000E+00  0.00000000E+00  0.00000000E+00
  0.00000000E+00  0.00000000E+00  0.00000000E+00
  0.00000000E+00  0.00000000E+00  0.00000000E+00
  0.00000000E+00  0.00000000E+00  0.00000000E+00
  0.00000000E+00  0.00000000E+00  0.00000000E+00
  0.00000000E+00  0.00000000E+00  0.00000000E+00
  0.00000000E+00  0.00000000E+00  0.00000000E+00
  0.00000000E+00  0.00000000E+00  0.00000000E+00
  0.00000000E+00  0.00000000E+00  0.00000000E+00
  0.00000000E+00  0.00000000E+00  0.00000000E+00
  0.00000000E+00  0.00000000E+00  0.00000000E+00
  0.00000000E+00  0.00000000E+00  0.00000000E+00
  0.00000000E+00  0.00000000E+00  0.00000000E+00
  0.00000000E+00  0.00000000E+00  0.00000000E+00
  0.00000000E+00  0.00000000E+00  0.00000000E+00
  0.00000000E+00  0.00000000E+00  0.00000000E+00
  0.00000000E+00  0.00000000E+00  0.00000000E+00
  0.00000000E+00  0.00000000E+00  0.00000000E+00
  0.00000000E+00  0.00000000E+00  0.00000000E+00
  0.00000000E+00  0.00000000E+00  0.00000000E+00
  0.00000000E+00  0.00000000E+00  0.00000000E+00
  0.00000000E+00  0.00000000E+00  0.00000000E+00
  0.00000000E+00  0.00000000E+00  0.00000000E+00
  0.00000000E+00  0.00000000E+00  0.00000000E+00
  0.00000000E+00  0.00000000E+00  0.00000000E+00
  0.00000000E+00  0.00000000E+00  0.00000000E+00
  0.00000000E+00  0.00000000E+00  0.00000000E+00
  0.00000000E+00  0.00000000E+00  0.00000000E+00
  0.00000000E+00  0.00000000E+00  0.00000000E+00
  0.00000000E+00  0.00000000E+00  0.00000000E+00
  0.00000000E+00  0.00000000E+00  0.00000000E+00
  0.00000000E+00  0.00000000E+00  0.00000000E+00
  0.00000000E+00  0.00000000E+00  0.00000000E+00
  0.00000000E+00  0.00000000E+00  0.00000000E+00
  0.00000000E+00  0.00000000E+00  0.00000000E+00
  0.00000000E+00  0.00000000E+00  0.00000000E+00
  0.00000000E+00  0.00000000E+00  0.00000000E+00
  0.00000000E+00  0.00000000E+00  0.00000000E+00
  0.00000000E+00  0.00000000E+00  0.00000000E+00
  0.00000000E+00  0.00000000E+00  0.00000000E+00
  0.00000000E+00  0.00000000E+00  0.00000000E+00
  0.00000000E+00  0.00000000E+00  0.00000000E+00
  0.00000000E+00  0.00000000E+00  0.00000000E+00
  0.00000000E+00  0.00000000E+00  0.00000000E+00
  0.00000000E+00  0.00000000E+00  0.00000000E+00
  0.00000000E+00  0.00000000E+00  0.00000000E+00
  0.00000000E+00  0.00000000E+00  0.00000000E+00
  0.00000000E+00  0.00000000E+00  0.00000000E+00
  0.00000000E+00  0.00000000E+00  0.00000000E+00
  0.00000000E+00  0.00000000E+00  0.00000000E+00
  0.00000000E+00  0.00000000E+00  0.00000000E+00
  0.00000000E+00  0.00000000E+00  0.00000000E+00
  0.00000000E+00  0.00000000E+00  0.00000000E+00
  0.00000000E+00  0.00000000E+00  0.00000000E+00
  0.00000000E+00  0.00000000E+00  0.00000000E+00
  0.00000000E+00  0.00000000E+00  0.00000000E+00
  0.00000000E+00  0.00000000E+00  0.00000000E+00
  0.00000000E+00  0.00000000E+00  0.00000000E+00
  0.00000000E+00  0.00000000E+00  0.00000000E+00
  0.00000000E+00  0.00000000E+00  0.00000000E+00
  0.00000000E+00  0.00000000E+00  0.00000000E+00
  0.00000000E+00  0.00000000E+00  0.00000000E+00
  0.00000000E+00  0.00000000E+00  0.00000000E+00
  0.00000000E+00  0.00000000E+00  0.00000000E+00
  0.00000000E+00  0.00000000E+00  0.00000000E+00
  0.00000000E+00  0.00000000E+00  0.00000000E+00
  0.00000000E+00  0.00000000E+00  0.00000000E+00
