C  O                                    
   1.00000000000000     
    30.0000000000000000    0.0000000000000000    0.0000000000000000
     0.0000000000000000   30.0000000000000000    0.0000000000000000
     0.0000000000000000    0.0000000000000000   30.0000000000000000
   C    O 
     1     1
Direct
  0.5439475342430794  0.5500287441009504  0.5726364371916922
  0.5446914657992411  0.5442432559836646  0.5709215628022101
 
  0.00000000E+00  0.00000000E+00  0.00000000E+00
  0.00000000E+00  0.00000000E+00  0.00000000E+00
