C  O                                    
   1.00000000000000     
    30.0000000000000000    0.0000000000000000    0.0000000000000000
     0.0000000000000000   30.0000000000000000    0.0000000000000000
     0.0000000000000000    0.0000000000000000   30.0000000000000000
   C    O 
     1     1
Direct
  0.4792776742872530  0.4742877052583347  0.6041778966670840
  0.6093613257550675  0.6199842948262804  0.5393801033268183
 
  0.00000000E+00  0.00000000E+00  0.00000000E+00
  0.00000000E+00  0.00000000E+00  0.00000000E+00
