C  O                                    
   1.00000000000000     
    30.0000000000000000    0.0000000000000000    0.0000000000000000
     0.0000000000000000   30.0000000000000000    0.0000000000000000
     0.0000000000000000    0.0000000000000000   30.0000000000000000
   C    O 
     1     1
Direct
  0.9978518396984875  0.1959495820474316  0.2295913595904570
  0.0190499536015131  0.2218203645192404  0.2116925424428696
 
  0.00000000E+00  0.00000000E+00  0.00000000E+00
  0.00000000E+00  0.00000000E+00  0.00000000E+00
