C  O                                    
   1.00000000000000     
     5.1836262436651888    0.7141110747173984   -0.5038292858312448
    -1.8149203319831060    4.4640977861270654   -0.2769178886186825
    -2.7606600586789178    0.4724397868520784    6.0257115349980932
   C    O 
     1     1
Direct
  0.4798033710393241  0.4748604189163927  0.6039068391238942
  0.6088356290029964  0.6194115811682224  0.5396511608700081
 
  0.00000000E+00  0.00000000E+00  0.00000000E+00
  0.00000000E+00  0.00000000E+00  0.00000000E+00
