C  O 
 1.0000000000000000
     9.8138465881000005    0.0000000000000000    0.0000000000000000
    -4.6282170056999998    8.6539697367000006    0.0000000000000000
    -4.4703933317000004    2.6787461803999992   11.5766030765999997
 C   O  
   1   1
Cartesian
 -0.0663467111073337  5.8761645282751038  6.8893472350135054
  0.5734005101073322  6.6569338687248951  6.3491698259864950
