C  O                                    
   1.00000000000000     
    30.0    0.0    0.0
    0.0    30.0    0.0
    0.0    0.0    30.0
   C    O 
     1     1
Cartesian
 -0.0663467111073337  5.8761645282751038  6.8893472350135054
  0.5734005101073322  6.6569338687248951  6.3491698259864950