C  O                                    
   1.00000000000000     
    30.0    0.0    0.0
    0.0    30.0    0.0
    0.0    0.0    30.0
   C    O 
     1     1
Direct
  0.4798033710393261  0.4748604189163926  0.6039068391238942
  0.6088356290029944  0.6194115811682224  0.5396511608700081
 
  0.00000000E+00  0.00000000E+00  0.00000000E+00
  0.00000000E+00  0.00000000E+00  0.00000000E+00
