C  O  Li                                
   1.00000000000000     
    30.0000000000000000    0.0000000000000000    0.0000000000000000
     0.0000000000000000   30.0000000000000000    0.0000000000000000
     0.0000000000000000    0.0000000000000000   30.0000000000000000
   C    O    Li
     1     2     1
Direct
  0.3007521670271052  0.6001806367675976  0.5006498797678994
  0.2871449089418389  0.7469693695238611  0.5044436085250495
  0.2635964541264390  0.4345542163761046  0.4919663000228386
  0.4163546826085132  0.3704653837796250  0.5029402121842214
 
  0.00000000E+00  0.00000000E+00  0.00000000E+00
  0.00000000E+00  0.00000000E+00  0.00000000E+00
  0.00000000E+00  0.00000000E+00  0.00000000E+00
  0.00000000E+00  0.00000000E+00  0.00000000E+00
