C  O  Li                                
   1.00000000000000     
    30.0000000000000000    0.0000000000000000    0.0000000000000000
     0.0000000000000000   30.0000000000000000    0.0000000000000000
     0.0000000000000000    0.0000000000000000   30.0000000000000000
   C    O    Li
     1     2     1
Direct
  0.1010967382565301  0.1968376959123394  0.1667451136461641
  0.0943652563382454  0.2355949714400939  0.1666610722961323
  0.0945616692505288  0.1484603038872735  0.1665003087941009
  0.1325924070559943  0.1364968975760153  0.1667601720969393
 
  0.00000000E+00  0.00000000E+00  0.00000000E+00
  0.00000000E+00  0.00000000E+00  0.00000000E+00
  0.00000000E+00  0.00000000E+00  0.00000000E+00
  0.00000000E+00  0.00000000E+00  0.00000000E+00
