C  O  Li                                
   1.00000000000000     
    30.0000000000000000    0.0000000000000000    0.0000000000000000
     0.0000000000000000   30.0000000000000000    0.0000000000000000
     0.0000000000000000    0.0000000000000000   30.0000000000000000
   C    O    Li
     1     2     1
Direct
  0.3007589053017281  0.6002259858851352  0.5006467819714833
  0.2871490802217267  0.7469238861023535  0.5044542818973827
  0.2635947361744915  0.4345637407853712  0.4919634431285811
  0.4163454910059498  0.3704559936743282  0.5029354935025617
 
  0.00000000E+00  0.00000000E+00  0.00000000E+00
  0.00000000E+00  0.00000000E+00  0.00000000E+00
  0.00000000E+00  0.00000000E+00  0.00000000E+00
  0.00000000E+00  0.00000000E+00  0.00000000E+00
