C  O  Li                                
   1.00000000000000     
     2.9259092893114449    1.8687551609347628    0.1296330564036378
     2.4982682389844206    5.6748204449723554    0.5548688702223372
     0.0668053354685754    0.1335846267078257    5.8096005332202525
   C    O    Li
     1     2     1
Direct
  0.4729630786580058  0.5359714217098802  0.5019781258469240
  0.2773477645379401  0.8561226733411949  0.4984405122444346
 -0.0020626840004459  0.5494373545567794  0.5011528583174460
  0.5196000535083966  0.2106381568393341  0.4984285040912047
 
  0.00000000E+00  0.00000000E+00  0.00000000E+00
  0.00000000E+00  0.00000000E+00  0.00000000E+00
  0.00000000E+00  0.00000000E+00  0.00000000E+00
  0.00000000E+00  0.00000000E+00  0.00000000E+00
