C  O  Li                                
   1.00000000000000     
     2.9246657261292026    1.8686568860962494    0.1202340499573180
     2.4972894527715366    5.6739909958755916    0.5197500137437949
     0.0903622769827494    0.0188548625974554    6.5059517009255163
   C    O    Li
     1     2     1
Direct
  0.4677299654699255  0.5377512087356102  0.5000390434266427
  0.2796907012343465  0.8559640125276249  0.5002060436568083
 -0.0020987694519831  0.5496745364995340  0.4999056696197697
  0.5225263154516078  0.2087798486844200  0.4998492437967885
 
  0.00000000E+00  0.00000000E+00  0.00000000E+00
  0.00000000E+00  0.00000000E+00  0.00000000E+00
  0.00000000E+00  0.00000000E+00  0.00000000E+00
  0.00000000E+00  0.00000000E+00  0.00000000E+00
