C  O  Li                                
   1.00000000000000     
    30.0000000000000000    0.0000000000000000    0.0000000000000000
     0.0000000000000000   30.0000000000000000    0.0000000000000000
     0.0000000000000000    0.0000000000000000   30.0000000000000000
   C    O    Li
     1     2     1
Direct
  0.1008202116337559  0.1955792241418685  0.1666662925766331
  0.0948287897407384  0.2348491630719745  0.1667116301005535
  0.0957341238235620  0.1490314537253568  0.1665176981524332
  0.1312329457032423  0.1379300278765224  0.1667710460037166
 
  0.00000000E+00  0.00000000E+00  0.00000000E+00
  0.00000000E+00  0.00000000E+00  0.00000000E+00
  0.00000000E+00  0.00000000E+00  0.00000000E+00
  0.00000000E+00  0.00000000E+00  0.00000000E+00
