C  O  Li
 1.0000000000000000
    10.0000000000000000    0.0000000000000000    0.0000000000000000
     0.0000000000000000   10.0000000000000000    0.0000000000000000
     0.0000000000000000    0.0000000000000000   10.0000000000000000
 C   O   Li 
   1   2   1
Cartesian
  2.9255160003277743  6.1070709917345978  5.0000000168034022
  2.6009007790847360  7.2217679900703846  5.0000000662369395
  3.2542477750277770  4.9687258011090423  4.9999999580986643
  3.8978175725986470  3.2241312815578786  4.9999999638610859
