C  O  Li                                
   1.00000000000000     
     6.7840087430428069    0.4892832982748790    0.0152685778171453
     0.3535525056815738    8.1373708402460281    0.0179422556669915
     0.0166491653143820    0.0227278689540720    6.9127410662572162
   C    O    Li
     1     2     1
Direct
  0.3007364969063459  0.6000751756239187  0.5006570838144287
  0.2871352084675755  0.7470751429966674  0.5044187871809028
  0.2636004492907777  0.4345320669904357  0.4919729438419944
  0.4163760580391973  0.3704872208361669  0.5029511856626830
 
  0.00000000E+00  0.00000000E+00  0.00000000E+00
  0.00000000E+00  0.00000000E+00  0.00000000E+00
  0.00000000E+00  0.00000000E+00  0.00000000E+00
  0.00000000E+00  0.00000000E+00  0.00000000E+00
