O  C  H  Co Li                          
   1.00000000000000     
    25.9869300222800774    0.0014776472087939   -0.0002841704448074
    12.9947443186480527   22.5035161465627063   -0.0005769115704474
    -0.0000740905812471   -0.0001328080293999    6.8098320633878924
   O    C    H    Co   Li
    56    73    18    18     1
Direct
  0.0560103881656083  0.2588936779388893  0.3023173320826094
  0.0350537643446459  0.3039055958020322  0.9444026191652808
  0.1045427031123286  0.2642712304570388  0.7115884630898847
  0.3988579366684332  0.5860149583902744  0.6496419632140826
  0.6867995371647441  0.0579530441537221  0.3129141126793750
  0.6657821808414763  0.0345341920146597  0.9545348463033029
  0.6364013953279115  0.1034488144960574  0.7196563034311790
  0.0183209275062715  0.3960102722573349  0.6419626444748403
  0.2597452998888334  0.6849682841098316  0.3165132992027844
  0.3044958470374158  0.6642412980420003  0.9583994105924791
  0.2650132813108055  0.6349790710249247  0.7230063434644562
  0.5865293073733199  0.0197780075646400  0.6458649152319889
  0.2944695501716153  0.0396743879216406  0.3626274880097550
  0.2260687442335685  0.0791953512312168  0.5978276023687810
  0.6361256823856173  0.3669684389604196  0.7046623850569719
  0.5683655994007157  0.4085426225950530  0.9410351858383559
  0.2713131232796351  0.0837439003335028  0.0010946756129118
  0.6684880893291448  0.2953198058785011  0.3695779266844914
  0.6946303725178845  0.2274878291670438  0.6057863654907513
  0.0039575714084484  0.6324779376823202  0.6998136173374963
  0.0316215518920926  0.5645076918435049  0.9361096711515209
  0.6472346562941115  0.2728814109169381  0.0090719185697153
  0.0386893029217654  0.6694604817715026  0.3656195940908870
  0.0789747142199629  0.6967284295110184  0.6031869814858570
  0.3658510840809399  0.0040168610430938  0.6954855379706456
  0.4066164063862120  0.0309266674012198  0.9324213794408135
  0.0839971565057523  0.6475107444325401  0.0056011263884116
  0.7029156455882484  0.9651953912525606  0.6223481898390468
  0.7713564656539484  0.9261065336340488  0.3858432800665673
  0.3756300699640999  0.6328352720008747  0.2933679269110579
  0.4432967411560176  0.5925333800458437  0.0547244070374895
  0.7257844944466516  0.9177499626971356  0.9795989236936851
  0.3354100326191475  0.7023628073731824  0.6249669161804989
  0.3059705929615760  0.7704812669949294  0.3871568902731415
  0.9918283705092462  0.3761037567388719  0.2906464307822036
  0.9706474331399719  0.4420936824061681  0.0494649271232937
  0.3597778176170146  0.7257735136458203  0.9814026330263096
  0.9724231996618221  0.3192251404494970  0.6153557344409455
  0.9152350819846561  0.3198206951668725  0.3628630269033390
  0.6337127725723769  0.9954085768754453  0.2902847073697700
  0.5920539724990008  0.9700444255187320  0.0503388210343560
  0.9088843643086137  0.3727543867777435  0.9538346952891661
  0.9433615228614772  0.7491392432740399  0.6725702192111526
  0.9676182509416422  0.7041714429001529  0.0333343074965947
  0.8994239210648458  0.7432109285619550  0.2696056557294815
  0.6149462700715628  0.4144850529585217  0.3432807971075922
  0.3100062345991457  0.9432724581397973  0.6696384085706271
  0.3302774676525612  0.9680631552964588  0.0306625480450828
  0.3597869200628011  0.8999215166101558  0.2671652900358040
  0.9828593207184052  0.6094019237989329  0.3392078555995184
  0.7564005829049535  0.2978707114692209  0.6746474266865089
  0.7037760400615676  0.3345551655825106  0.0351710017226862
  0.7510336045588135  0.3556056617191112  0.2694754561678983
  0.4109999561892265  0.9824398183765379  0.3349433122142151
  0.6909499767357591  0.4813295165971288  0.6486341901393839
  0.7783186318747480  0.4441344587964802  0.4629416573743592
  0.1080577840752167  0.2172453763641934  0.2258774180930938
  0.1487202645508845  0.1714643943773995  0.3483157891874143
  0.0866765840607458  0.2634794964911826  0.8847300417281422
  0.1247338784242178  0.2165272478736448  0.0250791026484303
  0.4510621361568330  0.5454456041026139  0.5711441453306991
  0.4920221640688863  0.5000646590042506  0.6927519223790849
  0.6765383515040575  0.1098068770329377  0.2351892204036551
  0.6808943905384739  0.1506900552160948  0.3571303562858255
  0.6540014658932182  0.0861838637335261  0.8942588168386504
  0.6612744053214807  0.1256600519896611  0.0337964192397501
  0.0098561415341481  0.4476454453030996  0.5664714580609075
  0.0160828278834085  0.4875349808619565  0.6883646716304491
  0.2176034099522391  0.6757421603144204  0.2377641864114777
  0.1714584450918624  0.6812362920266509  0.3580809761052524
  0.2645078406521661  0.6527258513613075  0.8975520280776154
  0.2173304669074458  0.6605892172367115  0.0361505567918620
  0.5448924826599362  0.0099094237473270  0.5661294085672046
  0.4989268198628733  0.0152738223756027  0.6868654504376124
  0.2428757380317452  0.0795793396047297  0.4229989677438944
  0.2037057909981363  0.1262535289826779  0.2814220277394192
  0.5852708638636921  0.4083997046000545  0.7661322477223631
  0.5471258302428765  0.4554436673192589  0.6249305731565253
  0.2198730826147633  0.1256004639271724  0.0800843666426805
  0.1795742926410470  0.1713170877981036  0.9579607404083231
  0.6785514429056699  0.2441405934679392  0.4302728399822315
  0.6710094734100990  0.2055155536728223  0.2886717228000369
  0.0149336133619639  0.5811405715229410  0.7609066791391184
  0.0070957733660747  0.5421529561186471  0.6200734014370217
  0.6562963128795689  0.2213282837059094  0.0868077101825047
  0.6514444790338776  0.1805403232678693  0.9651658102813632
  0.0791523029838508  0.6800419909682353  0.4278264382403564
  0.1262096442059102  0.6720365731837808  0.2880083879323426
  0.4065156326627951  0.0144155246706377  0.7570729525827010
  0.4535289151825574  0.0063548638913138  0.6169300582201360
  0.1259135681833439  0.6568828808461684  0.0861116958045833
  0.1719930930097816  0.6515163923237020  0.9658693325894907
  0.7541890722557751  0.9254790501782816  0.5607176613512909
  0.7940366841953742  0.8785513532009938  0.6994571489692226
  0.4266603405112161  0.5927171179900561  0.2307475153242241
  0.4667618371780747  0.5457856363887325  0.3702174651103446
  0.7783259045729555  0.8779652110406614  0.9005082181849199
  0.8202416253828774  0.8330142967751525  0.0217336793310347
  0.3237111681598783  0.7535637050638961  0.5622343644672517
  0.3305573505987646  0.7936930375194684  0.7000033716334504
  0.9853019386087899  0.4256344334573434  0.2263793016835768
  0.9946301178619766  0.4637335744327392  0.3656297466983595
  0.3467516313107429  0.7782656160676197  0.9013197185360841
  0.3494480769493878  0.8205475012683784  0.0214349040261549
  0.9268073947750222  0.3201235562969980  0.5477300880875294
  0.8819629760906437  0.3245911201222638  0.6920454652898332
  0.5925469731747440  0.9862540628841101  0.2265485285619243
  0.5448238825849522  0.9947162117585593  0.3644983673583166
  0.8739914700033453  0.3541185903576154  0.8759249176969953
  0.8243881962044348  0.3640574349286165  0.9860391378607416
  0.8912513711574684  0.7896651113370778  0.7517972352755778
  0.8494871048576655  0.8348337024551602  0.6307518527915439
  0.9159023746926386  0.7434771204769270  0.0942782226099431
  0.8757570920989608  0.7894824911415268  0.9532471494175591
  0.5631446861197753  0.4555528950426319  0.4237923183882754
  0.5220492288036209  0.5013457836610044  0.3025518340302384
  0.3217605894699459  0.8911982962860708  0.7498109207285985
  0.3186897840457381  0.8490608907746258  0.6298830016889223
  0.3429537552900925  0.9162914579110383  0.0918081998631375
  0.3373026282497972  0.8759782470188403  0.9515696332510528
  0.9919801031637316  0.5580881999781421  0.4185948847683675
  0.9862994326334001  0.5179397386032338  0.2967690828899809
  0.7934401134275665  0.3139981001579784  0.7515012198308662
  0.8431971710297219  0.3039646804873367  0.6398202649129746
  0.7442663597949147  0.3452217427710252  0.0879582109374940
  0.7864241255960789  0.3423503681975096  0.9377217050692698
  0.4531362571254514  0.9914596713014395  0.4149254646348485
  0.4993277060187097  0.9858897056309072  0.2944459577330715
  0.7343739157870198  0.4627617678610653  0.5560508753024452
  0.1368255270366406  0.1714130932077695  0.5019737422062088
  0.4801011419544035  0.4994865279615923  0.8459696560936267
  0.6923181990052532  0.1392616260162164  0.5111811039081087
  0.0277231206925477  0.4757895285143873  0.8422381219075347
  0.1711167130558847  0.6929253421899449  0.5120967129652612
  0.4987769333681703  0.0269113626982617  0.8408538403733032
  0.1916484146800998  0.1712339715385471  0.8045004352464542
  0.6400309922430489  0.1919769285331115  0.8111313810363654
  0.1721634492816184  0.6399753845911251  0.8118119986594289
  0.8089134697693957  0.8321659885371876  0.1754654856476117
  0.3615470457486972  0.8095843550413154  0.1754124559278799
  0.8138380495574284  0.3945412147520990  0.1098341929497867
  0.8609071211804381  0.8355678480428329  0.4770808979871463
  0.5337364181333263  0.5016848141411939  0.1489047975884235
  0.3066283746550352  0.8600937122946597  0.4759451658161642
  0.9749588347857058  0.5296192930071300  0.1427971678849192
  0.8522217340819653  0.2766958127869503  0.5073951184665295
  0.4994200364636662  0.9743629702405315  0.1404066254775277
  0.3179469696939111  0.6395362769053925  0.5225109271195533
  0.0464336612154120  0.3158948697403675  0.5076427768898314
  0.6409450230710600  0.0460053133404129  0.5190247127853604
  0.0233531867624711  0.6932009506212584  0.8022153968933519
  0.3505673051704629  0.0282591433732077  0.1316163629355366
  0.2858194262373101  0.0233319310390754  0.7978467260201333
  0.6252671465080279  0.3523234953357907  0.1467362151812872
  0.6929073129494278  0.2856943918568777  0.8044099120200022
  0.0283124910601237  0.6238877449364361  0.1349045850187503
  0.6453597625207284  0.9738210459278849  0.8484395374496079
  0.9759670973756895  0.3177333175019544  0.1528647319185427
  0.3851564184400385  0.6450509421271946  0.8516995299931601
  0.7144225302006185  0.9768337290219535  0.1814505517945430
  0.9741696380887749  0.3839620714847004  0.8512630048838460
  0.3126925269185531  0.7133158319750957  0.1839875271178910
  0.6908465955598793  0.3524499025385366  0.4768662987749039
  0.9589624913347462  0.6885429386202717  0.4697750577363374
  0.3548595921301970  0.9592825909450936  0.4660608242734415
  0.8264948379616088  0.3525677868061422  0.3457698717749791
 
  0.00000000E+00  0.00000000E+00  0.00000000E+00
  0.00000000E+00  0.00000000E+00  0.00000000E+00
  0.00000000E+00  0.00000000E+00  0.00000000E+00
  0.00000000E+00  0.00000000E+00  0.00000000E+00
  0.00000000E+00  0.00000000E+00  0.00000000E+00
  0.00000000E+00  0.00000000E+00  0.00000000E+00
  0.00000000E+00  0.00000000E+00  0.00000000E+00
  0.00000000E+00  0.00000000E+00  0.00000000E+00
  0.00000000E+00  0.00000000E+00  0.00000000E+00
  0.00000000E+00  0.00000000E+00  0.00000000E+00
  0.00000000E+00  0.00000000E+00  0.00000000E+00
  0.00000000E+00  0.00000000E+00  0.00000000E+00
  0.00000000E+00  0.00000000E+00  0.00000000E+00
  0.00000000E+00  0.00000000E+00  0.00000000E+00
  0.00000000E+00  0.00000000E+00  0.00000000E+00
  0.00000000E+00  0.00000000E+00  0.00000000E+00
  0.00000000E+00  0.00000000E+00  0.00000000E+00
  0.00000000E+00  0.00000000E+00  0.00000000E+00
  0.00000000E+00  0.00000000E+00  0.00000000E+00
  0.00000000E+00  0.00000000E+00  0.00000000E+00
  0.00000000E+00  0.00000000E+00  0.00000000E+00
  0.00000000E+00  0.00000000E+00  0.00000000E+00
  0.00000000E+00  0.00000000E+00  0.00000000E+00
  0.00000000E+00  0.00000000E+00  0.00000000E+00
  0.00000000E+00  0.00000000E+00  0.00000000E+00
  0.00000000E+00  0.00000000E+00  0.00000000E+00
  0.00000000E+00  0.00000000E+00  0.00000000E+00
  0.00000000E+00  0.00000000E+00  0.00000000E+00
  0.00000000E+00  0.00000000E+00  0.00000000E+00
  0.00000000E+00  0.00000000E+00  0.00000000E+00
  0.00000000E+00  0.00000000E+00  0.00000000E+00
  0.00000000E+00  0.00000000E+00  0.00000000E+00
  0.00000000E+00  0.00000000E+00  0.00000000E+00
  0.00000000E+00  0.00000000E+00  0.00000000E+00
  0.00000000E+00  0.00000000E+00  0.00000000E+00
  0.00000000E+00  0.00000000E+00  0.00000000E+00
  0.00000000E+00  0.00000000E+00  0.00000000E+00
  0.00000000E+00  0.00000000E+00  0.00000000E+00
  0.00000000E+00  0.00000000E+00  0.00000000E+00
  0.00000000E+00  0.00000000E+00  0.00000000E+00
  0.00000000E+00  0.00000000E+00  0.00000000E+00
  0.00000000E+00  0.00000000E+00  0.00000000E+00
  0.00000000E+00  0.00000000E+00  0.00000000E+00
  0.00000000E+00  0.00000000E+00  0.00000000E+00
  0.00000000E+00  0.00000000E+00  0.00000000E+00
  0.00000000E+00  0.00000000E+00  0.00000000E+00
  0.00000000E+00  0.00000000E+00  0.00000000E+00
  0.00000000E+00  0.00000000E+00  0.00000000E+00
  0.00000000E+00  0.00000000E+00  0.00000000E+00
  0.00000000E+00  0.00000000E+00  0.00000000E+00
  0.00000000E+00  0.00000000E+00  0.00000000E+00
  0.00000000E+00  0.00000000E+00  0.00000000E+00
  0.00000000E+00  0.00000000E+00  0.00000000E+00
  0.00000000E+00  0.00000000E+00  0.00000000E+00
  0.00000000E+00  0.00000000E+00  0.00000000E+00
  0.00000000E+00  0.00000000E+00  0.00000000E+00
  0.00000000E+00  0.00000000E+00  0.00000000E+00
  0.00000000E+00  0.00000000E+00  0.00000000E+00
  0.00000000E+00  0.00000000E+00  0.00000000E+00
  0.00000000E+00  0.00000000E+00  0.00000000E+00
  0.00000000E+00  0.00000000E+00  0.00000000E+00
  0.00000000E+00  0.00000000E+00  0.00000000E+00
  0.00000000E+00  0.00000000E+00  0.00000000E+00
  0.00000000E+00  0.00000000E+00  0.00000000E+00
  0.00000000E+00  0.00000000E+00  0.00000000E+00
  0.00000000E+00  0.00000000E+00  0.00000000E+00
  0.00000000E+00  0.00000000E+00  0.00000000E+00
  0.00000000E+00  0.00000000E+00  0.00000000E+00
  0.00000000E+00  0.00000000E+00  0.00000000E+00
  0.00000000E+00  0.00000000E+00  0.00000000E+00
  0.00000000E+00  0.00000000E+00  0.00000000E+00
  0.00000000E+00  0.00000000E+00  0.00000000E+00
  0.00000000E+00  0.00000000E+00  0.00000000E+00
  0.00000000E+00  0.00000000E+00  0.00000000E+00
  0.00000000E+00  0.00000000E+00  0.00000000E+00
  0.00000000E+00  0.00000000E+00  0.00000000E+00
  0.00000000E+00  0.00000000E+00  0.00000000E+00
  0.00000000E+00  0.00000000E+00  0.00000000E+00
  0.00000000E+00  0.00000000E+00  0.00000000E+00
  0.00000000E+00  0.00000000E+00  0.00000000E+00
  0.00000000E+00  0.00000000E+00  0.00000000E+00
  0.00000000E+00  0.00000000E+00  0.00000000E+00
  0.00000000E+00  0.00000000E+00  0.00000000E+00
  0.00000000E+00  0.00000000E+00  0.00000000E+00
  0.00000000E+00  0.00000000E+00  0.00000000E+00
  0.00000000E+00  0.00000000E+00  0.00000000E+00
  0.00000000E+00  0.00000000E+00  0.00000000E+00
  0.00000000E+00  0.00000000E+00  0.00000000E+00
  0.00000000E+00  0.00000000E+00  0.00000000E+00
  0.00000000E+00  0.00000000E+00  0.00000000E+00
  0.00000000E+00  0.00000000E+00  0.00000000E+00
  0.00000000E+00  0.00000000E+00  0.00000000E+00
  0.00000000E+00  0.00000000E+00  0.00000000E+00
  0.00000000E+00  0.00000000E+00  0.00000000E+00
  0.00000000E+00  0.00000000E+00  0.00000000E+00
  0.00000000E+00  0.00000000E+00  0.00000000E+00
  0.00000000E+00  0.00000000E+00  0.00000000E+00
  0.00000000E+00  0.00000000E+00  0.00000000E+00
  0.00000000E+00  0.00000000E+00  0.00000000E+00
  0.00000000E+00  0.00000000E+00  0.00000000E+00
  0.00000000E+00  0.00000000E+00  0.00000000E+00
  0.00000000E+00  0.00000000E+00  0.00000000E+00
  0.00000000E+00  0.00000000E+00  0.00000000E+00
  0.00000000E+00  0.00000000E+00  0.00000000E+00
  0.00000000E+00  0.00000000E+00  0.00000000E+00
  0.00000000E+00  0.00000000E+00  0.00000000E+00
  0.00000000E+00  0.00000000E+00  0.00000000E+00
  0.00000000E+00  0.00000000E+00  0.00000000E+00
  0.00000000E+00  0.00000000E+00  0.00000000E+00
  0.00000000E+00  0.00000000E+00  0.00000000E+00
  0.00000000E+00  0.00000000E+00  0.00000000E+00
  0.00000000E+00  0.00000000E+00  0.00000000E+00
  0.00000000E+00  0.00000000E+00  0.00000000E+00
  0.00000000E+00  0.00000000E+00  0.00000000E+00
  0.00000000E+00  0.00000000E+00  0.00000000E+00
  0.00000000E+00  0.00000000E+00  0.00000000E+00
  0.00000000E+00  0.00000000E+00  0.00000000E+00
  0.00000000E+00  0.00000000E+00  0.00000000E+00
  0.00000000E+00  0.00000000E+00  0.00000000E+00
  0.00000000E+00  0.00000000E+00  0.00000000E+00
  0.00000000E+00  0.00000000E+00  0.00000000E+00
  0.00000000E+00  0.00000000E+00  0.00000000E+00
  0.00000000E+00  0.00000000E+00  0.00000000E+00
  0.00000000E+00  0.00000000E+00  0.00000000E+00
  0.00000000E+00  0.00000000E+00  0.00000000E+00
  0.00000000E+00  0.00000000E+00  0.00000000E+00
  0.00000000E+00  0.00000000E+00  0.00000000E+00
  0.00000000E+00  0.00000000E+00  0.00000000E+00
  0.00000000E+00  0.00000000E+00  0.00000000E+00
  0.00000000E+00  0.00000000E+00  0.00000000E+00
  0.00000000E+00  0.00000000E+00  0.00000000E+00
  0.00000000E+00  0.00000000E+00  0.00000000E+00
  0.00000000E+00  0.00000000E+00  0.00000000E+00
  0.00000000E+00  0.00000000E+00  0.00000000E+00
  0.00000000E+00  0.00000000E+00  0.00000000E+00
  0.00000000E+00  0.00000000E+00  0.00000000E+00
  0.00000000E+00  0.00000000E+00  0.00000000E+00
  0.00000000E+00  0.00000000E+00  0.00000000E+00
  0.00000000E+00  0.00000000E+00  0.00000000E+00
  0.00000000E+00  0.00000000E+00  0.00000000E+00
  0.00000000E+00  0.00000000E+00  0.00000000E+00
  0.00000000E+00  0.00000000E+00  0.00000000E+00
  0.00000000E+00  0.00000000E+00  0.00000000E+00
  0.00000000E+00  0.00000000E+00  0.00000000E+00
  0.00000000E+00  0.00000000E+00  0.00000000E+00
  0.00000000E+00  0.00000000E+00  0.00000000E+00
  0.00000000E+00  0.00000000E+00  0.00000000E+00
  0.00000000E+00  0.00000000E+00  0.00000000E+00
  0.00000000E+00  0.00000000E+00  0.00000000E+00
  0.00000000E+00  0.00000000E+00  0.00000000E+00
  0.00000000E+00  0.00000000E+00  0.00000000E+00
  0.00000000E+00  0.00000000E+00  0.00000000E+00
  0.00000000E+00  0.00000000E+00  0.00000000E+00
  0.00000000E+00  0.00000000E+00  0.00000000E+00
  0.00000000E+00  0.00000000E+00  0.00000000E+00
  0.00000000E+00  0.00000000E+00  0.00000000E+00
  0.00000000E+00  0.00000000E+00  0.00000000E+00
  0.00000000E+00  0.00000000E+00  0.00000000E+00
  0.00000000E+00  0.00000000E+00  0.00000000E+00
  0.00000000E+00  0.00000000E+00  0.00000000E+00
  0.00000000E+00  0.00000000E+00  0.00000000E+00
  0.00000000E+00  0.00000000E+00  0.00000000E+00
  0.00000000E+00  0.00000000E+00  0.00000000E+00
  0.00000000E+00  0.00000000E+00  0.00000000E+00
  0.00000000E+00  0.00000000E+00  0.00000000E+00
  0.00000000E+00  0.00000000E+00  0.00000000E+00
