O  C  H  Co Li                          
   1.00000000000000     
    25.9869300222800774    0.0014776472087939   -0.0002841704448074
    12.9947443186480527   22.5035161465627063   -0.0005769115704474
    -0.0000740905812471   -0.0001328080293999    6.8098320633878924
   O    C    H    Co   Li
    60    75    18    18     3
Direct
  0.0624441500344786  0.2517727975935375  0.3303689776757335
  0.0331724785704652  0.2960811719227094  0.9532119571317249
  0.1056717697466449  0.2615085986515338  0.7356318195304615
  0.4024222265941220  0.5817256811413942  0.6528506484243051
  0.6926036320374347  0.0561282237461864  0.3002551138744630
  0.6780622115193211  0.0255100536728085  0.9330982713008800
  0.6447961506574224  0.0950522070017339  0.7049104037108453
  0.0310161071774133  0.3959548989516791  0.6628298512578988
  0.2577767456499647  0.6895257759526100  0.3203671224070016
  0.3022292353082672  0.6734623382827164  0.9460653541983287
  0.2671390356002341  0.6365378958581811  0.7269021466841314
  0.5857774078108934  0.0191398152447588  0.6450077055485485
  0.3039594597307286  0.0422582400492442  0.3726270526968331
  0.2318986206426411  0.0769759601230007  0.5918331561092383
  0.6407509761048188  0.3659477303922993  0.6965699755828262
  0.5676730606919194  0.4048778554808854  0.9156817757637091
  0.2747548001403840  0.0868454676652072  0.9974737351361614
  0.5863267842862945  0.3147872265317623  0.3265926598524345
  0.6441686074650358  0.2538563095059630  0.5610887731269396
  0.9974236426342775  0.6380032672485658  0.7062952371739051
  0.0347224142123223  0.5660679484570652  0.9260195909512873
  0.6494632245926363  0.2681856722235125  0.9907398089322337
  0.0478692768905819  0.6585654078780934  0.3718107583428256
  0.0826776309967592  0.6963680200414466  0.5885633354877379
  0.3750200074600077  0.9899457379348248  0.7046555128185822
  0.4102545512813466  0.0279894717917839  0.9187730259232407
  0.0919911950141064  0.6429800187547305  0.9948668131756087
  0.7007024458190573  0.9530334454112976  0.6016114827933570
  0.7735299664464100  0.9217817824292068  0.3863247452526489
  0.3739282085667740  0.6258031212611033  0.2797038807463758
  0.4455832186928717  0.5903364802352129  0.0593648429616711
  0.7301886245528674  0.9099664940568151  0.9795377700262848
  0.3495703787450026  0.6971288939998976  0.6124224571400371
  0.3120198298091239  0.7688462779149137  0.3921279408104802
  0.0158467677287457  0.3667703990244250  0.2860759869295332
  0.9783230112057687  0.4392489742613845  0.0685686228650891
  0.3658960203194984  0.7258929594450303  0.9860221215973440
  0.9626069113544437  0.3492892884131131  0.6226450547111507
  0.9263396006563228  0.3126549436717709  0.4070834909298022
  0.6298830732383457  0.0024367047912306  0.2677955119948646
  0.5943068981489589  0.9653327214462701  0.0517105792349251
  0.9180582181069042  0.3652255466325635  0.0038258260559254
  0.9475350899588386  0.7532266636337617  0.6596252803148006
  0.9768367782416055  0.7096789537249447  0.0381844159033829
  0.9038882403189168  0.7423275914978755  0.2532638506203973
  0.6121714224026937  0.4094439448736194  0.3251021295335723
  0.3074891129772327  0.9422540462786482  0.6625577366537799
  0.3229640006553098  0.9713143978561589  0.0396378319031706
  0.3608057332723134  0.8987935698751643  0.2568568333343445
  0.9822334143332826  0.6086802218774592  0.3314934606707907
  0.7594918992887375  0.3067553578268147  0.6837481025031796
  0.7124529840483471  0.3238430642840731  0.0634644034754989
  0.7485299549488490  0.3613151551604917  0.2775755880203353
  0.4184390466642468  0.9742009258154308  0.3252548240372746
  0.6840723038835669  0.4532492794304381  0.5800936033352959
  0.6251518839077198  0.5519066984184872  0.5405331373641801
  0.7143493858113821  0.5035554068012656  0.3871702705821786
  0.7324536929445016  0.2305037401736634  0.4352614977258154
  0.8428484021707554  0.1553423114570402  0.6368121582971727
  0.8082945447983272  0.0883762824819352  0.6689585491021833
  0.1129568957367846  0.2133032710005585  0.2416158692645628
  0.1559570202987736  0.1681724340969195  0.3569824208227615
  0.0869899344775756  0.2594218257071950  0.9033503619727690
  0.1265026756288143  0.2141227347618838  0.0414829020352781
  0.4530963195189664  0.5430989233331319  0.5666965925572878
  0.4963047230583658  0.4994314828670198  0.6851317814618301
  0.6764195860455340  0.1075979263581984  0.2131757829041897
  0.6629924611220019  0.1560224153722462  0.3315531457446191
  0.6642484104665252  0.0778147308228398  0.8752237510129453
  0.6698292108960244  0.1181848587677856  0.0086594970993504
  0.0187863265224628  0.4465280854109465  0.5748238406204365
  0.0206792606321728  0.4896188484810901  0.6903949193624191
  0.2190250504868821  0.6776515393646647  0.2336491251074954
  0.1738931755233847  0.6803913350470651  0.3506246539992123
  0.2652737828232931  0.6568585639580143  0.8951652744262580
  0.2197896062938416  0.6630346098287137  0.0339016538416105
  0.5467332824010867  0.0074579502050373  0.5594232365706072
  0.5015075449373978  0.0109405252135035  0.6776989950924506
  0.2503570522691064  0.0790406170382561  0.4236978502301307
  0.2107482455634628  0.1245324511186664  0.2861254892780696
  0.5881386767863080  0.4051948227318281  0.7491081052003381
  0.5499595176543944  0.4528133785842889  0.6126260214867862
  0.2242887499214605  0.1253254435396891  0.0860406535019357
  0.1813275531528854  0.1705082037704420  0.9706906755621139
  0.6231348856339403  0.2628446447381506  0.3742951467147966
  0.6465374477657907  0.2117023267514800  0.2545770267509736
  0.0144996610091949  0.5843452537513930  0.7575224798291705
  0.0091312553021224  0.5445355208015459  0.6196731569835328
  0.6517033553357582  0.2187299808507354  0.0532317929950516
  0.6602238270729245  0.1720557018018465  0.9335361429348366
  0.0846022419945590  0.6756811500116903  0.4209374913191396
  0.1299117608141410  0.6695557951310702  0.2815763209884826
  0.4119306779382550  0.0070385213674421  0.7517829054544046
  0.4571262955383366  0.0004476144488208  0.6106767919164880
  0.1306868180337774  0.6548850174429550  0.0817806930726469
  0.1758616523531852  0.6521219027208327  0.9648645786782895
  0.7551971364388453  0.9186186885746163  0.5536602215049278
  0.7958306998266000  0.8747577429886700  0.6940835937135172
  0.4271414305295221  0.5881897906596892  0.2275389094313811
  0.4660789835231067  0.5419310211879336  0.3650038684511115
  0.7819005368035438  0.8733185961961244  0.8933684053414234
  0.8256844072111197  0.8299321733108094  0.0116450138050453
  0.3318934654982031  0.7508921748791323  0.5611118047532329
  0.3359389243430518  0.7912328264296191  0.7001268238452777
  0.9988057898605135  0.4206005458259079  0.2365601430628140
  0.0044393513991058  0.4600782501284718  0.3747135590662815
  0.3511250452005387  0.7774055335953911  0.8994841223327246
  0.3510971945197785  0.8211311927450278  0.0168313220293497
  0.9253748026044059  0.3326937671312291  0.5757210791606168
  0.8809923903791659  0.3379988861671274  0.7169384914611553
  0.5927093216876871  0.9857753267748223  0.2194439202893592
  0.5473789606081891  0.9924133154196699  0.3600396455807819
  0.8802445688324774  0.3519833030489746  0.9173487023260539
  0.8363920490928886  0.3517268477280879  0.0344114550704433
  0.8958397498731777  0.7898731186547219  0.7453742153571420
  0.8520367461692429  0.8332721585961804  0.6270470550693220
  0.9223983091858429  0.7447033491235201  0.0856221503270890
  0.8819250621606871  0.7884813245672005  0.9447154534483017
  0.5618782783021160  0.4508777389178254  0.4095943832006945
  0.5196844240499243  0.4962209274051340  0.2936293247087236
  0.3219407914997832  0.8908341118567213  0.7489416772107624
  0.3218353766903863  0.8471177477688756  0.6316511272819583
  0.3408629502230433  0.9172362926417171  0.0883274544461034
  0.3369786835380272  0.8770424768000872  0.9484195680759325
  0.9947730306861347  0.5580403356591404  0.4196535995813164
  0.9930051120952292  0.5149505615719234  0.3039169565627918
  0.7954096920042979  0.3235341577818764  0.7693125103165542
  0.8383722049365453  0.3243822738411893  0.6508678185188045
  0.7489469797165776  0.3413481769511701  0.1059010097686429
  0.7933493662219012  0.3384322266277723  0.9676239097740453
  0.4576829045554029  0.9855069572670933  0.4112320595324633
  0.5030002764142597  0.9819197844847601  0.2929984074512121
  0.6737123430980594  0.5070908861553978  0.4944063084650298
  0.8246699131610283  0.1222732359809469  0.6525025763152524
  0.7016169942122629  0.2434034058547449  0.5836586104083923
  0.1447695839845484  0.1669370507462380  0.5076151894895000
  0.4848547111868660  0.4992121971055560  0.8358895840576233
  0.6631937177867498  0.1495783052124918  0.4866120351320293
  0.0331230850369193  0.4784386921174544  0.8410169816382851
  0.1731036171954334  0.6929437282829781  0.5008803281722610
  0.5010488254742600  0.0237872278552069  0.8274144421363443
  0.1925458056665004  0.1716937757296474  0.8200589197636772
  0.6563726889052371  0.1788169102659725  0.7787371386633745
  0.1767755516722598  0.6393875503605555  0.8147637435518376
  0.8140471289472001  0.8284500871164669  0.1615893395478532
  0.3639922235763995  0.8097581255260893  0.1670572404212463
  0.8385533139003157  0.3610702771435684  0.1862613472269062
  0.8636119040990268  0.8347459019952417  0.4770426312984922
  0.5301547726099752  0.4960510133804566  0.1414623537070482
  0.3088627074543213  0.8584889243659042  0.4814745661694745
  0.9807265457685228  0.5261188577381583  0.1531991113650622
  0.8406473743683448  0.3112352936726550  0.5000644832743855
  0.5035086414087614  0.9690402248950158  0.1433008188225934
  0.3223626479552025  0.6380073151483926  0.5206981183789080
  0.0509861437337056  0.3171402561701905  0.5291738892788327
  0.6426839927347957  0.0398605305313444  0.5065947727745319
  0.0269790733507789  0.6958189017849855  0.7947872129967994
  0.3542043534030453  0.0282448069246392  0.1270123880614632
  0.2870622621202710  0.0213428678308955  0.7975027531458039
  0.6142803570526172  0.3507197185517589  0.1273772663441604
  0.7045233971040716  0.2822829985517047  0.8203861794798687
  0.0343617869230404  0.6218183055268524  0.1304792606358925
  0.6502931850632014  0.9666128810405515  0.8460224565955047
  0.9834626746507528  0.3108088803636053  0.1990010645834674
  0.3890257463842945  0.6462139208875975  0.8533625545936441
  0.7171459864018930  0.9748680185337173  0.1755820715415303
  0.9776277198521748  0.3841721519591081  0.8647815059855968
  0.3146845335030470  0.7119954244917163  0.1860277369756921
  0.6844579776200287  0.3828435106201763  0.4870288738193523
  0.9602098839188266  0.6881928343665791  0.4621408864072363
  0.3600835489099973  0.9544094771651210  0.4628512536712725
  0.7593261771748498  0.4232098392713288  0.4001610438035706
  0.6012228439171126  0.5069239721511336  0.6705836530853031
  0.7970686466110350  0.2384708200643320  0.5309216912284604
