O  C  H  Co Li                          
   1.00000000000000     
    23.9261198104165054    1.4270226320989507   -0.1702423552515908
    13.3807977504398092   19.9075722412530887    0.0070620584243260
    -0.0366049182984033    0.0428470880645103    6.8013684059336974
   O    C    H    Co   Li
    50    65    16    18     1
Direct
  0.0285275832922604  0.2652183980713380  0.3063664691386273
 -0.0055608392625232  0.3173288981205116  0.9133020128087395
  0.0800700481629774  0.2638290410149534  0.6951764070052231
  0.6624980831577234  0.0908807586640675  0.3248775407249939
  0.6581764625891464  0.0569086833349105  0.9318002510869103
  0.5907191885502909  0.1416111004414128  0.7137511099082882
  0.0243842147346026  0.3997634330431993  0.6323405556364545
  0.3835643676267866  0.5470210073866584  0.3556589459212204
  0.4216819088882395  0.5335095764937392  0.9936987659206454
  0.3945014685913136  0.4763859326481479  0.8063117277738230
  0.5550992607352693  0.0484435591989441  0.6446455153896434
  0.3231328488305978  0.0052353536702331  0.3824004286926737
  0.2382524109346217  0.0521309863057463  0.5988698216054760
  0.2886859955117290  0.0538611385432512 -0.0106712307483964
  0.6039618994607847  0.3674012287174073  0.3128278666084615
  0.6011952473085499  0.3197852947028265  0.5923297869810710
  0.0150939554158223  0.6510831167250316  0.7306178250108920
  0.0536201002508331  0.5648862967911614  0.9444436738482025
  0.5178901116910636  0.3628140189904878  0.0315279247877528
  0.0940047169405992  0.6262219853003356  0.3979219455709833
  0.1455685613703456  0.6489801394601963  0.6210607257467811
  0.4041635160800170  0.9229936237376537  0.7203795539695634
  0.4321651351728057 -0.0300054037594527  0.9412587279116951
  0.1460911724094540  0.5941062064579854  0.0172485415325342
  0.6815613994461716  0.9750514036726547  0.5941096267656181
  0.7623083917129312  0.9450186356896484  0.3737837834396298
  0.7224158031120480  0.9297203951765420 -0.0156567123846546
  0.4304790858189907  0.6229192459975135  0.5466378538582986
  0.3325687447604027  0.7017636527509031  0.3773169859748126
 -0.0003880471292979  0.3825161922462402  0.2503620723828086
  0.9703932323691534  0.4640976557357376  0.0292147411710448
  0.3833949557924927  0.6560699427620034  0.9537401768146855
  0.9185331645757281  0.4003749354191870  0.5756850298030745
  0.8665525299902522  0.3743659529835681  0.3607969975643321
  0.5962921643541367  0.0442333469474678  0.2606642430240623
  0.5821487277080744 -0.0131285933858756  0.0359051881438581
  0.8634364742199300  0.4355187188143860  0.9590235257255844
  0.9938465407491711  0.7627006818650963  0.6717163815967956
  0.0312434050876185  0.7110374361023679  0.0648006364726025
  0.9473623828383577  0.7653061507747723  0.2848760637439639
  0.3131680726717343  0.9072853328937475  0.6581192798722150
  0.3283992049307743 -0.0657721451054155  0.0462131881580855
  0.3757333072821348  0.8496697620655169  0.2698535350319111
  0.9915356057512494  0.6335389510381098  0.3323267695562628
  0.7079228381245192  0.3480914610456046  0.6915683383058895
  0.6146423016298231  0.4337576086264868 -0.0084538950227774
  0.6680463299199023  0.4444674574713777  0.2500624256047390
  0.4480428020023237  0.9140393963893757  0.3281798434271524
  0.6250130794663424  0.6053782013589156  0.8031871225320181
  0.6904936505108902  0.5375035587560975  0.5324907108369433
  0.0901659001599103  0.2148872873747553  0.2216539369549598
  0.1427948446974293  0.1600389487899733  0.3423991819769012
  0.0583869051331604  0.2669332007506344  0.8679770449854851
  0.1066425888536490  0.2129002070644006  0.0176683995879312
  0.6298714440642029  0.1554453237720308  0.2386426780435325
  0.6244619948136994  0.2069083604740994  0.3550534306687303
  0.6163612244003511  0.1231974453959193  0.8875695904479588
  0.6029731866776193  0.1743457191323454  0.0398059012996145
  0.0203185222042513  0.4537495243334922  0.5522087520183985
  0.0332895765934772  0.4911962282446000  0.6767408999176232
  0.3255712435890804  0.5549294485163003  0.2833832576059305
  0.2659790257191831  0.5842027715757655  0.3957558338667522
  0.3843565284894429  0.5111322112583764  0.9604733571346897
  0.3256495140546569  0.5345328038440857  0.0877767654300697
  0.5325069396616796  0.0137035917615004  0.5591999031383600
  0.4984690573363315 -0.0035824499999927  0.6801685311281642
  0.2582386890604818  0.0522635952270337  0.4263680564435851
  0.2096450925640490  0.1049547706702974  0.2768395625630188
  0.2262695361988238  0.1030369850341499  0.0739707248843986
  0.1737111276443814  0.1578384996239988  0.9532941781832538
  0.5984789800335530  0.3226826966863554  0.4065166889142978
  0.5921226841293146  0.2754934100670536  0.2858659938854279
  0.0322877153301868  0.5897902005919842  0.7710401529935462
  0.0234155943884307  0.5523509829799942  0.6174809995187183
  0.5574307862951161  0.2965371425933130  0.0972285125909801
  0.5650040636414014  0.2446076278262206 -0.0217177104831718
  0.1459710050651067  0.6259882431171547  0.4516983543965776
  0.2052788299522664  0.5959724203159679  0.3169807850864190
  0.4347379527168880 -0.0491071828582750  0.7649985411933465
  0.4710631170926274  0.9620193630158108  0.6155622781711046
  0.2030827254972284  0.5798952510119272  0.1138697092630755
  0.2650939829085405  0.5471751840215824  0.0060542981482996
  0.7467431296575933  0.9398726290589663  0.5475949555693187
  0.8011561583385280  0.8941567300216203  0.6962696120542039
  0.7863387309260468  0.8923915715658165  0.8987544369832582
  0.8443060829333024  0.8467224704829719  0.0210628501966864
  0.3693530985584509  0.6848388672250763  0.5325842104561798
  0.3492798507177338  0.7368758832734357  0.6863707343362024
 -0.0106586494913425  0.4405484171701164  0.2040274031873170
  0.0011618839901420  0.4767829310397410  0.3524845275688078
  0.3635679259002248  0.7190201656985508  0.8898152602682421
  0.3581157467889752  0.7673364803642284  0.0182565916432632
  0.8764383114864435  0.3859454315079165  0.5408449736052411
  0.8334483134379299  0.3874764966132695  0.6961994813871273
  0.5742608315694588  0.0083572527561489  0.2116933339526802
  0.5397295501181951 -0.0062986179509128  0.3579753090175066
  0.8231002617097456  0.4202262019715112  0.8831069462034158
  0.7645383643389790  0.4364305839050083  0.9894034614179510
  0.9285648955783773  0.8041914133710715  0.7529680284260110
  0.8706631831514319  0.8512086149276810  0.6301066056015370
  0.9663052407484143  0.7586214340460474  0.1074718884342938
  0.9135059436503560  0.8040568424309201  0.9554305538166032
  0.3265217578818273  0.8493031121840886  0.7474548640421828
  0.3268500148905168  0.8026572015899648  0.6225360950237829
  0.3497311781109735  0.8723008362085528  0.0977358420484802
  0.3429954507547385  0.8306881159585090  0.9530153067608952
  0.0025443973546220  0.5760532196337180  0.4168353184867869
  0.9923147014804893  0.5370564315653191  0.2916533150786397
  0.7395249805429397  0.3755887143038009  0.7609136425120736
  0.7946966170795150  0.3627700384244639  0.6500338545155231
  0.6657235608780464  0.4315262426544352  0.0656050455651043
  0.7224619811146109  0.4154381839802011  0.9367464495678386
  0.4760503261369096  0.9439638782387789  0.4133799243711266
  0.5124989422757033  0.9589296217167876  0.2929922815891811
  0.6578821958529789  0.5711041728401310  0.6679490820575539
  0.1309091757148353  0.1609857690632298  0.4969137889864120
  0.6477709114945691  0.1922934488498845  0.5029428485424220
  0.0491355483881360  0.4729279812646303  0.8282261411883146
  0.2648044332015445  0.6012384891197505  0.5459794940946883
  0.4914040472875175  0.0122762556655859  0.8328654502757179
  0.1853680525893126  0.1573541105033343  0.7993257542044557
  0.5427001860661981  0.2587290879176978  0.8294317895563545
  0.2637851391579147  0.5353867629553704  0.8515791012724222
  0.8347167967307989  0.8441022808171790  0.1758648442029495
  0.3691590054788119  0.7526490090559838  0.1734185284421495
  0.7475316991787442  0.4744994959984246  0.1074794747973254
  0.8796158323814105  0.8546493559912595  0.4753328496350548
  0.3153279463367811  0.8161709957664468  0.4670741808485837
  0.9779731800395642  0.5537103527954710  0.1386398310845699
  0.8089669750140185  0.3295106691904024  0.5210754978218582
  0.5195995090826673  0.9431336727583068  0.1400982566566380
  0.4228803265755202  0.5021685577031313  0.5944349093969259
  0.0310681389957387  0.3297912350478723  0.4814177150276275
  0.6021979139453179  0.0790175830264030  0.4993881296369324
  0.0760349752232208  0.6818418737926165  0.8254833036632768
  0.3709390609261750 -0.0153855015890281  0.1473927209384077
  0.2952561334588282 -0.0158981819858402  0.8084634192196094
  0.5519110570135045  0.4120255062218464  0.0598570636073034
  0.6115473317707850  0.3813431441098594  0.7487538150338963
  0.0706713975829012  0.6076242498198159  0.1579704737287138
  0.6369890414062209  0.9871162864000776  0.8298371145786013
  0.9417375482472933  0.3473123338943043  0.1606398971708676
  0.4347958944154761  0.5706440282652528  0.7624984164207342
  0.6980844223862757  0.0083517412082577  0.1687478368554921
  0.9500105608321873  0.4188571016263942  0.8264664850065779
  0.3852763058323607  0.6173583765716004  0.2043727070275549
  0.6439466482203148  0.4045074741264613  0.4691638202741941
  0.9910280587736808  0.6995407838570998  0.4944347027431975
  0.3859696188406759  0.9002576020476623  0.4791816971137426
  0.7610644276028080  0.4240973080350777  0.3446107753433248
 
  0.00000000E+00  0.00000000E+00  0.00000000E+00
  0.00000000E+00  0.00000000E+00  0.00000000E+00
  0.00000000E+00  0.00000000E+00  0.00000000E+00
  0.00000000E+00  0.00000000E+00  0.00000000E+00
  0.00000000E+00  0.00000000E+00  0.00000000E+00
  0.00000000E+00  0.00000000E+00  0.00000000E+00
  0.00000000E+00  0.00000000E+00  0.00000000E+00
  0.00000000E+00  0.00000000E+00  0.00000000E+00
  0.00000000E+00  0.00000000E+00  0.00000000E+00
  0.00000000E+00  0.00000000E+00  0.00000000E+00
  0.00000000E+00  0.00000000E+00  0.00000000E+00
  0.00000000E+00  0.00000000E+00  0.00000000E+00
  0.00000000E+00  0.00000000E+00  0.00000000E+00
  0.00000000E+00  0.00000000E+00  0.00000000E+00
  0.00000000E+00  0.00000000E+00  0.00000000E+00
  0.00000000E+00  0.00000000E+00  0.00000000E+00
  0.00000000E+00  0.00000000E+00  0.00000000E+00
  0.00000000E+00  0.00000000E+00  0.00000000E+00
  0.00000000E+00  0.00000000E+00  0.00000000E+00
  0.00000000E+00  0.00000000E+00  0.00000000E+00
  0.00000000E+00  0.00000000E+00  0.00000000E+00
  0.00000000E+00  0.00000000E+00  0.00000000E+00
  0.00000000E+00  0.00000000E+00  0.00000000E+00
  0.00000000E+00  0.00000000E+00  0.00000000E+00
  0.00000000E+00  0.00000000E+00  0.00000000E+00
  0.00000000E+00  0.00000000E+00  0.00000000E+00
  0.00000000E+00  0.00000000E+00  0.00000000E+00
  0.00000000E+00  0.00000000E+00  0.00000000E+00
  0.00000000E+00  0.00000000E+00  0.00000000E+00
  0.00000000E+00  0.00000000E+00  0.00000000E+00
  0.00000000E+00  0.00000000E+00  0.00000000E+00
  0.00000000E+00  0.00000000E+00  0.00000000E+00
  0.00000000E+00  0.00000000E+00  0.00000000E+00
  0.00000000E+00  0.00000000E+00  0.00000000E+00
  0.00000000E+00  0.00000000E+00  0.00000000E+00
  0.00000000E+00  0.00000000E+00  0.00000000E+00
  0.00000000E+00  0.00000000E+00  0.00000000E+00
  0.00000000E+00  0.00000000E+00  0.00000000E+00
  0.00000000E+00  0.00000000E+00  0.00000000E+00
  0.00000000E+00  0.00000000E+00  0.00000000E+00
  0.00000000E+00  0.00000000E+00  0.00000000E+00
  0.00000000E+00  0.00000000E+00  0.00000000E+00
  0.00000000E+00  0.00000000E+00  0.00000000E+00
  0.00000000E+00  0.00000000E+00  0.00000000E+00
  0.00000000E+00  0.00000000E+00  0.00000000E+00
  0.00000000E+00  0.00000000E+00  0.00000000E+00
  0.00000000E+00  0.00000000E+00  0.00000000E+00
  0.00000000E+00  0.00000000E+00  0.00000000E+00
  0.00000000E+00  0.00000000E+00  0.00000000E+00
  0.00000000E+00  0.00000000E+00  0.00000000E+00
  0.00000000E+00  0.00000000E+00  0.00000000E+00
  0.00000000E+00  0.00000000E+00  0.00000000E+00
  0.00000000E+00  0.00000000E+00  0.00000000E+00
  0.00000000E+00  0.00000000E+00  0.00000000E+00
  0.00000000E+00  0.00000000E+00  0.00000000E+00
  0.00000000E+00  0.00000000E+00  0.00000000E+00
  0.00000000E+00  0.00000000E+00  0.00000000E+00
  0.00000000E+00  0.00000000E+00  0.00000000E+00
  0.00000000E+00  0.00000000E+00  0.00000000E+00
  0.00000000E+00  0.00000000E+00  0.00000000E+00
  0.00000000E+00  0.00000000E+00  0.00000000E+00
  0.00000000E+00  0.00000000E+00  0.00000000E+00
  0.00000000E+00  0.00000000E+00  0.00000000E+00
  0.00000000E+00  0.00000000E+00  0.00000000E+00
  0.00000000E+00  0.00000000E+00  0.00000000E+00
  0.00000000E+00  0.00000000E+00  0.00000000E+00
  0.00000000E+00  0.00000000E+00  0.00000000E+00
  0.00000000E+00  0.00000000E+00  0.00000000E+00
  0.00000000E+00  0.00000000E+00  0.00000000E+00
  0.00000000E+00  0.00000000E+00  0.00000000E+00
  0.00000000E+00  0.00000000E+00  0.00000000E+00
  0.00000000E+00  0.00000000E+00  0.00000000E+00
  0.00000000E+00  0.00000000E+00  0.00000000E+00
  0.00000000E+00  0.00000000E+00  0.00000000E+00
  0.00000000E+00  0.00000000E+00  0.00000000E+00
  0.00000000E+00  0.00000000E+00  0.00000000E+00
  0.00000000E+00  0.00000000E+00  0.00000000E+00
  0.00000000E+00  0.00000000E+00  0.00000000E+00
  0.00000000E+00  0.00000000E+00  0.00000000E+00
  0.00000000E+00  0.00000000E+00  0.00000000E+00
  0.00000000E+00  0.00000000E+00  0.00000000E+00
  0.00000000E+00  0.00000000E+00  0.00000000E+00
  0.00000000E+00  0.00000000E+00  0.00000000E+00
  0.00000000E+00  0.00000000E+00  0.00000000E+00
  0.00000000E+00  0.00000000E+00  0.00000000E+00
  0.00000000E+00  0.00000000E+00  0.00000000E+00
  0.00000000E+00  0.00000000E+00  0.00000000E+00
  0.00000000E+00  0.00000000E+00  0.00000000E+00
  0.00000000E+00  0.00000000E+00  0.00000000E+00
  0.00000000E+00  0.00000000E+00  0.00000000E+00
  0.00000000E+00  0.00000000E+00  0.00000000E+00
  0.00000000E+00  0.00000000E+00  0.00000000E+00
  0.00000000E+00  0.00000000E+00  0.00000000E+00
  0.00000000E+00  0.00000000E+00  0.00000000E+00
  0.00000000E+00  0.00000000E+00  0.00000000E+00
  0.00000000E+00  0.00000000E+00  0.00000000E+00
  0.00000000E+00  0.00000000E+00  0.00000000E+00
  0.00000000E+00  0.00000000E+00  0.00000000E+00
  0.00000000E+00  0.00000000E+00  0.00000000E+00
  0.00000000E+00  0.00000000E+00  0.00000000E+00
  0.00000000E+00  0.00000000E+00  0.00000000E+00
  0.00000000E+00  0.00000000E+00  0.00000000E+00
  0.00000000E+00  0.00000000E+00  0.00000000E+00
  0.00000000E+00  0.00000000E+00  0.00000000E+00
  0.00000000E+00  0.00000000E+00  0.00000000E+00
  0.00000000E+00  0.00000000E+00  0.00000000E+00
  0.00000000E+00  0.00000000E+00  0.00000000E+00
  0.00000000E+00  0.00000000E+00  0.00000000E+00
  0.00000000E+00  0.00000000E+00  0.00000000E+00
  0.00000000E+00  0.00000000E+00  0.00000000E+00
  0.00000000E+00  0.00000000E+00  0.00000000E+00
  0.00000000E+00  0.00000000E+00  0.00000000E+00
  0.00000000E+00  0.00000000E+00  0.00000000E+00
  0.00000000E+00  0.00000000E+00  0.00000000E+00
  0.00000000E+00  0.00000000E+00  0.00000000E+00
  0.00000000E+00  0.00000000E+00  0.00000000E+00
  0.00000000E+00  0.00000000E+00  0.00000000E+00
  0.00000000E+00  0.00000000E+00  0.00000000E+00
  0.00000000E+00  0.00000000E+00  0.00000000E+00
  0.00000000E+00  0.00000000E+00  0.00000000E+00
  0.00000000E+00  0.00000000E+00  0.00000000E+00
  0.00000000E+00  0.00000000E+00  0.00000000E+00
  0.00000000E+00  0.00000000E+00  0.00000000E+00
  0.00000000E+00  0.00000000E+00  0.00000000E+00
  0.00000000E+00  0.00000000E+00  0.00000000E+00
  0.00000000E+00  0.00000000E+00  0.00000000E+00
  0.00000000E+00  0.00000000E+00  0.00000000E+00
  0.00000000E+00  0.00000000E+00  0.00000000E+00
  0.00000000E+00  0.00000000E+00  0.00000000E+00
  0.00000000E+00  0.00000000E+00  0.00000000E+00
  0.00000000E+00  0.00000000E+00  0.00000000E+00
  0.00000000E+00  0.00000000E+00  0.00000000E+00
  0.00000000E+00  0.00000000E+00  0.00000000E+00
  0.00000000E+00  0.00000000E+00  0.00000000E+00
  0.00000000E+00  0.00000000E+00  0.00000000E+00
  0.00000000E+00  0.00000000E+00  0.00000000E+00
  0.00000000E+00  0.00000000E+00  0.00000000E+00
  0.00000000E+00  0.00000000E+00  0.00000000E+00
  0.00000000E+00  0.00000000E+00  0.00000000E+00
  0.00000000E+00  0.00000000E+00  0.00000000E+00
  0.00000000E+00  0.00000000E+00  0.00000000E+00
  0.00000000E+00  0.00000000E+00  0.00000000E+00
  0.00000000E+00  0.00000000E+00  0.00000000E+00
  0.00000000E+00  0.00000000E+00  0.00000000E+00
  0.00000000E+00  0.00000000E+00  0.00000000E+00
  0.00000000E+00  0.00000000E+00  0.00000000E+00
  0.00000000E+00  0.00000000E+00  0.00000000E+00
  0.00000000E+00  0.00000000E+00  0.00000000E+00
  0.00000000E+00  0.00000000E+00  0.00000000E+00
  0.00000000E+00  0.00000000E+00  0.00000000E+00
