O  C  H  Co Li                          
   1.00000000000000     
    25.1664722152729823    1.7952710964215111   -0.3099486272991400
    14.1460296707152544   21.6368343291712044   -0.3251584792942276
    -0.0829249822272013   -0.0524313227658153    6.7684399518964176
   O    C    H    Co   Li
    50    65    16    18     1
Direct
  0.0273706994068965  0.2720578307782308  0.3033113562259562
  0.0005905979727429  0.3153635814591479  0.9140065310317401
  0.0861078558199920  0.2650421132180845  0.7100650503891439
  0.6489454461824052  0.0924237001695232  0.3403381060661773
  0.6335072538123476  0.0627030918008288  0.9741901038035830
  0.5833902493341570  0.1378220529975028  0.7404479226136664
  0.0125822312842159  0.4063876529440935  0.6431115606826153
  0.3384198846253232  0.6117409088650001  0.3260648563797312
  0.3823274241229577  0.5853513046156751  0.9600012442436299
  0.3525459959504415  0.5349921256004837  0.7678183251393300
  0.5672717434337342  0.0308310168582939  0.6569954207504844
  0.2968345226205656  0.0162067864264082  0.3707143002118291
  0.2186219813205503  0.0646971490271153  0.6007757342187610
  0.2696564187353195  0.0634285588195812  0.0064967116020639
  0.6322567337975226  0.3313630891143715  0.3256339319580592
  0.6408865843659877  0.2786804124700413  0.5982356344594827
  0.0346991994164873  0.6229632775692857  0.7153872692581839
  0.0605141390414281  0.5506669505113064  0.9442341596531477
  0.5539300228225200  0.3305720213362370  0.0267039990987323
  0.0845654047849844  0.6411526307952564  0.3864178569622324
  0.1314610880097970  0.6632224748360676  0.6226024380085418
  0.3784380270074581  0.9666278847490500  0.7090922059186164
  0.4109350281734472  0.0032951814294818  0.9448152795966389
  0.1343624478729248  0.6090387174964149  0.0190682366794503
  0.6932539518974251  0.9842678042009781  0.6349515138237961
  0.7689910379423816  0.9463965488273450  0.3993886565186844
  0.7273527178470897  0.9382516187582045  0.9939044062359169
  0.4128575854498007  0.6468447936006279  0.5076431043451558
  0.3346145822139032  0.7335475160031293  0.3408623538032121
  0.9899371154396471  0.3878143359998188  0.2650088250726632
  0.9576783035445969  0.4642675845374838  0.0459289467149469
  0.3846312859440164  0.6815082762433746  0.9285620405257042
  0.9268512772778545  0.3849089779923841  0.5857834594437753
  0.8800502307177364  0.3594303831297563  0.3588397826196844
  0.6134990025453408  0.0148460238489152  0.2965972329568918
  0.5911104325747610  0.9699875879642315  0.0569972936441196
  0.8684523578815101  0.4203518646049432  0.9607576173647614
  0.9775728862329515  0.7487439725500333  0.6891990143708071
  0.0064729495073136  0.6986841588352508  0.0550385074165934
  0.9273842979460066  0.7472223113549670  0.2827750522423043
  0.3167600558619369  0.9157932269045738  0.6607305557906018
  0.3358711418280958  0.9386296656178694  0.0336810957468314
  0.3788648717097429  0.8618456909743666  0.2592722601896761
  0.0068149872382990  0.6073366739358790  0.3456209144269658
  0.7430562782464003  0.3151966607504765  0.6792177373149337
  0.6530191321404550  0.3909742117556840  0.9866316440333714
  0.7116471385259874  0.3871378693265252  0.2538029852255611
  0.4284999570253759  0.9441528311522052  0.3420047524440811
  0.6895847123632033  0.5612010230997360  0.7290828129138409
  0.7222873299926003  0.4867206148899881  0.4680481285098279
  0.0855446093690741  0.2218839283485916  0.2260572081481889
  0.1314171976889087  0.1694943907572166  0.3495622716855025
  0.0620633845684310  0.2685368774446967  0.8773085596693562
  0.1043432668324662  0.2183334855866497  0.0255956887513206
  0.6264641872115321  0.1497278455609440  0.2591794344585701
  0.6308752258911148  0.1931437831449534  0.3715744430819986
  0.6050033054160524  0.1211035559082799  0.9165979969324931
  0.6012989964032894  0.1672905331101484  0.0604505666602046
  0.0119361547120907  0.4540424639329392  0.5662805265995787
  0.0273226966195902  0.4878145343415221  0.6896952507820167
  0.2886190050632944  0.6091329470984742  0.2553802092555587
  0.2350589800344760  0.6283611930664305  0.3741910781745060
  0.3456983184905965  0.5657438399039384  0.9282671263234420
  0.2921616943327519  0.5849109925939616  0.0621279206483402
  0.5353453513958620  0.0087465159403013  0.5748341980252656
  0.4939198486301927  0.0049066589448995  0.6954078729383919
  0.2378409229160182  0.0631988539716110  0.4275205522894808
  0.1936163374842500  0.1158454787507973  0.2852079618170714
  0.2120860434646032  0.1132106935987411  0.0851411614052386
  0.1670680032858339  0.1651299578867083  0.9625818019769908
  0.6277029506645937  0.2893741462474561  0.4135034931132126
  0.6110631189618456  0.2527041635203837  0.2959157428263551
  0.0415744525002108  0.5718786080570119  0.7694852508860155
  0.0252954753427717  0.5397066980749008  0.6246302353596102
  0.5797252869859569  0.2728970477546590  0.1044928441198517
  0.5764621475172350  0.2285683611566683  0.9917223139866125
  0.1307335024916485  0.6450253569728145  0.4465309384056930
  0.1835814732554902  0.6262517944007687  0.3054318181826786
  0.4141284169873475  0.9843513334651087  0.7674747605672009
  0.4585352382678813  0.9827170785707714  0.6259431406055304
  0.1841410006286499  0.6066673868826026  0.1048642235788662
  0.2399399896659087  0.5847288940955988  0.9903067830300453
  0.7533929137356725  0.9437629398646674  0.5736636472457404
  0.8032340031060629  0.8935461533664899  0.7134929094496122
  0.7873595077948576  0.8938261755314116  0.9149085234167410
  0.8371255923032440  0.8445752966284820  0.0364013980351305
  0.3676649866709140  0.7099316591688125  0.5006455606300116
  0.3590712755738162  0.7538785116317127  0.6615523777747302
  0.9797489094131721  0.4411519508767730  0.2176311630477957
  0.9952026508900393  0.4737113978239961  0.3641051514525253
  0.3726177292133636  0.7368531757723938  0.8652334323507896
  0.3707003013410425  0.7806540184575366  0.9966668567924594
  0.8896134629274768  0.3686413002202381  0.5419043050241151
  0.8514022817520941  0.3652872512055684  0.6945179787450123
  0.5840389322068787  0.9907596857553401  0.2338128922609182
  0.5413741144876655  0.9885256900349768  0.3733123435562556
  0.8366729352157968  0.3983931344432303  0.8815230517949938
  0.7835631733947104  0.4080222725257776  0.9865014568685352
  0.9173408656626532  0.7950813639656718  0.7667381418548115
  0.8674161945012553  0.8452540279379760  0.6451637631556844
  0.9467597445619578  0.7449831456349312  0.1091175210388301
  0.9006977788805399  0.7956991745235261  0.9675381421545483
  0.3351114572356251  0.8592905314328391  0.7344541560345074
  0.3384690890238359  0.8148112998942115  0.6026891319178179
  0.3563551518583030  0.8817584528023108  0.0852453800612984
  0.3532316826964260  0.8406341978584706  0.9364132305433507
  0.0080914651081125  0.5593525729890843  0.4230621122159900
  0.9927789124125626  0.5259275405701236  0.2994441547013772
  0.7701574683703489  0.3435111223133006  0.7520582791564765
  0.8206380214936236  0.3360591398893013  0.6434865693417703
  0.7021200076647494  0.3873315763376587  0.0647668239689551
  0.7509520645133482  0.3810222944579678  0.9312905294117444
  0.4637158360530867  0.9629884935451566  0.4240814732464548
  0.5066864399809363  0.9652998142067977  0.3044301282602361
  0.7062296879209259  0.5237371380325710  0.5996914731399726
  0.1172627712110984  0.1712855260529574  0.5018720222765856
  0.6534147998258512  0.1784646229285874  0.5189701768288462
  0.0407208238862211  0.4730017632296548  0.8431993671777287
  0.2325504715483740  0.6454008091033953  0.5257660903514018
  0.4891924579713764  0.0199544302450061  0.8497861311607690
  0.1815649965889838  0.1627154439296022  0.8097540126094520
  0.5566464988602174  0.2418015308799286  0.8408512442675748
  0.2414701071532948  0.5691076070727038  0.8379659416734233
  0.8251673144886696  0.8448648332846056  0.1903707900269459
  0.3818796161365505  0.7686089422090273  0.1522044259315313
  0.7650120672227180  0.4430546460402321  0.1096202884938512
  0.8787267468053277  0.8462895376125248  0.4912000651867368
  0.3268746148956455  0.8279368757682125  0.4469696574314573
  0.9797857775074893  0.5404623015671212  0.1453688122812324
  0.8371783236462136  0.3044316524020566  0.5118126663032823
  0.5117908441495128  0.9499478919768088  0.1501684450933464
  0.3710674850443911  0.5641803104998220  0.5551790943810991
  0.0295046247847255  0.3285174720878662  0.5026970774175923
  0.6101420452065976  0.0680919427787739  0.5344937589517224
  0.0658114050342633  0.6742350753493320  0.8185624393450982
  0.3575100681183803 -0.0024939100424010  0.1415685216383558
  0.2868250361068183 -0.0002537044444527  0.7995347751470931
  0.6000844121727781  0.3630094775365756  0.0349378150140137
  0.6626321981896484  0.3250949437639125  0.7596513723964780
  0.0646951840850463  0.6055294529415485  0.1474604336740275
  0.6373766146563791  0.9879720727517152  0.8617202594719037
  0.9449549254462796  0.3496167700447048  0.1492770713413912
  0.4053844459913824  0.6088459954449195  0.7294954802994216
  0.6942584405921166  0.0050412999160941  0.2052624257928965
  0.9477979031428324  0.4129550581905532  0.8444733417131374
  0.3655689460105113  0.6565012361232836  0.1707722343458411
  0.6746456167802032  0.3632233819383918  0.4711045214321952
  0.9917746465688267  0.6851004495165289  0.4850665986545108
  0.3685099244464495  0.9254164691371555  0.4653367183032803
  0.7869362286318048  0.3879734856626190  0.3376919773359636
 
  0.00000000E+00  0.00000000E+00  0.00000000E+00
  0.00000000E+00  0.00000000E+00  0.00000000E+00
  0.00000000E+00  0.00000000E+00  0.00000000E+00
  0.00000000E+00  0.00000000E+00  0.00000000E+00
  0.00000000E+00  0.00000000E+00  0.00000000E+00
  0.00000000E+00  0.00000000E+00  0.00000000E+00
  0.00000000E+00  0.00000000E+00  0.00000000E+00
  0.00000000E+00  0.00000000E+00  0.00000000E+00
  0.00000000E+00  0.00000000E+00  0.00000000E+00
  0.00000000E+00  0.00000000E+00  0.00000000E+00
  0.00000000E+00  0.00000000E+00  0.00000000E+00
  0.00000000E+00  0.00000000E+00  0.00000000E+00
  0.00000000E+00  0.00000000E+00  0.00000000E+00
  0.00000000E+00  0.00000000E+00  0.00000000E+00
  0.00000000E+00  0.00000000E+00  0.00000000E+00
  0.00000000E+00  0.00000000E+00  0.00000000E+00
  0.00000000E+00  0.00000000E+00  0.00000000E+00
  0.00000000E+00  0.00000000E+00  0.00000000E+00
  0.00000000E+00  0.00000000E+00  0.00000000E+00
  0.00000000E+00  0.00000000E+00  0.00000000E+00
  0.00000000E+00  0.00000000E+00  0.00000000E+00
  0.00000000E+00  0.00000000E+00  0.00000000E+00
  0.00000000E+00  0.00000000E+00  0.00000000E+00
  0.00000000E+00  0.00000000E+00  0.00000000E+00
  0.00000000E+00  0.00000000E+00  0.00000000E+00
  0.00000000E+00  0.00000000E+00  0.00000000E+00
  0.00000000E+00  0.00000000E+00  0.00000000E+00
  0.00000000E+00  0.00000000E+00  0.00000000E+00
  0.00000000E+00  0.00000000E+00  0.00000000E+00
  0.00000000E+00  0.00000000E+00  0.00000000E+00
  0.00000000E+00  0.00000000E+00  0.00000000E+00
  0.00000000E+00  0.00000000E+00  0.00000000E+00
  0.00000000E+00  0.00000000E+00  0.00000000E+00
  0.00000000E+00  0.00000000E+00  0.00000000E+00
  0.00000000E+00  0.00000000E+00  0.00000000E+00
  0.00000000E+00  0.00000000E+00  0.00000000E+00
  0.00000000E+00  0.00000000E+00  0.00000000E+00
  0.00000000E+00  0.00000000E+00  0.00000000E+00
  0.00000000E+00  0.00000000E+00  0.00000000E+00
  0.00000000E+00  0.00000000E+00  0.00000000E+00
  0.00000000E+00  0.00000000E+00  0.00000000E+00
  0.00000000E+00  0.00000000E+00  0.00000000E+00
  0.00000000E+00  0.00000000E+00  0.00000000E+00
  0.00000000E+00  0.00000000E+00  0.00000000E+00
  0.00000000E+00  0.00000000E+00  0.00000000E+00
  0.00000000E+00  0.00000000E+00  0.00000000E+00
  0.00000000E+00  0.00000000E+00  0.00000000E+00
  0.00000000E+00  0.00000000E+00  0.00000000E+00
  0.00000000E+00  0.00000000E+00  0.00000000E+00
  0.00000000E+00  0.00000000E+00  0.00000000E+00
  0.00000000E+00  0.00000000E+00  0.00000000E+00
  0.00000000E+00  0.00000000E+00  0.00000000E+00
  0.00000000E+00  0.00000000E+00  0.00000000E+00
  0.00000000E+00  0.00000000E+00  0.00000000E+00
  0.00000000E+00  0.00000000E+00  0.00000000E+00
  0.00000000E+00  0.00000000E+00  0.00000000E+00
  0.00000000E+00  0.00000000E+00  0.00000000E+00
  0.00000000E+00  0.00000000E+00  0.00000000E+00
  0.00000000E+00  0.00000000E+00  0.00000000E+00
  0.00000000E+00  0.00000000E+00  0.00000000E+00
  0.00000000E+00  0.00000000E+00  0.00000000E+00
  0.00000000E+00  0.00000000E+00  0.00000000E+00
  0.00000000E+00  0.00000000E+00  0.00000000E+00
  0.00000000E+00  0.00000000E+00  0.00000000E+00
  0.00000000E+00  0.00000000E+00  0.00000000E+00
  0.00000000E+00  0.00000000E+00  0.00000000E+00
  0.00000000E+00  0.00000000E+00  0.00000000E+00
  0.00000000E+00  0.00000000E+00  0.00000000E+00
  0.00000000E+00  0.00000000E+00  0.00000000E+00
  0.00000000E+00  0.00000000E+00  0.00000000E+00
  0.00000000E+00  0.00000000E+00  0.00000000E+00
  0.00000000E+00  0.00000000E+00  0.00000000E+00
  0.00000000E+00  0.00000000E+00  0.00000000E+00
  0.00000000E+00  0.00000000E+00  0.00000000E+00
  0.00000000E+00  0.00000000E+00  0.00000000E+00
  0.00000000E+00  0.00000000E+00  0.00000000E+00
  0.00000000E+00  0.00000000E+00  0.00000000E+00
  0.00000000E+00  0.00000000E+00  0.00000000E+00
  0.00000000E+00  0.00000000E+00  0.00000000E+00
  0.00000000E+00  0.00000000E+00  0.00000000E+00
  0.00000000E+00  0.00000000E+00  0.00000000E+00
  0.00000000E+00  0.00000000E+00  0.00000000E+00
  0.00000000E+00  0.00000000E+00  0.00000000E+00
  0.00000000E+00  0.00000000E+00  0.00000000E+00
  0.00000000E+00  0.00000000E+00  0.00000000E+00
  0.00000000E+00  0.00000000E+00  0.00000000E+00
  0.00000000E+00  0.00000000E+00  0.00000000E+00
  0.00000000E+00  0.00000000E+00  0.00000000E+00
  0.00000000E+00  0.00000000E+00  0.00000000E+00
  0.00000000E+00  0.00000000E+00  0.00000000E+00
  0.00000000E+00  0.00000000E+00  0.00000000E+00
  0.00000000E+00  0.00000000E+00  0.00000000E+00
  0.00000000E+00  0.00000000E+00  0.00000000E+00
  0.00000000E+00  0.00000000E+00  0.00000000E+00
  0.00000000E+00  0.00000000E+00  0.00000000E+00
  0.00000000E+00  0.00000000E+00  0.00000000E+00
  0.00000000E+00  0.00000000E+00  0.00000000E+00
  0.00000000E+00  0.00000000E+00  0.00000000E+00
  0.00000000E+00  0.00000000E+00  0.00000000E+00
  0.00000000E+00  0.00000000E+00  0.00000000E+00
  0.00000000E+00  0.00000000E+00  0.00000000E+00
  0.00000000E+00  0.00000000E+00  0.00000000E+00
  0.00000000E+00  0.00000000E+00  0.00000000E+00
  0.00000000E+00  0.00000000E+00  0.00000000E+00
  0.00000000E+00  0.00000000E+00  0.00000000E+00
  0.00000000E+00  0.00000000E+00  0.00000000E+00
  0.00000000E+00  0.00000000E+00  0.00000000E+00
  0.00000000E+00  0.00000000E+00  0.00000000E+00
  0.00000000E+00  0.00000000E+00  0.00000000E+00
  0.00000000E+00  0.00000000E+00  0.00000000E+00
  0.00000000E+00  0.00000000E+00  0.00000000E+00
  0.00000000E+00  0.00000000E+00  0.00000000E+00
  0.00000000E+00  0.00000000E+00  0.00000000E+00
  0.00000000E+00  0.00000000E+00  0.00000000E+00
  0.00000000E+00  0.00000000E+00  0.00000000E+00
  0.00000000E+00  0.00000000E+00  0.00000000E+00
  0.00000000E+00  0.00000000E+00  0.00000000E+00
  0.00000000E+00  0.00000000E+00  0.00000000E+00
  0.00000000E+00  0.00000000E+00  0.00000000E+00
  0.00000000E+00  0.00000000E+00  0.00000000E+00
  0.00000000E+00  0.00000000E+00  0.00000000E+00
  0.00000000E+00  0.00000000E+00  0.00000000E+00
  0.00000000E+00  0.00000000E+00  0.00000000E+00
  0.00000000E+00  0.00000000E+00  0.00000000E+00
  0.00000000E+00  0.00000000E+00  0.00000000E+00
  0.00000000E+00  0.00000000E+00  0.00000000E+00
  0.00000000E+00  0.00000000E+00  0.00000000E+00
  0.00000000E+00  0.00000000E+00  0.00000000E+00
  0.00000000E+00  0.00000000E+00  0.00000000E+00
  0.00000000E+00  0.00000000E+00  0.00000000E+00
  0.00000000E+00  0.00000000E+00  0.00000000E+00
  0.00000000E+00  0.00000000E+00  0.00000000E+00
  0.00000000E+00  0.00000000E+00  0.00000000E+00
  0.00000000E+00  0.00000000E+00  0.00000000E+00
  0.00000000E+00  0.00000000E+00  0.00000000E+00
  0.00000000E+00  0.00000000E+00  0.00000000E+00
  0.00000000E+00  0.00000000E+00  0.00000000E+00
  0.00000000E+00  0.00000000E+00  0.00000000E+00
  0.00000000E+00  0.00000000E+00  0.00000000E+00
  0.00000000E+00  0.00000000E+00  0.00000000E+00
  0.00000000E+00  0.00000000E+00  0.00000000E+00
  0.00000000E+00  0.00000000E+00  0.00000000E+00
  0.00000000E+00  0.00000000E+00  0.00000000E+00
  0.00000000E+00  0.00000000E+00  0.00000000E+00
  0.00000000E+00  0.00000000E+00  0.00000000E+00
  0.00000000E+00  0.00000000E+00  0.00000000E+00
  0.00000000E+00  0.00000000E+00  0.00000000E+00
  0.00000000E+00  0.00000000E+00  0.00000000E+00
  0.00000000E+00  0.00000000E+00  0.00000000E+00
  0.00000000E+00  0.00000000E+00  0.00000000E+00
