O  C  H  Co Li                          
   1.00000000000000     
    25.4370621193982416    1.6813816348696871   -0.3182911828983346
    14.1828394230580681   21.8804077917693256   -0.3294462013995871
    -0.0859724289174904   -0.0528730621131445    6.7499118266420162
   O    C    H    Co   Li
    50    65    16    18     1
Direct
  0.0321894742615633  0.2710372571794198  0.3053446608760966
  0.0047800322389987  0.3131894453664507  0.9141362386424299
  0.0888036514725536  0.2658288205870165  0.7099362765146856
  0.6541066474699685  0.0862611367360536  0.3351323841266040
  0.6303413200883317  0.0610689053652658  0.9770104666570564
  0.5913856029782957  0.1322321112690142  0.7343122018819715
  0.0127833128038253  0.4064475898808455  0.6472242601610981
  0.3204070078352729  0.6305318316094218  0.3282180651988080
  0.3668853613495919  0.6006556797822988  0.9618657380708455
  0.3386634193940254  0.5494408598683662  0.7705483668374933
  0.5681213910322359  0.0298962118663257  0.6530670660826940
  0.2983204581436294  0.0226652439529581  0.3751042739889847
  0.2196786809159961  0.0679921812333552  0.5988936234242740
  0.2698297967195992  0.0672719189643532  0.0032193542410134
  0.6495514391061126  0.3164563088609640  0.3263781294656118
  0.6567470229141102  0.2644525316442523  0.5978769469676307
  0.0293967082744272  0.6247052625976742  0.7201360130480364
  0.0562615517578762  0.5527939573330433  0.9494359962145743
  0.5671337512005445  0.3203467867055486  0.0321348183210810
  0.0775079520900712  0.6456799909488512  0.3929681190199777
  0.1202011010886790  0.6729552048916325  0.6259796359824715
  0.3802073969099954  0.9660459821069640  0.7117483414332558
  0.4099104594486739  0.0067800409394762  0.9408621447371452
  0.1265414469096710  0.6149435927780685  0.0228411459875281
  0.6944359676086839  0.9840862588372971  0.6383413563915714
  0.7678698478996820  0.9427507955851310  0.3967150654216873
  0.7256937709010982  0.9349452805006118  0.9915068152251044
  0.3954737686982366  0.6625022595504120  0.5040613361854914
  0.3193782799627192  0.7485231468685651  0.3380345280252904
  0.9933756385643239  0.3857897251048963  0.2665076173526647
  0.9598050703723471  0.4618976531963907  0.0472508466011253
  0.3722954769544928  0.6941854324354392  0.9274160723017555
  0.9317070361395104  0.3808797011080154  0.5852646370735257
  0.8895197412456668  0.3506584863408369  0.3588205699356532
  0.6182133801257297  0.0077418768701915  0.2997333546082609
  0.5881991840500027  0.9720078101318554  0.0513213457561455
  0.8746181054587809  0.4140343061525120  0.9598013696554382
  0.9712264772816680  0.7488230217808484  0.6891069607672087
  0.0004780662333944  0.7005699281956846  0.0591684237711253
  0.9220004161733130  0.7467644266345581  0.2838024457935528
  0.3125794903168058  0.9228149228685191  0.6577013697848527
  0.3296552837096141  0.9458399700239384  0.0367592057204999
  0.3743425907287145  0.8682263184695523  0.2571396548786628
  0.0050075227430958  0.6066082892117626  0.3492256417777026
  0.7606557711171732  0.2981908462641494  0.6863966630541802
  0.6691550053371004  0.3755532202012437  0.9876781403825836
  0.7273389101505950  0.3712181689622461  0.2561344192650227
  0.4256649704829336  0.9487920502469024  0.3366734276344839
  0.7031653810255635  0.5414369151293169  0.7340274890248376
  0.7398650865598216  0.4732758085092831  0.4560995083936585
  0.0890109422571948  0.2219691719733527  0.2267333650570643
  0.1342607155060326  0.1704707841946319  0.3493750763847553
  0.0653469994873019  0.2682932552837375  0.8770430495775209
  0.1071555951927678  0.2188024597717333  0.0251193004644070
  0.6346789330682032  0.1420186668456651  0.2543310740358981
  0.6423441887192981  0.1828184718143095  0.3672229037441598
  0.6093220641190678  0.1164609844748682  0.9131477841521568
  0.6090198020243922  0.1605790800571661  0.0568498376428494
  0.0112676148501435  0.4542288772626689  0.5706116527397608
  0.0240465800172508  0.4892590841441655  0.6961071086785872
  0.2731132081974520  0.6251057363280043  0.2560754322013888
  0.2200248780700936  0.6440496769788759  0.3738481548930653
  0.3314969901974586  0.5801167431578873  0.9318274180063525
  0.2788076880804664  0.5981708274728735  0.0657729186747363
  0.5348563358499462  0.0094374053552083  0.5713899140628348
  0.4930515751981691  0.0066189896986990  0.6921649256860670
  0.2392435362165612  0.0671638206008345  0.4272029052221387
  0.1953554162116619  0.1182591939308087  0.2835618379666943
  0.2131579018225708  0.1157828433946326  0.0824626071890573
  0.1683020730368592  0.1666758907734426  0.9598935199241720
  0.6432308116249098  0.2758740631810876  0.4135538447653602
  0.6242866616532646  0.2414079439471397  0.2947335400125533
  0.0371843713891667  0.5736615859963300  0.7748984845614618
  0.0221646348710075  0.5405346748390328  0.6295330255200584
  0.5918970950747540  0.2630548889826991  0.1056527819850328
  0.5861172744280521  0.2209793174103430  0.9909638521040147
  0.1203529297639420  0.6540294575116176  0.4503171134060791
  0.1713519522466036  0.6381354761220106  0.3076112022960319
  0.4136321169088499  0.9864903467026928  0.7651781045363775
  0.4567082380495557  0.9857398568060057  0.6217625305357415
  0.1738898818154408  0.6158757035986134  0.1090650761401513
  0.2289456399607090  0.5945794711227800  0.9956101480940859
  0.7525304614896227  0.9419098588553545  0.5730090518826343
  0.8010037598681419  0.8917888176608358  0.7127132188172003
  0.7849618363407961  0.8914912531855210  0.9136063243669980
  0.8334107842430689  0.8428887854918834  0.0357200539682912
  0.3518333808950993  0.7246823685557597  0.4977690599244609
  0.3452117421637025  0.7667889840543586  0.6610120689577518
  0.9820592510213305  0.4391633940431565  0.2189210744731471
  0.9964055630617926  0.4721766763982538  0.3664068438151976
  0.3609525486692872  0.7487109170066372  0.8637881767782828
  0.3624224912062028  0.7903258465883386  0.9948361201303678
  0.8979478328564575  0.3610039316043461  0.5420849794996486
  0.8623182637800575  0.3549029004669485  0.6959167041245460
  0.5840029026276677  0.9898000226667474  0.2303469569352323
  0.5397077040440404  0.9902070994376307  0.3687542778748585
  0.8464218933179465  0.3886322513745907  0.8815630432361675
  0.7953289677624595  0.3958104193198528  0.9873285648701322
  0.9124072924155844  0.7945224626877012  0.7666786077464053
  0.8638448957127063  0.8439909600357988  0.6446416456715496
  0.9414133368555704  0.7452049511862443  0.1109937939416494
  0.8960653416655053  0.7950364564641521  0.9678394760496535
  0.3274282727743633  0.8684650432514595  0.7335994414107083
  0.3266217258096966  0.8264506434069209  0.6029163137095199
  0.3509458771775871  0.8889506098227736  0.0848036224461152
  0.3463320056098634  0.8492737488977204  0.9350584634041197
  0.0071326233283928  0.5583787071115581  0.4260639232544809
  0.9943042462474043  0.5236510460319876  0.3003661299540797
  0.7854446815769223  0.3288269670074718  0.7548660180257988
  0.8343950756235472  0.3232189188484668  0.6455966916672998
  0.7177315371753017  0.3717553697688734  0.0666007483160839
  0.7654150122910294  0.3666275623274775  0.9329215868622861
  0.4607736634067955  0.9672449796317423  0.4185086187541214
  0.5031998616346660  0.9695972221479578  0.2977057044712714
  0.7217411703136362  0.5072197427604319  0.5964409164903843
  0.1212258357181237  0.1716565030806780  0.5027949969639307
  0.6652860370275083  0.1672820576263531  0.5135815583556498
  0.0354795022263709  0.4759899377750425  0.8515428700598493
  0.2158732116836320  0.6639688734948082  0.5220170601229313
  0.4890142946207960  0.0209593492012963  0.8473114589662538
  0.1816965999576838  0.1648480013226677  0.8065287978358697
  0.5654913535893891  0.2353847029852628  0.8415810575729523
  0.2313611470112565  0.5766565932049506  0.8458004357838803
  0.8215514078671201  0.8421970817669280  0.1891217616220949
  0.3760680938960830  0.7770744355400538  0.1493770141761326
  0.7759371981584903  0.4307327014474902  0.1095252924825891
  0.8753596942347875  0.8444160997764059  0.4904880658821261
  0.3137619805420284  0.8400607296561335  0.4482327585813816
  0.9829197620004866  0.5370912726113696  0.1449838627270663
  0.8521644528384766  0.2915402777870474  0.5146719687316016
  0.5071604359112910  0.9555753584205177  0.1421949395235956
  0.3515240787890750  0.5825294896447849  0.5564222655760630
  0.0327121545676070  0.3284642868767600  0.5039997026279794
  0.6139921384594693  0.0639718965070915  0.5293675060740479
  0.0582564568887206  0.6776603907743431  0.8222375313457061
  0.3556682904928941  0.0018664850022227  0.1375333933704486
  0.2870169457371926  0.0034616210955619  0.7966084598331913
  0.6158814263228009  0.3491674997494845  0.0360175199952382
  0.6796913399343285  0.3090125383191077  0.7622419518017903
  0.0596979892495820  0.6086976295808801  0.1521025748789723
  0.6370622383199307  0.9870264916496330  0.8574839190387964
  0.9510448970862744  0.3458765771594656  0.1502686857872403
  0.3887426825515417  0.6245542411258557  0.7274381928797333
  0.6948427868040262  0.0008452810008394  0.1994622859211596
  0.9509723345192385  0.4098821959488692  0.8454875974688549
  0.3513100013333827  0.6707488648083085  0.1696047913078433
  0.6939931685368990  0.3451649139721463  0.4755452082380138
  0.9861038598566081  0.6852719437321045  0.4870244039010411
  0.3658934130411665  0.9309825718357689  0.4627223946201254
  0.8005831188659157  0.3745122990745669  0.3364488865224060
 
  0.00000000E+00  0.00000000E+00  0.00000000E+00
  0.00000000E+00  0.00000000E+00  0.00000000E+00
  0.00000000E+00  0.00000000E+00  0.00000000E+00
  0.00000000E+00  0.00000000E+00  0.00000000E+00
  0.00000000E+00  0.00000000E+00  0.00000000E+00
  0.00000000E+00  0.00000000E+00  0.00000000E+00
  0.00000000E+00  0.00000000E+00  0.00000000E+00
  0.00000000E+00  0.00000000E+00  0.00000000E+00
  0.00000000E+00  0.00000000E+00  0.00000000E+00
  0.00000000E+00  0.00000000E+00  0.00000000E+00
  0.00000000E+00  0.00000000E+00  0.00000000E+00
  0.00000000E+00  0.00000000E+00  0.00000000E+00
  0.00000000E+00  0.00000000E+00  0.00000000E+00
  0.00000000E+00  0.00000000E+00  0.00000000E+00
  0.00000000E+00  0.00000000E+00  0.00000000E+00
  0.00000000E+00  0.00000000E+00  0.00000000E+00
  0.00000000E+00  0.00000000E+00  0.00000000E+00
  0.00000000E+00  0.00000000E+00  0.00000000E+00
  0.00000000E+00  0.00000000E+00  0.00000000E+00
  0.00000000E+00  0.00000000E+00  0.00000000E+00
  0.00000000E+00  0.00000000E+00  0.00000000E+00
  0.00000000E+00  0.00000000E+00  0.00000000E+00
  0.00000000E+00  0.00000000E+00  0.00000000E+00
  0.00000000E+00  0.00000000E+00  0.00000000E+00
  0.00000000E+00  0.00000000E+00  0.00000000E+00
  0.00000000E+00  0.00000000E+00  0.00000000E+00
  0.00000000E+00  0.00000000E+00  0.00000000E+00
  0.00000000E+00  0.00000000E+00  0.00000000E+00
  0.00000000E+00  0.00000000E+00  0.00000000E+00
  0.00000000E+00  0.00000000E+00  0.00000000E+00
  0.00000000E+00  0.00000000E+00  0.00000000E+00
  0.00000000E+00  0.00000000E+00  0.00000000E+00
  0.00000000E+00  0.00000000E+00  0.00000000E+00
  0.00000000E+00  0.00000000E+00  0.00000000E+00
  0.00000000E+00  0.00000000E+00  0.00000000E+00
  0.00000000E+00  0.00000000E+00  0.00000000E+00
  0.00000000E+00  0.00000000E+00  0.00000000E+00
  0.00000000E+00  0.00000000E+00  0.00000000E+00
  0.00000000E+00  0.00000000E+00  0.00000000E+00
  0.00000000E+00  0.00000000E+00  0.00000000E+00
  0.00000000E+00  0.00000000E+00  0.00000000E+00
  0.00000000E+00  0.00000000E+00  0.00000000E+00
  0.00000000E+00  0.00000000E+00  0.00000000E+00
  0.00000000E+00  0.00000000E+00  0.00000000E+00
  0.00000000E+00  0.00000000E+00  0.00000000E+00
  0.00000000E+00  0.00000000E+00  0.00000000E+00
  0.00000000E+00  0.00000000E+00  0.00000000E+00
  0.00000000E+00  0.00000000E+00  0.00000000E+00
  0.00000000E+00  0.00000000E+00  0.00000000E+00
  0.00000000E+00  0.00000000E+00  0.00000000E+00
  0.00000000E+00  0.00000000E+00  0.00000000E+00
  0.00000000E+00  0.00000000E+00  0.00000000E+00
  0.00000000E+00  0.00000000E+00  0.00000000E+00
  0.00000000E+00  0.00000000E+00  0.00000000E+00
  0.00000000E+00  0.00000000E+00  0.00000000E+00
  0.00000000E+00  0.00000000E+00  0.00000000E+00
  0.00000000E+00  0.00000000E+00  0.00000000E+00
  0.00000000E+00  0.00000000E+00  0.00000000E+00
  0.00000000E+00  0.00000000E+00  0.00000000E+00
  0.00000000E+00  0.00000000E+00  0.00000000E+00
  0.00000000E+00  0.00000000E+00  0.00000000E+00
  0.00000000E+00  0.00000000E+00  0.00000000E+00
  0.00000000E+00  0.00000000E+00  0.00000000E+00
  0.00000000E+00  0.00000000E+00  0.00000000E+00
  0.00000000E+00  0.00000000E+00  0.00000000E+00
  0.00000000E+00  0.00000000E+00  0.00000000E+00
  0.00000000E+00  0.00000000E+00  0.00000000E+00
  0.00000000E+00  0.00000000E+00  0.00000000E+00
  0.00000000E+00  0.00000000E+00  0.00000000E+00
  0.00000000E+00  0.00000000E+00  0.00000000E+00
  0.00000000E+00  0.00000000E+00  0.00000000E+00
  0.00000000E+00  0.00000000E+00  0.00000000E+00
  0.00000000E+00  0.00000000E+00  0.00000000E+00
  0.00000000E+00  0.00000000E+00  0.00000000E+00
  0.00000000E+00  0.00000000E+00  0.00000000E+00
  0.00000000E+00  0.00000000E+00  0.00000000E+00
  0.00000000E+00  0.00000000E+00  0.00000000E+00
  0.00000000E+00  0.00000000E+00  0.00000000E+00
  0.00000000E+00  0.00000000E+00  0.00000000E+00
  0.00000000E+00  0.00000000E+00  0.00000000E+00
  0.00000000E+00  0.00000000E+00  0.00000000E+00
  0.00000000E+00  0.00000000E+00  0.00000000E+00
  0.00000000E+00  0.00000000E+00  0.00000000E+00
  0.00000000E+00  0.00000000E+00  0.00000000E+00
  0.00000000E+00  0.00000000E+00  0.00000000E+00
  0.00000000E+00  0.00000000E+00  0.00000000E+00
  0.00000000E+00  0.00000000E+00  0.00000000E+00
  0.00000000E+00  0.00000000E+00  0.00000000E+00
  0.00000000E+00  0.00000000E+00  0.00000000E+00
  0.00000000E+00  0.00000000E+00  0.00000000E+00
  0.00000000E+00  0.00000000E+00  0.00000000E+00
  0.00000000E+00  0.00000000E+00  0.00000000E+00
  0.00000000E+00  0.00000000E+00  0.00000000E+00
  0.00000000E+00  0.00000000E+00  0.00000000E+00
  0.00000000E+00  0.00000000E+00  0.00000000E+00
  0.00000000E+00  0.00000000E+00  0.00000000E+00
  0.00000000E+00  0.00000000E+00  0.00000000E+00
  0.00000000E+00  0.00000000E+00  0.00000000E+00
  0.00000000E+00  0.00000000E+00  0.00000000E+00
  0.00000000E+00  0.00000000E+00  0.00000000E+00
  0.00000000E+00  0.00000000E+00  0.00000000E+00
  0.00000000E+00  0.00000000E+00  0.00000000E+00
  0.00000000E+00  0.00000000E+00  0.00000000E+00
  0.00000000E+00  0.00000000E+00  0.00000000E+00
  0.00000000E+00  0.00000000E+00  0.00000000E+00
  0.00000000E+00  0.00000000E+00  0.00000000E+00
  0.00000000E+00  0.00000000E+00  0.00000000E+00
  0.00000000E+00  0.00000000E+00  0.00000000E+00
  0.00000000E+00  0.00000000E+00  0.00000000E+00
  0.00000000E+00  0.00000000E+00  0.00000000E+00
  0.00000000E+00  0.00000000E+00  0.00000000E+00
  0.00000000E+00  0.00000000E+00  0.00000000E+00
  0.00000000E+00  0.00000000E+00  0.00000000E+00
  0.00000000E+00  0.00000000E+00  0.00000000E+00
  0.00000000E+00  0.00000000E+00  0.00000000E+00
  0.00000000E+00  0.00000000E+00  0.00000000E+00
  0.00000000E+00  0.00000000E+00  0.00000000E+00
  0.00000000E+00  0.00000000E+00  0.00000000E+00
  0.00000000E+00  0.00000000E+00  0.00000000E+00
  0.00000000E+00  0.00000000E+00  0.00000000E+00
  0.00000000E+00  0.00000000E+00  0.00000000E+00
  0.00000000E+00  0.00000000E+00  0.00000000E+00
  0.00000000E+00  0.00000000E+00  0.00000000E+00
  0.00000000E+00  0.00000000E+00  0.00000000E+00
  0.00000000E+00  0.00000000E+00  0.00000000E+00
  0.00000000E+00  0.00000000E+00  0.00000000E+00
  0.00000000E+00  0.00000000E+00  0.00000000E+00
  0.00000000E+00  0.00000000E+00  0.00000000E+00
  0.00000000E+00  0.00000000E+00  0.00000000E+00
  0.00000000E+00  0.00000000E+00  0.00000000E+00
  0.00000000E+00  0.00000000E+00  0.00000000E+00
  0.00000000E+00  0.00000000E+00  0.00000000E+00
  0.00000000E+00  0.00000000E+00  0.00000000E+00
  0.00000000E+00  0.00000000E+00  0.00000000E+00
  0.00000000E+00  0.00000000E+00  0.00000000E+00
  0.00000000E+00  0.00000000E+00  0.00000000E+00
  0.00000000E+00  0.00000000E+00  0.00000000E+00
  0.00000000E+00  0.00000000E+00  0.00000000E+00
  0.00000000E+00  0.00000000E+00  0.00000000E+00
  0.00000000E+00  0.00000000E+00  0.00000000E+00
  0.00000000E+00  0.00000000E+00  0.00000000E+00
  0.00000000E+00  0.00000000E+00  0.00000000E+00
  0.00000000E+00  0.00000000E+00  0.00000000E+00
  0.00000000E+00  0.00000000E+00  0.00000000E+00
  0.00000000E+00  0.00000000E+00  0.00000000E+00
  0.00000000E+00  0.00000000E+00  0.00000000E+00
  0.00000000E+00  0.00000000E+00  0.00000000E+00
  0.00000000E+00  0.00000000E+00  0.00000000E+00
  0.00000000E+00  0.00000000E+00  0.00000000E+00
  0.00000000E+00  0.00000000E+00  0.00000000E+00
