O  C  H  Co Li                          
   1.00000000000000     
    25.0422190217314053    1.8477899871886154   -0.3008515861611358
    14.1303943777949588   21.5093281108424996   -0.3197033448541429
    -0.0800495866132444   -0.0520555536187570    6.7809925063887340
   O    C    H    Co   Li
    50    65    16    18     1
Direct
  0.0248900616387801  0.2722649334311368  0.3023358576022259
 -0.0014586913246744  0.3160775982154989  0.9148247512590210
  0.0848192755068011  0.2654065379700396  0.7102663402221397
  0.6465414090559750  0.0954517579666358  0.3422776543517184
  0.6342157378875506  0.0637566437771610  0.9728494162288939
  0.5805198168331226  0.1402477887342563  0.7425342672546776
  0.0124046376367457  0.4064063156487473  0.6427785725273510
  0.3465817794471935  0.6033219274067563  0.3255116981506758
  0.3893152304712966  0.5783990343894042  0.9590050947318280
  0.3589946293671040  0.5285015057594328  0.7675521722910086
  0.5666519708156413  0.0317500494239727  0.6585345943058319
  0.2961715664266784  0.0136480494355502  0.3692014735692794
  0.2178668147096280  0.0630692006426889  0.6008812107667623
  0.2694275194089011  0.0614283256883342  0.0080899366114761
  0.6246513336053739  0.3381876892549588  0.3255606881280363
  0.6337315439608091  0.2853620707332197  0.5980749654638835
  0.0369330135605501  0.6224558678290679  0.7138527567445652
  0.0628034525090321  0.5492382409980037  0.9412987362873046
  0.5476766602594415  0.3355708791191089  0.0254020285308038
  0.0880549596462976  0.6390680967954265  0.3846190404193383
  0.1365418242724491  0.6588906685836085  0.6209446384731355
  0.3777928260657480  0.9662304996150469  0.7071236017077660
  0.4120038483595598  0.0012938290348542  0.9457183346661859
  0.1379265470532432  0.6066457208037034  0.0171499284296270
  0.6926352516911596  0.9850581004243572  0.6340233470978853
  0.7694980478088153  0.9480067185799117  0.4008372225744138
  0.7281488368112378  0.9396478899406980  0.9949292743792836
  0.4206944248453264  0.6398629980991085  0.5104250313807144
  0.3409368791975135  0.7272974011235382  0.3421486423918315
  0.9882452058654456  0.3886165595803772  0.2656122397460508
  0.9568144985050822  0.4653765335178807  0.0452832012147484
  0.3905626699717872  0.6754071847200239  0.9284523893797555
  0.9247695636212443  0.3865103021550864  0.5864611906102588
  0.8754818796401472  0.3635243573859790  0.3594637019570017
  0.6120199042016656  0.0174685325176579  0.2963309097610393
  0.5925248671587590  0.9691171452290538  0.0594627536529619
  0.8651696375846931  0.4235447925224864  0.9615788521306409
  0.9801881369659902  0.7485652429008191  0.6886735606882268
  0.0095865913178655  0.6977073624000487  0.0538567448694588
  0.9304472185297956  0.7474141097600651  0.2824347173034497
  0.3187489328918517  0.9123852942803934  0.6616256527135327
  0.3379467917955087  0.9357063249126597  0.0324837766818805
  0.3813182972310727  0.8583683376125448  0.2594869420971477
  0.0083497667330778  0.6071961853324183  0.3438634218032707
  0.7354755512771733  0.3224993256103397  0.6773310029339914
  0.6456624072961552  0.3979627335825060  0.9862112671688456
  0.7045881185365191  0.3939827269766974  0.2527615819986118
  0.4293532311235260  0.9425176480168649  0.3443094904178561
  0.6835806159189052  0.5696423316124676  0.7270151475876999
  0.7146177560071639  0.4931882941962777  0.4726789217640117
  0.0837368570615559  0.2217391139326817  0.2255103681518802
  0.1297458727290906  0.1693318504740892  0.3497117568421777
  0.0604798682285984  0.2690465853117130  0.8770032718235954
  0.1030338123932020  0.2182196165376022  0.0253243991068605
  0.6230873911826359  0.1531202109820622  0.2601234656440263
  0.6258759403479670  0.1976572003719088  0.3722809615818874
  0.6031629244573428  0.1232094304332419  0.9176285768304761
  0.5978248353367631  0.1704405604651192  0.0617570603742776
  0.0121437141514788  0.4538915369318176  0.5650053391825960
  0.0281048356672352  0.4872279426300528  0.6885494357835430
  0.2956572367139298  0.6021161046400297  0.2554924219421539
  0.2418381259672654  0.6216478462476055  0.3745329537401557
  0.3522296932098667  0.5591993455926685  0.9282958662775200
  0.2980924393458733  0.5790381420328715  0.0619704068217790
  0.5355102559292867  0.0085644343352530  0.5761916957534593
  0.4943663028295496  0.0038665264576342  0.6971457273375714
  0.2370831104280196  0.0612826182407428  0.4273950895978539
  0.1924944776003915  0.1147990032290988  0.2859954182886340
  0.2112697536748606  0.1120724646809522  0.0861473080287000
  0.1662006831118221  0.1642803788845674  0.9631402878987226
  0.6206691926355148  0.2955745326451882  0.4134212556427996
  0.6051985389751631  0.2577145843646486  0.2960534796179876
  0.0435883545989705  0.5711047554148407  0.7672749560207796
  0.0265368499639209  0.5391132288226744  0.6226790429079370
  0.5741865235409398  0.2775824516006141  0.1041756276529536
  0.5718135333537395  0.2323754053495205  0.9927395746249446
  0.1353650969877478  0.6412933691745073  0.4449419971055396
  0.1892319385764474  0.6212768955441925  0.3044516301564694
  0.4141425946603436  0.9831335441402469  0.7682138391268939
  0.4589688966487230  0.9813523637614796  0.6278412336839679
  0.1887767137566845  0.6026543846039907  0.1033279209863308
  0.2451305630542872  0.5798239946115011  0.9888357187832634
  0.7535533185329656  0.9450159454626919  0.5739991423221037
  0.8042871964465318  0.8944061913439637  0.7135947842662302
  0.7883678825475997  0.8947526802453150  0.9148158330008423
  0.8388357080124086  0.8454223625773611  0.0360071835109272
  0.3747929532869014  0.7033310901708814  0.5011337528011245
  0.3652119285566553  0.7479923928884586  0.6615277688970035
  0.9786009051964399  0.4419025223220150  0.2167482045516449
  0.9947805212356041  0.4740576805823825  0.3633414663935291
  0.3781702004747074  0.7312497412017541  0.8651601390864134
  0.3747175150947791  0.7759017833632541  0.9974330122257390
  0.8857380745201572  0.3721418430495243  0.5420409061789202
  0.8466011540713357  0.3697136119947506  0.6946466060759472
  0.5845015963601808  0.9910488087222419  0.2348475922080777
  0.5420487783440281  0.9879838089518145  0.3745948531550500
  0.8322641593788638  0.4027303167636661  0.8816937251163444
  0.7781807553287676  0.4136367780401127  0.9855810222340984
  0.9195037829922059  0.7951835922433937  0.7662646410960002
  0.8690733211660391  0.8458642570658996  0.6456857914209136
  0.9496110343246060  0.7448276802149099  0.1084134499401548
  0.9027981422332340  0.7960004914725972  0.9667743787856188
  0.3386683850286787  0.8549921334279281  0.7351453764179255
  0.3436576930325825  0.8096205289825840  0.6033686651676438
  0.3588817336902106  0.8784880041888414  0.0853349252759955
  0.3565208566790549  0.8365911353177303  0.9371976255402910
  0.0089917883841096  0.5592111616367204  0.4218574035209540
  0.9927246910362967  0.5263140945585926  0.2984489955029795
  0.7632682763445923  0.3502113257595240  0.7504354947365477
  0.8146154139337158  0.3416438208726596  0.6429038246131861
  0.6952748283130087  0.3940003149044355  0.0637803162054453
  0.7445844664687450  0.3874831314394153  0.9302848761480822
  0.4645683465467066  0.9614732928661032  0.4261954967939431
  0.5077598826720703  0.9639249785214383  0.3061782552424988
  0.6994579814485705  0.5311161656782579  0.6006094473037837
  0.1158206045286467  0.1713287785488097  0.5018137679402539
  0.6478632594592179  0.1836826334484024  0.5200981512309745
  0.0419756661502291  0.4721046698320839  0.8415190653333368
  0.2398260526278568  0.6378014584007906  0.5262631512518089
  0.4895829496656214  0.0191552448470514  0.8512339387495886
  0.1809781773863013  0.1621593196437300  0.8118282323827278
  0.5522886118938756  0.2451610810076616  0.8418441168824861
  0.2464579544287867  0.5648464285992570  0.8359133322202980
  0.8272153326938637  0.8459439288537649  0.1901648243569961
  0.3849671474452653  0.7641994941756587  0.1532046418680953
  0.7595892640954338  0.4487604222508754  0.1088350088093805
  0.8802431024053108  0.8470179151575264  0.4924893538466713
  0.3318809335390571  0.8227101677945633  0.4482098963694010
  0.9787109052294353  0.5418854346549464  0.1455049776922238
  0.8306814608297943  0.3102086104530030  0.5108823814389435
  0.5135195056041941  0.9480415807344692  0.1524782005043121
  0.3794808637109213  0.5559155436579641  0.5554879405176490
  0.0277942201079983  0.3289762202407217  0.5007477730015781
  0.6088011324535519  0.0699747759220356  0.5357642122845870
  0.0691561064821544  0.6726609311707243  0.8176266554937948
  0.3583214648404949 -0.0046442915827212  0.1437305523880327
  0.2872296104967560 -0.0028097611825390  0.7999189427322335
  0.5925839943241695  0.3696619474335547  0.0345116228339791
  0.6549198044450198  0.3324471607339150  0.7579262705553114
  0.0670188950581479  0.6042198600245952  0.1453550853464802
  0.6376832922968519  0.9886285162554806  0.8630021859799606
  0.9421926838231215  0.3512178096764040  0.1486490799462645
  0.4128798151634899  0.6018895659328510  0.7291908384941415
  0.6941936847273239  0.0069306120328472  0.2058741010497729
  0.9464557679949094  0.4141520377970431  0.8439787647568202
  0.3722837369627167  0.6495703290192741  0.1704673405270855
  0.6657416699997492  0.3714854045731685  0.4685276312192166
  0.9946603444053458  0.6846501623371214  0.4848768506524084
  0.3695194085186641  0.9230784772523331  0.4665393965026014
  0.7810557314641051  0.3940261098148740  0.3380423440898548
 
  0.00000000E+00  0.00000000E+00  0.00000000E+00
  0.00000000E+00  0.00000000E+00  0.00000000E+00
  0.00000000E+00  0.00000000E+00  0.00000000E+00
  0.00000000E+00  0.00000000E+00  0.00000000E+00
  0.00000000E+00  0.00000000E+00  0.00000000E+00
  0.00000000E+00  0.00000000E+00  0.00000000E+00
  0.00000000E+00  0.00000000E+00  0.00000000E+00
  0.00000000E+00  0.00000000E+00  0.00000000E+00
  0.00000000E+00  0.00000000E+00  0.00000000E+00
  0.00000000E+00  0.00000000E+00  0.00000000E+00
  0.00000000E+00  0.00000000E+00  0.00000000E+00
  0.00000000E+00  0.00000000E+00  0.00000000E+00
  0.00000000E+00  0.00000000E+00  0.00000000E+00
  0.00000000E+00  0.00000000E+00  0.00000000E+00
  0.00000000E+00  0.00000000E+00  0.00000000E+00
  0.00000000E+00  0.00000000E+00  0.00000000E+00
  0.00000000E+00  0.00000000E+00  0.00000000E+00
  0.00000000E+00  0.00000000E+00  0.00000000E+00
  0.00000000E+00  0.00000000E+00  0.00000000E+00
  0.00000000E+00  0.00000000E+00  0.00000000E+00
  0.00000000E+00  0.00000000E+00  0.00000000E+00
  0.00000000E+00  0.00000000E+00  0.00000000E+00
  0.00000000E+00  0.00000000E+00  0.00000000E+00
  0.00000000E+00  0.00000000E+00  0.00000000E+00
  0.00000000E+00  0.00000000E+00  0.00000000E+00
  0.00000000E+00  0.00000000E+00  0.00000000E+00
  0.00000000E+00  0.00000000E+00  0.00000000E+00
  0.00000000E+00  0.00000000E+00  0.00000000E+00
  0.00000000E+00  0.00000000E+00  0.00000000E+00
  0.00000000E+00  0.00000000E+00  0.00000000E+00
  0.00000000E+00  0.00000000E+00  0.00000000E+00
  0.00000000E+00  0.00000000E+00  0.00000000E+00
  0.00000000E+00  0.00000000E+00  0.00000000E+00
  0.00000000E+00  0.00000000E+00  0.00000000E+00
  0.00000000E+00  0.00000000E+00  0.00000000E+00
  0.00000000E+00  0.00000000E+00  0.00000000E+00
  0.00000000E+00  0.00000000E+00  0.00000000E+00
  0.00000000E+00  0.00000000E+00  0.00000000E+00
  0.00000000E+00  0.00000000E+00  0.00000000E+00
  0.00000000E+00  0.00000000E+00  0.00000000E+00
  0.00000000E+00  0.00000000E+00  0.00000000E+00
  0.00000000E+00  0.00000000E+00  0.00000000E+00
  0.00000000E+00  0.00000000E+00  0.00000000E+00
  0.00000000E+00  0.00000000E+00  0.00000000E+00
  0.00000000E+00  0.00000000E+00  0.00000000E+00
  0.00000000E+00  0.00000000E+00  0.00000000E+00
  0.00000000E+00  0.00000000E+00  0.00000000E+00
  0.00000000E+00  0.00000000E+00  0.00000000E+00
  0.00000000E+00  0.00000000E+00  0.00000000E+00
  0.00000000E+00  0.00000000E+00  0.00000000E+00
  0.00000000E+00  0.00000000E+00  0.00000000E+00
  0.00000000E+00  0.00000000E+00  0.00000000E+00
  0.00000000E+00  0.00000000E+00  0.00000000E+00
  0.00000000E+00  0.00000000E+00  0.00000000E+00
  0.00000000E+00  0.00000000E+00  0.00000000E+00
  0.00000000E+00  0.00000000E+00  0.00000000E+00
  0.00000000E+00  0.00000000E+00  0.00000000E+00
  0.00000000E+00  0.00000000E+00  0.00000000E+00
  0.00000000E+00  0.00000000E+00  0.00000000E+00
  0.00000000E+00  0.00000000E+00  0.00000000E+00
  0.00000000E+00  0.00000000E+00  0.00000000E+00
  0.00000000E+00  0.00000000E+00  0.00000000E+00
  0.00000000E+00  0.00000000E+00  0.00000000E+00
  0.00000000E+00  0.00000000E+00  0.00000000E+00
  0.00000000E+00  0.00000000E+00  0.00000000E+00
  0.00000000E+00  0.00000000E+00  0.00000000E+00
  0.00000000E+00  0.00000000E+00  0.00000000E+00
  0.00000000E+00  0.00000000E+00  0.00000000E+00
  0.00000000E+00  0.00000000E+00  0.00000000E+00
  0.00000000E+00  0.00000000E+00  0.00000000E+00
  0.00000000E+00  0.00000000E+00  0.00000000E+00
  0.00000000E+00  0.00000000E+00  0.00000000E+00
  0.00000000E+00  0.00000000E+00  0.00000000E+00
  0.00000000E+00  0.00000000E+00  0.00000000E+00
  0.00000000E+00  0.00000000E+00  0.00000000E+00
  0.00000000E+00  0.00000000E+00  0.00000000E+00
  0.00000000E+00  0.00000000E+00  0.00000000E+00
  0.00000000E+00  0.00000000E+00  0.00000000E+00
  0.00000000E+00  0.00000000E+00  0.00000000E+00
  0.00000000E+00  0.00000000E+00  0.00000000E+00
  0.00000000E+00  0.00000000E+00  0.00000000E+00
  0.00000000E+00  0.00000000E+00  0.00000000E+00
  0.00000000E+00  0.00000000E+00  0.00000000E+00
  0.00000000E+00  0.00000000E+00  0.00000000E+00
  0.00000000E+00  0.00000000E+00  0.00000000E+00
  0.00000000E+00  0.00000000E+00  0.00000000E+00
  0.00000000E+00  0.00000000E+00  0.00000000E+00
  0.00000000E+00  0.00000000E+00  0.00000000E+00
  0.00000000E+00  0.00000000E+00  0.00000000E+00
  0.00000000E+00  0.00000000E+00  0.00000000E+00
  0.00000000E+00  0.00000000E+00  0.00000000E+00
  0.00000000E+00  0.00000000E+00  0.00000000E+00
  0.00000000E+00  0.00000000E+00  0.00000000E+00
  0.00000000E+00  0.00000000E+00  0.00000000E+00
  0.00000000E+00  0.00000000E+00  0.00000000E+00
  0.00000000E+00  0.00000000E+00  0.00000000E+00
  0.00000000E+00  0.00000000E+00  0.00000000E+00
  0.00000000E+00  0.00000000E+00  0.00000000E+00
  0.00000000E+00  0.00000000E+00  0.00000000E+00
  0.00000000E+00  0.00000000E+00  0.00000000E+00
  0.00000000E+00  0.00000000E+00  0.00000000E+00
  0.00000000E+00  0.00000000E+00  0.00000000E+00
  0.00000000E+00  0.00000000E+00  0.00000000E+00
  0.00000000E+00  0.00000000E+00  0.00000000E+00
  0.00000000E+00  0.00000000E+00  0.00000000E+00
  0.00000000E+00  0.00000000E+00  0.00000000E+00
  0.00000000E+00  0.00000000E+00  0.00000000E+00
  0.00000000E+00  0.00000000E+00  0.00000000E+00
  0.00000000E+00  0.00000000E+00  0.00000000E+00
  0.00000000E+00  0.00000000E+00  0.00000000E+00
  0.00000000E+00  0.00000000E+00  0.00000000E+00
  0.00000000E+00  0.00000000E+00  0.00000000E+00
  0.00000000E+00  0.00000000E+00  0.00000000E+00
  0.00000000E+00  0.00000000E+00  0.00000000E+00
  0.00000000E+00  0.00000000E+00  0.00000000E+00
  0.00000000E+00  0.00000000E+00  0.00000000E+00
  0.00000000E+00  0.00000000E+00  0.00000000E+00
  0.00000000E+00  0.00000000E+00  0.00000000E+00
  0.00000000E+00  0.00000000E+00  0.00000000E+00
  0.00000000E+00  0.00000000E+00  0.00000000E+00
  0.00000000E+00  0.00000000E+00  0.00000000E+00
  0.00000000E+00  0.00000000E+00  0.00000000E+00
  0.00000000E+00  0.00000000E+00  0.00000000E+00
  0.00000000E+00  0.00000000E+00  0.00000000E+00
  0.00000000E+00  0.00000000E+00  0.00000000E+00
  0.00000000E+00  0.00000000E+00  0.00000000E+00
  0.00000000E+00  0.00000000E+00  0.00000000E+00
  0.00000000E+00  0.00000000E+00  0.00000000E+00
  0.00000000E+00  0.00000000E+00  0.00000000E+00
  0.00000000E+00  0.00000000E+00  0.00000000E+00
  0.00000000E+00  0.00000000E+00  0.00000000E+00
  0.00000000E+00  0.00000000E+00  0.00000000E+00
  0.00000000E+00  0.00000000E+00  0.00000000E+00
  0.00000000E+00  0.00000000E+00  0.00000000E+00
  0.00000000E+00  0.00000000E+00  0.00000000E+00
  0.00000000E+00  0.00000000E+00  0.00000000E+00
  0.00000000E+00  0.00000000E+00  0.00000000E+00
  0.00000000E+00  0.00000000E+00  0.00000000E+00
  0.00000000E+00  0.00000000E+00  0.00000000E+00
  0.00000000E+00  0.00000000E+00  0.00000000E+00
  0.00000000E+00  0.00000000E+00  0.00000000E+00
  0.00000000E+00  0.00000000E+00  0.00000000E+00
  0.00000000E+00  0.00000000E+00  0.00000000E+00
  0.00000000E+00  0.00000000E+00  0.00000000E+00
  0.00000000E+00  0.00000000E+00  0.00000000E+00
  0.00000000E+00  0.00000000E+00  0.00000000E+00
  0.00000000E+00  0.00000000E+00  0.00000000E+00
  0.00000000E+00  0.00000000E+00  0.00000000E+00
  0.00000000E+00  0.00000000E+00  0.00000000E+00
  0.00000000E+00  0.00000000E+00  0.00000000E+00
