O  C  H  Co Li                          
   1.00000000000000     
    25.5339782308554994    1.4340229858474056   -0.2936060761767245
    14.0158071343791768   21.9981973682817689   -0.3309794901279894
    -0.0788309009277999   -0.0574880245750160    6.7575027826741438
   O    C    H    Co   Li
    50    65    16    18     1
Direct
  0.0356733364908752  0.2694873574775885  0.3024990322326559
  0.0103159368267620  0.3114993191017476  0.9150927071337641
  0.0929934707090769  0.2666600863347997  0.7100949598327380
  0.6581225462782384  0.0820233545237831  0.3400371679889487
  0.6352356071081909  0.0559127144205366  0.9802593831566234
  0.5959237082985053  0.1268170574935375  0.7398500874600727
  0.0157708018501354  0.4047880749359802  0.6453548221437604
  0.3148151020698814  0.6349702259612015  0.3279622161404714
  0.3591051936906053  0.6073752981968513  0.9604657343003518
  0.3302836422221454  0.5562887903506686  0.7706909762152300
  0.5726556409188729  0.0249911155066850  0.6567683619647161
  0.2939883390472859  0.0227548883505595  0.3656734991181085
  0.2191264634431647  0.0705543123959305  0.5982704093231079
  0.2684758228018169  0.0687940735328163  0.0022933514297747
  0.6538067560928604  0.3117179899897725  0.3265849458013744
  0.6596272364260917  0.2613844669311272  0.5996929179760213
  0.0285069610543370  0.6257447413030857  0.7157788157221562
  0.0521753634373767  0.5564467391936798  0.9489588447430432
  0.5740498305487212  0.3131476233398096  0.0317410557616638
  0.0701709102600339  0.6544728848712721  0.3871859214262899
  0.1153952540276010  0.6769510206842327  0.6268151654345616
  0.3739742984653607  0.9750219760105411  0.7037386934025697
  0.4082928047373693  0.0097046414730265  0.9403251739370299
  0.1202210451664129  0.6214808628736085  0.0233555102329525
  0.6966725177055721  0.9812557488218390  0.6414770647082538
  0.7693506632797027  0.9412489103793290  0.4007614933444449
  0.7267546162009604  0.9326808577640853  0.9943920237702495
  0.3886853787819416  0.6685273298883352  0.5023061561506663
  0.3135822686954116  0.7533896057180113  0.3392411968539828
  0.9956195476109801  0.3841054893010528  0.2660882560410215
  0.9614996752363717  0.4598213087609839  0.0472219348796812
  0.3652412849109914  0.7001389809030685  0.9268704487112833
  0.9390328357991803  0.3729366180960041  0.5863545932979913
  0.8946192151796066  0.3455426535556622  0.3577175621414813
  0.6217128832967612  0.0037094183150418  0.3031837635064895
  0.5920396422982879  0.9669697014774032  0.0564498516539010
  0.8806512183532934  0.4082722933359242  0.9586154879532028
  0.9674674944277194  0.7499986016711803  0.6907759880182442
  0.9955369073213066  0.7025570723604436  0.0565020399815310
  0.9194749319864672  0.7476327244932922  0.2855546348111395
  0.3106141675899227  0.9257463244658115  0.6578160633687469
  0.3323776839928023  0.9468275076534822  0.0285473726513878
  0.3688519938955614  0.8733360741988608  0.2570982558432203
  0.0027121368455174  0.6078756808178774  0.3488490637954955
  0.7623255174011704  0.2966927144160407  0.6822524527291320
  0.6743089518497148  0.3708890358319359  0.9888656507508630
  0.7325043269932325  0.3668137248561496  0.2550427921475360
  0.4210686404181035  0.9549105542524666  0.3366478777118169
  0.7069297694787482  0.5348676371801939  0.7310061119130162
  0.7485453094781809  0.4667237017274179  0.4549610639949012
  0.0915657133952417  0.2216409665768390  0.2237766931968005
  0.1353355939561069  0.1709737930708236  0.3465535874332568
  0.0697495768178609  0.2680610648026918  0.8762698936227509
  0.1101515133238058  0.2189154075505083  0.0234335117184457
  0.6387690827103956  0.1374092263832757  0.2590711188048285
  0.6457204949345714  0.1787481671177471  0.3717056149444294
  0.6141482258310704  0.1110041086573853  0.9178260794302445
  0.6138942551900251  0.1550076253040509  0.0613652088215076
  0.0132355613080761  0.4530496011429344  0.5683645427398607
  0.0253726083257381  0.4888228491419877  0.6934835290466709
  0.2668875852414468  0.6305225192516241  0.2567302883975726
  0.2143703331634262  0.6493441081279120  0.3747351231772885
  0.3236168639714460  0.5868726414473759  0.9312386167765525
  0.2715814137330554  0.6046958737215626  0.0654090228918456
  0.5377179084175233  0.0064976111636750  0.5743296147365076
  0.4946092134729357  0.0056417267521181  0.6944114590597137
  0.2375657602663076  0.0684803182542957  0.4238725140531808
  0.1950874816358362  0.1193211101949594  0.2810623257786369
  0.2130746622098861  0.1168070470341921  0.0808889446730053
  0.1701189315651741  0.1673424000661909  0.9587165574725968
  0.6470281311715482  0.2716293403238891  0.4151770245616615
  0.6285093162927452  0.2365557642247253  0.2976763741508699
  0.0352510115653261  0.5755403341839018  0.7729175653006053
  0.0218540060799386  0.5410303669126956  0.6279628291526754
  0.5974569286167490  0.2569692919870487  0.1076337812639152
  0.5916295109268519  0.2146572614344534  0.9944502363437169
  0.1143483660504931  0.6601758105007112  0.4492543952680551
  0.1653424194176137  0.6441873733562873  0.3078064474026765
  0.4105738747798212  0.9912398093217950  0.7631586219790796
  0.4556106142062799  0.9880260824726770  0.6223503988011707
  0.1672713747928164  0.6225742498273846  0.1092317750608813
  0.2216360609005128  0.6016741478149020  0.9952748843452029
  0.7538081135878735  0.9401209702427274  0.5764353681331056
  0.8009237391309879  0.8906876696401549  0.7157300579189830
  0.7848850256386453  0.8901316209062579  0.9160060948741702
  0.8321122147687020  0.8424222644794416  0.0383006824787813
  0.3461002807277351  0.7298159146391828  0.4974555911548659
  0.3404276104308108  0.7713950642033972  0.6605408986628631
  0.9838381776528182  0.4374726470465874  0.2184220783189441
  0.9977100081653405  0.4710776095814912  0.3653218740044917
  0.3550784740681843  0.7539153376371738  0.8635801809463058
  0.3566391045578244  0.7954556186123977  0.9946867502167389
  0.9035049277760903  0.3552317162230382  0.5410714779989033
  0.8665901315629752  0.3505451126440157  0.6940486717531101
  0.5874387593034794  0.9857278757809589  0.2344423403053091
  0.5419639340830658  0.9877666453026086  0.3716645406008670
  0.8516486037594835  0.3836730772410828  0.8797594907843216
  0.8007928444400446  0.3909279572278487  0.9859195958612239
  0.9097954728659197  0.7949461162480258  0.7689511579567018
  0.8625950865015032  0.8437521783104759  0.6473670323851635
  0.9380082174998804  0.7463772602097465  0.1119921777323759
  0.8935469132323201  0.7954072584741547  0.9700800310037385
  0.3245888153281460  0.8718998636974176  0.7332663677639779
  0.3232325999897823  0.8302467159230827  0.6025629743882108
  0.3485383735032511  0.8925149101335396  0.0824103394906821
  0.3425333308793620  0.8532992471975797  0.9345787955494504
  0.0063235503617780  0.5587520153220885  0.4247969457174078
  0.9943633417295615  0.5232376446221124  0.2994599586497913
  0.7883474803304307  0.3260676080294825  0.7522435953443969
  0.8373249168996578  0.3200612006060287  0.6432930167981856
  0.7225979318722056  0.3675145196888310  0.0660013360668849
  0.7696776876990962  0.3627894204362638  0.9314083721095610
  0.4587243466192557  0.9703957065067219  0.4188961501032298
  0.5030354029241418  0.9699912953400383  0.2993299052204123
  0.7279035381023583  0.5006928822405635  0.5945337634511974
  0.1219182689267403  0.1725344630182071  0.5000119649110585
  0.6674580148597991  0.1642570204811937  0.5188593166352892
  0.0373937305137690  0.4752080614785588  0.8482412381996055
  0.2109665101018961  0.6685215171990266  0.5232846170645253
  0.4915439895111011  0.0193097758856050  0.8499124145323865
  0.1838579812451757  0.1657153287418440  0.8055162962776341
  0.5718118535418777  0.2280754874845785  0.8447849081828775
  0.2237020594338331  0.5843735129727788  0.8451281674405013
  0.8199974530303507  0.8422336305845252  0.1917164551556410
  0.3690036207511427  0.7826557057583133  0.1497218051624811
  0.7828644306448573  0.4249270310388634  0.1094476557168533
  0.8740532112417082  0.8447223818083459  0.4937073638752394
  0.3109861483501185  0.8435201373588190  0.4479917809561479
  0.9824921841535458  0.5364318623067021  0.1446560980078163
  0.8541475060121677  0.2887998433325586  0.5124019616148320
  0.5066826961803500  0.9560964252343913  0.1437330448815886
  0.3448662926493810  0.5878728016515460  0.5560570849020103
  0.0367051612587073  0.3265708504911448  0.5012789438465587
  0.6178554672215592  0.0597556940099922  0.5332496710890028
  0.0535516354039561  0.6814929894620912  0.8218532128414395
  0.3533712400897864  0.0056199902391233  0.1363528588541667
  0.2849615825774909  0.0064996124708825  0.7949028913657236
  0.6212760003046947  0.3438256652484654  0.0374410114235793
  0.6829550039869851  0.3062610944038735  0.7611008601546221
  0.0547369004050588  0.6131304107027394  0.1511960157490181
  0.6398689944736229  0.9828826033287932  0.8609505048214776
  0.9555350711921191  0.3417167030776405  0.1484764564277026
  0.3814093705229739  0.6308694173037945  0.7258364655244400
  0.6978462724526806  0.9974991992016696  0.2033952116099186
  0.9556581154416790  0.4061030428867590  0.8442285909178208
  0.3447340948557127  0.6764677300768627  0.1698357939905323
  0.6964488582238603  0.3425961937584535  0.4729216823445476
  0.9826682225243158  0.6869594923812120  0.4872043497387957
  0.3621775218740350  0.9350646815879177  0.4611515013754522
  0.8060817385410711  0.3695091480562986  0.3344990719815561
 
  0.00000000E+00  0.00000000E+00  0.00000000E+00
  0.00000000E+00  0.00000000E+00  0.00000000E+00
  0.00000000E+00  0.00000000E+00  0.00000000E+00
  0.00000000E+00  0.00000000E+00  0.00000000E+00
  0.00000000E+00  0.00000000E+00  0.00000000E+00
  0.00000000E+00  0.00000000E+00  0.00000000E+00
  0.00000000E+00  0.00000000E+00  0.00000000E+00
  0.00000000E+00  0.00000000E+00  0.00000000E+00
  0.00000000E+00  0.00000000E+00  0.00000000E+00
  0.00000000E+00  0.00000000E+00  0.00000000E+00
  0.00000000E+00  0.00000000E+00  0.00000000E+00
  0.00000000E+00  0.00000000E+00  0.00000000E+00
  0.00000000E+00  0.00000000E+00  0.00000000E+00
  0.00000000E+00  0.00000000E+00  0.00000000E+00
  0.00000000E+00  0.00000000E+00  0.00000000E+00
  0.00000000E+00  0.00000000E+00  0.00000000E+00
  0.00000000E+00  0.00000000E+00  0.00000000E+00
  0.00000000E+00  0.00000000E+00  0.00000000E+00
  0.00000000E+00  0.00000000E+00  0.00000000E+00
  0.00000000E+00  0.00000000E+00  0.00000000E+00
  0.00000000E+00  0.00000000E+00  0.00000000E+00
  0.00000000E+00  0.00000000E+00  0.00000000E+00
  0.00000000E+00  0.00000000E+00  0.00000000E+00
  0.00000000E+00  0.00000000E+00  0.00000000E+00
  0.00000000E+00  0.00000000E+00  0.00000000E+00
  0.00000000E+00  0.00000000E+00  0.00000000E+00
  0.00000000E+00  0.00000000E+00  0.00000000E+00
  0.00000000E+00  0.00000000E+00  0.00000000E+00
  0.00000000E+00  0.00000000E+00  0.00000000E+00
  0.00000000E+00  0.00000000E+00  0.00000000E+00
  0.00000000E+00  0.00000000E+00  0.00000000E+00
  0.00000000E+00  0.00000000E+00  0.00000000E+00
  0.00000000E+00  0.00000000E+00  0.00000000E+00
  0.00000000E+00  0.00000000E+00  0.00000000E+00
  0.00000000E+00  0.00000000E+00  0.00000000E+00
  0.00000000E+00  0.00000000E+00  0.00000000E+00
  0.00000000E+00  0.00000000E+00  0.00000000E+00
  0.00000000E+00  0.00000000E+00  0.00000000E+00
  0.00000000E+00  0.00000000E+00  0.00000000E+00
  0.00000000E+00  0.00000000E+00  0.00000000E+00
  0.00000000E+00  0.00000000E+00  0.00000000E+00
  0.00000000E+00  0.00000000E+00  0.00000000E+00
  0.00000000E+00  0.00000000E+00  0.00000000E+00
  0.00000000E+00  0.00000000E+00  0.00000000E+00
  0.00000000E+00  0.00000000E+00  0.00000000E+00
  0.00000000E+00  0.00000000E+00  0.00000000E+00
  0.00000000E+00  0.00000000E+00  0.00000000E+00
  0.00000000E+00  0.00000000E+00  0.00000000E+00
  0.00000000E+00  0.00000000E+00  0.00000000E+00
  0.00000000E+00  0.00000000E+00  0.00000000E+00
  0.00000000E+00  0.00000000E+00  0.00000000E+00
  0.00000000E+00  0.00000000E+00  0.00000000E+00
  0.00000000E+00  0.00000000E+00  0.00000000E+00
  0.00000000E+00  0.00000000E+00  0.00000000E+00
  0.00000000E+00  0.00000000E+00  0.00000000E+00
  0.00000000E+00  0.00000000E+00  0.00000000E+00
  0.00000000E+00  0.00000000E+00  0.00000000E+00
  0.00000000E+00  0.00000000E+00  0.00000000E+00
  0.00000000E+00  0.00000000E+00  0.00000000E+00
  0.00000000E+00  0.00000000E+00  0.00000000E+00
  0.00000000E+00  0.00000000E+00  0.00000000E+00
  0.00000000E+00  0.00000000E+00  0.00000000E+00
  0.00000000E+00  0.00000000E+00  0.00000000E+00
  0.00000000E+00  0.00000000E+00  0.00000000E+00
  0.00000000E+00  0.00000000E+00  0.00000000E+00
  0.00000000E+00  0.00000000E+00  0.00000000E+00
  0.00000000E+00  0.00000000E+00  0.00000000E+00
  0.00000000E+00  0.00000000E+00  0.00000000E+00
  0.00000000E+00  0.00000000E+00  0.00000000E+00
  0.00000000E+00  0.00000000E+00  0.00000000E+00
  0.00000000E+00  0.00000000E+00  0.00000000E+00
  0.00000000E+00  0.00000000E+00  0.00000000E+00
  0.00000000E+00  0.00000000E+00  0.00000000E+00
  0.00000000E+00  0.00000000E+00  0.00000000E+00
  0.00000000E+00  0.00000000E+00  0.00000000E+00
  0.00000000E+00  0.00000000E+00  0.00000000E+00
  0.00000000E+00  0.00000000E+00  0.00000000E+00
  0.00000000E+00  0.00000000E+00  0.00000000E+00
  0.00000000E+00  0.00000000E+00  0.00000000E+00
  0.00000000E+00  0.00000000E+00  0.00000000E+00
  0.00000000E+00  0.00000000E+00  0.00000000E+00
  0.00000000E+00  0.00000000E+00  0.00000000E+00
  0.00000000E+00  0.00000000E+00  0.00000000E+00
  0.00000000E+00  0.00000000E+00  0.00000000E+00
  0.00000000E+00  0.00000000E+00  0.00000000E+00
  0.00000000E+00  0.00000000E+00  0.00000000E+00
  0.00000000E+00  0.00000000E+00  0.00000000E+00
  0.00000000E+00  0.00000000E+00  0.00000000E+00
  0.00000000E+00  0.00000000E+00  0.00000000E+00
  0.00000000E+00  0.00000000E+00  0.00000000E+00
  0.00000000E+00  0.00000000E+00  0.00000000E+00
  0.00000000E+00  0.00000000E+00  0.00000000E+00
  0.00000000E+00  0.00000000E+00  0.00000000E+00
  0.00000000E+00  0.00000000E+00  0.00000000E+00
  0.00000000E+00  0.00000000E+00  0.00000000E+00
  0.00000000E+00  0.00000000E+00  0.00000000E+00
  0.00000000E+00  0.00000000E+00  0.00000000E+00
  0.00000000E+00  0.00000000E+00  0.00000000E+00
  0.00000000E+00  0.00000000E+00  0.00000000E+00
  0.00000000E+00  0.00000000E+00  0.00000000E+00
  0.00000000E+00  0.00000000E+00  0.00000000E+00
  0.00000000E+00  0.00000000E+00  0.00000000E+00
  0.00000000E+00  0.00000000E+00  0.00000000E+00
  0.00000000E+00  0.00000000E+00  0.00000000E+00
  0.00000000E+00  0.00000000E+00  0.00000000E+00
  0.00000000E+00  0.00000000E+00  0.00000000E+00
  0.00000000E+00  0.00000000E+00  0.00000000E+00
  0.00000000E+00  0.00000000E+00  0.00000000E+00
  0.00000000E+00  0.00000000E+00  0.00000000E+00
  0.00000000E+00  0.00000000E+00  0.00000000E+00
  0.00000000E+00  0.00000000E+00  0.00000000E+00
  0.00000000E+00  0.00000000E+00  0.00000000E+00
  0.00000000E+00  0.00000000E+00  0.00000000E+00
  0.00000000E+00  0.00000000E+00  0.00000000E+00
  0.00000000E+00  0.00000000E+00  0.00000000E+00
  0.00000000E+00  0.00000000E+00  0.00000000E+00
  0.00000000E+00  0.00000000E+00  0.00000000E+00
  0.00000000E+00  0.00000000E+00  0.00000000E+00
  0.00000000E+00  0.00000000E+00  0.00000000E+00
  0.00000000E+00  0.00000000E+00  0.00000000E+00
  0.00000000E+00  0.00000000E+00  0.00000000E+00
  0.00000000E+00  0.00000000E+00  0.00000000E+00
  0.00000000E+00  0.00000000E+00  0.00000000E+00
  0.00000000E+00  0.00000000E+00  0.00000000E+00
  0.00000000E+00  0.00000000E+00  0.00000000E+00
  0.00000000E+00  0.00000000E+00  0.00000000E+00
  0.00000000E+00  0.00000000E+00  0.00000000E+00
  0.00000000E+00  0.00000000E+00  0.00000000E+00
  0.00000000E+00  0.00000000E+00  0.00000000E+00
  0.00000000E+00  0.00000000E+00  0.00000000E+00
  0.00000000E+00  0.00000000E+00  0.00000000E+00
  0.00000000E+00  0.00000000E+00  0.00000000E+00
  0.00000000E+00  0.00000000E+00  0.00000000E+00
  0.00000000E+00  0.00000000E+00  0.00000000E+00
  0.00000000E+00  0.00000000E+00  0.00000000E+00
  0.00000000E+00  0.00000000E+00  0.00000000E+00
  0.00000000E+00  0.00000000E+00  0.00000000E+00
  0.00000000E+00  0.00000000E+00  0.00000000E+00
  0.00000000E+00  0.00000000E+00  0.00000000E+00
  0.00000000E+00  0.00000000E+00  0.00000000E+00
  0.00000000E+00  0.00000000E+00  0.00000000E+00
  0.00000000E+00  0.00000000E+00  0.00000000E+00
  0.00000000E+00  0.00000000E+00  0.00000000E+00
  0.00000000E+00  0.00000000E+00  0.00000000E+00
  0.00000000E+00  0.00000000E+00  0.00000000E+00
  0.00000000E+00  0.00000000E+00  0.00000000E+00
  0.00000000E+00  0.00000000E+00  0.00000000E+00
  0.00000000E+00  0.00000000E+00  0.00000000E+00
  0.00000000E+00  0.00000000E+00  0.00000000E+00
  0.00000000E+00  0.00000000E+00  0.00000000E+00
