O  C  H  Co Li                          
   1.00000000000000     
    25.4224233949730305    1.6896049752718976   -0.3110137480967051
    14.1825455098729858   21.8661853424197652   -0.3335857466037334
    -0.0838079154427947   -0.0554856883783054    6.7521469201955364
   O    C    H    Co   Li
    50    65    16    18     1
Direct
  0.0312933393879608  0.2709490033254205  0.3044384917458195
  0.0044979993638403  0.3132179661992515  0.9131009022348157
  0.0892228605114430  0.2666940306117042  0.7111550802566416
  0.6540426639011458  0.0864232398180757  0.3353645688282323
  0.6310298122214820  0.0608875402760653  0.9761953880258557
  0.5906249187148360  0.1327580885234792  0.7353027373132817
  0.0129842035863465  0.4060254638880332  0.6471281053225678
  0.3219748985598874  0.6289049521182730  0.3282104296589518
  0.3675561051712513  0.6001791484218538  0.9610277036082736
  0.3396203391589120  0.5485355348124933  0.7707428792169218
  0.5676996557952054  0.0305604345134834  0.6532918198668658
  0.2978813889797451  0.0223751251956694  0.3743586822178976
  0.2196611263455535  0.0684905626877900  0.6000243737139483
  0.2696289886359221  0.0668648679371497  0.0035534465503089
  0.6490684873698865  0.3167681182435329  0.3252672837101175
  0.6554871681045116  0.2656040725898321  0.5978246033608831
  0.0296959512280336  0.6243962474819651  0.7191308160050401
  0.0556047879520216  0.5531247413831717  0.9494437702548619
  0.5669904557141900  0.3204393699638258  0.0310423078889161
  0.0775362601929309  0.6461434126081265  0.3913161654027443
  0.1213849122719640  0.6714244111332976  0.6266379880917221
  0.3805873808407043  0.9656107887525193  0.7116326749929909
  0.4104097933006983  0.0060664111783139  0.9414220863211989
  0.1271474407984691  0.6145554400859671  0.0224444079613134
  0.6942048901685398  0.9844921233981870  0.6379590972276242
  0.7679816217596077  0.9432074517894681  0.3970100559581183
  0.7253593181236330  0.9350995686064935  0.9911593017531315
  0.3965204567371841  0.6615499881408859  0.5031390887021417
  0.3197902091402050  0.7477877143669206  0.3389836055584601
  0.9933737631912705  0.3854232458972278  0.2655870119900258
  0.9583125319397838  0.4624678060537920  0.0486879984307323
  0.3733883612253653  0.6931949983939892  0.9272476405266383
  0.9318565743756438  0.3806366787161152  0.5853992311970047
  0.8887678361275865  0.3513542926457108  0.3590776964443795
  0.6176943102936705  0.0087203962549971  0.2989997365833618
  0.5894599500105430  0.9707739048106879  0.0525194690011628
  0.8740858339574232  0.4146910529312374  0.9599043690226492
  0.9712744493810100  0.7488181477293944  0.6894932085737556
  0.0008789843626171  0.7013192105634725  0.0597020831375714
  0.9224632908587898  0.7476194849514335  0.2849686020300592
  0.3128618672356340  0.9223415788327909  0.6581995531128267
  0.3304561174088916  0.9451412455421466  0.0360696509623107
  0.3739142346122343  0.8681091635665253  0.2581158303214560
  0.0053370155845039  0.6062797018678322  0.3487628691343125
  0.7591983088385112  0.2998112066469580  0.6851159252473068
  0.6682231740595911  0.3765867122685204  0.9879925228552059
  0.7268283098099999  0.3716120367367301  0.2561463639015245
  0.4256972435630281  0.9488571079150175  0.3369173598188293
  0.7022000610372898  0.5428565442197437  0.7334665145342401
  0.7388356693100890  0.4739063670654032  0.4572034282173624
  0.0883804654843227  0.2220073312313536  0.2258765221365495
  0.1336977542667742  0.1707335867261613  0.3490306095873089
  0.0653349255456628  0.2686155749508421  0.8768232044876531
  0.1068465318077304  0.2188478028001573  0.0245441508496079
  0.6342789676065761  0.1423276219030534  0.2548989653532019
  0.6415191571022251  0.1833899760754111  0.3680072376167257
  0.6091711509812101  0.1166371536937976  0.9135731839638679
  0.6086406122664237  0.1608153030853763  0.0575149098579188
  0.0115321758054535  0.4537492712947525  0.5702508311444915
  0.0247291182708437  0.4885861085939939  0.6952346210237873
  0.2742321226842523  0.6240621494919663  0.2564265433503676
  0.2210501180211122  0.6431068270907192  0.3742174748478944
  0.3323132779011446  0.5794630057671951  0.9315156070091516
  0.2796119321306492  0.5975392340523722  0.0656903688914745
  0.5348093832179249  0.0096915273655307  0.5714901557252888
  0.4931141876289228  0.0066792425928951  0.6923099429086265
  0.2389491348265922  0.0673303612795907  0.4275122409637350
  0.1949570368490507  0.1183434627538558  0.2836787082273923
  0.2128375483473281  0.1155810291104492  0.0824724992864640
  0.1681314972333156  0.1665293774860133  0.9597307584476147
  0.6424263386207164  0.2765022778494919  0.4132288006155254
  0.6235765611094628  0.2418986548327513  0.2949673974901696
  0.0372428659055414  0.5734726085531607  0.7742612624012801
  0.0226925301247291  0.5399853085512890  0.6286420348888536
  0.5914473486878880  0.2633564501536853  0.1056012514738339
  0.5855634255372953  0.2212477499323562  0.9915976953415241
  0.1210699968615286  0.6534012617350561  0.4499670673435556
  0.1721482714048454  0.6375440872625016  0.3074526736885138
  0.4140215944475248  0.9860360933336693  0.7654054964583902
  0.4569062884627451  0.9856195179379579  0.6219691620544020
  0.1745244632442514  0.6154934833099366  0.1086732384433104
  0.2296563490777193  0.5941524614850885  0.9952480092438226
  0.7524615569840937  0.9422931209336277  0.5729398375713426
  0.8008416143596866  0.8920444390664826  0.7126142295358168
  0.7846875913354886  0.8916613783207041  0.9131999500495811
  0.8331422489862538  0.8431936559931608  0.0356873900424549
  0.3527339843204429  0.7238044530123972  0.4977627938884778
  0.3464700669804752  0.7657901569086677  0.6609953440670998
  0.9814092484355380  0.4392054823867980  0.2192330598439596
  0.9962295974613267  0.4719681562084231  0.3664333763199254
  0.3620473930721114  0.7477428511764366  0.8637712293710181
  0.3629717860366969  0.7896357382448728  0.9950604566132016
  0.8975181808404825  0.3614153417209430  0.5422681369893220
  0.8616193878724275  0.3556517182541917  0.6961657712845969
  0.5844330544533207  0.9895769046140034  0.2307235223715380
  0.5400497589873136  0.9900516869465956  0.3691343316250847
  0.8457384982616446  0.3893951751469902  0.8818456597783472
  0.7946297088345267  0.3965978518064946  0.9878120176628782
  0.9123817065408956  0.7946996847232882  0.7670387477995847
  0.8638747223010740  0.8442520003223029  0.6449333357734196
  0.9416507512265717  0.7459119960925695  0.1117183029809454
  0.8959953265120457  0.7953764610455309  0.9681698634927782
  0.3282087338356218  0.8677405074882460  0.7338864834030036
  0.3278070264136658  0.8255021495143855  0.6030944750349331
  0.3511495475240000  0.8885100490636648  0.0851324070011496
  0.3468371188212125  0.8486268738205265  0.9354337615374586
  0.0074940852982658  0.5579552630932002  0.4253981270759954
  0.9942605333292144  0.5233790596944059  0.3001554488678895
  0.7843276004126520  0.3300373369078175  0.7544069294020618
  0.8334969625977091  0.3241755640527573  0.6455302262039830
  0.7169317653232482  0.3726091073817436  0.0666986412879092
  0.7645320144742699  0.3676154389740968  0.9329623314313615
  0.4609859457930749  0.9671268285548758  0.4187349415185043
  0.5037221323189018  0.9691783778595160  0.2982266223537447
  0.7207752889272846  0.5081971185680833  0.5965493592591052
  0.1205426040444678  0.1724068714596544  0.5026725280825227
  0.6640258634541317  0.1680928929171170  0.5148781831240564
  0.0364476953852862  0.4751096742811308  0.8504266073393130
  0.2169655471833856  0.6627819486431069  0.5228114922832102
  0.4890767600060572  0.0209984172153102  0.8474535603713147
  0.1817432610161794  0.1646041365512231  0.8066038303888008
  0.5647868192023682  0.2356197312442062  0.8424970653254988
  0.2322355453776178  0.5761892232374853  0.8454018431305744
  0.8210854636787288  0.8428927625059419  0.1890791422589323
  0.3759078801125972  0.7766623894157535  0.1500029279157472
  0.7753560701289766  0.4313047950209491  0.1107556569018680
  0.8756795669914853  0.8448483957501403  0.4913875408526570
  0.3148541156075020  0.8391853252205885  0.4485730077666771
  0.9825519085121625  0.5368941085000748  0.1450219898605376
  0.8513358065168747  0.2924435851566493  0.5146089613808452
  0.5080978428369655  0.9547118767942111  0.1430898032316018
  0.3532494051938233  0.5809290236320775  0.5562797187210645
  0.0327205887753164  0.3280341732698585  0.5026421392372786
  0.6136534087389516  0.0645987844685585  0.5295021879493541
  0.0585480479480941  0.6773036996686062  0.8218802156024101
  0.3556875923590904  0.0016463345349499  0.1375634935790826
  0.2872805438432272  0.0031309862757647  0.7963459333747150
  0.6153044520813449  0.3497549990148003  0.0357324652653692
  0.6785901455162513  0.3102287869414327  0.7611154144145443
  0.0596062774835379  0.6090622329986056  0.1510454499516203
  0.6367864418885155  0.9872247879111739  0.8570000658765472
  0.9504281961848849  0.3459786415628338  0.1491873858864038
  0.3898389765776840  0.6236336058558929  0.7266408595919013
  0.6950086455475225  0.0009279914917128  0.1994084694019664
  0.9507575894451900  0.4100012940229125  0.8452374639332209
  0.3521931725013722  0.6699048240971347  0.1697444097455697
  0.6924304518461097  0.3465148646614856  0.4743401245506101
  0.9864482067542441  0.6851609217131238  0.4867201279974000
  0.3658638593323384  0.9308828363710415  0.4627114862764383
  0.7996440601355117  0.3752808787887362  0.3380562004082814
 
  0.00000000E+00  0.00000000E+00  0.00000000E+00
  0.00000000E+00  0.00000000E+00  0.00000000E+00
  0.00000000E+00  0.00000000E+00  0.00000000E+00
  0.00000000E+00  0.00000000E+00  0.00000000E+00
  0.00000000E+00  0.00000000E+00  0.00000000E+00
  0.00000000E+00  0.00000000E+00  0.00000000E+00
  0.00000000E+00  0.00000000E+00  0.00000000E+00
  0.00000000E+00  0.00000000E+00  0.00000000E+00
  0.00000000E+00  0.00000000E+00  0.00000000E+00
  0.00000000E+00  0.00000000E+00  0.00000000E+00
  0.00000000E+00  0.00000000E+00  0.00000000E+00
  0.00000000E+00  0.00000000E+00  0.00000000E+00
  0.00000000E+00  0.00000000E+00  0.00000000E+00
  0.00000000E+00  0.00000000E+00  0.00000000E+00
  0.00000000E+00  0.00000000E+00  0.00000000E+00
  0.00000000E+00  0.00000000E+00  0.00000000E+00
  0.00000000E+00  0.00000000E+00  0.00000000E+00
  0.00000000E+00  0.00000000E+00  0.00000000E+00
  0.00000000E+00  0.00000000E+00  0.00000000E+00
  0.00000000E+00  0.00000000E+00  0.00000000E+00
  0.00000000E+00  0.00000000E+00  0.00000000E+00
  0.00000000E+00  0.00000000E+00  0.00000000E+00
  0.00000000E+00  0.00000000E+00  0.00000000E+00
  0.00000000E+00  0.00000000E+00  0.00000000E+00
  0.00000000E+00  0.00000000E+00  0.00000000E+00
  0.00000000E+00  0.00000000E+00  0.00000000E+00
  0.00000000E+00  0.00000000E+00  0.00000000E+00
  0.00000000E+00  0.00000000E+00  0.00000000E+00
  0.00000000E+00  0.00000000E+00  0.00000000E+00
  0.00000000E+00  0.00000000E+00  0.00000000E+00
  0.00000000E+00  0.00000000E+00  0.00000000E+00
  0.00000000E+00  0.00000000E+00  0.00000000E+00
  0.00000000E+00  0.00000000E+00  0.00000000E+00
  0.00000000E+00  0.00000000E+00  0.00000000E+00
  0.00000000E+00  0.00000000E+00  0.00000000E+00
  0.00000000E+00  0.00000000E+00  0.00000000E+00
  0.00000000E+00  0.00000000E+00  0.00000000E+00
  0.00000000E+00  0.00000000E+00  0.00000000E+00
  0.00000000E+00  0.00000000E+00  0.00000000E+00
  0.00000000E+00  0.00000000E+00  0.00000000E+00
  0.00000000E+00  0.00000000E+00  0.00000000E+00
  0.00000000E+00  0.00000000E+00  0.00000000E+00
  0.00000000E+00  0.00000000E+00  0.00000000E+00
  0.00000000E+00  0.00000000E+00  0.00000000E+00
  0.00000000E+00  0.00000000E+00  0.00000000E+00
  0.00000000E+00  0.00000000E+00  0.00000000E+00
  0.00000000E+00  0.00000000E+00  0.00000000E+00
  0.00000000E+00  0.00000000E+00  0.00000000E+00
  0.00000000E+00  0.00000000E+00  0.00000000E+00
  0.00000000E+00  0.00000000E+00  0.00000000E+00
  0.00000000E+00  0.00000000E+00  0.00000000E+00
  0.00000000E+00  0.00000000E+00  0.00000000E+00
  0.00000000E+00  0.00000000E+00  0.00000000E+00
  0.00000000E+00  0.00000000E+00  0.00000000E+00
  0.00000000E+00  0.00000000E+00  0.00000000E+00
  0.00000000E+00  0.00000000E+00  0.00000000E+00
  0.00000000E+00  0.00000000E+00  0.00000000E+00
  0.00000000E+00  0.00000000E+00  0.00000000E+00
  0.00000000E+00  0.00000000E+00  0.00000000E+00
  0.00000000E+00  0.00000000E+00  0.00000000E+00
  0.00000000E+00  0.00000000E+00  0.00000000E+00
  0.00000000E+00  0.00000000E+00  0.00000000E+00
  0.00000000E+00  0.00000000E+00  0.00000000E+00
  0.00000000E+00  0.00000000E+00  0.00000000E+00
  0.00000000E+00  0.00000000E+00  0.00000000E+00
  0.00000000E+00  0.00000000E+00  0.00000000E+00
  0.00000000E+00  0.00000000E+00  0.00000000E+00
  0.00000000E+00  0.00000000E+00  0.00000000E+00
  0.00000000E+00  0.00000000E+00  0.00000000E+00
  0.00000000E+00  0.00000000E+00  0.00000000E+00
  0.00000000E+00  0.00000000E+00  0.00000000E+00
  0.00000000E+00  0.00000000E+00  0.00000000E+00
  0.00000000E+00  0.00000000E+00  0.00000000E+00
  0.00000000E+00  0.00000000E+00  0.00000000E+00
  0.00000000E+00  0.00000000E+00  0.00000000E+00
  0.00000000E+00  0.00000000E+00  0.00000000E+00
  0.00000000E+00  0.00000000E+00  0.00000000E+00
  0.00000000E+00  0.00000000E+00  0.00000000E+00
  0.00000000E+00  0.00000000E+00  0.00000000E+00
  0.00000000E+00  0.00000000E+00  0.00000000E+00
  0.00000000E+00  0.00000000E+00  0.00000000E+00
  0.00000000E+00  0.00000000E+00  0.00000000E+00
  0.00000000E+00  0.00000000E+00  0.00000000E+00
  0.00000000E+00  0.00000000E+00  0.00000000E+00
  0.00000000E+00  0.00000000E+00  0.00000000E+00
  0.00000000E+00  0.00000000E+00  0.00000000E+00
  0.00000000E+00  0.00000000E+00  0.00000000E+00
  0.00000000E+00  0.00000000E+00  0.00000000E+00
  0.00000000E+00  0.00000000E+00  0.00000000E+00
  0.00000000E+00  0.00000000E+00  0.00000000E+00
  0.00000000E+00  0.00000000E+00  0.00000000E+00
  0.00000000E+00  0.00000000E+00  0.00000000E+00
  0.00000000E+00  0.00000000E+00  0.00000000E+00
  0.00000000E+00  0.00000000E+00  0.00000000E+00
  0.00000000E+00  0.00000000E+00  0.00000000E+00
  0.00000000E+00  0.00000000E+00  0.00000000E+00
  0.00000000E+00  0.00000000E+00  0.00000000E+00
  0.00000000E+00  0.00000000E+00  0.00000000E+00
  0.00000000E+00  0.00000000E+00  0.00000000E+00
  0.00000000E+00  0.00000000E+00  0.00000000E+00
  0.00000000E+00  0.00000000E+00  0.00000000E+00
  0.00000000E+00  0.00000000E+00  0.00000000E+00
  0.00000000E+00  0.00000000E+00  0.00000000E+00
  0.00000000E+00  0.00000000E+00  0.00000000E+00
  0.00000000E+00  0.00000000E+00  0.00000000E+00
  0.00000000E+00  0.00000000E+00  0.00000000E+00
  0.00000000E+00  0.00000000E+00  0.00000000E+00
  0.00000000E+00  0.00000000E+00  0.00000000E+00
  0.00000000E+00  0.00000000E+00  0.00000000E+00
  0.00000000E+00  0.00000000E+00  0.00000000E+00
  0.00000000E+00  0.00000000E+00  0.00000000E+00
  0.00000000E+00  0.00000000E+00  0.00000000E+00
  0.00000000E+00  0.00000000E+00  0.00000000E+00
  0.00000000E+00  0.00000000E+00  0.00000000E+00
  0.00000000E+00  0.00000000E+00  0.00000000E+00
  0.00000000E+00  0.00000000E+00  0.00000000E+00
  0.00000000E+00  0.00000000E+00  0.00000000E+00
  0.00000000E+00  0.00000000E+00  0.00000000E+00
  0.00000000E+00  0.00000000E+00  0.00000000E+00
  0.00000000E+00  0.00000000E+00  0.00000000E+00
  0.00000000E+00  0.00000000E+00  0.00000000E+00
  0.00000000E+00  0.00000000E+00  0.00000000E+00
  0.00000000E+00  0.00000000E+00  0.00000000E+00
  0.00000000E+00  0.00000000E+00  0.00000000E+00
  0.00000000E+00  0.00000000E+00  0.00000000E+00
  0.00000000E+00  0.00000000E+00  0.00000000E+00
  0.00000000E+00  0.00000000E+00  0.00000000E+00
  0.00000000E+00  0.00000000E+00  0.00000000E+00
  0.00000000E+00  0.00000000E+00  0.00000000E+00
  0.00000000E+00  0.00000000E+00  0.00000000E+00
  0.00000000E+00  0.00000000E+00  0.00000000E+00
  0.00000000E+00  0.00000000E+00  0.00000000E+00
  0.00000000E+00  0.00000000E+00  0.00000000E+00
  0.00000000E+00  0.00000000E+00  0.00000000E+00
  0.00000000E+00  0.00000000E+00  0.00000000E+00
  0.00000000E+00  0.00000000E+00  0.00000000E+00
  0.00000000E+00  0.00000000E+00  0.00000000E+00
  0.00000000E+00  0.00000000E+00  0.00000000E+00
  0.00000000E+00  0.00000000E+00  0.00000000E+00
  0.00000000E+00  0.00000000E+00  0.00000000E+00
  0.00000000E+00  0.00000000E+00  0.00000000E+00
  0.00000000E+00  0.00000000E+00  0.00000000E+00
  0.00000000E+00  0.00000000E+00  0.00000000E+00
  0.00000000E+00  0.00000000E+00  0.00000000E+00
  0.00000000E+00  0.00000000E+00  0.00000000E+00
  0.00000000E+00  0.00000000E+00  0.00000000E+00
  0.00000000E+00  0.00000000E+00  0.00000000E+00
  0.00000000E+00  0.00000000E+00  0.00000000E+00
  0.00000000E+00  0.00000000E+00  0.00000000E+00
  0.00000000E+00  0.00000000E+00  0.00000000E+00
