O  C  H  Co Li                          
   1.00000000000000     
    25.8442998977342100    1.0926257998853099   -0.2890338550550885
    13.8735099061759239   22.3343909946897128   -0.3073419710644050
    -0.0782968640982834   -0.0507944973070720    6.7564336392679083
   O    C    H    Co   Li
    50    65    16    18     1
Direct
  0.0450647891012956  0.2668300809095704  0.2988753434116818
  0.0207750325535653  0.3086680869336861  0.9175748330206551
  0.0995783233866841  0.2659099721299213  0.7062919244110725
  0.6652446460267791  0.0729778722618086  0.3415838608064887
  0.6421873593905233  0.0479222025431672  0.9807308505791699
  0.6049826728684294  0.1176574840941732  0.7418436374832038
  0.0208711829512982  0.4019885614937797  0.6436082135051552
  0.2911408332470202  0.6576971171785239  0.3277765419772864
  0.3369617153393357  0.6288116988715515  0.9619880733330212
  0.3095979804965661  0.5772137820682839  0.7698467454117899
  0.5756361712076591  0.0211946171778491  0.6589401776312968
  0.2956218420912475  0.0294629071444730  0.3645031937331575
  0.2213999437040383  0.0748898362659080  0.5928197750442654
  0.2726145040373245  0.0754924039468040  0.0011679871685706
  0.6710132633066574  0.2956621327896873  0.3275095615277460
  0.6764033702284353  0.2456974507018095  0.6004155185630233
  0.0213122799106557  0.6284487593333364  0.7157156760980278
  0.0493360438953314  0.5579861156858904  0.9469992986915514
  0.5918026774633557  0.2976191916575169  0.0337146592221017
  0.0587088956434476  0.6597045692565360  0.3850884952874175
  0.1006496921657888  0.6866015864536833  0.6222642011303219
  0.3689529810845060  0.9845333914982282  0.6986834676717875
  0.4077923637055385  0.0136025768255374  0.9389400326408920
  0.1078989883133788  0.6293787753500601  0.0224922469526054
  0.6975886379420344  0.9744209937201529  0.6426987778186507
  0.7683428526797714  0.9349470694754617  0.4028072258762018
  0.7259841677071872  0.9265147946615885  0.9975366776498871
  0.3665612979353144  0.6892357772047509  0.5026843524398730
  0.2956631387785243  0.7724095013091862  0.3398612693129766
 -0.0006138454902037  0.3817782853630909  0.2681989714764891
  0.9673381781288161  0.4547086245982291  0.0449873945293450
  0.3448391429657849  0.7201604517995722  0.9277016319209272
  0.9502835779313961  0.3626505062832768  0.5889496233224432
  0.9075648627393575  0.3342510210335456  0.3580648978689133
  0.6234334653310324  0.9998279640550283  0.3045871053751754
  0.5904571922266346  0.9667326159488988  0.0573267375050660
  0.8927192959270623  0.3971658922601404  0.9571633554228524
  0.9593935437883666  0.7512956353806669  0.6933634267821034
  0.9853961455636241  0.7009205241578171  0.0504558606459097
  0.9131338251397213  0.7453501210039127  0.2861927986308485
  0.3045766081347798  0.9373453775313482  0.6567293640444970
  0.3277980884398329  0.9569436506191908  0.0268870785196767
  0.3615434127807151  0.8842321694165791  0.2533026522821336
  0.9948432193001090  0.6104234794128365  0.3509286043370155
  0.7780151337700537  0.2824738693431461  0.6829972653260113
  0.6931775205682131  0.3530143116770780  0.9888775890929876
  0.7497453008589080  0.3504770238047196  0.2557266664732117
  0.4195072546724409  0.9584344704035112  0.3368462725379556
  0.7185009766048838  0.5168073649605823  0.7316173961354965
  0.7635917453587470  0.4501591109054466  0.4583092161333324
  0.0997103662638872  0.2212111144727249  0.2213488082650551
  0.1426233259840788  0.1728137736618232  0.3448849566163601
  0.0778753392774634  0.2665862356575595  0.8742762346697296
  0.1174387431401509  0.2186403327973732  0.0200899492883735
  0.6488562053818855  0.1266531935412557  0.2606687489156426
  0.6580403405542847  0.1663495555337559  0.3728217909000480
  0.6229386732517280  0.1018186917141688  0.9194877773446292
  0.6246775372019593  0.1442259819660388  0.0631893040076095
  0.0153696561450835  0.4515400271951144  0.5679351016029752
  0.0250181076518609  0.4887511087943751  0.6933062807232377
  0.2465476995258347  0.6490976737971018  0.2553948557943754
  0.1953781529717877  0.6652491543807371  0.3716002181876670
  0.3030566885349241  0.6068591068774659  0.9318304765732969
  0.2528565905835801  0.6217766792487536  0.0663015210729536
  0.5390217694336169  0.0051095547790839  0.5761975348554672
  0.4953317250365508  0.0057484792956002  0.6956580811463066
  0.2410076351756374  0.0736121618396322  0.4204143621920433
  0.2006540765281549  0.1233639256006929  0.2794110265493927
  0.2181272025462844  0.1211590028576831  0.0786332127254956
  0.1756897822596243  0.1694457086080384  0.9552886671635575
  0.6634341011681066  0.2562583641440814  0.4161594750711820
  0.6433814261703442  0.2225925519744569  0.2989884020780867
  0.0304751641949882  0.5776319126858679  0.7719328627920238
  0.0185745742066889  0.5420598006266997  0.6281887812042422
  0.6129335424187669  0.2428977888081129  0.1095423343659762
  0.6051219819041094  0.2022089020176161  0.9964483524813642
  0.1002584026630464  0.6688368512073732  0.4454237110637431
  0.1495148002195096  0.6559774904909172  0.3050590977179219
  0.4083578393094260 -0.0036772130690242  0.7608343163412967
  0.4547671458805551  0.9905257304698770  0.6226872575910523
  0.1528019278042057  0.6333035829412093  0.1076641294257067
  0.2058815860846892  0.6147305930303467 -0.0037361739043969
  0.7528341253758664  0.9340967109828364  0.5786234591323353
  0.7978879067590491  0.8860823308549409  0.7185426325098162
  0.7821991269503791  0.8850810897474871  0.9191348796275938
  0.8278396278248379  0.8381611776203067  0.0404381740832323
  0.3271223669716024  0.7490946970937216  0.4977902694649737
  0.3242038980430212  0.7890276587478786  0.6605424217626692
  0.9878670647433291  0.4341446804663193  0.2178904078126419
 -0.0005748010409287  0.4692274042083686  0.3649866825162323
  0.3381342096604506  0.7718357582780451  0.8635689185930984
  0.3430371776828994  0.8111961780623412  0.9936547815297604
  0.9158777216022455  0.3440870784609695  0.5416461832258274
  0.8798263583293946  0.3383914744748276  0.6944689760503553
  0.5873396797295221  0.9843634202244960  0.2356210050902590
  0.5418104574154652  0.9876935984494238  0.3728878088745863
  0.8649657095695377  0.3712659205503827  0.8793980755552414
  0.8156455881610863  0.3769882338702080  0.9857491252244347
  0.9032374639178864  0.7936645864925446  0.7715988847444428
  0.8576532310290181  0.8410265535632157  0.6504202188209283
  0.9308347203331775  0.7440412363684351  0.1107693080932241
  0.8873897004916458  0.7928727297202791  0.9718711448982135
  0.3153370628568214  0.8853100391568791  0.7312490847031990
  0.3110115021004115  0.8455907623603359  0.6014180585710789
  0.3412597004779940  0.9041048257681241  0.0793075656346258
  0.3325462718531714  0.8668455258657087  0.9324676709324587
  0.0021208513282524  0.5598008942262384  0.4261129734141941
  0.9930152032702184  0.5225228630388052  0.3002109304101756
  0.8035900697900714  0.3120697558844163  0.7529268897128284
  0.8514504448559863  0.3072423548276330  0.6442481038559901
  0.7400151502105434  0.3511596221926293  0.0664980785847376
  0.7855152720346302  0.3480398991891193  0.9315589371009387
  0.4573281244510106  0.9732497618277511  0.4194311431078991
  0.5016064886496882  0.9719542420605354  0.2999401837840738
  0.7411755391525910  0.4833973349931615  0.5965387047100058
  0.1298734782713644  0.1739825947866136  0.4983958519143546
  0.6793708496092830  0.1518668850467043  0.5197016742519526
  0.0375677261754902  0.4755430608586225  0.8477501510523647
  0.1902965634063245  0.6858299079736704  0.5183865865503605
  0.4929000182787285  0.0188841447904259  0.8510554658113051
  0.1886911415718492  0.1680697769769215  0.8018987197551228
  0.5857513897546260  0.2156714547615223  0.8469260389364940
  0.2095256933609369  0.5958968352128777  0.8476471664185938
  0.8161600936840686  0.8371304083142352  0.1936289361427112
  0.3553153628447216  0.7986831543398598  0.1484816017291993
  0.7980272486929618  0.4103346863389096  0.1087166132058279
  0.8691977153778654  0.8423449136515456  0.4972504288883406
  0.2993647554380042  0.8586444614190519  0.4467114001833122
  0.9808397549990540  0.5354499791358324  0.1453901721130702
  0.8676621996363250  0.2766265775154470  0.5137818117495120
  0.5042159877035760  0.9587364719559902  0.1443466466479776
  0.3214690492756941  0.6111671433448452  0.5554791941224532
  0.0429399462407614  0.3240424459581849  0.4999391045195455
  0.6236470151874685  0.0527153066602253  0.5355081088031682
  0.0443288332987627  0.6865228057292599  0.8203669564349978
  0.3553303580533860  0.0112401507945292  0.1395664471554579
  0.2805055696536931  0.0171939301857736  0.7967977995544498
  0.6401870443386696  0.3266169363085773  0.0372082454559218
  0.7005460838642658  0.2897327567078793  0.7619525454725663
  0.0471082467216107  0.6136506156026323  0.1530350771811001
  0.6412133409099527  0.9784191562875063  0.8634239227716508
  0.9655245081522192  0.3348526652711269  0.1455763703895321
  0.3590689984644083  0.6524942927109381  0.7277086172063484
  0.7001532180331188  0.9904800320458765  0.2048183739085523
  0.9643720487933324  0.3995292241239220  0.8429463281818492
  0.3227529704511726  0.6976751467814576  0.1695380149970157
  0.7139875543225029  0.3259722658187052  0.4734076249509874
  0.9726348385412708  0.6900818692000785  0.4921562709245078
  0.3582672194680957  0.9414104459971369  0.4585132359183612
  0.8216019652294557  0.3551578339521176  0.3342012483153672
 
  0.00000000E+00  0.00000000E+00  0.00000000E+00
  0.00000000E+00  0.00000000E+00  0.00000000E+00
  0.00000000E+00  0.00000000E+00  0.00000000E+00
  0.00000000E+00  0.00000000E+00  0.00000000E+00
  0.00000000E+00  0.00000000E+00  0.00000000E+00
  0.00000000E+00  0.00000000E+00  0.00000000E+00
  0.00000000E+00  0.00000000E+00  0.00000000E+00
  0.00000000E+00  0.00000000E+00  0.00000000E+00
  0.00000000E+00  0.00000000E+00  0.00000000E+00
  0.00000000E+00  0.00000000E+00  0.00000000E+00
  0.00000000E+00  0.00000000E+00  0.00000000E+00
  0.00000000E+00  0.00000000E+00  0.00000000E+00
  0.00000000E+00  0.00000000E+00  0.00000000E+00
  0.00000000E+00  0.00000000E+00  0.00000000E+00
  0.00000000E+00  0.00000000E+00  0.00000000E+00
  0.00000000E+00  0.00000000E+00  0.00000000E+00
  0.00000000E+00  0.00000000E+00  0.00000000E+00
  0.00000000E+00  0.00000000E+00  0.00000000E+00
  0.00000000E+00  0.00000000E+00  0.00000000E+00
  0.00000000E+00  0.00000000E+00  0.00000000E+00
  0.00000000E+00  0.00000000E+00  0.00000000E+00
  0.00000000E+00  0.00000000E+00  0.00000000E+00
  0.00000000E+00  0.00000000E+00  0.00000000E+00
  0.00000000E+00  0.00000000E+00  0.00000000E+00
  0.00000000E+00  0.00000000E+00  0.00000000E+00
  0.00000000E+00  0.00000000E+00  0.00000000E+00
  0.00000000E+00  0.00000000E+00  0.00000000E+00
  0.00000000E+00  0.00000000E+00  0.00000000E+00
  0.00000000E+00  0.00000000E+00  0.00000000E+00
  0.00000000E+00  0.00000000E+00  0.00000000E+00
  0.00000000E+00  0.00000000E+00  0.00000000E+00
  0.00000000E+00  0.00000000E+00  0.00000000E+00
  0.00000000E+00  0.00000000E+00  0.00000000E+00
  0.00000000E+00  0.00000000E+00  0.00000000E+00
  0.00000000E+00  0.00000000E+00  0.00000000E+00
  0.00000000E+00  0.00000000E+00  0.00000000E+00
  0.00000000E+00  0.00000000E+00  0.00000000E+00
  0.00000000E+00  0.00000000E+00  0.00000000E+00
  0.00000000E+00  0.00000000E+00  0.00000000E+00
  0.00000000E+00  0.00000000E+00  0.00000000E+00
  0.00000000E+00  0.00000000E+00  0.00000000E+00
  0.00000000E+00  0.00000000E+00  0.00000000E+00
  0.00000000E+00  0.00000000E+00  0.00000000E+00
  0.00000000E+00  0.00000000E+00  0.00000000E+00
  0.00000000E+00  0.00000000E+00  0.00000000E+00
  0.00000000E+00  0.00000000E+00  0.00000000E+00
  0.00000000E+00  0.00000000E+00  0.00000000E+00
  0.00000000E+00  0.00000000E+00  0.00000000E+00
  0.00000000E+00  0.00000000E+00  0.00000000E+00
  0.00000000E+00  0.00000000E+00  0.00000000E+00
  0.00000000E+00  0.00000000E+00  0.00000000E+00
  0.00000000E+00  0.00000000E+00  0.00000000E+00
  0.00000000E+00  0.00000000E+00  0.00000000E+00
  0.00000000E+00  0.00000000E+00  0.00000000E+00
  0.00000000E+00  0.00000000E+00  0.00000000E+00
  0.00000000E+00  0.00000000E+00  0.00000000E+00
  0.00000000E+00  0.00000000E+00  0.00000000E+00
  0.00000000E+00  0.00000000E+00  0.00000000E+00
  0.00000000E+00  0.00000000E+00  0.00000000E+00
  0.00000000E+00  0.00000000E+00  0.00000000E+00
  0.00000000E+00  0.00000000E+00  0.00000000E+00
  0.00000000E+00  0.00000000E+00  0.00000000E+00
  0.00000000E+00  0.00000000E+00  0.00000000E+00
  0.00000000E+00  0.00000000E+00  0.00000000E+00
  0.00000000E+00  0.00000000E+00  0.00000000E+00
  0.00000000E+00  0.00000000E+00  0.00000000E+00
  0.00000000E+00  0.00000000E+00  0.00000000E+00
  0.00000000E+00  0.00000000E+00  0.00000000E+00
  0.00000000E+00  0.00000000E+00  0.00000000E+00
  0.00000000E+00  0.00000000E+00  0.00000000E+00
  0.00000000E+00  0.00000000E+00  0.00000000E+00
  0.00000000E+00  0.00000000E+00  0.00000000E+00
  0.00000000E+00  0.00000000E+00  0.00000000E+00
  0.00000000E+00  0.00000000E+00  0.00000000E+00
  0.00000000E+00  0.00000000E+00  0.00000000E+00
  0.00000000E+00  0.00000000E+00  0.00000000E+00
  0.00000000E+00  0.00000000E+00  0.00000000E+00
  0.00000000E+00  0.00000000E+00  0.00000000E+00
  0.00000000E+00  0.00000000E+00  0.00000000E+00
  0.00000000E+00  0.00000000E+00  0.00000000E+00
  0.00000000E+00  0.00000000E+00  0.00000000E+00
  0.00000000E+00  0.00000000E+00  0.00000000E+00
  0.00000000E+00  0.00000000E+00  0.00000000E+00
  0.00000000E+00  0.00000000E+00  0.00000000E+00
  0.00000000E+00  0.00000000E+00  0.00000000E+00
  0.00000000E+00  0.00000000E+00  0.00000000E+00
  0.00000000E+00  0.00000000E+00  0.00000000E+00
  0.00000000E+00  0.00000000E+00  0.00000000E+00
  0.00000000E+00  0.00000000E+00  0.00000000E+00
  0.00000000E+00  0.00000000E+00  0.00000000E+00
  0.00000000E+00  0.00000000E+00  0.00000000E+00
  0.00000000E+00  0.00000000E+00  0.00000000E+00
  0.00000000E+00  0.00000000E+00  0.00000000E+00
  0.00000000E+00  0.00000000E+00  0.00000000E+00
  0.00000000E+00  0.00000000E+00  0.00000000E+00
  0.00000000E+00  0.00000000E+00  0.00000000E+00
  0.00000000E+00  0.00000000E+00  0.00000000E+00
  0.00000000E+00  0.00000000E+00  0.00000000E+00
  0.00000000E+00  0.00000000E+00  0.00000000E+00
  0.00000000E+00  0.00000000E+00  0.00000000E+00
  0.00000000E+00  0.00000000E+00  0.00000000E+00
  0.00000000E+00  0.00000000E+00  0.00000000E+00
  0.00000000E+00  0.00000000E+00  0.00000000E+00
  0.00000000E+00  0.00000000E+00  0.00000000E+00
  0.00000000E+00  0.00000000E+00  0.00000000E+00
  0.00000000E+00  0.00000000E+00  0.00000000E+00
  0.00000000E+00  0.00000000E+00  0.00000000E+00
  0.00000000E+00  0.00000000E+00  0.00000000E+00
  0.00000000E+00  0.00000000E+00  0.00000000E+00
  0.00000000E+00  0.00000000E+00  0.00000000E+00
  0.00000000E+00  0.00000000E+00  0.00000000E+00
  0.00000000E+00  0.00000000E+00  0.00000000E+00
  0.00000000E+00  0.00000000E+00  0.00000000E+00
  0.00000000E+00  0.00000000E+00  0.00000000E+00
  0.00000000E+00  0.00000000E+00  0.00000000E+00
  0.00000000E+00  0.00000000E+00  0.00000000E+00
  0.00000000E+00  0.00000000E+00  0.00000000E+00
  0.00000000E+00  0.00000000E+00  0.00000000E+00
  0.00000000E+00  0.00000000E+00  0.00000000E+00
  0.00000000E+00  0.00000000E+00  0.00000000E+00
  0.00000000E+00  0.00000000E+00  0.00000000E+00
  0.00000000E+00  0.00000000E+00  0.00000000E+00
  0.00000000E+00  0.00000000E+00  0.00000000E+00
  0.00000000E+00  0.00000000E+00  0.00000000E+00
  0.00000000E+00  0.00000000E+00  0.00000000E+00
  0.00000000E+00  0.00000000E+00  0.00000000E+00
  0.00000000E+00  0.00000000E+00  0.00000000E+00
  0.00000000E+00  0.00000000E+00  0.00000000E+00
  0.00000000E+00  0.00000000E+00  0.00000000E+00
  0.00000000E+00  0.00000000E+00  0.00000000E+00
  0.00000000E+00  0.00000000E+00  0.00000000E+00
  0.00000000E+00  0.00000000E+00  0.00000000E+00
  0.00000000E+00  0.00000000E+00  0.00000000E+00
  0.00000000E+00  0.00000000E+00  0.00000000E+00
  0.00000000E+00  0.00000000E+00  0.00000000E+00
  0.00000000E+00  0.00000000E+00  0.00000000E+00
  0.00000000E+00  0.00000000E+00  0.00000000E+00
  0.00000000E+00  0.00000000E+00  0.00000000E+00
  0.00000000E+00  0.00000000E+00  0.00000000E+00
  0.00000000E+00  0.00000000E+00  0.00000000E+00
  0.00000000E+00  0.00000000E+00  0.00000000E+00
  0.00000000E+00  0.00000000E+00  0.00000000E+00
  0.00000000E+00  0.00000000E+00  0.00000000E+00
  0.00000000E+00  0.00000000E+00  0.00000000E+00
  0.00000000E+00  0.00000000E+00  0.00000000E+00
  0.00000000E+00  0.00000000E+00  0.00000000E+00
  0.00000000E+00  0.00000000E+00  0.00000000E+00
  0.00000000E+00  0.00000000E+00  0.00000000E+00
  0.00000000E+00  0.00000000E+00  0.00000000E+00
  0.00000000E+00  0.00000000E+00  0.00000000E+00
