O  C  H  Co Li                          
   1.00000000000000     
    23.9261198104165054    1.4270226320989507   -0.1702423552515908
    13.3807977504398092   19.9075722412530887    0.0070620584243260
    -0.0366049182984033    0.0428470880645103    6.8013684059336974
   O    C    H    Co   Li
    50    65    16    18     1
Direct
  0.0380771809516341  0.2685605486637122  0.3024806604188446
  0.0126648994921187  0.3109460156115004  0.9181869359617874
  0.0939399260739399  0.2660068028634468  0.7101154120201687
  0.6590990472333231  0.0809014728157870  0.3411677835700982
  0.6374625608318731  0.0540743516313556  0.9819317582104709
  0.5979164441683001  0.1247286519451370  0.7413423873167271
  0.0176435909445628  0.4038694831222175  0.6449975890008581
  0.3129266202987310  0.6362374439369969  0.3282923944360242
  0.3575468565764128  0.6084734620819023  0.9629913653123073
  0.3270792773288519  0.5590959221212091  0.7711268494622561
  0.5739390414145533  0.0233107892130496  0.6592092892134533
  0.2931408590176370  0.0225078613865530  0.3619942188716541
  0.2181603530185173  0.0691842455098973  0.5934722795413365
  0.2692654795076669  0.0700583867012627  0.0024595314322703
  0.6544722317114781  0.3111831958179399  0.3263854364726267
  0.6597712304641923  0.2609073712681109  0.5994952883249814
  0.0278856214119768  0.6269140635289790  0.7138308716734081
  0.0542594748542177  0.5558670184940527  0.9452348871176264
  0.5749626517370718  0.3119028650393232  0.0324630688340245
  0.0686853284575348  0.6548748409949052  0.3842314081671646
  0.1139299223642914  0.6781166772884185  0.6224491141177562
  0.3688287435450816  0.9813525550954092  0.6976500426198508
  0.4071049146565843  0.0109465915407296  0.9399458541221918
  0.1176937569474979  0.6239727606118854  0.0218496967499014
  0.6973556336035873  0.9797458316093652  0.6438010033891987
  0.7691561737915719  0.9401368924279634  0.4024294520380640
  0.7277278140242439  0.9312939160453242  0.9972220592369003
  0.3864923728369943  0.6701734455850309  0.5047034458779143
  0.3131982738354307  0.7541761810227209  0.3387593005210364
 -0.0040642035635290  0.3839124904135946  0.2675874335999080
  0.9639678986884932  0.4584019392996702  0.0462954056408804
  0.3631574209105519  0.7020426597913065  0.9269341448110249
  0.9412232733720803  0.3708582865964315  0.5880288584198878
  0.8964036590744946  0.3439840779418202  0.3586116906219997
  0.6228689363143335  0.0021022313406576  0.3059728975966506
  0.5917411769140555  0.9669589643510069  0.0583835520600107
  0.8834918738330509  0.4058923735671594  0.9589586591701634
  0.9668867489597290  0.7520102598752855  0.6921428831809108
  0.9932457276330600  0.7001133478186785  0.0491126532471734
  0.9196791878905548  0.7473896311923686  0.2850997141478719
  0.3096695042111623  0.9273689095485190  0.6572648461300329
  0.3318119585577581  0.9486300289990579  0.0244686680313379
  0.3677567697920059  0.8749512706247645  0.2528628764886134
  0.0002327013832879  0.6099620474045010  0.3496203787806029
  0.7626287455703386  0.2961842337893911  0.6822240826319858
  0.6755883998005801  0.3699309105473051  0.9882446991911278
  0.7336827253569764  0.3659492418587104  0.2540672807433166
  0.4209141855663956  0.9547774763209154  0.3382701234591994
  0.7078600125934370  0.5333739945846709  0.7306614764082285
  0.7497388806392585  0.4658744844537190  0.4547959882108106
  0.0933986965419478  0.2209141060598044  0.2244430362827072
  0.1367331847634672  0.1705345114741370  0.3469319729381870
  0.0712980885622012  0.2673673545296490  0.8772573527244087
  0.1115507577937079  0.2182170810111836  0.0234615120358172
  0.6396555410455813  0.1362391868862415  0.2600705063905797
  0.6464613081440356  0.1778808006444637  0.3719370423659787
  0.6159078119922752  0.1092467141354981  0.9193323248559198
  0.6149702332461269  0.1536373487527750  0.0627158666031892
  0.0138483106542196  0.4529669636262613  0.5687448122083423
  0.0253015012665312  0.4892798766693908  0.6934363624549383
  0.2651730916258726  0.6315074085575348  0.2572625070455168
  0.2127890191913880  0.6499268887313731  0.3745426969977496
  0.3212678545783780  0.5888328408861337  0.9325875534745580
  0.2693572550902803  0.6063976978132989  0.0661154743155649
  0.5384064840013547  0.0054694548249421  0.5765207600390815
  0.4945193852096509  0.0054621379559271  0.6957913082144249
  0.2375010526072897  0.0678603285081551  0.4205276705686042
  0.1958487976929436  0.1192399341913079  0.2807467419734684
  0.2137672132235212  0.1172195053160613  0.0803892448164008
  0.1709390626965826  0.1672583325202265  0.9582318065859343
  0.6474217351333321  0.2710862653049714  0.4151128035980760
  0.6290170430910574  0.2357457410964285  0.2978609200366782
  0.0352096976864020  0.5764119174665479  0.7706713966346080
  0.0210359072808706  0.5420077216095766  0.6276185375134703
  0.5981876746856382  0.2558125747886524  0.1080894533967586
  0.5926548952969463  0.2132200132956697  0.9952935147830596
  0.1126749326447724  0.6608465347585459  0.4459296555262917
  0.1637800633492841  0.6449915179974886  0.3059219157665122
  0.4080395941703451 -0.0062680188722903  0.7615581523250101
  0.4548070332341063  0.9886357962446665  0.6235468038703401
  0.1652303842483655  0.6243756886578716  0.1065857775802831
  0.2193983543914081  0.6036752354478235 -0.0061768996844674
  0.7539719413693570  0.9390877453309284  0.5784859183245694
  0.8010089214137717  0.8902134570174314  0.7178717900120845
  0.7853563907819322  0.8893307557171007  0.9185766177749281
  0.8324310645346508  0.8416389677099617  0.0396108764437991
  0.3448042637456166  0.7311335373660990  0.4979620176141517
  0.3390468356440505  0.7729378271430446  0.6601392123924514
  0.9849781462631241  0.4367719138939988  0.2183986325441745
 -0.0019594938216910  0.4710878111346367  0.3657089322742092
  0.3532934113987461  0.7558129249957558  0.8628450680715961
  0.3548952791556040  0.7974392356992447  0.9934020071709011
  0.9053657300197949  0.3534943780069342  0.5419615251291237
  0.8681020429663918  0.3490592130596021  0.6945206109006976
  0.5878077900636599  0.9849299866596406  0.2366557186848269
  0.5423894294248698  0.9869570578601078  0.3738743168165624
  0.8537422609370198  0.3818605414506994  0.8802104597495507
  0.8025781885607673  0.3897026636372303  0.9852522325534111
  0.9092648882540203  0.7956158913057503  0.7700383606457896
  0.8621832945746229  0.8440055163329581  0.6490544945439938
  0.9377572399859534  0.7451529878444244  0.1094028840141162
  0.8933007846662143  0.7951815644751220  0.9703614622486998
  0.3234582714656961  0.8734296539511953  0.7309382605041193
  0.3222141588034187  0.8315947119809978  0.6009562231740618
  0.3472673114064616  0.8945431934118393  0.0784924667632233
  0.3411191935146409  0.8550606285947420  0.9322447200866406
  0.0049947144843053  0.5600427014071897  0.4256347901465044
  0.9936358147344615  0.5239363344912644  0.3005354961396408
  0.7890110096020075  0.3253805128177396  0.7519858669658273
  0.8380941286434626  0.3192169876917622  0.6434122906441090
  0.7237419907422796  0.3667425543043241  0.0651577155355925
  0.7707962090961356  0.3620098684808551  0.9305072854219298
  0.4584016821817353  0.9705039018318087  0.4205733155079576
  0.5031063814351563  0.9695057848515993  0.3014807106309125
  0.7289601505122485  0.4995062420256989  0.5941431137641060
  0.1234839886697980  0.1719702699080923  0.5000780311836240
  0.6684493217185651  0.1635828680929197  0.5184559624745871
  0.0377779719352229  0.4756953012592327  0.8477633062640916
  0.2095349364925822  0.6684363556648641  0.5237766256194945
  0.4911008529211772  0.0195480409115132  0.8506194850684698
  0.1843488875383837  0.1658555626711302  0.8054781266097046
  0.5731179355464316  0.2262647956891237  0.8455804950863433
  0.2216123501118387  0.5867762387655414  0.8431569174423172
  0.8206344015764518  0.8407967008015252  0.1926984005550746
  0.3671406356329723  0.7849500728366079  0.1482174793455751
  0.7847434548261571  0.4238984649224374  0.1074479180906123
  0.8734543044132622  0.8452974103579687  0.4956082840152441
  0.3101912825163895  0.8444566013919366  0.4460795231659225
  0.9815410067348520  0.5373384890158873  0.1460043185411973
  0.8544816285707627  0.2882571200541482  0.5125685368524892
  0.5065458424666756  0.9555412541160122  0.1463574892375050
  0.3428366654447704  0.5900341747585710  0.5580118233242295
  0.0376067482945608  0.3258530497865834  0.5018690575223734
  0.6195696972550169  0.0578600903162287  0.5354235933642197
  0.0534829805618186  0.6832241315482374  0.8183294937303436
  0.3547708503398212  0.0066150611768504  0.1402335122846471
  0.2802907858088333  0.0104102790527598  0.7960311340919496
  0.6225270412744270  0.3425980789830456  0.0358356563658711
  0.6836149375007670  0.3054704961362162  0.7610760375269366
  0.0546626135142218  0.6104224282519468  0.1517226238331145
  0.6409730354058371  0.9815936639155172  0.8639791762182778
  0.9573028572279970  0.3402768023428462  0.1485798782949516
  0.3797123782666303  0.6326052597444799  0.7289309234604920
  0.6984842995533015  0.9963007619581312  0.2054474765368029
  0.9581975115381334  0.4044400702204691  0.8439946242592086
  0.3430720583499177  0.6778464419378816  0.1702986764915354
  0.6975848120271393  0.3418039278497785  0.4726258530948472
  0.9800099641521920  0.6901839874598341  0.4902789100881710
  0.3613989546182388  0.9343913984135140  0.4586360526585871
  0.8077559546572066  0.3685996650578667  0.3313553385973756
 
  0.00000000E+00  0.00000000E+00  0.00000000E+00
  0.00000000E+00  0.00000000E+00  0.00000000E+00
  0.00000000E+00  0.00000000E+00  0.00000000E+00
  0.00000000E+00  0.00000000E+00  0.00000000E+00
  0.00000000E+00  0.00000000E+00  0.00000000E+00
  0.00000000E+00  0.00000000E+00  0.00000000E+00
  0.00000000E+00  0.00000000E+00  0.00000000E+00
  0.00000000E+00  0.00000000E+00  0.00000000E+00
  0.00000000E+00  0.00000000E+00  0.00000000E+00
  0.00000000E+00  0.00000000E+00  0.00000000E+00
  0.00000000E+00  0.00000000E+00  0.00000000E+00
  0.00000000E+00  0.00000000E+00  0.00000000E+00
  0.00000000E+00  0.00000000E+00  0.00000000E+00
  0.00000000E+00  0.00000000E+00  0.00000000E+00
  0.00000000E+00  0.00000000E+00  0.00000000E+00
  0.00000000E+00  0.00000000E+00  0.00000000E+00
  0.00000000E+00  0.00000000E+00  0.00000000E+00
  0.00000000E+00  0.00000000E+00  0.00000000E+00
  0.00000000E+00  0.00000000E+00  0.00000000E+00
  0.00000000E+00  0.00000000E+00  0.00000000E+00
  0.00000000E+00  0.00000000E+00  0.00000000E+00
  0.00000000E+00  0.00000000E+00  0.00000000E+00
  0.00000000E+00  0.00000000E+00  0.00000000E+00
  0.00000000E+00  0.00000000E+00  0.00000000E+00
  0.00000000E+00  0.00000000E+00  0.00000000E+00
  0.00000000E+00  0.00000000E+00  0.00000000E+00
  0.00000000E+00  0.00000000E+00  0.00000000E+00
  0.00000000E+00  0.00000000E+00  0.00000000E+00
  0.00000000E+00  0.00000000E+00  0.00000000E+00
  0.00000000E+00  0.00000000E+00  0.00000000E+00
  0.00000000E+00  0.00000000E+00  0.00000000E+00
  0.00000000E+00  0.00000000E+00  0.00000000E+00
  0.00000000E+00  0.00000000E+00  0.00000000E+00
  0.00000000E+00  0.00000000E+00  0.00000000E+00
  0.00000000E+00  0.00000000E+00  0.00000000E+00
  0.00000000E+00  0.00000000E+00  0.00000000E+00
  0.00000000E+00  0.00000000E+00  0.00000000E+00
  0.00000000E+00  0.00000000E+00  0.00000000E+00
  0.00000000E+00  0.00000000E+00  0.00000000E+00
  0.00000000E+00  0.00000000E+00  0.00000000E+00
  0.00000000E+00  0.00000000E+00  0.00000000E+00
  0.00000000E+00  0.00000000E+00  0.00000000E+00
  0.00000000E+00  0.00000000E+00  0.00000000E+00
  0.00000000E+00  0.00000000E+00  0.00000000E+00
  0.00000000E+00  0.00000000E+00  0.00000000E+00
  0.00000000E+00  0.00000000E+00  0.00000000E+00
  0.00000000E+00  0.00000000E+00  0.00000000E+00
  0.00000000E+00  0.00000000E+00  0.00000000E+00
  0.00000000E+00  0.00000000E+00  0.00000000E+00
  0.00000000E+00  0.00000000E+00  0.00000000E+00
  0.00000000E+00  0.00000000E+00  0.00000000E+00
  0.00000000E+00  0.00000000E+00  0.00000000E+00
  0.00000000E+00  0.00000000E+00  0.00000000E+00
  0.00000000E+00  0.00000000E+00  0.00000000E+00
  0.00000000E+00  0.00000000E+00  0.00000000E+00
  0.00000000E+00  0.00000000E+00  0.00000000E+00
  0.00000000E+00  0.00000000E+00  0.00000000E+00
  0.00000000E+00  0.00000000E+00  0.00000000E+00
  0.00000000E+00  0.00000000E+00  0.00000000E+00
  0.00000000E+00  0.00000000E+00  0.00000000E+00
  0.00000000E+00  0.00000000E+00  0.00000000E+00
  0.00000000E+00  0.00000000E+00  0.00000000E+00
  0.00000000E+00  0.00000000E+00  0.00000000E+00
  0.00000000E+00  0.00000000E+00  0.00000000E+00
  0.00000000E+00  0.00000000E+00  0.00000000E+00
  0.00000000E+00  0.00000000E+00  0.00000000E+00
  0.00000000E+00  0.00000000E+00  0.00000000E+00
  0.00000000E+00  0.00000000E+00  0.00000000E+00
  0.00000000E+00  0.00000000E+00  0.00000000E+00
  0.00000000E+00  0.00000000E+00  0.00000000E+00
  0.00000000E+00  0.00000000E+00  0.00000000E+00
  0.00000000E+00  0.00000000E+00  0.00000000E+00
  0.00000000E+00  0.00000000E+00  0.00000000E+00
  0.00000000E+00  0.00000000E+00  0.00000000E+00
  0.00000000E+00  0.00000000E+00  0.00000000E+00
  0.00000000E+00  0.00000000E+00  0.00000000E+00
  0.00000000E+00  0.00000000E+00  0.00000000E+00
  0.00000000E+00  0.00000000E+00  0.00000000E+00
  0.00000000E+00  0.00000000E+00  0.00000000E+00
  0.00000000E+00  0.00000000E+00  0.00000000E+00
  0.00000000E+00  0.00000000E+00  0.00000000E+00
  0.00000000E+00  0.00000000E+00  0.00000000E+00
  0.00000000E+00  0.00000000E+00  0.00000000E+00
  0.00000000E+00  0.00000000E+00  0.00000000E+00
  0.00000000E+00  0.00000000E+00  0.00000000E+00
  0.00000000E+00  0.00000000E+00  0.00000000E+00
  0.00000000E+00  0.00000000E+00  0.00000000E+00
  0.00000000E+00  0.00000000E+00  0.00000000E+00
  0.00000000E+00  0.00000000E+00  0.00000000E+00
  0.00000000E+00  0.00000000E+00  0.00000000E+00
  0.00000000E+00  0.00000000E+00  0.00000000E+00
  0.00000000E+00  0.00000000E+00  0.00000000E+00
  0.00000000E+00  0.00000000E+00  0.00000000E+00
  0.00000000E+00  0.00000000E+00  0.00000000E+00
  0.00000000E+00  0.00000000E+00  0.00000000E+00
  0.00000000E+00  0.00000000E+00  0.00000000E+00
  0.00000000E+00  0.00000000E+00  0.00000000E+00
  0.00000000E+00  0.00000000E+00  0.00000000E+00
  0.00000000E+00  0.00000000E+00  0.00000000E+00
  0.00000000E+00  0.00000000E+00  0.00000000E+00
  0.00000000E+00  0.00000000E+00  0.00000000E+00
  0.00000000E+00  0.00000000E+00  0.00000000E+00
  0.00000000E+00  0.00000000E+00  0.00000000E+00
  0.00000000E+00  0.00000000E+00  0.00000000E+00
  0.00000000E+00  0.00000000E+00  0.00000000E+00
  0.00000000E+00  0.00000000E+00  0.00000000E+00
  0.00000000E+00  0.00000000E+00  0.00000000E+00
  0.00000000E+00  0.00000000E+00  0.00000000E+00
  0.00000000E+00  0.00000000E+00  0.00000000E+00
  0.00000000E+00  0.00000000E+00  0.00000000E+00
  0.00000000E+00  0.00000000E+00  0.00000000E+00
  0.00000000E+00  0.00000000E+00  0.00000000E+00
  0.00000000E+00  0.00000000E+00  0.00000000E+00
  0.00000000E+00  0.00000000E+00  0.00000000E+00
  0.00000000E+00  0.00000000E+00  0.00000000E+00
  0.00000000E+00  0.00000000E+00  0.00000000E+00
  0.00000000E+00  0.00000000E+00  0.00000000E+00
  0.00000000E+00  0.00000000E+00  0.00000000E+00
  0.00000000E+00  0.00000000E+00  0.00000000E+00
  0.00000000E+00  0.00000000E+00  0.00000000E+00
  0.00000000E+00  0.00000000E+00  0.00000000E+00
  0.00000000E+00  0.00000000E+00  0.00000000E+00
  0.00000000E+00  0.00000000E+00  0.00000000E+00
  0.00000000E+00  0.00000000E+00  0.00000000E+00
  0.00000000E+00  0.00000000E+00  0.00000000E+00
  0.00000000E+00  0.00000000E+00  0.00000000E+00
  0.00000000E+00  0.00000000E+00  0.00000000E+00
  0.00000000E+00  0.00000000E+00  0.00000000E+00
  0.00000000E+00  0.00000000E+00  0.00000000E+00
  0.00000000E+00  0.00000000E+00  0.00000000E+00
  0.00000000E+00  0.00000000E+00  0.00000000E+00
  0.00000000E+00  0.00000000E+00  0.00000000E+00
  0.00000000E+00  0.00000000E+00  0.00000000E+00
  0.00000000E+00  0.00000000E+00  0.00000000E+00
  0.00000000E+00  0.00000000E+00  0.00000000E+00
  0.00000000E+00  0.00000000E+00  0.00000000E+00
  0.00000000E+00  0.00000000E+00  0.00000000E+00
  0.00000000E+00  0.00000000E+00  0.00000000E+00
  0.00000000E+00  0.00000000E+00  0.00000000E+00
  0.00000000E+00  0.00000000E+00  0.00000000E+00
  0.00000000E+00  0.00000000E+00  0.00000000E+00
  0.00000000E+00  0.00000000E+00  0.00000000E+00
  0.00000000E+00  0.00000000E+00  0.00000000E+00
  0.00000000E+00  0.00000000E+00  0.00000000E+00
  0.00000000E+00  0.00000000E+00  0.00000000E+00
  0.00000000E+00  0.00000000E+00  0.00000000E+00
  0.00000000E+00  0.00000000E+00  0.00000000E+00
  0.00000000E+00  0.00000000E+00  0.00000000E+00
  0.00000000E+00  0.00000000E+00  0.00000000E+00
  0.00000000E+00  0.00000000E+00  0.00000000E+00
