O  C  H  Co Li                          
   1.00000000000000     
    23.9261198104165054    1.4270226320989507   -0.1702423552515908
    13.3807977504398092   19.9075722412530887    0.0070620584243260
    -0.0366049182984033    0.0428470880645103    6.8013684059336974
   O    C    H    Co   Li
    50    65    16    18     1
Direct
  0.0584540402778244  0.2580525553101453  0.2961171446248176
  0.0325243571574129  0.2995774213063545  0.9083770037196585
  0.1079393049826640  0.2640112463007113  0.7026723536911310
  0.6949533708770372  0.0458764498203877  0.3455552089448585
  0.6811991260413037  0.0197505176271498  0.9542078005717252
  0.6343797222483374  0.0962421342991027  0.7553437513009108
  0.0370444497192814  0.3952235513230345  0.6376616160380689
  0.2484673407824842  0.6949381631640316  0.3456862878632592
  0.3023618036798340  0.6625155862303651  0.9918476131166615
  0.2729148143222281  0.6131151244482180  0.7991981010822558
  0.5800895143450905  0.0191822035579040  0.6636538474955566
  0.3003571127452321  0.0514438418750583  0.3713976940558223
  0.2263396501853288  0.0903992712030194  0.5826669746381532
  0.2750523845040018  0.0947129236489581  0.9883765825730385
  0.6926494113149534  0.2719279929362123  0.3605129622458754
  0.7013470586150845  0.2161956232024912  0.6171952292398539
  0.9849662004907421  0.6426559847978468  0.7334777100298684
  0.0278567418079761  0.5671939481565627  0.9376591656708040
  0.6134391640448370  0.2711707700298738  0.0807488451284569
  0.0419339306188866  0.6568690594973737  0.4036024016209794
  0.0739841873288056  0.6984909201958025  0.6168815091738701
  0.3687568382734436  0.9915729639264461  0.7047965679651667
  0.4068924437702702  0.0257554351553654  0.9232138270273952
  0.0861683106718027  0.6409457968935057  0.0238455604036560
  0.6936688233880862  0.9497168091174671  0.6184853388940045
  0.7670789201103358  0.9153894017262945  0.4050496174285642
  0.7221898236036097  0.9061674917519541  0.9998966670214170
  0.3426901666007514  0.7148274163925495  0.5269832901420165
  0.2850976134391897  0.7942683935503428  0.3534577359747298
  0.0239731700999934  0.3689590246762849  0.2469522945857797
  0.9789204948907034  0.4449792155987479  0.0458554300629743
  0.3249058849018872  0.7482419201230677  0.9382127603029560
  0.9643223392551697  0.3559806641589509  0.5720663793181034
  0.9258706052178692  0.3206836886007793  0.3570386734373709
  0.6229573757971255  0.0063275244606839  0.2858699835819115
  0.5892292373323365  0.9675929208718871  0.0678266913294303
  0.9177997044334928  0.3744458521506594  0.9564214393642841
  0.9426486639068146  0.7561871758288691  0.6877254347017094
  0.9716793073084071  0.7131622311240282  0.0695186100203713
  0.8980062811178905  0.7466881726632261  0.2820484650699997
  0.2912125998133578  0.9593004826895516  0.6488753527694265
  0.3085829274317362  0.9828649548548689  0.0352994182564889
  0.3461687442416952  0.9076475198821723  0.2415376904874536
  0.9702463713471696  0.6165012119360044  0.3449387381964321
  0.8051008610735862  0.2565131609882768  0.6822333493954833
  0.7299329017413894  0.3100574990341191  0.9945119792085861
  0.7765880948916256  0.3265931203885653  0.2426054811325217
  0.4135042798502341  0.9750479948828400  0.3265445484612639
  0.7284659342746550  0.4969175290267085  0.6507447061864732
  0.7880519957056028  0.4278734541008049  0.4165637171133067
  0.1101575325726889  0.2198852354078473  0.2120481133537956
  0.1519848907257546  0.1758882014283631  0.3327960783239257
  0.0877273640179399  0.2634167278082742  0.8688399903362577
  0.1258949384265963  0.2205408350786753  0.0143968749595845
  0.6791510969744718  0.0982013824767989  0.2642290177984046
  0.6857571158322140  0.1379713310271670  0.3830831075192167
  0.6565832219785684  0.0757786906422427  0.9203643307368565
  0.6566363958621071  0.1157832780560177  0.0711537222668203
  0.0210826072467752  0.4479558910048118  0.5564236599833863
  0.0213239915064606  0.4902604393930273  0.6803755447880487
  0.2093869186516701  0.6806789546233480  0.2655744254821539
  0.1609963468896765  0.6892239106367204  0.3754302758969011
  0.2668274749222989  0.6417015563689010  0.9569219454996488
  0.2176838917783564  0.6543351564096990  0.0803169884475376
  0.5415770027253521  0.0075577445680811  0.5734737147585652
  0.4965050686626921  0.0098283951955752  0.6884424571607589
  0.2462204559085109  0.0895506872811500  0.4146858976779452
  0.2081040231060647  0.1329885764544982  0.2700485189352577
  0.2237512319442120  0.1333315042659719  0.0722290756800682
  0.1820971475828230  0.1776530323638429  0.9517460008291793
  0.6865776124669476  0.2298675578585647  0.4415491008772663
  0.6675659003976129  0.1957239610061518  0.3249674284720684
  0.0064453669947821  0.5871513673992729  0.7717624474694561
  0.0041751787626098  0.5478867140157523  0.6230099657996025
  0.6382591828601765  0.2156290820206471  0.1421118080305109
  0.6339989699808367  0.1748374756878511  0.0199504522409790
  0.0761722484331027  0.6773928137919083  0.4492347644415045
  0.1198924202674221  0.6734548258527997  0.3095328528206768
  0.4072228899293406  0.0062669745378658  0.7546642633509748
  0.4525142995659581  0.9995616324339168  0.6164194460363991
  0.1247259277562846  0.6522629706966301  0.1152028177051823
  0.1741910429758980  0.6423611933930523  0.0082058267336351
  0.7484134543422458  0.9146276456867987  0.5736889302933891
  0.7889876191112576  0.8727150689852250  0.7171016302957303
  0.7745585162425802  0.8710289317196740  0.9154012421175626
  0.8188151552766759  0.8289398133972000  0.0351209337192466
  0.3117569934254223  0.7723989088094204  0.5114260677544920
  0.3103979902869247  0.8120016518436852  0.6648392409134315
  0.0014880359439930  0.4248316897626706  0.2104595531553340
  0.0036980990391781  0.4639108327327962  0.3593862833961906
  0.3213201466428177  0.7975076128882848  0.8646003266206870
  0.3259742298589422  0.8370002977668193  0.9899502318995406
  0.9315953665596240  0.3338026209969650  0.5335916753122470
  0.8976330659489745  0.3256371288759293  0.6822831457782741
  0.5869286962122836  0.9884522224235286  0.2355872997123465
  0.5419420090979125  0.9937361504325343  0.3733212724464276
  0.8884997847595454  0.3503722795972358  0.8720519152821610
  0.8428435504404763  0.3510774241189552  0.9798175977876932
  0.8903425666382819  0.7913445669649811  0.7722780764217260
  0.8460662135987855  0.8333373639115468  0.6524790405346821
  0.9166950327777602  0.7478452443604480  0.1138441488022316
  0.8759665325582140  0.7896507264024991  0.9705871225347770
  0.3022995059875699  0.9082689371295111  0.7309672353302875
  0.2998569937666173  0.8675467017522573  0.6053735430468196
  0.3249947914950491  0.9285276785194196  0.0759554036471433
  0.3172644781113564  0.8918190707076415  0.9295392952028065
  0.9866116685361472  0.5638833719424190  0.4261520379983288
  0.9865440790196069  0.5215147512096102  0.3020496018258216
  0.8268188704872549  0.2907572491656887  0.7462059221737039
  0.8681243200206223  0.2944613350742243  0.6291249147358475
  0.7714086945185851  0.3195721553148803  0.0608378676731708
  0.8127733715813191  0.3206555220260885  0.9262908507714211
  0.4526502220753162  0.9859276200334568  0.4162143406150569
  0.4980627699611098  0.9832321745273923  0.3013560311499829
  0.7581829423781549  0.4623965150530259  0.5353574825197066
  0.1390846512853850  0.1752125202486713  0.4816594258258212
  0.7065694294725405  0.1216885255769282  0.5231658433653625
  0.0360998424060205  0.4765660717503703  0.8279387094385064
  0.1534140002221552  0.7104953266866599  0.5163884414153198
  0.4955380626687961  0.0216756866268436  0.8395097298708885
  0.1950173453362449  0.1782261357158758  0.8028265305010935
  0.6132159658574303  0.1906118776997337  0.8795141217832628
  0.1790591977438664  0.6234021279050534  0.8649792616202088
  0.8071886752221189  0.8269917873810421  0.1846508545109954
  0.3365187801518360  0.8242245358228635  0.1402588757307693
  0.8270582797463598  0.3823393105148507  0.1003918332196940
  0.8576508434486790  0.8351889524851505  0.5028009126039495
  0.2894557417688359  0.8803839366413487  0.4548549414593924
  0.9718205686639863  0.5352844484597032  0.1545336143324067
  0.8829325580964155  0.2650761620106232  0.5033354581618136
  0.4990992383571249  0.9713428656238872  0.1502681773007107
  0.2704012350428580  0.6517868691105501  0.5749525495868461
  0.0551217754139481  0.3193826397639050  0.4928349193610507
  0.6384303083573584  0.0396346879138555  0.5390156417323997
  0.0201052353943243  0.6970036127004041  0.8250380770456947
  0.3499664140611050  0.0317923428341061  0.1284951040554779
  0.2791884804538489  0.0335191428060724  0.7903223137906947
  0.6706290769978092  0.2924913856037062  0.0721406743265103
  0.7310024256973077  0.2555510539832416  0.7826345921596648
  0.0257992788991548  0.6234279241748478  0.1517390443181523
  0.6449353734147657  0.9650480492455823  0.8622758684472068
  0.9845889149459607  0.3195396315362694  0.1513301956082386
  0.3254460992273306  0.6872356769053997  0.7569846941746099
  0.7117640514654411  0.9697586525463477  0.1988094754352151
  0.9810457477226248  0.3895551797065056  0.8289295560232428
  0.2946366884126270  0.7278919863951330  0.1837206233905622
  0.7541363022907571  0.2880724046650615  0.4631054144915016
  0.9526706499164213  0.6925168429747056  0.4897753684771666
  0.3502491500654610  0.9613845498240829  0.4524445497993569
  0.8426458905473490  0.3395037503921624  0.3298162954215588
