O  C  H  Co Li                          
   1.00000000000000     
    26.0198634710147303    0.6509697202394205   -0.3191420403160788
    13.5807061551226607   22.5147690353868235   -0.3231765950410949
    -0.0856744067843641   -0.0505931639189462    6.7496473032211926
   O    C    H    Co   Li
    50    65    16    18     1
Direct
  0.0510938166520263  0.2638114513923687  0.3002820391825733
  0.0250441242619614  0.3040768258894295  0.9184828736573151
  0.1010333134809064  0.2652897326345174  0.7053558438346949
  0.6723633635578605  0.0651825313250905  0.3411473277831854
  0.6498501993775846  0.0397929381883965  0.9786859581895881
  0.6142580088371934  0.1085490256952098  0.7408574624202223
  0.0245937337501201  0.4007041204613281  0.6448307083453459
  0.2695983086614071  0.6820604361020712  0.3285787804771549
  0.3199535025253178  0.6451028700178025  0.9557382234388567
  0.2884257934460466  0.5956815041844024  0.7645933488067781
  0.5813265143796873  0.0149631907568160  0.6586930020570521
  0.2958566819996254  0.0364003706197858  0.3651493568631917
  0.2236887785137819  0.0787214766156412  0.5924228960814133
  0.2715152398651376  0.0800084675754795  0.9963592380051334
  0.6805056854052394  0.2865933285616946  0.3290500649318996
  0.6842772517210236  0.2377579984938414  0.6025918915725204
  0.0125873827414132  0.6330589071191870  0.7221634714286528
  0.0420304067417387  0.5626797033237859  0.9513537466344231
  0.6025115679092808  0.2871279516066899  0.0355759058467381
  0.0511896624377452  0.6633820668383382  0.3951035357623838
  0.0922331649734492  0.6917853272856334  0.6325654503445708
  0.3700774502239562  0.9862656101195179  0.7009309164716558
  0.4073111894394545  0.0186938210571241  0.9356155899004565
  0.0987694139108650  0.6347975927769477  0.0319494341630115
  0.7004310305497107  0.9678505464885919  0.6422531988214538
  0.7697631196485261  0.9299661371190120  0.4040638512490046
  0.7270675006870588  0.9207735352989940  0.9986011145826087
  0.3554603264247105  0.6970513378909932  0.4975724875972858
  0.2974650582495861  0.7781976288258149  0.3212712119356812
  0.0055040568868566  0.3779666558362069  0.2654664133732383
  0.9717406395460962  0.4501498596892417  0.0427422772765791
  0.3416791611724752  0.7266376507456247  0.9132107605777638
  0.9546569237259791  0.3591363935307394  0.5869923336966913
  0.9141864642968061  0.3272022900864663  0.3601748493225377
  0.6276107945743064 -0.0062353337332675  0.3034803203215630
  0.5927458831293374  0.9619958331216319  0.0566422722099508
  0.9042327623825900  0.3863246719857615  0.9631742135966747
  0.9543185238939821  0.7525964051926070  0.6979529070600008
  0.9796096384325069  0.7039699983694419  0.0582324018699434
  0.9083215900803525  0.7454596194528615  0.2902261026568788
  0.3022673244767718  0.9428222418730459  0.6501307018313067
  0.3219648352388494  0.9637068750797502  0.0272480105545596
  0.3575044285750167  0.8910322404061325  0.2486963472556364
  0.9870171670001270  0.6134204004303363  0.3543106411000351
  0.7850934008788228  0.2752314622750217  0.6864195850609542
  0.7024231347458264  0.3449986620932330  0.9905356290999165
  0.7583009132571701  0.3428432980155209  0.2581694051850544
  0.4144481215215962  0.9666651310820314  0.3302382024568238
  0.7264860403089036  0.5039911733005219  0.7358427101400825
  0.7746981158019315  0.4410965810370129  0.4608462092756544
  0.1038150955335572  0.2196845254487844  0.2209363872180263
  0.1456286578578890  0.1724828171425793  0.3431658436608345
  0.0810089704500850  0.2647046629110221  0.8741438779419565
  0.1205667283898120  0.2183085093809022  0.0196528002188776
  0.6569220096540683  0.1182004656740128  0.2609094859236505
  0.6662125013205142  0.1579166799799521  0.3737984878295924
  0.6315433803086560  0.0930312064983234  0.9187265056963494
  0.6334798729354496  0.1352096025820690  0.0632114003990701
  0.0159403707931939  0.4513605268108639  0.5684100021233054
  0.0226831583413079  0.4904662689453511  0.6949462786652327
  0.2306753249232300  0.6657617352402112  0.2568171955685244
  0.1816302945457295  0.6780016592885637  0.3757300328388520
  0.2840885883607702  0.6248956337383852  0.9263176986299008
  0.2371656708736767  0.6375868410566308  0.0677220238010425
  0.5421517297928344  0.0021794404574410  0.5746134485191380
  0.4971893517262012  0.0056226624830945  0.6931207758965975
  0.2419924152272291  0.0779564287074912  0.4193439615815686
  0.2021420755398675  0.1254233269391338  0.2762248940665197
  0.2188157459354675  0.1241504246916472  0.0752142796568575
  0.1773345846513024  0.1714246981316776  0.9532111201851466
  0.6722234800801282  0.2475714350118187  0.4178487030205692
  0.6523652257765044  0.2134986249155575  0.3002207126210430
  0.0232893697041361  0.5818046779467061  0.7764639927046001
  0.0135244803016527  0.5447781448160354  0.6310174800762491
  0.6227305893401720  0.2331322422834843  0.1106141577068132
  0.6147494240641274  0.1924876624731742 -0.0032155630926741
  0.0915102040407747  0.6743488991113604  0.4551865649476097
  0.1386788128533602  0.6642383663634992  0.3137634740828149
  0.4084626257158509  0.0001263320990421  0.7594508820248562
  0.4543037941212464 -0.0065308643137257  0.6191375145475865
  0.1418625808148376  0.6413884655683063  0.1166732742812545
  0.1925374180341403  0.6264327456787504  0.0030870308325792
  0.7541665021796480  0.9288626337326635  0.5794619550119868
  0.7973760992865343  0.8822194633340138  0.7202840316620542
  0.7817467328886446  0.8809269514876183  0.9207121075046349
  0.8258621187343925  0.8354749493440503  0.0428567323799964
  0.3233074896190660  0.7559795735368693  0.4860126562294837
  0.3216005215353740  0.7952454303206242  0.6484435824560603
 -0.0085601515167543  0.4309600030654088  0.2164254899385131
 -0.0002762151589085  0.4682655834823936  0.3653742658333965
  0.3358939873354411  0.7778184083553565  0.8504341180806004
  0.3415688473020866  0.8164758514459026  0.9826022361993221
  0.9217584581071709  0.3381613719890865  0.5433270510394677
  0.8871655970626939  0.3313285416874974  0.6970741827071463
  0.5902006099613251  0.9797675464503454  0.2345795680015681
  0.5437102690931808  0.9853954993944762  0.3709361865207353
  0.8743624194827301  0.3625856546013316  0.8839426669706633
  0.8252422951568057  0.3685797049094646  0.9894445097923149
  0.8996274627343529  0.7931534714049644  0.7752533318746515
  0.8555266133484586  0.8388871087052774  0.6530053405406073
  0.9260021758520602  0.7449049055410983  0.1157304777938503
  0.8839282552806716  0.7920168459885790  0.9754001043007496
  0.3129267052067484  0.8909493512879036  0.7237725532612492
  0.3087005678697731  0.8515747129767286  0.5917668757660374
  0.3374201402111973  0.9101780554917102  0.0753577076772341
  0.3301955339474272  0.8724579459580494  0.9246515106057213
  0.9967464257004192  0.5619377959230960  0.4288625651660929
  0.9901802848093397  0.5228699585815479  0.3020373293106723
  0.8109489207799013  0.3049679695477355  0.7557602369883466
  0.8579214214497884  0.3006803174137818  0.6465011928702497
  0.7487953769167783  0.3434023545586348  0.0685493794163396
  0.7940697254921899  0.3403729812820481  0.9344717994140587
  0.4551751464232834  0.9773522238125102  0.4148483533927864
  0.5008333769478930  0.9731944598725298  0.2966141062630644
  0.7506688745824380  0.4724454638125222  0.5997828695278820
  0.1336438640343205  0.1728791013891538  0.4969483689476634
  0.6868663912546292  0.1441051339364163  0.5210458080343671
  0.0352964441676506  0.4777763316942876  0.8493365618378103
  0.1752223206789127  0.7008473982496882  0.5191459924995363
  0.4957329604274128  0.0182755386435631  0.8488328456610394
  0.1895709860137927  0.1710150738739288  0.7997457907265659
  0.5957965947242529  0.2055154014577955  0.8472307809406123
  0.1956207517824984  0.6078558148892956  0.8545122073240287
  0.8142500826060047  0.8341573994182155  0.1957563000703156
  0.3538360654843478  0.8036187448447789  0.1367820033586855
  0.8090563203643630  0.4012540828392375  0.1125270499363971
  0.8669790992027951  0.8403425377466716  0.4999305693253068
  0.2972054788574363  0.8646346818207808  0.4373849858183551
  0.9775915480020272  0.5354264060703406  0.1474903675432162
  0.8728450666562259  0.2708560081755508  0.5154215788266264
  0.5023196830339896  0.9606625630570100  0.1407211939959837
  0.2913168414436726  0.6349906132657733  0.5510649044609529
  0.0439135920625846  0.3242445325739302  0.5034725467174196
  0.6305068374976445  0.0450761869864474  0.5346927180941103
  0.0366115237073535  0.6906650622019386  0.8287215179569172
  0.3507446361772963  0.0176831783222439  0.1296473423156430
  0.2838638790944010  0.0191617723457349  0.7906478521335233
  0.6502264005141610  0.3172348543013170  0.0390888148337721
  0.7087694039248527  0.2818704766670276  0.7638225492056571
  0.0388543711814570  0.6182093594267486  0.1603940719485324
  0.6447070611693690  0.9721235671030087  0.8636966733634707
  0.9741890551567640  0.3266652302975480  0.1568779603509398
  0.3438960264204326  0.6675438659156981  0.7276603147472176
  0.7040349442828729  0.9840059773419995  0.2049932350161641
  0.9723092999145188  0.3923500089550849  0.8389231330975756
  0.3162706475150752  0.7048097166942899  0.1624241103868729
  0.7232325762903855  0.3174587967999579  0.4753197869967919
  0.9663550137138097  0.6921728859512916  0.4967488715293354
  0.3540315856679597  0.9506685146149680  0.4541712001245551
  0.8293802198067652  0.3477370336712763  0.3373393842265706
 
  0.00000000E+00  0.00000000E+00  0.00000000E+00
  0.00000000E+00  0.00000000E+00  0.00000000E+00
  0.00000000E+00  0.00000000E+00  0.00000000E+00
  0.00000000E+00  0.00000000E+00  0.00000000E+00
  0.00000000E+00  0.00000000E+00  0.00000000E+00
  0.00000000E+00  0.00000000E+00  0.00000000E+00
  0.00000000E+00  0.00000000E+00  0.00000000E+00
  0.00000000E+00  0.00000000E+00  0.00000000E+00
  0.00000000E+00  0.00000000E+00  0.00000000E+00
  0.00000000E+00  0.00000000E+00  0.00000000E+00
  0.00000000E+00  0.00000000E+00  0.00000000E+00
  0.00000000E+00  0.00000000E+00  0.00000000E+00
  0.00000000E+00  0.00000000E+00  0.00000000E+00
  0.00000000E+00  0.00000000E+00  0.00000000E+00
  0.00000000E+00  0.00000000E+00  0.00000000E+00
  0.00000000E+00  0.00000000E+00  0.00000000E+00
  0.00000000E+00  0.00000000E+00  0.00000000E+00
  0.00000000E+00  0.00000000E+00  0.00000000E+00
  0.00000000E+00  0.00000000E+00  0.00000000E+00
  0.00000000E+00  0.00000000E+00  0.00000000E+00
  0.00000000E+00  0.00000000E+00  0.00000000E+00
  0.00000000E+00  0.00000000E+00  0.00000000E+00
  0.00000000E+00  0.00000000E+00  0.00000000E+00
  0.00000000E+00  0.00000000E+00  0.00000000E+00
  0.00000000E+00  0.00000000E+00  0.00000000E+00
  0.00000000E+00  0.00000000E+00  0.00000000E+00
  0.00000000E+00  0.00000000E+00  0.00000000E+00
  0.00000000E+00  0.00000000E+00  0.00000000E+00
  0.00000000E+00  0.00000000E+00  0.00000000E+00
  0.00000000E+00  0.00000000E+00  0.00000000E+00
  0.00000000E+00  0.00000000E+00  0.00000000E+00
  0.00000000E+00  0.00000000E+00  0.00000000E+00
  0.00000000E+00  0.00000000E+00  0.00000000E+00
  0.00000000E+00  0.00000000E+00  0.00000000E+00
  0.00000000E+00  0.00000000E+00  0.00000000E+00
  0.00000000E+00  0.00000000E+00  0.00000000E+00
  0.00000000E+00  0.00000000E+00  0.00000000E+00
  0.00000000E+00  0.00000000E+00  0.00000000E+00
  0.00000000E+00  0.00000000E+00  0.00000000E+00
  0.00000000E+00  0.00000000E+00  0.00000000E+00
  0.00000000E+00  0.00000000E+00  0.00000000E+00
  0.00000000E+00  0.00000000E+00  0.00000000E+00
  0.00000000E+00  0.00000000E+00  0.00000000E+00
  0.00000000E+00  0.00000000E+00  0.00000000E+00
  0.00000000E+00  0.00000000E+00  0.00000000E+00
  0.00000000E+00  0.00000000E+00  0.00000000E+00
  0.00000000E+00  0.00000000E+00  0.00000000E+00
  0.00000000E+00  0.00000000E+00  0.00000000E+00
  0.00000000E+00  0.00000000E+00  0.00000000E+00
  0.00000000E+00  0.00000000E+00  0.00000000E+00
  0.00000000E+00  0.00000000E+00  0.00000000E+00
  0.00000000E+00  0.00000000E+00  0.00000000E+00
  0.00000000E+00  0.00000000E+00  0.00000000E+00
  0.00000000E+00  0.00000000E+00  0.00000000E+00
  0.00000000E+00  0.00000000E+00  0.00000000E+00
  0.00000000E+00  0.00000000E+00  0.00000000E+00
  0.00000000E+00  0.00000000E+00  0.00000000E+00
  0.00000000E+00  0.00000000E+00  0.00000000E+00
  0.00000000E+00  0.00000000E+00  0.00000000E+00
  0.00000000E+00  0.00000000E+00  0.00000000E+00
  0.00000000E+00  0.00000000E+00  0.00000000E+00
  0.00000000E+00  0.00000000E+00  0.00000000E+00
  0.00000000E+00  0.00000000E+00  0.00000000E+00
  0.00000000E+00  0.00000000E+00  0.00000000E+00
  0.00000000E+00  0.00000000E+00  0.00000000E+00
  0.00000000E+00  0.00000000E+00  0.00000000E+00
  0.00000000E+00  0.00000000E+00  0.00000000E+00
  0.00000000E+00  0.00000000E+00  0.00000000E+00
  0.00000000E+00  0.00000000E+00  0.00000000E+00
  0.00000000E+00  0.00000000E+00  0.00000000E+00
  0.00000000E+00  0.00000000E+00  0.00000000E+00
  0.00000000E+00  0.00000000E+00  0.00000000E+00
  0.00000000E+00  0.00000000E+00  0.00000000E+00
  0.00000000E+00  0.00000000E+00  0.00000000E+00
  0.00000000E+00  0.00000000E+00  0.00000000E+00
  0.00000000E+00  0.00000000E+00  0.00000000E+00
  0.00000000E+00  0.00000000E+00  0.00000000E+00
  0.00000000E+00  0.00000000E+00  0.00000000E+00
  0.00000000E+00  0.00000000E+00  0.00000000E+00
  0.00000000E+00  0.00000000E+00  0.00000000E+00
  0.00000000E+00  0.00000000E+00  0.00000000E+00
  0.00000000E+00  0.00000000E+00  0.00000000E+00
  0.00000000E+00  0.00000000E+00  0.00000000E+00
  0.00000000E+00  0.00000000E+00  0.00000000E+00
  0.00000000E+00  0.00000000E+00  0.00000000E+00
  0.00000000E+00  0.00000000E+00  0.00000000E+00
  0.00000000E+00  0.00000000E+00  0.00000000E+00
  0.00000000E+00  0.00000000E+00  0.00000000E+00
  0.00000000E+00  0.00000000E+00  0.00000000E+00
  0.00000000E+00  0.00000000E+00  0.00000000E+00
  0.00000000E+00  0.00000000E+00  0.00000000E+00
  0.00000000E+00  0.00000000E+00  0.00000000E+00
  0.00000000E+00  0.00000000E+00  0.00000000E+00
  0.00000000E+00  0.00000000E+00  0.00000000E+00
  0.00000000E+00  0.00000000E+00  0.00000000E+00
  0.00000000E+00  0.00000000E+00  0.00000000E+00
  0.00000000E+00  0.00000000E+00  0.00000000E+00
  0.00000000E+00  0.00000000E+00  0.00000000E+00
  0.00000000E+00  0.00000000E+00  0.00000000E+00
  0.00000000E+00  0.00000000E+00  0.00000000E+00
  0.00000000E+00  0.00000000E+00  0.00000000E+00
  0.00000000E+00  0.00000000E+00  0.00000000E+00
  0.00000000E+00  0.00000000E+00  0.00000000E+00
  0.00000000E+00  0.00000000E+00  0.00000000E+00
  0.00000000E+00  0.00000000E+00  0.00000000E+00
  0.00000000E+00  0.00000000E+00  0.00000000E+00
  0.00000000E+00  0.00000000E+00  0.00000000E+00
  0.00000000E+00  0.00000000E+00  0.00000000E+00
  0.00000000E+00  0.00000000E+00  0.00000000E+00
  0.00000000E+00  0.00000000E+00  0.00000000E+00
  0.00000000E+00  0.00000000E+00  0.00000000E+00
  0.00000000E+00  0.00000000E+00  0.00000000E+00
  0.00000000E+00  0.00000000E+00  0.00000000E+00
  0.00000000E+00  0.00000000E+00  0.00000000E+00
  0.00000000E+00  0.00000000E+00  0.00000000E+00
  0.00000000E+00  0.00000000E+00  0.00000000E+00
  0.00000000E+00  0.00000000E+00  0.00000000E+00
  0.00000000E+00  0.00000000E+00  0.00000000E+00
  0.00000000E+00  0.00000000E+00  0.00000000E+00
  0.00000000E+00  0.00000000E+00  0.00000000E+00
  0.00000000E+00  0.00000000E+00  0.00000000E+00
  0.00000000E+00  0.00000000E+00  0.00000000E+00
  0.00000000E+00  0.00000000E+00  0.00000000E+00
  0.00000000E+00  0.00000000E+00  0.00000000E+00
  0.00000000E+00  0.00000000E+00  0.00000000E+00
  0.00000000E+00  0.00000000E+00  0.00000000E+00
  0.00000000E+00  0.00000000E+00  0.00000000E+00
  0.00000000E+00  0.00000000E+00  0.00000000E+00
  0.00000000E+00  0.00000000E+00  0.00000000E+00
  0.00000000E+00  0.00000000E+00  0.00000000E+00
  0.00000000E+00  0.00000000E+00  0.00000000E+00
  0.00000000E+00  0.00000000E+00  0.00000000E+00
  0.00000000E+00  0.00000000E+00  0.00000000E+00
  0.00000000E+00  0.00000000E+00  0.00000000E+00
  0.00000000E+00  0.00000000E+00  0.00000000E+00
  0.00000000E+00  0.00000000E+00  0.00000000E+00
  0.00000000E+00  0.00000000E+00  0.00000000E+00
  0.00000000E+00  0.00000000E+00  0.00000000E+00
  0.00000000E+00  0.00000000E+00  0.00000000E+00
  0.00000000E+00  0.00000000E+00  0.00000000E+00
  0.00000000E+00  0.00000000E+00  0.00000000E+00
  0.00000000E+00  0.00000000E+00  0.00000000E+00
  0.00000000E+00  0.00000000E+00  0.00000000E+00
  0.00000000E+00  0.00000000E+00  0.00000000E+00
  0.00000000E+00  0.00000000E+00  0.00000000E+00
  0.00000000E+00  0.00000000E+00  0.00000000E+00
  0.00000000E+00  0.00000000E+00  0.00000000E+00
  0.00000000E+00  0.00000000E+00  0.00000000E+00
  0.00000000E+00  0.00000000E+00  0.00000000E+00
  0.00000000E+00  0.00000000E+00  0.00000000E+00
