O  C  H  Co Li                          
   1.00000000000000     
    25.9869300199999991    0.0014776500000000   -0.0002841700000000
    12.9947443200000006   22.5035161499999994   -0.0005769100000000
    -0.0000740900000000   -0.0001328100000000    6.8098320599999997
   O    C    H    Co   Li
    54    67    16    18     4
Direct
  0.0615504916252288  0.2501611689524416  0.3191393277552674
  0.0390488622400620  0.2984155315466526  0.9694719722187745
  0.1055801445648454  0.2582854051255546  0.7265833460071820
  0.6947892959114245  0.0724741362271768  0.3258970663141465
  0.6600320723527072  0.0424017046203543 -0.0244315042948894
  0.6276660411133423  0.1081325446892860  0.7280018636098946
  0.0169892106105042  0.3921147156116129  0.6517686327784341
  0.2486812929195816  0.6960231197772507  0.3271516380429563
  0.3036214295779989  0.6596877835386996  0.9879475852212202
  0.2593334152958776  0.6419486075677860  0.7361015383918610
  0.5912264021274177  0.0193171350803601  0.6573477095596280
  0.3013319377420381  0.0317617477854891  0.3604124576023789
  0.2337667100276540  0.0702827784404406  0.5989511187692095
  0.2760713014247939  0.0768451094781357  0.0020724188474356
  0.6594352041232026  0.3190908854168407  0.3123045051523329
  0.6753220177889427  0.2563576054696575  0.5571344316030247
 -0.0010139318530718  0.6303592945968628  0.7038736160824329
  0.0274731141182315  0.5624224161546995  0.9403693026436127
  0.5934962454391878  0.2963625409041752 -0.0295032148733419
  0.0346887790681140  0.6671495165016099  0.3728876191630736
  0.0746578994780805  0.6942548831271915  0.6127242568006215
  0.3728878434170351 -0.0014226491829223  0.6925799288806719
  0.4116509311525797  0.0268810795696187  0.9323302731345894
  0.0806251233140949  0.6457845706975894  0.0145946027001587
  0.7058271573641747  0.9723746263297458  0.6360974956069491
  0.7771764927307471  0.9416634317763782  0.4103737999033555
  0.7321978855813706  0.9296924580244722 -0.0014238656825148
  0.3611230914421471  0.6889173507990698  0.5677672324726578
  0.3031903459359691  0.7668655618744883  0.3797474570356615
 -0.0070780943412239  0.3688858976448884  0.3039115320939133
  0.9702301836634497  0.4339237749720266  0.0577982737083793
  0.3462669365551287  0.7272725566537646  0.9838221432336780
  0.9729713710411283  0.3149039797846118  0.6357761319353006
  0.9255084808313520  0.2940857256702189  0.4007218311855711
  0.6366080773179950  0.0020132136393423  0.2997990057114741
  0.6021760035725051  0.9667070157723779  0.0662193646675271
  0.9217727236738619  0.3506258421262380  0.9863916140351739
  0.9399865573032323  0.7478122249528250  0.6775647660042599
  0.9629191212479479  0.7015325440359769  0.0364394509596196
  0.8963938724135398  0.7440408603037171  0.2756390617177169
  0.3192552647958648  0.9354142205067174  0.6635975287958236
  0.3402762649509322  0.9597314719527628  0.0234944670064062
  0.3662625243809653  0.8926686295123164  0.2619578798708384
  0.9784454777939826  0.6060579742323222  0.3433597101136593
  0.7776045944313790  0.2584484045028516  0.7745149402059285
  0.7006932619986773  0.3953517382456859  0.1083952245827986
  0.7634074459279108  0.3182784766288031  0.3009835738547446
  0.4191929254660460  0.9778122192861042  0.3341825380942112
  0.7020540442847154  0.4102183861513050  0.6259510196525675
  0.7358574076190458  0.4679705048439571  0.7343365872423876
  0.7817884385879995  0.4088643067203337  0.4723876965717534
  0.7878830426747837  0.1124567866869981  0.6216498729416127
  0.7710008912666446  0.1311828261884471  0.9443931644585090
  0.7597472366522176  0.0581241233498152  0.7998250809784933
  0.1134425903587931  0.2088258898734177  0.2389756526810440
  0.1548449340097540  0.1625265694292845  0.3572117314163405
  0.0892946261050144  0.2576391339300254  0.9023467514278458
  0.1288305068928754  0.2094344846823975  0.0376524362790449
  0.6707927395269346  0.1261006506832654  0.2316305003280381
  0.6725607594628645  0.1724139948378209  0.3313737256095940
  0.6457915490843519  0.0932993149604785  0.9042649051571117
  0.6463358807913916  0.1378320701480660  0.0388578772440038
  0.0066973556110863  0.4441419944900348  0.5742545682234718
  0.0116848650439876  0.4850188293763900  0.6953112981007623
  0.2096912502538145  0.6809155950691663  0.2483508076248445
  0.1640092807429704  0.6852387554339978  0.3672925316283056
  0.2593423749994157  0.6542156954220206  0.9162080853210065
  0.2119963748156655  0.6625327666286147  0.0496568400601392
  0.5507054923819090  0.0084731635734469  0.5759308365244044
  0.5044900001759132  0.0125067513227825  0.6932335704806245
  0.2498082461896986  0.0711393626349751  0.4234426303261348
  0.2095574047704329  0.1180043510738851  0.2851804801358573
  0.2246601725071830  0.1181835544758133  0.0831163541283724
  0.1832067672709684  0.1646192615633298  0.9650299531498727
  0.6614450569138349  0.2706252394484530  0.3795066770693848
  0.6504972554210858  0.2299660972921629  0.2543189862840113
  0.0102510660998097  0.5789702692753202  0.7654387478484980
  0.0025596851333436  0.5394993707180791  0.6254211742275105
  0.6226701502628719  0.2403572868474099  0.0688457942669388
  0.6216444755550981  0.1954497764894998  0.9649121922040523
  0.0744388856660879  0.6786794507683612  0.4361454911543855
  0.1207294162477408  0.6728886452969522  0.2967984072515881
  0.4126559907935937  0.0099422211840086  0.7568091842660416
  0.4600396801614118  0.0027031596026743  0.6194625281431345
  0.1214523246473176  0.6565527702077975  0.0954239924006266
  0.1679457643201382  0.6514281371172278  0.9777106251112241
  0.7590790915768886  0.9361304912409296  0.5794303101485248
  0.7982632002913925  0.8874678366278297  0.7152221708528446
  0.7828405492192754  0.8872420137786426  0.9174076761034397
  0.8224890987502534  0.8396197023933181  0.0350250213517727
  0.3308952220220223  0.7479882872727686  0.5403734223935144
  0.3329086778227646  0.7880857941178113  0.6905866719496954
  0.9845054496165884  0.4187285436660898  0.2354632318315250
  0.9918070666509049  0.4591483630874553  0.3724793818137939
  0.3425553348465053  0.7759217262212742  0.8990892785432067
  0.3473815391445599  0.8170697599538463  0.0181953314533368
  0.9338083334638422  0.3020118470740524  0.5825079075856131
  0.8939138490297226  0.3004218654200864  0.7354154888469968
  0.5989921144545780  0.9870233620028867  0.2385516871579466
  0.5513899840039534  0.9935665594940311  0.3732121877482019
  0.8858577933479066  0.3317979394171325  0.9143207009334547
  0.8354235392046058  0.3451375269483480  0.0251222399828354
  0.8903766579637660  0.7920991139144902  0.7598205346181690
  0.8513848891554228  0.8404505971949238  0.6426571349577194
  0.9129237755256182  0.7438470402715734  0.1001357438561141
  0.8753270526339726  0.7925003751064337  0.9622736577623205
  0.3276705841464018  0.8845694290358805  0.7434138486849836
  0.3240826693497300  0.8428916751752461  0.6222054451589089
  0.3496805426493672  0.9091508382468674  0.0867050863231464
  0.3408303745724325  0.8702943888916607  0.9470830346185483
  0.9877004784813229  0.5547493058845755  0.4229110837062262
  0.9826228147674133  0.5136296544447481  0.3023568799507070
  0.8099622166348844  0.2839881318858615  0.8193520290544983
  0.8576117156458302  0.2753493546887558  0.6975462696728416
  0.7489401030911075  0.3427064173101378  0.1298324841386491
  0.7980955116360767  0.3226045544120835  0.9826301052968287
  0.4605600501026906  0.9878383145527093  0.4164791961698358
  0.5069272890431733  0.9834770069515804  0.2993605956486520
  0.7429992519792146  0.4301335073728022  0.6051135888523004
  0.7728679976023818  0.1000762815395398  0.7960454079435435
  0.6293878853645112  0.3159447817287388 -0.0819591352452777
  0.1440347921630704  0.1613795003646870  0.5113987406787242
  0.6950042372257155  0.1628195663869487  0.4735262920946521
  0.0231092310046447  0.4736951049410910  0.8495441039338512
  0.1617318520667675  0.6987846434535564  0.5201822416631970
  0.5032809179852493  0.0241474889527244  0.8477698350390097
  0.1941063150630072  0.1656780072998330  0.8109337350948900
  0.6022235969092429  0.2048146897015001  0.8182123297246707
  0.1696962619922120  0.6383776971206426  0.8245489866286452
  0.8110280071617788  0.8392471612529578  0.1889537343330194
  0.3563934624410688  0.8068113525894905  0.1739328745238283
  0.8243924088236358  0.3774044165785829  0.1441238541368504
  0.8629094556418272  0.8407534561232828  0.4886952010406927
  0.3154734291496119  0.8534880974699984  0.4664260221480500
  0.9712521654646603  0.5249265337372403  0.1481138601191005
  0.8664423544606320  0.2473536679790016  0.5671150647119646
  0.5080010794051544  0.9719935814302980  0.1447146427835849
  0.6922398578701731  0.3568357160922053  0.4815654486086429
  0.2935537433445407  0.0158583960029120  0.7965280513935341
  0.6636231541417735  0.3488819938841045  0.0460992222293125
  0.9543620106852990  0.6868747445708514  0.4744061669137722
  0.3639021035121786  0.9524104129701538  0.4610986384046522
  0.3572306272640699  0.0217904693183384  0.1314592602156564
  0.7168183919288281  0.9908802338923043  0.2003401268436208
  0.3598650998539359  0.6621114023986865  0.8191962308800803
  0.6911762930782829  0.3004108027580308  0.7649566086125072
  0.9795297617209257  0.3041418761281589  0.1961204421538967
  0.3023871562358951  0.7112144642689813  0.1884750411803480
  0.9761520686987549  0.3751998041799777  0.8549652278618716
  0.6505692573813445  0.9756766400758836  0.8608052772227203
  0.0238194992766361  0.6218961070472786  0.1411545060774350
  0.6434621553035350  0.0505212371483214  0.5159482967207506
  0.0189530238873672  0.6905805949595940  0.8093854670645518
  0.3032460131862541  0.6608585164982892  0.5406156944113402
  0.0477804177070520  0.3096172654246429  0.5248446974191585
  0.8291594278292693  0.3312526257653758  0.4021835652423145
  0.6896976310224769  0.4456087901149899  0.8850510634820057
  0.7650005794913404  0.0588930175967688  0.5185628019682377
  0.7904083820412313  0.1750667017237678  0.7646867208820584
 
  0.00000000E+00  0.00000000E+00  0.00000000E+00
  0.00000000E+00  0.00000000E+00  0.00000000E+00
  0.00000000E+00  0.00000000E+00  0.00000000E+00
  0.00000000E+00  0.00000000E+00  0.00000000E+00
  0.00000000E+00  0.00000000E+00  0.00000000E+00
  0.00000000E+00  0.00000000E+00  0.00000000E+00
  0.00000000E+00  0.00000000E+00  0.00000000E+00
  0.00000000E+00  0.00000000E+00  0.00000000E+00
  0.00000000E+00  0.00000000E+00  0.00000000E+00
  0.00000000E+00  0.00000000E+00  0.00000000E+00
  0.00000000E+00  0.00000000E+00  0.00000000E+00
  0.00000000E+00  0.00000000E+00  0.00000000E+00
  0.00000000E+00  0.00000000E+00  0.00000000E+00
  0.00000000E+00  0.00000000E+00  0.00000000E+00
  0.00000000E+00  0.00000000E+00  0.00000000E+00
  0.00000000E+00  0.00000000E+00  0.00000000E+00
  0.00000000E+00  0.00000000E+00  0.00000000E+00
  0.00000000E+00  0.00000000E+00  0.00000000E+00
  0.00000000E+00  0.00000000E+00  0.00000000E+00
  0.00000000E+00  0.00000000E+00  0.00000000E+00
  0.00000000E+00  0.00000000E+00  0.00000000E+00
  0.00000000E+00  0.00000000E+00  0.00000000E+00
  0.00000000E+00  0.00000000E+00  0.00000000E+00
  0.00000000E+00  0.00000000E+00  0.00000000E+00
  0.00000000E+00  0.00000000E+00  0.00000000E+00
  0.00000000E+00  0.00000000E+00  0.00000000E+00
  0.00000000E+00  0.00000000E+00  0.00000000E+00
  0.00000000E+00  0.00000000E+00  0.00000000E+00
  0.00000000E+00  0.00000000E+00  0.00000000E+00
  0.00000000E+00  0.00000000E+00  0.00000000E+00
  0.00000000E+00  0.00000000E+00  0.00000000E+00
  0.00000000E+00  0.00000000E+00  0.00000000E+00
  0.00000000E+00  0.00000000E+00  0.00000000E+00
  0.00000000E+00  0.00000000E+00  0.00000000E+00
  0.00000000E+00  0.00000000E+00  0.00000000E+00
  0.00000000E+00  0.00000000E+00  0.00000000E+00
  0.00000000E+00  0.00000000E+00  0.00000000E+00
  0.00000000E+00  0.00000000E+00  0.00000000E+00
  0.00000000E+00  0.00000000E+00  0.00000000E+00
  0.00000000E+00  0.00000000E+00  0.00000000E+00
  0.00000000E+00  0.00000000E+00  0.00000000E+00
  0.00000000E+00  0.00000000E+00  0.00000000E+00
  0.00000000E+00  0.00000000E+00  0.00000000E+00
  0.00000000E+00  0.00000000E+00  0.00000000E+00
  0.00000000E+00  0.00000000E+00  0.00000000E+00
  0.00000000E+00  0.00000000E+00  0.00000000E+00
  0.00000000E+00  0.00000000E+00  0.00000000E+00
  0.00000000E+00  0.00000000E+00  0.00000000E+00
  0.00000000E+00  0.00000000E+00  0.00000000E+00
  0.00000000E+00  0.00000000E+00  0.00000000E+00
  0.00000000E+00  0.00000000E+00  0.00000000E+00
  0.00000000E+00  0.00000000E+00  0.00000000E+00
  0.00000000E+00  0.00000000E+00  0.00000000E+00
  0.00000000E+00  0.00000000E+00  0.00000000E+00
  0.00000000E+00  0.00000000E+00  0.00000000E+00
  0.00000000E+00  0.00000000E+00  0.00000000E+00
  0.00000000E+00  0.00000000E+00  0.00000000E+00
  0.00000000E+00  0.00000000E+00  0.00000000E+00
  0.00000000E+00  0.00000000E+00  0.00000000E+00
  0.00000000E+00  0.00000000E+00  0.00000000E+00
  0.00000000E+00  0.00000000E+00  0.00000000E+00
  0.00000000E+00  0.00000000E+00  0.00000000E+00
  0.00000000E+00  0.00000000E+00  0.00000000E+00
  0.00000000E+00  0.00000000E+00  0.00000000E+00
  0.00000000E+00  0.00000000E+00  0.00000000E+00
  0.00000000E+00  0.00000000E+00  0.00000000E+00
  0.00000000E+00  0.00000000E+00  0.00000000E+00
  0.00000000E+00  0.00000000E+00  0.00000000E+00
  0.00000000E+00  0.00000000E+00  0.00000000E+00
  0.00000000E+00  0.00000000E+00  0.00000000E+00
  0.00000000E+00  0.00000000E+00  0.00000000E+00
  0.00000000E+00  0.00000000E+00  0.00000000E+00
  0.00000000E+00  0.00000000E+00  0.00000000E+00
  0.00000000E+00  0.00000000E+00  0.00000000E+00
  0.00000000E+00  0.00000000E+00  0.00000000E+00
  0.00000000E+00  0.00000000E+00  0.00000000E+00
  0.00000000E+00  0.00000000E+00  0.00000000E+00
  0.00000000E+00  0.00000000E+00  0.00000000E+00
  0.00000000E+00  0.00000000E+00  0.00000000E+00
  0.00000000E+00  0.00000000E+00  0.00000000E+00
  0.00000000E+00  0.00000000E+00  0.00000000E+00
  0.00000000E+00  0.00000000E+00  0.00000000E+00
  0.00000000E+00  0.00000000E+00  0.00000000E+00
  0.00000000E+00  0.00000000E+00  0.00000000E+00
  0.00000000E+00  0.00000000E+00  0.00000000E+00
  0.00000000E+00  0.00000000E+00  0.00000000E+00
  0.00000000E+00  0.00000000E+00  0.00000000E+00
  0.00000000E+00  0.00000000E+00  0.00000000E+00
  0.00000000E+00  0.00000000E+00  0.00000000E+00
  0.00000000E+00  0.00000000E+00  0.00000000E+00
  0.00000000E+00  0.00000000E+00  0.00000000E+00
  0.00000000E+00  0.00000000E+00  0.00000000E+00
  0.00000000E+00  0.00000000E+00  0.00000000E+00
  0.00000000E+00  0.00000000E+00  0.00000000E+00
  0.00000000E+00  0.00000000E+00  0.00000000E+00
  0.00000000E+00  0.00000000E+00  0.00000000E+00
  0.00000000E+00  0.00000000E+00  0.00000000E+00
  0.00000000E+00  0.00000000E+00  0.00000000E+00
  0.00000000E+00  0.00000000E+00  0.00000000E+00
  0.00000000E+00  0.00000000E+00  0.00000000E+00
  0.00000000E+00  0.00000000E+00  0.00000000E+00
  0.00000000E+00  0.00000000E+00  0.00000000E+00
  0.00000000E+00  0.00000000E+00  0.00000000E+00
  0.00000000E+00  0.00000000E+00  0.00000000E+00
  0.00000000E+00  0.00000000E+00  0.00000000E+00
  0.00000000E+00  0.00000000E+00  0.00000000E+00
  0.00000000E+00  0.00000000E+00  0.00000000E+00
  0.00000000E+00  0.00000000E+00  0.00000000E+00
  0.00000000E+00  0.00000000E+00  0.00000000E+00
  0.00000000E+00  0.00000000E+00  0.00000000E+00
  0.00000000E+00  0.00000000E+00  0.00000000E+00
  0.00000000E+00  0.00000000E+00  0.00000000E+00
  0.00000000E+00  0.00000000E+00  0.00000000E+00
  0.00000000E+00  0.00000000E+00  0.00000000E+00
  0.00000000E+00  0.00000000E+00  0.00000000E+00
  0.00000000E+00  0.00000000E+00  0.00000000E+00
  0.00000000E+00  0.00000000E+00  0.00000000E+00
  0.00000000E+00  0.00000000E+00  0.00000000E+00
  0.00000000E+00  0.00000000E+00  0.00000000E+00
  0.00000000E+00  0.00000000E+00  0.00000000E+00
  0.00000000E+00  0.00000000E+00  0.00000000E+00
  0.00000000E+00  0.00000000E+00  0.00000000E+00
  0.00000000E+00  0.00000000E+00  0.00000000E+00
  0.00000000E+00  0.00000000E+00  0.00000000E+00
  0.00000000E+00  0.00000000E+00  0.00000000E+00
  0.00000000E+00  0.00000000E+00  0.00000000E+00
  0.00000000E+00  0.00000000E+00  0.00000000E+00
  0.00000000E+00  0.00000000E+00  0.00000000E+00
  0.00000000E+00  0.00000000E+00  0.00000000E+00
  0.00000000E+00  0.00000000E+00  0.00000000E+00
  0.00000000E+00  0.00000000E+00  0.00000000E+00
  0.00000000E+00  0.00000000E+00  0.00000000E+00
  0.00000000E+00  0.00000000E+00  0.00000000E+00
  0.00000000E+00  0.00000000E+00  0.00000000E+00
  0.00000000E+00  0.00000000E+00  0.00000000E+00
  0.00000000E+00  0.00000000E+00  0.00000000E+00
  0.00000000E+00  0.00000000E+00  0.00000000E+00
  0.00000000E+00  0.00000000E+00  0.00000000E+00
  0.00000000E+00  0.00000000E+00  0.00000000E+00
  0.00000000E+00  0.00000000E+00  0.00000000E+00
  0.00000000E+00  0.00000000E+00  0.00000000E+00
  0.00000000E+00  0.00000000E+00  0.00000000E+00
  0.00000000E+00  0.00000000E+00  0.00000000E+00
  0.00000000E+00  0.00000000E+00  0.00000000E+00
  0.00000000E+00  0.00000000E+00  0.00000000E+00
  0.00000000E+00  0.00000000E+00  0.00000000E+00
  0.00000000E+00  0.00000000E+00  0.00000000E+00
  0.00000000E+00  0.00000000E+00  0.00000000E+00
  0.00000000E+00  0.00000000E+00  0.00000000E+00
  0.00000000E+00  0.00000000E+00  0.00000000E+00
  0.00000000E+00  0.00000000E+00  0.00000000E+00
  0.00000000E+00  0.00000000E+00  0.00000000E+00
  0.00000000E+00  0.00000000E+00  0.00000000E+00
  0.00000000E+00  0.00000000E+00  0.00000000E+00
  0.00000000E+00  0.00000000E+00  0.00000000E+00
  0.00000000E+00  0.00000000E+00  0.00000000E+00
  0.00000000E+00  0.00000000E+00  0.00000000E+00
  0.00000000E+00  0.00000000E+00  0.00000000E+00
  0.00000000E+00  0.00000000E+00  0.00000000E+00
