 running on   24 total cores
 distrk:  each k-point on   24 cores,    1 groups
 distr:  one band on    4 cores,    6 groups
 using from now: INCAR     
 vasp.5.4.4.18Apr17-6-g9f103f2a35 (build May 21 2019 18:34:56) complex          
  
 POSCAR found type information on POSCAR  O  C  H  Co Li
 POSCAR found :  5 types and     159 ions
 LDA part: xc-table for Pade appr. of Perdew
 POSCAR found type information on POSCAR  O  C  H  Co Li
 POSCAR found :  5 types and     159 ions
 POSCAR, INCAR and KPOINTS ok, starting setup
 FFT: planning ...
 WAVECAR not read
 WARNING: random wavefunctions but no delay for mixing, default for NELMDL
 entering main loop
       N       E                     dE             d eps       ncg     rms          rms(c)
DAV:   1     0.832957378832E+04    0.83296E+04   -0.32538E+05  1992   0.134E+03
DAV:   2     0.829505910911E+03   -0.75001E+04   -0.67340E+04  2340   0.410E+02
DAV:   3    -0.117886272972E+04   -0.20084E+04   -0.19124E+04  3372   0.212E+02
DAV:   4    -0.133549930764E+04   -0.15664E+03   -0.14571E+03  3156   0.669E+01
DAV:   5    -0.134370844746E+04   -0.82091E+01   -0.75328E+01  3324   0.148E+01    0.155E+02
RMM:   6    -0.182352074373E+04   -0.47981E+03   -0.33141E+03  2609   0.133E+02    0.497E+02
RMM:   7    -0.158995005691E+04    0.23357E+03   -0.23786E+02  2001   0.457E+01    0.302E+02
RMM:   8    -0.119156146563E+04    0.39839E+03   -0.54352E+02  2212   0.479E+01    0.107E+02
RMM:   9    -0.129661758983E+04   -0.10506E+03   -0.15568E+02  2248   0.237E+01    0.160E+02
RMM:  10    -0.129573669978E+04    0.88089E+00   -0.87375E+01  2171   0.202E+01    0.161E+02
RMM:  11    -0.120427253410E+04    0.91464E+02   -0.58333E+01  2066   0.170E+01    0.119E+02
RMM:  12    -0.125938745560E+04   -0.55115E+02   -0.99853E+01  2016   0.236E+01    0.127E+02
RMM:  13    -0.119659456863E+04    0.62793E+02   -0.75060E+01  2121   0.186E+01    0.121E+02
RMM:  14    -0.117131149188E+04    0.25283E+02   -0.52705E+01  2098   0.164E+01    0.115E+02
RMM:  15    -0.116290527355E+04    0.84062E+01   -0.34560E+01  2152   0.126E+01    0.110E+02
RMM:  16    -0.113795031171E+04    0.24955E+02   -0.18999E+01  2178   0.898E+00    0.904E+01
RMM:  17    -0.111641905300E+04    0.21531E+02   -0.16476E+01  2120   0.885E+00    0.813E+01
RMM:  18    -0.111348844591E+04    0.29306E+01   -0.93911E+00  2172   0.635E+00    0.675E+01
RMM:  19    -0.111737817202E+04   -0.38897E+01   -0.71317E+00  2142   0.568E+00    0.778E+01
RMM:  20    -0.110848792587E+04    0.88902E+01   -0.53260E+00  2176   0.490E+00    0.455E+01
RMM:  21    -0.111015435000E+04   -0.16664E+01   -0.32406E+00  2162   0.374E+00    0.531E+01
RMM:  22    -0.110914485235E+04    0.10095E+01   -0.20072E+00  2134   0.298E+00    0.343E+01
RMM:  23    -0.111189413427E+04   -0.27493E+01   -0.14715E+00  2127   0.256E+00    0.456E+01
RMM:  24    -0.111110490480E+04    0.78923E+00   -0.68622E-01  2056   0.182E+00    0.370E+01
RMM:  25    -0.111104452664E+04    0.60378E-01   -0.18671E-01  2168   0.920E-01    0.367E+01
RMM:  26    -0.111100182662E+04    0.42700E-01   -0.37937E-02  2386   0.364E-01    0.367E+01
RMM:  27    -0.111091291599E+04    0.88911E-01   -0.21363E-02  2188   0.283E-01    0.365E+01
RMM:  28    -0.111128678906E+04   -0.37387E+00   -0.20848E-01  2072   0.881E-01    0.402E+01
RMM:  29    -0.111117543680E+04    0.11135E+00   -0.63143E-02  2114   0.539E-01    0.402E+01
RMM:  30    -0.111113071404E+04    0.44723E-01   -0.19481E-02  2318   0.254E-01    0.404E+01
RMM:  31    -0.111137978998E+04   -0.24908E+00   -0.77025E-02  2162   0.526E-01    0.405E+01
RMM:  32    -0.111127582053E+04    0.10397E+00   -0.55372E-02  2069   0.522E-01    0.395E+01
RMM:  33    -0.111173800982E+04   -0.46219E+00   -0.33430E-02  2132   0.364E-01    0.395E+01
RMM:  34    -0.111200534609E+04   -0.26734E+00   -0.79740E-02  2079   0.577E-01    0.409E+01
RMM:  35    -0.111299765676E+04   -0.99231E+00   -0.22375E-01  2077   0.917E-01    0.416E+01
RMM:  36    -0.111329292629E+04   -0.29527E+00   -0.10001E-01  2062   0.712E-01    0.413E+01
RMM:  37    -0.111299579745E+04    0.29713E+00   -0.60093E-02  2050   0.527E-01    0.415E+01
RMM:  38    -0.111332284691E+04   -0.32705E+00   -0.73264E-02  2202   0.501E-01    0.415E+01
RMM:  39    -0.111393120083E+04   -0.60835E+00   -0.93178E-02  2123   0.592E-01    0.410E+01
RMM:  40    -0.111382722140E+04    0.10398E+00   -0.21313E-02  2158   0.277E-01    0.409E+01
RMM:  41    -0.111678788836E+04   -0.29607E+01   -0.71229E-01  2087   0.153E+00    0.409E+01
RMM:  42    -0.112067822039E+04   -0.38903E+01   -0.81870E-01  2167   0.154E+00    0.422E+01
RMM:  43    -0.112131502790E+04   -0.63681E+00   -0.18912E-01  2251   0.893E-01    0.421E+01
RMM:  44    -0.112212902154E+04   -0.81399E+00   -0.15619E-01  2350   0.621E-01    0.407E+01
RMM:  45    -0.112473490949E+04   -0.26059E+01   -0.70682E-01  2084   0.150E+00    0.379E+01
RMM:  46    -0.112981871955E+04   -0.50838E+01   -0.27526E+00  2063   0.274E+00    0.385E+01
RMM:  47    -0.112997756531E+04   -0.15885E+00   -0.32211E+00  2256   0.298E+00    0.390E+01
RMM:  48    -0.113071881960E+04   -0.74125E+00   -0.11410E+00  2406   0.183E+00    0.376E+01
RMM:  49    -0.113086877900E+04   -0.14996E+00   -0.27376E-01  2521   0.807E-01    0.363E+01
RMM:  50    -0.112976270381E+04    0.11061E+01   -0.40779E-01  2062   0.113E+00    0.363E+01
RMM:  51    -0.112629044799E+04    0.34723E+01   -0.49686E+00  2018   0.495E+00    0.377E+01
RMM:  52    -0.112919591130E+04   -0.29055E+01   -0.11483E+00  2229   0.227E+00    0.338E+01
RMM:  53    -0.113322026215E+04   -0.40244E+01   -0.12381E+00  2074   0.229E+00    0.291E+01
RMM:  54    -0.113600263518E+04   -0.27824E+01   -0.14847E+00  2158   0.223E+00    0.299E+01
RMM:  55    -0.113594024866E+04    0.62387E-01   -0.33418E-01  2284   0.104E+00    0.290E+01
RMM:  56    -0.113655431559E+04   -0.61407E+00   -0.18187E+00  2084   0.251E+00    0.274E+01
RMM:  57    -0.113713095694E+04   -0.57664E+00   -0.40410E-01  2031   0.144E+00    0.248E+01
RMM:  58    -0.113727794023E+04   -0.14698E+00   -0.14539E-01  2542   0.614E-01    0.244E+01
RMM:  59    -0.113813641610E+04   -0.85848E+00   -0.26712E-01  2038   0.101E+00    0.243E+01
RMM:  60    -0.113856807217E+04   -0.43166E+00   -0.36106E-01  2193   0.114E+00    0.216E+01
RMM:  61    -0.114040346851E+04   -0.18354E+01   -0.16459E+00  2012   0.240E+00    0.333E+01
RMM:  62    -0.114075580976E+04   -0.35234E+00   -0.49985E-01  2195   0.133E+00    0.312E+01
RMM:  63    -0.114097845647E+04   -0.22265E+00   -0.39183E-01  2180   0.109E+00    0.260E+01
RMM:  64    -0.114171685874E+04   -0.73840E+00   -0.18803E-01  2157   0.842E-01    0.251E+01
RMM:  65    -0.114183293595E+04   -0.11608E+00   -0.70393E-02  2579   0.412E-01    0.250E+01
RMM:  66    -0.114135868638E+04    0.47425E+00   -0.81419E-01  2040   0.182E+00    0.316E+01
RMM:  67    -0.114118045150E+04    0.17823E+00   -0.37455E-01  2051   0.139E+00    0.207E+01
RMM:  68    -0.114212032831E+04   -0.93988E+00   -0.24509E-01  2052   0.100E+00    0.189E+01
RMM:  69    -0.114309590711E+04   -0.97558E+00   -0.22274E-01  2136   0.812E-01    0.181E+01
RMM:  70    -0.114473599790E+04   -0.16401E+01   -0.30644E-01  2124   0.893E-01    0.152E+01
RMM:  71    -0.115325473804E+04   -0.85187E+01   -0.28294E+00  2141   0.312E+00    0.461E+01
RMM:  72    -0.114700580895E+04    0.62489E+01   -0.11876E+00  2066   0.248E+00    0.239E+01
RMM:  73    -0.114724664225E+04   -0.24083E+00   -0.39291E-01  2127   0.136E+00    0.217E+01
RMM:  74    -0.114770785036E+04   -0.46121E+00   -0.16894E-01  2290   0.777E-01    0.183E+01
RMM:  75    -0.114843447462E+04   -0.72662E+00   -0.23178E-01  2119   0.945E-01    0.186E+01
RMM:  76    -0.114912115426E+04   -0.68668E+00   -0.11165E+00  2093   0.210E+00    0.274E+01
RMM:  77    -0.114877400460E+04    0.34715E+00   -0.37007E-01  2166   0.133E+00    0.203E+01
RMM:  78    -0.114870875174E+04    0.65253E-01   -0.13182E-01  2090   0.784E-01    0.183E+01
RMM:  79    -0.114889706003E+04   -0.18831E+00   -0.12043E-01  2201   0.662E-01    0.142E+01
RMM:  80    -0.114967786405E+04   -0.78080E+00   -0.15645E-01  2189   0.740E-01    0.114E+01
RMM:  81    -0.115079869357E+04   -0.11208E+01   -0.99498E-01  2133   0.194E+00    0.323E+01
RMM:  82    -0.115026441795E+04    0.53428E+00   -0.58205E-01  2031   0.164E+00    0.927E+00
RMM:  83    -0.115117254500E+04   -0.90813E+00   -0.24807E-01  2139   0.105E+00    0.790E+00
RMM:  84    -0.115188777766E+04   -0.71523E+00   -0.14480E-01  2213   0.623E-01    0.798E+00
RMM:  85    -0.115252536177E+04   -0.63758E+00   -0.11407E-01  2198   0.495E-01    0.722E+00
RMM:  86    -0.115320751495E+04   -0.68215E+00   -0.19921E-01  2102   0.767E-01    0.761E+00
RMM:  87    -0.115328556347E+04   -0.78049E-01   -0.72364E-02  2168   0.542E-01    0.548E+00
RMM:  88    -0.115395324516E+04   -0.66768E+00   -0.78391E-02  2111   0.439E-01    0.526E+00
RMM:  89    -0.115452931793E+04   -0.57607E+00   -0.72881E-02  2278   0.386E-01    0.490E+00
RMM:  90    -0.115501861218E+04   -0.48929E+00   -0.58093E-02  2305   0.330E-01    0.479E+00
RMM:  91    -0.115554649614E+04   -0.52788E+00   -0.85931E-02  2197   0.482E-01    0.609E+00
RMM:  92    -0.115556314435E+04   -0.16648E-01   -0.17936E-02  2271   0.250E-01    0.656E+00
RMM:  93    -0.115556450997E+04   -0.13656E-02   -0.76840E-03  2296   0.173E-01    0.737E+00
RMM:  94    -0.115562086509E+04   -0.56355E-01   -0.34605E-03  2219   0.105E-01    0.818E+00
RMM:  95    -0.115562401358E+04   -0.31485E-02   -0.62810E-03  2096   0.166E-01    0.821E+00
RMM:  96    -0.115554747450E+04    0.76539E-01   -0.36827E-02  2135   0.388E-01    0.435E+00
RMM:  97    -0.115569935185E+04   -0.15188E+00   -0.28437E-02  2089   0.362E-01    0.368E+00
RMM:  98    -0.115586657040E+04   -0.16722E+00   -0.21344E-02  2245   0.251E-01    0.365E+00
RMM:  99    -0.115600125122E+04   -0.13468E+00   -0.12067E-02  2353   0.175E-01    0.332E+00
RMM: 100    -0.115608889762E+04   -0.87646E-01   -0.98224E-03  2288   0.160E-01    0.298E+00
RMM: 101    -0.115617666159E+04   -0.87764E-01   -0.71619E-03  2449   0.119E-01    0.272E+00
RMM: 102    -0.115623975711E+04   -0.63096E-01   -0.50888E-03  2416   0.104E-01    0.261E+00
RMM: 103    -0.115626219285E+04   -0.22436E-01   -0.24286E-03  2524   0.707E-02    0.256E+00
RMM: 104    -0.115627034009E+04   -0.81472E-02   -0.58903E-04  2149   0.499E-02    0.253E+00
RMM: 105    -0.115628001397E+04   -0.96739E-02   -0.18079E-03  2101   0.676E-02    0.255E+00
RMM: 106    -0.115627212167E+04    0.78923E-02   -0.28045E-02  2092   0.297E-01    0.285E+00
RMM: 107    -0.115629598271E+04   -0.23861E-01   -0.71072E-03  2099   0.192E-01    0.277E+00
RMM: 108    -0.115629555807E+04    0.42464E-03   -0.93221E-03  2160   0.167E-01    0.327E+00
RMM: 109    -0.115629099887E+04    0.45592E-02   -0.18951E-03  2378   0.634E-02    0.336E+00
RMM: 110    -0.115631690499E+04   -0.25906E-01   -0.95598E-04  2090   0.637E-02    0.320E+00
RMM: 111    -0.115644713321E+04   -0.13023E+00   -0.14560E-02  2036   0.222E-01    0.289E+00
RMM: 112    -0.115640172411E+04    0.45409E-01   -0.52394E-03  2064   0.146E-01    0.229E+00
RMM: 113    -0.115641514615E+04   -0.13422E-01   -0.35642E-03  2345   0.104E-01    0.217E+00
RMM: 114    -0.115653077951E+04   -0.11563E+00   -0.88064E-03  2031   0.164E-01    0.209E+00
RMM: 115    -0.115665021312E+04   -0.11943E+00   -0.89173E-03  2260   0.146E-01    0.160E+00
RMM: 116    -0.115673960426E+04   -0.89391E-01   -0.66460E-03  2416   0.115E-01    0.140E+00
RMM: 117    -0.115681063739E+04   -0.71033E-01   -0.40621E-03  2446   0.892E-02    0.927E-01
RMM: 118    -0.115688324036E+04   -0.72603E-01   -0.33186E-03  2284   0.765E-02    0.887E-01
RMM: 119    -0.115695474466E+04   -0.71504E-01   -0.33125E-03  2434   0.678E-02    0.727E-01
RMM: 120    -0.115703976857E+04   -0.85024E-01   -0.40831E-03  2335   0.678E-02
   1 F= -.11650187E+04 E0= -.11650132E+04  d E =-.116502E+04  mag=    22.4950
 curvature:   0.00 expect dE= 0.000E+00 dE for cont linesearch  0.000E+00
 trial: gam= 0.00000 g(F)=  0.297E+00 g(S)=  0.000E+00 ort = 0.000E+00 (trialstep = 0.100E+01)
 search vector abs. value=  0.297E+00
 bond charge predicted
       N       E                     dE             d eps       ncg     rms          rms(c)
DAV:   1    -0.115693432206E+04    0.20423E-01   -0.10493E+02  2088   0.159E+01    0.354E+00
RMM:   2    -0.115728101476E+04   -0.34669E+00   -0.23259E+00  2136   0.304E+00    0.486E+00
RMM:   3    -0.115745027803E+04   -0.16926E+00   -0.57745E-01  2350   0.148E+00    0.755E+00
RMM:   4    -0.115733506608E+04    0.11521E+00   -0.19249E-01  2358   0.801E-01    0.336E+00
RMM:   5    -0.115732336852E+04    0.11698E-01   -0.66491E-02  2243   0.509E-01    0.218E+00
RMM:   6    -0.115735555087E+04   -0.32182E-01   -0.41527E-02  2262   0.394E-01    0.622E+00
RMM:   7    -0.115733629878E+04    0.19252E-01   -0.32810E-02  2271   0.358E-01    0.171E+00
RMM:   8    -0.115736087052E+04   -0.24572E-01   -0.27307E-02  2176   0.361E-01    0.226E+00
RMM:   9    -0.115737066552E+04   -0.97950E-02   -0.18506E-02  2265   0.269E-01    0.148E+00
RMM:  10    -0.115737477818E+04   -0.41127E-02   -0.10548E-02  2225   0.220E-01    0.126E+00
RMM:  11    -0.115737980227E+04   -0.50241E-02   -0.58620E-03  2287   0.144E-01    0.595E-01
RMM:  12    -0.115738612289E+04   -0.63206E-02   -0.25742E-03  2194   0.105E-01    0.382E-01
RMM:  13    -0.115739106716E+04   -0.49443E-02   -0.15960E-03  2234   0.754E-02    0.406E-01
RMM:  14    -0.115739805237E+04   -0.69852E-02   -0.79153E-04  2336   0.490E-02    0.526E-01
RMM:  15    -0.115740155302E+04   -0.35007E-02   -0.51516E-04  2193   0.423E-02    0.590E-01
RMM:  16    -0.115740666488E+04   -0.51119E-02   -0.44135E-04  2324   0.338E-02    0.460E-01
RMM:  17    -0.115741132051E+04   -0.46556E-02   -0.33613E-04  2302   0.287E-02    0.295E-01
RMM:  18    -0.115741516980E+04   -0.38493E-02   -0.24891E-04  2189   0.249E-02    0.307E-01
RMM:  19    -0.115741836294E+04   -0.31931E-02   -0.15552E-04  2170   0.177E-02    0.328E-01
RMM:  20    -0.115742060081E+04   -0.22379E-02   -0.88301E-05  2044   0.124E-02    0.328E-01
RMM:  21    -0.115742393225E+04   -0.33314E-02   -0.10765E-04  2080   0.123E-02    0.324E-01
RMM:  22    -0.115742707552E+04   -0.31433E-02   -0.12359E-04  2153   0.142E-02    0.260E-01
RMM:  23    -0.115743139745E+04   -0.43219E-02   -0.22699E-04  2193   0.170E-02    0.129E-01
RMM:  24    -0.115743425843E+04   -0.28610E-02   -0.14582E-04  2176   0.130E-02    0.117E-01
RMM:  25    -0.115743613228E+04   -0.18739E-02   -0.79810E-05  2068   0.975E-03    0.108E-01
RMM:  26    -0.115743831162E+04   -0.21793E-02   -0.88387E-05  2079   0.107E-02    0.118E-01
RMM:  27    -0.115744081072E+04   -0.24991E-02   -0.13492E-04  2111   0.126E-02    0.826E-02
RMM:  28    -0.115744361456E+04   -0.28038E-02   -0.19704E-04  2284   0.128E-02    0.434E-02
RMM:  29    -0.115744476033E+04   -0.11458E-02   -0.79449E-05  2150   0.965E-03    0.405E-02
RMM:  30    -0.115744524252E+04   -0.48218E-03   -0.33107E-05  1908   0.715E-03    0.261E-02
RMM:  31    -0.115744584310E+04   -0.60058E-03   -0.30632E-05  1977   0.626E-03    0.195E-02
RMM:  32    -0.115744632486E+04   -0.48177E-03   -0.17067E-05  1796   0.460E-03    0.128E-02
RMM:  33    -0.115744659754E+04   -0.27268E-03   -0.94140E-06  1654   0.329E-03    0.986E-03
RMM:  34    -0.115744676351E+04   -0.16596E-03   -0.42675E-06  1442   0.288E-03    0.944E-03
RMM:  35    -0.115744688657E+04   -0.12306E-03   -0.33033E-06  1393   0.238E-03    0.799E-03
RMM:  36    -0.115744703497E+04   -0.14840E-03   -0.45716E-06  1464   0.244E-03    0.102E-02
RMM:  37    -0.115744717795E+04   -0.14298E-03   -0.63263E-06  1564   0.247E-03    0.111E-02
RMM:  38    -0.115744724831E+04   -0.70354E-04   -0.31164E-06  1372   0.211E-03    0.681E-03
RMM:  39    -0.115744730016E+04   -0.51851E-04   -0.36018E-06  1383   0.199E-03    0.761E-03
RMM:  40    -0.115744731575E+04   -0.15593E-04   -0.24593E-06  1300   0.184E-03    0.694E-03
RMM:  41    -0.115744732599E+04   -0.10240E-04   -0.18807E-06  1219   0.162E-03    0.452E-03
RMM:  42    -0.115744733329E+04   -0.72994E-05   -0.10156E-06  1122   0.142E-03    0.351E-03
RMM:  43    -0.115744733538E+04   -0.20856E-05   -0.64423E-07  1062   0.110E-03    0.404E-03
RMM:  44    -0.115744733889E+04   -0.35118E-05   -0.46322E-07  1050   0.958E-04    0.327E-03
RMM:  45    -0.115744735049E+04   -0.11603E-04   -0.47647E-07  1046   0.883E-04    0.164E-03
RMM:  46    -0.115744735772E+04   -0.72288E-05   -0.36203E-07  1013   0.842E-04    0.785E-04
RMM:  47    -0.115744736379E+04   -0.60664E-05   -0.36631E-07  1036   0.746E-04    0.107E-03
RMM:  48    -0.115744736710E+04   -0.33108E-05   -0.28975E-07   984   0.735E-04    0.918E-04
RMM:  49    -0.115744736833E+04   -0.12382E-05   -0.20967E-07   887   0.606E-04    0.599E-04
RMM:  50    -0.115744736911E+04   -0.77164E-06   -0.15827E-07   885   0.569E-04
   2 F= -.11654255E+04 E0= -.11654125E+04  d E =-.406743E+00  mag=    21.6484
 trial-energy change:   -0.406743  1 .order   -0.162943   -0.296884   -0.029001
 step:   1.0165(harm=  1.1083)  dis= 0.04397  next Energy= -1165.425703 (dE=-0.407E+00)
 bond charge predicted
       N       E                     dE             d eps       ncg     rms          rms(c)
DAV:   1    -0.115744776801E+04   -0.39968E-03   -0.28482E-02  2118   0.259E-01    0.651E-02
RMM:   2    -0.115744787337E+04   -0.10536E-03   -0.44179E-04  2039   0.446E-02    0.236E-01
RMM:   3    -0.115744786229E+04    0.11082E-04   -0.18548E-04  2200   0.230E-02    0.253E-01
RMM:   4    -0.115744784951E+04    0.12779E-04   -0.80672E-05  1882   0.189E-02    0.175E-01
RMM:   5    -0.115744780756E+04    0.41943E-04   -0.26999E-05  1652   0.109E-02    0.165E-01
RMM:   6    -0.115744779324E+04    0.14320E-04   -0.88209E-06  1472   0.620E-03    0.115E-01
RMM:   7    -0.115744778676E+04    0.64850E-05   -0.76689E-06  1450   0.583E-03    0.812E-02
RMM:   8    -0.115744776091E+04    0.25850E-04   -0.12503E-05  1644   0.671E-03    0.326E-02
RMM:   9    -0.115744775348E+04    0.74258E-05   -0.84758E-06  1450   0.623E-03    0.275E-02
RMM:  10    -0.115744774565E+04    0.78382E-05   -0.31407E-06  1325   0.388E-03    0.194E-02
RMM:  11    -0.115744773927E+04    0.63798E-05   -0.16030E-06  1203   0.302E-03    0.150E-02
RMM:  12    -0.115744773527E+04    0.39998E-05   -0.10807E-06  1172   0.238E-03    0.243E-02
RMM:  13    -0.115744772904E+04    0.62253E-05   -0.95433E-07  1149   0.202E-03    0.277E-02
RMM:  14    -0.115744772459E+04    0.44486E-05   -0.78934E-07  1129   0.190E-03    0.259E-02
RMM:  15    -0.115744771931E+04    0.52851E-05   -0.72218E-07  1124   0.158E-03    0.206E-02
RMM:  16    -0.115744771654E+04    0.27722E-05   -0.57753E-07  1094   0.159E-03    0.164E-02
RMM:  17    -0.115744771648E+04    0.52591E-07   -0.45848E-07  1060   0.130E-03
   3 F= -.11654258E+04 E0= -.11654131E+04  d E =-.407073E+00  mag=    21.6578
 curvature:  -0.16 expect dE=-0.586E-01 dE for cont linesearch -0.327E-03
 trial: gam= 1.17897 g(F)=  0.375E+00 g(S)=  0.000E+00 ort = 0.249E-01 (trialstep = 0.352E+00)
 search vector abs. value=  0.846E+00
 bond charge predicted
       N       E                     dE             d eps       ncg     rms          rms(c)
DAV:   1    -0.115745271511E+04   -0.49986E-02   -0.36097E+01  2004   0.932E+00    0.199E+00
RMM:   2    -0.115753369677E+04   -0.80982E-01   -0.61497E-01  2226   0.152E+00    0.311E+00
RMM:   3    -0.115761156120E+04   -0.77864E-01   -0.20062E-01  2430   0.731E-01    0.425E+00
RMM:   4    -0.115754415027E+04    0.67411E-01   -0.46361E-02  2313   0.406E-01    0.202E+00
RMM:   5    -0.115754819108E+04   -0.40408E-02   -0.26498E-02  2340   0.288E-01    0.256E+00
RMM:   6    -0.115754002458E+04    0.81665E-02   -0.92315E-03  2288   0.198E-01    0.123E+00
RMM:   7    -0.115754463580E+04   -0.46112E-02   -0.80959E-03  2221   0.180E-01    0.150E+00
RMM:   8    -0.115754113199E+04    0.35038E-02   -0.64653E-03  2274   0.145E-01    0.920E-01
RMM:   9    -0.115753781360E+04    0.33184E-02   -0.49271E-03  2264   0.139E-01    0.387E-01
RMM:  10    -0.115753751255E+04    0.30105E-03   -0.27986E-03  2251   0.106E-01    0.619E-01
RMM:  11    -0.115753617842E+04    0.13341E-02   -0.15081E-03  2179   0.828E-02    0.390E-01
RMM:  12    -0.115753615562E+04    0.22795E-04   -0.84239E-04  2184   0.556E-02    0.355E-01
RMM:  13    -0.115753629452E+04   -0.13890E-03   -0.45722E-04  2152   0.429E-02    0.237E-01
RMM:  14    -0.115753647842E+04   -0.18390E-03   -0.23647E-04  2105   0.332E-02    0.987E-02
RMM:  15    -0.115753694372E+04   -0.46530E-03   -0.95932E-05  2099   0.189E-02    0.995E-02
RMM:  16    -0.115753724418E+04   -0.30046E-03   -0.59563E-05  1895   0.143E-02    0.879E-02
RMM:  17    -0.115753755238E+04   -0.30820E-03   -0.30193E-05  1753   0.103E-02    0.553E-02
RMM:  18    -0.115753806820E+04   -0.51582E-03   -0.25354E-05  1767   0.948E-03    0.527E-02
RMM:  19    -0.115753848464E+04   -0.41644E-03   -0.20832E-05  1694   0.848E-03    0.528E-02
RMM:  20    -0.115753907107E+04   -0.58643E-03   -0.19296E-05  1725   0.732E-03    0.482E-02
RMM:  21    -0.115753945268E+04   -0.38161E-03   -0.13962E-05  1635   0.597E-03    0.358E-02
RMM:  22    -0.115753975220E+04   -0.29952E-03   -0.74720E-06  1556   0.457E-03    0.201E-02
RMM:  23    -0.115754019778E+04   -0.44558E-03   -0.89094E-06  1630   0.386E-03    0.215E-02
RMM:  24    -0.115754058469E+04   -0.38692E-03   -0.84180E-06  1600   0.412E-03    0.255E-02
RMM:  25    -0.115754118611E+04   -0.60142E-03   -0.16227E-05  1776   0.454E-03    0.205E-02
RMM:  26    -0.115754166056E+04   -0.47444E-03   -0.13855E-05  1799   0.403E-03    0.141E-02
RMM:  27    -0.115754202194E+04   -0.36138E-03   -0.10388E-05  1685   0.351E-03    0.124E-02
RMM:  28    -0.115754226549E+04   -0.24355E-03   -0.69598E-06  1613   0.323E-03    0.152E-02
RMM:  29    -0.115754240457E+04   -0.13908E-03   -0.42184E-06  1455   0.271E-03    0.132E-02
RMM:  30    -0.115754258156E+04   -0.17699E-03   -0.57652E-06  1524   0.266E-03    0.844E-03
RMM:  31    -0.115754274295E+04   -0.16139E-03   -0.75490E-06  1645   0.261E-03    0.315E-03
RMM:  32    -0.115754281974E+04   -0.76789E-04   -0.41019E-06  1428   0.223E-03    0.308E-03
RMM:  33    -0.115754284137E+04   -0.21636E-04   -0.17675E-06  1215   0.185E-03    0.306E-03
RMM:  34    -0.115754285356E+04   -0.12191E-04   -0.95017E-07  1105   0.138E-03    0.226E-03
RMM:  35    -0.115754286377E+04   -0.10204E-04   -0.71770E-07  1093   0.117E-03    0.146E-03
RMM:  36    -0.115754287075E+04   -0.69771E-05   -0.64745E-07  1064   0.103E-03    0.102E-03
RMM:  37    -0.115754287365E+04   -0.29049E-05   -0.44673E-07  1008   0.909E-04    0.480E-04
RMM:  38    -0.115754287495E+04   -0.12966E-05   -0.32032E-07   945   0.750E-04    0.403E-04
RMM:  39    -0.115754287546E+04   -0.51342E-06   -0.21255E-07   888   0.650E-04
   4 F= -.11655192E+04 E0= -.11655084E+04  d E =-.933612E-01  mag=    21.7853
 trial-energy change:   -0.093361  1 .order   -0.092474   -0.142294   -0.042653
 step:   0.4921(harm=  0.5026)  dis= 0.03933  next Energy= -1165.527704 (dE=-0.102E+00)
 bond charge predicted
       N       E                     dE             d eps       ncg     rms          rms(c)
DAV:   1    -0.115754008193E+04    0.27930E-02   -0.57211E+00  2076   0.370E+00    0.774E-01
RMM:   2    -0.115755201735E+04   -0.11935E-01   -0.81488E-02  2240   0.574E-01    0.136E+00
RMM:   3    -0.115756287308E+04   -0.10856E-01   -0.26790E-02  2424   0.281E-01    0.166E+00
RMM:   4    -0.115755286774E+04    0.10005E-01   -0.81391E-03  2276   0.171E-01    0.816E-01
RMM:   5    -0.115755196445E+04    0.90330E-03   -0.30133E-03  2354   0.101E-01    0.513E-01
RMM:   6    -0.115755246226E+04   -0.49781E-03   -0.13057E-03  2223   0.781E-02    0.548E-01
RMM:   7    -0.115755229498E+04    0.16728E-03   -0.90957E-04  2269   0.627E-02    0.437E-01
RMM:   8    -0.115755222957E+04    0.65407E-04   -0.10320E-03  2210   0.637E-02    0.382E-01
RMM:   9    -0.115755179851E+04    0.43106E-03   -0.68430E-04  2207   0.545E-02    0.271E-01
RMM:  10    -0.115755177012E+04    0.28388E-04   -0.32395E-04  2082   0.380E-02    0.249E-01
RMM:  11    -0.115755171283E+04    0.57289E-04   -0.10848E-04  2038   0.234E-02    0.198E-01
RMM:  12    -0.115755175111E+04   -0.38277E-04   -0.62823E-05  1907   0.163E-02    0.110E-01
RMM:  13    -0.115755186212E+04   -0.11101E-03   -0.60969E-05  1864   0.158E-02    0.827E-02
RMM:  14    -0.115755191178E+04   -0.49660E-04   -0.33023E-05  1760   0.120E-02    0.806E-02
RMM:  15    -0.115755192257E+04   -0.10788E-04   -0.15912E-05  1562   0.892E-03    0.462E-02
RMM:  16    -0.115755194316E+04   -0.20591E-04   -0.63506E-06  1410   0.590E-03    0.185E-02
RMM:  17    -0.115755196578E+04   -0.22625E-04   -0.34922E-06  1341   0.416E-03    0.200E-02
RMM:  18    -0.115755200502E+04   -0.39242E-04   -0.20127E-06  1248   0.295E-03    0.112E-02
RMM:  19    -0.115755203617E+04   -0.31149E-04   -0.14739E-06  1205   0.252E-03    0.104E-02
RMM:  20    -0.115755209338E+04   -0.57203E-04   -0.19271E-06  1270   0.255E-03    0.129E-02
RMM:  21    -0.115755213842E+04   -0.45044E-04   -0.14265E-06  1228   0.221E-03    0.114E-02
RMM:  22    -0.115755216431E+04   -0.25892E-04   -0.86141E-07  1119   0.176E-03    0.762E-03
RMM:  23    -0.115755218392E+04   -0.19606E-04   -0.60100E-07  1060   0.143E-03    0.419E-03
RMM:  24    -0.115755221137E+04   -0.27452E-04   -0.60491E-07  1056   0.120E-03    0.323E-03
RMM:  25    -0.115755225099E+04   -0.39622E-04   -0.88777E-07  1114   0.123E-03    0.405E-03
RMM:  26    -0.115755227502E+04   -0.24033E-04   -0.74157E-07  1078   0.127E-03    0.360E-03
RMM:  27    -0.115755230807E+04   -0.33042E-04   -0.97188E-07  1111   0.115E-03    0.315E-03
RMM:  28    -0.115755233665E+04   -0.28580E-04   -0.10139E-06  1125   0.120E-03    0.194E-03
RMM:  29    -0.115755236467E+04   -0.28025E-04   -0.13132E-06  1170   0.120E-03    0.145E-03
RMM:  30    -0.115755237579E+04   -0.11122E-04   -0.82467E-07  1052   0.119E-03    0.205E-03
RMM:  31    -0.115755238568E+04   -0.98832E-05   -0.74730E-07  1027   0.102E-03    0.887E-04
RMM:  32    -0.115755239163E+04   -0.59553E-05   -0.61718E-07  1031   0.104E-03    0.846E-04
RMM:  33    -0.115755239523E+04   -0.35986E-05   -0.51369E-07   969   0.855E-04    0.591E-04
RMM:  34    -0.115755239633E+04   -0.11036E-05   -0.34374E-07   901   0.819E-04    0.457E-04
RMM:  35    -0.115755239702E+04   -0.68988E-06   -0.24639E-07   842   0.611E-04
   5 F= -.11655279E+04 E0= -.11655175E+04  d E =-.102075E+00  mag=    21.8075
 curvature:  -0.52 expect dE=-0.957E-01 dE for cont linesearch -0.492E-05
 trial: gam= 0.52836 g(F)=  0.183E+00 g(S)=  0.000E+00 ort = 0.282E-02 (trialstep = 0.380E+00)
 search vector abs. value=  0.422E+00
 bond charge predicted
       N       E                     dE             d eps       ncg     rms          rms(c)
DAV:   1    -0.115755062468E+04    0.17717E-02   -0.19139E+01  1992   0.741E+00    0.146E+00
RMM:   2    -0.115759430537E+04   -0.43681E-01   -0.35190E-01  2354   0.111E+00    0.187E+00
RMM:   3    -0.115763131453E+04   -0.37009E-01   -0.95526E-02  2361   0.560E-01    0.312E+00
RMM:   4    -0.115760111895E+04    0.30196E-01   -0.30835E-02  2344   0.335E-01    0.169E+00
RMM:   5    -0.115759586282E+04    0.52561E-02   -0.11470E-02  2271   0.195E-01    0.935E-01
RMM:   6    -0.115759959240E+04   -0.37296E-02   -0.78058E-03  2205   0.160E-01    0.120E+00
RMM:   7    -0.115759752981E+04    0.20626E-02   -0.38560E-03  2283   0.124E-01    0.915E-01
RMM:   8    -0.115759750906E+04    0.20745E-04   -0.41933E-03  2207   0.127E-01    0.769E-01
RMM:   9    -0.115759675254E+04    0.75652E-03   -0.25973E-03  2221   0.107E-01    0.507E-01
RMM:  10    -0.115759607132E+04    0.68122E-03   -0.13382E-03  2212   0.784E-02    0.270E-01
RMM:  11    -0.115759639882E+04   -0.32751E-03   -0.68825E-04  2260   0.514E-02    0.456E-01
RMM:  12    -0.115759603914E+04    0.35968E-03   -0.25822E-04  2144   0.362E-02    0.319E-01
RMM:  13    -0.115759608343E+04   -0.44289E-04   -0.10396E-04  2061   0.198E-02    0.155E-01
RMM:  14    -0.115759624609E+04   -0.16266E-03   -0.11939E-04  2016   0.209E-02    0.107E-01
RMM:  15    -0.115759632756E+04   -0.81474E-04   -0.71109E-05  1953   0.173E-02    0.118E-01
RMM:  16    -0.115759631840E+04    0.91599E-05   -0.22784E-05  1680   0.108E-02    0.732E-02
RMM:  17    -0.115759632639E+04   -0.79862E-05   -0.10001E-05  1490   0.684E-03    0.406E-02
RMM:  18    -0.115759636335E+04   -0.36963E-04   -0.66922E-06  1431   0.582E-03    0.247E-02
RMM:  19    -0.115759641362E+04   -0.50262E-04   -0.42921E-06  1396   0.444E-03    0.173E-02
RMM:  20    -0.115759646776E+04   -0.54140E-04   -0.33161E-06  1350   0.381E-03    0.172E-02
RMM:  21    -0.115759653139E+04   -0.63633E-04   -0.26790E-06  1346   0.333E-03    0.131E-02
RMM:  22    -0.115759658922E+04   -0.57833E-04   -0.20528E-06  1281   0.271E-03    0.104E-02
RMM:  23    -0.115759663343E+04   -0.44208E-04   -0.13581E-06  1185   0.230E-03    0.761E-03
RMM:  24    -0.115759666907E+04   -0.35639E-04   -0.96363E-07  1134   0.195E-03    0.618E-03
RMM:  25    -0.115759671869E+04   -0.49625E-04   -0.94841E-07  1125   0.154E-03    0.456E-03
RMM:  26    -0.115759677188E+04   -0.53189E-04   -0.11172E-06  1147   0.157E-03    0.643E-03
RMM:  27    -0.115759681735E+04   -0.45469E-04   -0.10834E-06  1140   0.155E-03    0.370E-03
RMM:  28    -0.115759686887E+04   -0.51519E-04   -0.13333E-06  1175   0.137E-03    0.396E-03
RMM:  29    -0.115759691412E+04   -0.45253E-04   -0.13236E-06  1170   0.137E-03    0.380E-03
RMM:  30    -0.115759694536E+04   -0.31231E-04   -0.10747E-06  1122   0.137E-03    0.333E-03
RMM:  31    -0.115759698045E+04   -0.35092E-04   -0.14555E-06  1198   0.135E-03    0.179E-03
RMM:  32    -0.115759699932E+04   -0.18878E-04   -0.10372E-06  1103   0.130E-03    0.160E-03
RMM:  33    -0.115759701413E+04   -0.14805E-04   -0.10037E-06  1089   0.116E-03    0.811E-04
RMM:  34    -0.115759702280E+04   -0.86731E-05   -0.85530E-07  1076   0.112E-03    0.864E-04
RMM:  35    -0.115759702535E+04   -0.25472E-05   -0.55046E-07   976   0.952E-04    0.709E-04
RMM:  36    -0.115759702691E+04   -0.15562E-05   -0.39540E-07   929   0.809E-04    0.358E-04
RMM:  37    -0.115759702773E+04   -0.82627E-06   -0.27808E-07   882   0.704E-04
   6 F= -.11655715E+04 E0= -.11655615E+04  d E =-.436462E-01  mag=    21.8357
 trial-energy change:   -0.043646  1 .order   -0.043475   -0.070008   -0.016943
 step:   0.4983(harm=  0.5013)  dis= 0.02664  next Energy= -1165.574157 (dE=-0.463E-01)
 bond charge predicted
       N       E                     dE             d eps       ncg     rms          rms(c)
DAV:   1    -0.115759590816E+04    0.11187E-02   -0.18565E+00  2088   0.230E+00    0.456E-01
RMM:   2    -0.115760025161E+04   -0.43434E-02   -0.30923E-02  2329   0.341E-01    0.832E-01
RMM:   3    -0.115760314689E+04   -0.28953E-02   -0.84576E-03  2355   0.169E-01    0.107E+00
RMM:   4    -0.115759998937E+04    0.31575E-02   -0.30519E-03  2282   0.106E-01    0.448E-01
RMM:   5    -0.115759982400E+04    0.16537E-03   -0.93451E-04  2213   0.616E-02    0.303E-01
RMM:   6    -0.115760005253E+04   -0.22854E-03   -0.72630E-04  2164   0.515E-02    0.264E-01
RMM:   7    -0.115759996816E+04    0.84378E-04   -0.53141E-04  2139   0.461E-02    0.244E-01
RMM:   8    -0.115760001326E+04   -0.45099E-04   -0.37964E-04  2134   0.369E-02    0.263E-01
RMM:   9    -0.115759989971E+04    0.11354E-03   -0.25953E-04  2048   0.332E-02    0.141E-01
RMM:  10    -0.115759986837E+04    0.31345E-04   -0.10619E-04  1992   0.221E-02    0.121E-01
RMM:  11    -0.115759985975E+04    0.86208E-05   -0.38767E-05  1790   0.126E-02    0.108E-01
RMM:  12    -0.115759984224E+04    0.17504E-04   -0.13270E-05  1555   0.825E-03    0.474E-02
RMM:  13    -0.115759986804E+04   -0.25796E-04   -0.11543E-05  1516   0.696E-03    0.422E-02
RMM:  14    -0.115759988171E+04   -0.13674E-04   -0.79287E-06  1446   0.640E-03    0.319E-02
RMM:  15    -0.115759988749E+04   -0.57733E-05   -0.26708E-06  1315   0.387E-03    0.227E-02
RMM:  16    -0.115759989219E+04   -0.47003E-05   -0.14319E-06  1241   0.291E-03    0.137E-02
RMM:  17    -0.115759989851E+04   -0.63198E-05   -0.75806E-07  1148   0.216E-03    0.655E-03
RMM:  18    -0.115759990637E+04   -0.78663E-05   -0.55010E-07  1093   0.162E-03    0.694E-03
RMM:  19    -0.115759991367E+04   -0.72968E-05   -0.45910E-07  1067   0.155E-03    0.514E-03
RMM:  20    -0.115759992408E+04   -0.10415E-04   -0.35610E-07  1063   0.119E-03    0.612E-03
RMM:  21    -0.115759993221E+04   -0.81314E-05   -0.28445E-07  1019   0.107E-03    0.472E-03
RMM:  22    -0.115759993713E+04   -0.49175E-05   -0.19597E-07   962   0.864E-04    0.207E-03
RMM:  23    -0.115759994172E+04   -0.45845E-05   -0.13301E-07   877   0.647E-04    0.163E-03
RMM:  24    -0.115759994666E+04   -0.49422E-05   -0.11656E-07   858   0.586E-04    0.129E-03
RMM:  25    -0.115759995270E+04   -0.60371E-05   -0.12791E-07   880   0.576E-04    0.170E-03
RMM:  26    -0.115759995783E+04   -0.51368E-05   -0.12803E-07   895   0.578E-04    0.107E-03
RMM:  27    -0.115759996345E+04   -0.56193E-05   -0.14148E-07   886   0.533E-04    0.762E-04
RMM:  28    -0.115759996864E+04   -0.51845E-05   -0.14955E-07   894   0.549E-04    0.866E-04
RMM:  29    -0.115759997217E+04   -0.35327E-05   -0.14291E-07   881   0.541E-04    0.852E-04
RMM:  30    -0.115759997697E+04   -0.47984E-05   -0.19821E-07   932   0.552E-04    0.378E-04
RMM:  31    -0.115759997936E+04   -0.23918E-05   -0.16506E-07   908   0.569E-04    0.342E-04
RMM:  32    -0.115759998064E+04   -0.12839E-05   -0.13527E-07   824   0.486E-04    0.275E-04
RMM:  33    -0.115759998128E+04   -0.63204E-06   -0.96704E-08   763   0.467E-04
   7 F= -.11655742E+04 E0= -.11655642E+04  d E =-.463006E-01  mag=    21.8425
 curvature:  -0.57 expect dE=-0.844E-01 dE for cont linesearch -0.384E-08
 trial: gam= 0.72747 g(F)=  0.147E+00 g(S)=  0.000E+00 ort = 0.531E-04 (trialstep = 0.404E+00)
 search vector abs. value=  0.370E+00
 bond charge predicted
       N       E                     dE             d eps       ncg     rms          rms(c)
DAV:   1    -0.115759034326E+04    0.96374E-02   -0.17604E+01  1992   0.770E+00    0.128E+00
RMM:   2    -0.115763608656E+04   -0.45743E-01   -0.35011E-01  2263   0.118E+00    0.247E+00
RMM:   3    -0.115764953647E+04   -0.13450E-01   -0.84963E-02  2424   0.532E-01    0.205E+00
RMM:   4    -0.115763564608E+04    0.13890E-01   -0.23485E-02  2346   0.296E-01    0.115E+00
RMM:   5    -0.115763420699E+04    0.14391E-02   -0.90387E-03  2286   0.184E-01    0.102E+00
RMM:   6    -0.115763505579E+04   -0.84880E-03   -0.52537E-03  2288   0.139E-01    0.103E+00
RMM:   7    -0.115763332410E+04    0.17317E-02   -0.43316E-03  2217   0.131E-01    0.671E-01
RMM:   8    -0.115763575755E+04   -0.24334E-02   -0.38632E-03  2246   0.116E-01    0.106E+00
RMM:   9    -0.115763284194E+04    0.29156E-02   -0.26574E-03  2190   0.106E-01    0.444E-01
RMM:  10    -0.115763355427E+04   -0.71233E-03   -0.10548E-03  2234   0.675E-02    0.763E-01
RMM:  11    -0.115763264623E+04    0.90804E-03   -0.40257E-04  2213   0.416E-02    0.354E-01
RMM:  12    -0.115763285591E+04   -0.20968E-03   -0.25623E-04  2126   0.332E-02    0.227E-01
RMM:  13    -0.115763300885E+04   -0.15294E-03   -0.19025E-04  2124   0.278E-02    0.132E-01
RMM:  14    -0.115763309396E+04   -0.85107E-04   -0.82951E-05  2030   0.207E-02    0.823E-02
RMM:  15    -0.115763311061E+04   -0.16654E-04   -0.27253E-05  1768   0.114E-02    0.539E-02
RMM:  16    -0.115763315092E+04   -0.40307E-04   -0.13997E-05  1559   0.780E-03    0.379E-02
RMM:  17    -0.115763318315E+04   -0.32235E-04   -0.90704E-06  1450   0.674E-03    0.232E-02
RMM:  18    -0.115763323111E+04   -0.47959E-04   -0.58857E-06  1419   0.492E-03    0.260E-02
RMM:  19    -0.115763327063E+04   -0.39516E-04   -0.37381E-06  1331   0.415E-03    0.189E-02
RMM:  20    -0.115763331391E+04   -0.43278E-04   -0.25769E-06  1293   0.303E-03    0.192E-02
RMM:  21    -0.115763335937E+04   -0.45462E-04   -0.20840E-06  1284   0.307E-03    0.109E-02
RMM:  22    -0.115763341477E+04   -0.55402E-04   -0.15691E-06  1223   0.210E-03    0.614E-03
RMM:  23    -0.115763343959E+04   -0.24821E-04   -0.94272E-07  1139   0.206E-03    0.551E-03
RMM:  24    -0.115763346051E+04   -0.20916E-04   -0.65960E-07  1092   0.149E-03    0.529E-03
RMM:  25    -0.115763348296E+04   -0.22457E-04   -0.55273E-07  1059   0.134E-03    0.414E-03
RMM:  26    -0.115763352393E+04   -0.40966E-04   -0.79670E-07  1107   0.119E-03    0.246E-03
RMM:  27    -0.115763355781E+04   -0.33883E-04   -0.73389E-07  1098   0.115E-03    0.183E-03
RMM:  28    -0.115763359055E+04   -0.32735E-04   -0.85326E-07  1080   0.111E-03    0.205E-03
RMM:  29    -0.115763361564E+04   -0.25087E-04   -0.78043E-07  1081   0.117E-03    0.280E-03
RMM:  30    -0.115763363587E+04   -0.20230E-04   -0.73671E-07  1055   0.107E-03    0.192E-03
RMM:  31    -0.115763365856E+04   -0.22698E-04   -0.89303E-07  1095   0.111E-03    0.903E-04
RMM:  32    -0.115763367514E+04   -0.16581E-04   -0.89422E-07  1104   0.109E-03    0.651E-04
RMM:  33    -0.115763368463E+04   -0.94856E-05   -0.78142E-07  1041   0.104E-03    0.769E-04
RMM:  34    -0.115763368837E+04   -0.37376E-05   -0.50643E-07   960   0.923E-04    0.549E-04
RMM:  35    -0.115763369117E+04   -0.28011E-05   -0.38781E-07   937   0.788E-04    0.377E-04
RMM:  36    -0.115763369398E+04   -0.28152E-05   -0.33688E-07   955   0.738E-04    0.223E-04
RMM:  37    -0.115763369525E+04   -0.12652E-05   -0.26049E-07   914   0.683E-04    0.160E-04
RMM:  38    -0.115763369572E+04   -0.47500E-06   -0.18282E-07   845   0.583E-04
   8 F= -.11656073E+04 E0= -.11655973E+04  d E =-.331746E-01  mag=    21.8396
 trial-energy change:   -0.033175  1 .order   -0.033032   -0.059375   -0.006689
 step:   0.4540(harm=  0.4549)  dis= 0.01583  next Energy= -1165.607760 (dE=-0.336E-01)
 bond charge predicted
       N       E                     dE             d eps       ncg     rms          rms(c)
DAV:   1    -0.115763355688E+04    0.13837E-03   -0.27371E-01  2136   0.953E-01    0.160E-01
RMM:   2    -0.115763427241E+04   -0.71553E-03   -0.51995E-03  2236   0.146E-01    0.367E-01
RMM:   3    -0.115763441578E+04   -0.14337E-03   -0.12640E-03  2361   0.656E-02    0.419E-01
RMM:   4    -0.115763425779E+04    0.15799E-03   -0.50550E-04  2184   0.423E-02    0.273E-01
RMM:   5    -0.115763413330E+04    0.12449E-03   -0.20124E-04  2073   0.287E-02    0.859E-02
RMM:   6    -0.115763419105E+04   -0.57752E-04   -0.10836E-04  1944   0.189E-02    0.991E-02
RMM:   7    -0.115763417579E+04    0.15255E-04   -0.61766E-05  1986   0.161E-02    0.917E-02
RMM:   8    -0.115763418095E+04   -0.51524E-05   -0.52229E-05  1844   0.143E-02    0.887E-02
RMM:   9    -0.115763418523E+04   -0.42890E-05   -0.39491E-05  1816   0.132E-02    0.792E-02
RMM:  10    -0.115763416966E+04    0.15571E-04   -0.15740E-05  1496   0.879E-03    0.362E-02
RMM:  11    -0.115763417248E+04   -0.28138E-05   -0.57223E-06  1397   0.528E-03    0.230E-02
RMM:  12    -0.115763417434E+04   -0.18582E-05   -0.20302E-06  1318   0.346E-03    0.149E-02
RMM:  13    -0.115763417615E+04   -0.18170E-05   -0.10246E-06  1215   0.244E-03    0.821E-03
RMM:  14    -0.115763417836E+04   -0.22074E-05   -0.60102E-07  1147   0.183E-03    0.707E-03
RMM:  15    -0.115763417998E+04   -0.16183E-05   -0.35744E-07  1103   0.148E-03    0.557E-03
RMM:  16    -0.115763418146E+04   -0.14779E-05   -0.19391E-07  1050   0.102E-03    0.505E-03
RMM:  17    -0.115763418261E+04   -0.11561E-05   -0.13371E-07   993   0.786E-04    0.434E-03
RMM:  18    -0.115763418402E+04   -0.14086E-05   -0.78310E-08   892   0.659E-04    0.162E-03
RMM:  19    -0.115763418594E+04   -0.19207E-05   -0.54709E-08   841   0.496E-04    0.144E-03
RMM:  20    -0.115763418746E+04   -0.15202E-05   -0.50824E-08   814   0.524E-04    0.143E-03
RMM:  21    -0.115763418886E+04   -0.13950E-05   -0.39986E-08   729   0.435E-04    0.112E-03
RMM:  22    -0.115763419003E+04   -0.11699E-05   -0.30960E-08   684   0.415E-04    0.562E-04
RMM:  23    -0.115763419117E+04   -0.11437E-05   -0.23799E-08   619   0.347E-04    0.483E-04
RMM:  24    -0.115763419195E+04   -0.78325E-06   -0.20685E-08   612   0.348E-04
   9 F= -.11656078E+04 E0= -.11655978E+04  d E =-.335913E-01  mag=    21.8391
 curvature:  -0.57 expect dE=-0.471E-01 dE for cont linesearch -0.965E-09
 trial: gam= 0.53255 g(F)=  0.823E-01 g(S)=  0.000E+00 ort = 0.250E-04 (trialstep = 0.414E+00)
 search vector abs. value=  0.187E+00
 bond charge predicted
       N       E                     dE             d eps       ncg     rms          rms(c)
DAV:   1    -0.115763451851E+04   -0.32734E-03   -0.86391E+00  1992   0.564E+00    0.903E-01
RMM:   2    -0.115765586389E+04   -0.21345E-01   -0.18632E-01  2305   0.861E-01    0.109E+00
RMM:   3    -0.115767097686E+04   -0.15113E-01   -0.40299E-02  2397   0.402E-01    0.259E+00
RMM:   4    -0.115765768380E+04    0.13293E-01   -0.13445E-02  2384   0.239E-01    0.107E+00
RMM:   5    -0.115765627159E+04    0.14122E-02   -0.54346E-03  2261   0.151E-01    0.477E-01
RMM:   6    -0.115765697359E+04   -0.70199E-03   -0.23425E-03  2278   0.902E-02    0.587E-01
RMM:   7    -0.115765655966E+04    0.41393E-03   -0.15583E-03  2245   0.765E-02    0.589E-01
RMM:   8    -0.115765675031E+04   -0.19065E-03   -0.15733E-03  2214   0.740E-02    0.516E-01
RMM:   9    -0.115765668002E+04    0.70287E-04   -0.15932E-03  2211   0.785E-02    0.414E-01
RMM:  10    -0.115765644185E+04    0.23817E-03   -0.71482E-04  2151   0.556E-02    0.364E-01
RMM:  11    -0.115765622302E+04    0.21883E-03   -0.28128E-04  2110   0.362E-02    0.200E-01
RMM:  12    -0.115765623984E+04   -0.16813E-04   -0.10553E-04  2085   0.218E-02    0.136E-01
RMM:  13    -0.115765624476E+04   -0.49185E-05   -0.61242E-05  1911   0.168E-02    0.619E-02
RMM:  14    -0.115765628565E+04   -0.40895E-04   -0.36345E-05  1748   0.120E-02    0.692E-02
RMM:  15    -0.115765629614E+04   -0.10484E-04   -0.13550E-05  1513   0.825E-03    0.640E-02
RMM:  16    -0.115765630045E+04   -0.43138E-05   -0.64473E-06  1402   0.535E-03    0.401E-02
RMM:  17    -0.115765631440E+04   -0.13955E-04   -0.46198E-06  1361   0.460E-03    0.268E-02
RMM:  18    -0.115765633675E+04   -0.22347E-04   -0.31459E-06  1361   0.398E-03    0.172E-02
RMM:  19    -0.115765635625E+04   -0.19495E-04   -0.17832E-06  1290   0.321E-03    0.125E-02
RMM:  20    -0.115765637436E+04   -0.18115E-04   -0.13695E-06  1244   0.263E-03    0.121E-02
RMM:  21    -0.115765638827E+04   -0.13903E-04   -0.99091E-07  1189   0.229E-03    0.817E-03
RMM:  22    -0.115765640185E+04   -0.13587E-04   -0.56682E-07  1100   0.163E-03    0.438E-03
RMM:  23    -0.115765641143E+04   -0.95806E-05   -0.35808E-07  1061   0.124E-03    0.410E-03
RMM:  24    -0.115765641890E+04   -0.74647E-05   -0.27138E-07  1031   0.101E-03    0.370E-03
RMM:  25    -0.115765643212E+04   -0.13222E-04   -0.25887E-07  1008   0.881E-04    0.274E-03
RMM:  26    -0.115765644298E+04   -0.10855E-04   -0.23532E-07   965   0.811E-04    0.207E-03
RMM:  27    -0.115765645239E+04   -0.94170E-05   -0.21043E-07   942   0.683E-04    0.151E-03
RMM:  28    -0.115765646340E+04   -0.11007E-04   -0.24708E-07   991   0.689E-04    0.183E-03
RMM:  29    -0.115765647005E+04   -0.66490E-05   -0.21597E-07   954   0.688E-04    0.156E-03
RMM:  30    -0.115765648089E+04   -0.10845E-04   -0.29042E-07   989   0.649E-04    0.942E-04
RMM:  31    -0.115765648664E+04   -0.57457E-05   -0.22975E-07   942   0.702E-04    0.709E-04
RMM:  32    -0.115765649283E+04   -0.61884E-05   -0.27530E-07   931   0.604E-04    0.940E-04
RMM:  33    -0.115765649704E+04   -0.42134E-05   -0.23303E-07   967   0.686E-04    0.667E-04
RMM:  34    -0.115765649966E+04   -0.26144E-05   -0.21778E-07   887   0.555E-04    0.371E-04
RMM:  35    -0.115765650147E+04   -0.18136E-05   -0.17598E-07   864   0.591E-04    0.247E-04
RMM:  36    -0.115765650260E+04   -0.11272E-05   -0.15886E-07   841   0.497E-04    0.179E-04
RMM:  37    -0.115765650311E+04   -0.51680E-06   -0.11769E-07   816   0.513E-04
  10 F= -.11656296E+04 E0= -.11656198E+04  d E =-.218850E-01  mag=    21.8378
 trial-energy change:   -0.021885  1 .order   -0.021835   -0.034068   -0.009603
 step:   0.5761(harm=  0.5761)  dis= 0.01315  next Energy= -1165.631479 (dE=-0.237E-01)
 bond charge predicted
       N       E                     dE             d eps       ncg     rms          rms(c)
DAV:   1    -0.115765517730E+04    0.13253E-02   -0.13313E+00  2052   0.222E+00    0.354E-01
RMM:   2    -0.115765838768E+04   -0.32104E-02   -0.28688E-02  2308   0.339E-01    0.453E-01
RMM:   3    -0.115766075731E+04   -0.23696E-02   -0.62401E-03  2378   0.160E-01    0.102E+00
RMM:   4    -0.115765864749E+04    0.21098E-02   -0.21654E-03  2330   0.944E-02    0.496E-01
RMM:   5    -0.115765849410E+04    0.15338E-03   -0.86441E-04  2203   0.586E-02    0.262E-01
RMM:   6    -0.115765850967E+04   -0.15563E-04   -0.35526E-04  2148   0.348E-02    0.215E-01
RMM:   7    -0.115765856787E+04   -0.58202E-04   -0.25266E-04  2180   0.311E-02    0.226E-01
RMM:   8    -0.115765851215E+04    0.55718E-04   -0.28401E-04  2118   0.330E-02    0.129E-01
RMM:   9    -0.115765855704E+04   -0.44887E-04   -0.20573E-04  2125   0.281E-02    0.151E-01
RMM:  10    -0.115765850906E+04    0.47982E-04   -0.89335E-05  1923   0.190E-02    0.109E-01
RMM:  11    -0.115765849032E+04    0.18740E-04   -0.37333E-05  1748   0.133E-02    0.475E-02
RMM:  12    -0.115765850204E+04   -0.11724E-04   -0.13503E-05  1540   0.764E-03    0.427E-02
RMM:  13    -0.115765850450E+04   -0.24559E-05   -0.68754E-06  1423   0.620E-03    0.161E-02
RMM:  14    -0.115765851098E+04   -0.64858E-05   -0.33403E-06  1322   0.367E-03    0.171E-02
RMM:  15    -0.115765851406E+04   -0.30797E-05   -0.12425E-06  1228   0.284E-03    0.139E-02
RMM:  16    -0.115765851629E+04   -0.22236E-05   -0.74563E-07  1162   0.183E-03    0.929E-03
RMM:  17    -0.115765851904E+04   -0.27544E-05   -0.45696E-07  1116   0.154E-03    0.691E-03
RMM:  18    -0.115765852306E+04   -0.40193E-05   -0.32428E-07  1073   0.130E-03    0.532E-03
RMM:  19    -0.115765852737E+04   -0.43131E-05   -0.24889E-07  1045   0.116E-03    0.343E-03
RMM:  20    -0.115765853115E+04   -0.37777E-05   -0.21974E-07  1047   0.104E-03    0.462E-03
RMM:  21    -0.115765853386E+04   -0.27045E-05   -0.15370E-07  1003   0.887E-04    0.246E-03
RMM:  22    -0.115765853642E+04   -0.25639E-05   -0.85324E-08   881   0.573E-04    0.127E-03
RMM:  23    -0.115765853903E+04   -0.26063E-05   -0.68130E-08   807   0.510E-04    0.197E-03
RMM:  24    -0.115765854055E+04   -0.15252E-05   -0.52710E-08   738   0.476E-04    0.174E-03
RMM:  25    -0.115765854270E+04   -0.21532E-05   -0.45889E-08   723   0.412E-04    0.751E-04
RMM:  26    -0.115765854513E+04   -0.24217E-05   -0.50630E-08   757   0.391E-04    0.574E-04
RMM:  27    -0.115765854729E+04   -0.21641E-05   -0.55204E-08   810   0.401E-04    0.571E-04
RMM:  28    -0.115765854928E+04   -0.19903E-05   -0.56227E-08   775   0.403E-04    0.591E-04
RMM:  29    -0.115765855054E+04   -0.12590E-05   -0.48397E-08   731   0.393E-04    0.463E-04
RMM:  30    -0.115765855188E+04   -0.13448E-05   -0.50951E-08   730   0.377E-04    0.258E-04
RMM:  31    -0.115765855302E+04   -0.11356E-05   -0.52341E-08   750   0.380E-04    0.230E-04
RMM:  32    -0.115765855399E+04   -0.96767E-06   -0.56155E-08   752   0.375E-04
  11 F= -.11656315E+04 E0= -.11656218E+04  d E =-.237550E-01  mag=    21.8374
 curvature:  -0.66 expect dE=-0.453E-01 dE for cont linesearch -0.199E-06
 trial: gam= 0.83098 g(F)=  0.691E-01 g(S)=  0.000E+00 ort =-0.239E-03 (trialstep = 0.422E+00)
 search vector abs. value=  0.198E+00
 bond charge predicted
       N       E                     dE             d eps       ncg     rms          rms(c)
DAV:   1    -0.115765572441E+04    0.28286E-02   -0.93539E+00  1992   0.589E+00    0.859E-01
RMM:   2    -0.115767613509E+04   -0.20411E-01   -0.18634E-01  2370   0.851E-01    0.854E-01
RMM:   3    -0.115769079070E+04   -0.14656E-01   -0.33128E-02  2398   0.374E-01    0.299E+00
RMM:   4    -0.115767822937E+04    0.12561E-01   -0.13369E-02  2464   0.215E-01    0.122E+00
RMM:   5    -0.115767824161E+04   -0.12238E-04   -0.52795E-03  2226   0.143E-01    0.482E-01
RMM:   6    -0.115767946883E+04   -0.12272E-02   -0.22136E-03  2283   0.903E-02    0.695E-01
RMM:   7    -0.115767874175E+04    0.72708E-03   -0.12301E-03  2342   0.668E-02    0.414E-01
RMM:   8    -0.115767898298E+04   -0.24123E-03   -0.16638E-03  2201   0.779E-02    0.338E-01
RMM:   9    -0.115767885559E+04    0.12739E-03   -0.73180E-04  2238   0.587E-02    0.269E-01
RMM:  10    -0.115767875249E+04    0.10309E-03   -0.32714E-04  2128   0.375E-02    0.170E-01
RMM:  11    -0.115767880880E+04   -0.56308E-04   -0.17853E-04  2053   0.271E-02    0.157E-01
RMM:  12    -0.115767876460E+04    0.44199E-04   -0.87676E-05  1889   0.194E-02    0.935E-02
RMM:  13    -0.115767876234E+04    0.22663E-05   -0.26562E-05  1709   0.115E-02    0.639E-02
RMM:  14    -0.115767876697E+04   -0.46317E-05   -0.94561E-06  1513   0.677E-03    0.380E-02
RMM:  15    -0.115767877561E+04   -0.86453E-05   -0.77485E-06  1435   0.612E-03    0.330E-02
RMM:  16    -0.115767877988E+04   -0.42702E-05   -0.44977E-06  1391   0.495E-03    0.166E-02
RMM:  17    -0.115767878485E+04   -0.49655E-05   -0.29579E-06  1336   0.380E-03    0.177E-02
RMM:  18    -0.115767878767E+04   -0.28211E-05   -0.19695E-06  1240   0.317E-03    0.126E-02
RMM:  19    -0.115767879103E+04   -0.33633E-05   -0.12080E-06  1212   0.240E-03    0.989E-03
RMM:  20    -0.115767879368E+04   -0.26442E-05   -0.69666E-07  1128   0.202E-03    0.464E-03
RMM:  21    -0.115767879723E+04   -0.35526E-05   -0.33007E-07  1070   0.120E-03    0.567E-03
RMM:  22    -0.115767879988E+04   -0.26506E-05   -0.25916E-07  1049   0.104E-03    0.435E-03
RMM:  23    -0.115767880185E+04   -0.19696E-05   -0.20053E-07   998   0.878E-04    0.267E-03
RMM:  24    -0.115767880472E+04   -0.28668E-05   -0.14146E-07   948   0.678E-04    0.152E-03
RMM:  25    -0.115767880750E+04   -0.27853E-05   -0.14147E-07   931   0.598E-04    0.140E-03
RMM:  26    -0.115767880996E+04   -0.24633E-05   -0.13428E-07   890   0.584E-04    0.111E-03
RMM:  27    -0.115767881251E+04   -0.25412E-05   -0.13714E-07   907   0.564E-04    0.172E-03
RMM:  28    -0.115767881442E+04   -0.19123E-05   -0.12788E-07   873   0.557E-04    0.124E-03
RMM:  29    -0.115767881639E+04   -0.19672E-05   -0.13138E-07   843   0.482E-04    0.847E-04
RMM:  30    -0.115767881775E+04   -0.13675E-05   -0.10156E-07   822   0.470E-04    0.438E-04
RMM:  31    -0.115767881938E+04   -0.16224E-05   -0.11884E-07   793   0.436E-04    0.538E-04
RMM:  32    -0.115767882041E+04   -0.10322E-05   -0.10394E-07   787   0.452E-04    0.355E-04
RMM:  33    -0.115767882106E+04   -0.65006E-06   -0.81576E-08   727   0.409E-04
  12 F= -.11656510E+04 E0= -.11656411E+04  d E =-.195227E-01  mag=    21.8323
 trial-energy change:   -0.019523  1 .order   -0.019520   -0.029074   -0.009965
 step:   0.6423(harm=  0.6423)  dis= 0.01313  next Energy= -1165.653632 (dE=-0.221E-01)
 bond charge predicted
       N       E                     dE             d eps       ncg     rms          rms(c)
DAV:   1    -0.115767561782E+04    0.32026E-02   -0.25438E+00  2004   0.308E+00    0.446E-01
RMM:   2    -0.115768101130E+04   -0.53935E-02   -0.50001E-02  2373   0.443E-01    0.471E-01
RMM:   3    -0.115768500392E+04   -0.39926E-02   -0.89163E-03  2382   0.194E-01    0.148E+00
RMM:   4    -0.115768152019E+04    0.34837E-02   -0.36299E-03  2422   0.113E-01    0.646E-01
RMM:   5    -0.115768155282E+04   -0.32625E-04   -0.13505E-03  2206   0.728E-02    0.249E-01
RMM:   6    -0.115768192486E+04   -0.37204E-03   -0.61554E-04  2234   0.475E-02    0.349E-01
RMM:   7    -0.115768173201E+04    0.19285E-03   -0.34349E-04  2310   0.350E-02    0.210E-01
RMM:   8    -0.115768180606E+04   -0.74053E-04   -0.45680E-04  2133   0.403E-02    0.165E-01
RMM:   9    -0.115768180086E+04    0.51972E-05   -0.18742E-04  2173   0.295E-02    0.137E-01
RMM:  10    -0.115768176894E+04    0.31922E-04   -0.79683E-05  1924   0.185E-02    0.847E-02
RMM:  11    -0.115768178370E+04   -0.14753E-04   -0.41799E-05  1776   0.132E-02    0.729E-02
RMM:  12    -0.115768177514E+04    0.85601E-05   -0.20293E-05  1537   0.961E-03    0.380E-02
RMM:  13    -0.115768177698E+04   -0.18477E-05   -0.57978E-06  1444   0.570E-03    0.240E-02
RMM:  14    -0.115768177809E+04   -0.11026E-05   -0.18367E-06  1308   0.329E-03    0.141E-02
RMM:  15    -0.115768177994E+04   -0.18496E-05   -0.13094E-06  1261   0.259E-03    0.134E-02
RMM:  16    -0.115768178101E+04   -0.10789E-05   -0.86667E-07  1211   0.226E-03    0.751E-03
RMM:  17    -0.115768178274E+04   -0.17306E-05   -0.71807E-07  1157   0.185E-03    0.924E-03
RMM:  18    -0.115768178337E+04   -0.63020E-06   -0.60315E-07  1121   0.166E-03
  13 F= -.11656536E+04 E0= -.11656435E+04  d E =-.220933E-01  mag=    21.8301
 curvature:  -0.92 expect dE=-0.558E-01 dE for cont linesearch -0.344E-06
 trial: gam= 0.86614 g(F)=  0.604E-01 g(S)=  0.000E+00 ort =-0.272E-03 (trialstep = 0.443E+00)
 search vector abs. value=  0.209E+00
 bond charge predicted
       N       E                     dE             d eps       ncg     rms          rms(c)
DAV:   1    -0.115767575001E+04    0.60327E-02   -0.10859E+01  1992   0.623E+00    0.902E-01
RMM:   2    -0.115769978888E+04   -0.24039E-01   -0.20113E-01  2347   0.892E-01    0.104E+00
RMM:   3    -0.115771695277E+04   -0.17164E-01   -0.43744E-02  2381   0.419E-01    0.272E+00
RMM:   4    -0.115770325543E+04    0.13697E-01   -0.14975E-02  2468   0.230E-01    0.124E+00
RMM:   5    -0.115770068450E+04    0.25709E-02   -0.60888E-03  2216   0.151E-01    0.567E-01
RMM:   6    -0.115770125509E+04   -0.57059E-03   -0.24787E-03  2319   0.867E-02    0.561E-01
RMM:   7    -0.115770133929E+04   -0.84204E-04   -0.14010E-03  2314   0.711E-02    0.546E-01
RMM:   8    -0.115770094040E+04    0.39889E-03   -0.14842E-03  2233   0.780E-02    0.309E-01
RMM:   9    -0.115770128278E+04   -0.34238E-03   -0.10613E-03  2206   0.699E-02    0.351E-01
RMM:  10    -0.115770091577E+04    0.36701E-03   -0.46510E-04  2189   0.483E-02    0.154E-01
RMM:  11    -0.115770097871E+04   -0.62942E-04   -0.21237E-04  2121   0.304E-02    0.150E-01
RMM:  12    -0.115770097307E+04    0.56378E-05   -0.91492E-05  1949   0.195E-02    0.133E-01
RMM:  13    -0.115770095514E+04    0.17938E-04   -0.37496E-05  1736   0.133E-02    0.951E-02
RMM:  14    -0.115770096058E+04   -0.54483E-05   -0.18469E-05  1570   0.888E-03    0.599E-02
RMM:  15    -0.115770097484E+04   -0.14255E-04   -0.90047E-06  1497   0.671E-03    0.249E-02
RMM:  16    -0.115770099007E+04   -0.15228E-04   -0.69234E-06  1453   0.586E-03    0.298E-02
RMM:  17    -0.115770099323E+04   -0.31617E-05   -0.39584E-06  1344   0.452E-03    0.151E-02
RMM:  18    -0.115770100083E+04   -0.76009E-05   -0.22885E-06  1285   0.329E-03    0.151E-02
RMM:  19    -0.115770100810E+04   -0.72698E-05   -0.17099E-06  1267   0.294E-03    0.133E-02
RMM:  20    -0.115770101568E+04   -0.75825E-05   -0.96167E-07  1198   0.233E-03    0.791E-03
RMM:  21    -0.115770102259E+04   -0.69117E-05   -0.51766E-07  1097   0.164E-03    0.439E-03
RMM:  22    -0.115770102740E+04   -0.48037E-05   -0.34427E-07  1070   0.128E-03    0.636E-03
RMM:  23    -0.115770103093E+04   -0.35335E-05   -0.25654E-07  1044   0.109E-03    0.612E-03
RMM:  24    -0.115770103652E+04   -0.55893E-05   -0.18894E-07  1021   0.858E-04    0.262E-03
RMM:  25    -0.115770104262E+04   -0.61001E-05   -0.15496E-07   955   0.684E-04    0.146E-03
RMM:  26    -0.115770104742E+04   -0.48019E-05   -0.13974E-07   915   0.660E-04    0.135E-03
RMM:  27    -0.115770105247E+04   -0.50485E-05   -0.13318E-07   915   0.594E-04    0.126E-03
RMM:  28    -0.115770105710E+04   -0.46301E-05   -0.13229E-07   923   0.582E-04    0.166E-03
RMM:  29    -0.115770106179E+04   -0.46857E-05   -0.13862E-07   939   0.563E-04    0.826E-04
RMM:  30    -0.115770106582E+04   -0.40348E-05   -0.13410E-07   888   0.520E-04    0.555E-04
RMM:  31    -0.115770106805E+04   -0.22296E-05   -0.10902E-07   841   0.492E-04    0.414E-04
RMM:  32    -0.115770107100E+04   -0.29508E-05   -0.11929E-07   848   0.462E-04    0.332E-04
RMM:  33    -0.115770107354E+04   -0.25403E-05   -0.12279E-07   888   0.493E-04    0.280E-04
RMM:  34    -0.115770107512E+04   -0.15785E-05   -0.11526E-07   858   0.465E-04    0.257E-04
RMM:  35    -0.115770107598E+04   -0.86232E-06   -0.91696E-08   813   0.447E-04
  14 F= -.11656722E+04 E0= -.11656618E+04  d E =-.185542E-01  mag=    21.8230
 trial-energy change:   -0.018554  1 .order   -0.018516   -0.026647   -0.010386
 step:   0.7256(harm=  0.7256)  dis= 0.01393  next Energy= -1165.675441 (dE=-0.218E-01)
 bond charge predicted
       N       E                     dE             d eps       ncg     rms          rms(c)
DAV:   1    -0.115769469909E+04    0.63760E-02   -0.44293E+00  1992   0.397E+00    0.578E-01
RMM:   2    -0.115770448027E+04   -0.97812E-02   -0.81073E-02  2347   0.568E-01    0.716E-01
RMM:   3    -0.115771114120E+04   -0.66609E-02   -0.17612E-02  2365   0.267E-01    0.168E+00
RMM:   4    -0.115770564246E+04    0.54987E-02   -0.60240E-03  2454   0.148E-01    0.841E-01
RMM:   5    -0.115770460511E+04    0.10373E-02   -0.23298E-03  2209   0.930E-02    0.368E-01
RMM:   6    -0.115770490821E+04   -0.30310E-03   -0.10155E-03  2262   0.566E-02    0.356E-01
RMM:   7    -0.115770495125E+04   -0.43041E-04   -0.57683E-04  2310   0.453E-02    0.353E-01
RMM:   8    -0.115770478188E+04    0.16937E-03   -0.59865E-04  2198   0.498E-02    0.190E-01
RMM:   9    -0.115770498807E+04   -0.20619E-03   -0.44891E-04  2190   0.448E-02    0.236E-01
RMM:  10    -0.115770480349E+04    0.18458E-03   -0.19651E-04  2128   0.318E-02    0.100E-01
RMM:  11    -0.115770483167E+04   -0.28178E-04   -0.78085E-05  1927   0.183E-02    0.895E-02
RMM:  12    -0.115770483299E+04   -0.13170E-05   -0.37257E-05  1720   0.124E-02    0.680E-02
RMM:  13    -0.115770483065E+04    0.23404E-05   -0.16134E-05  1530   0.905E-03    0.458E-02
RMM:  14    -0.115770483394E+04   -0.32908E-05   -0.68896E-06  1440   0.576E-03    0.298E-02
RMM:  15    -0.115770483746E+04   -0.35263E-05   -0.22049E-06  1325   0.362E-03    0.154E-02
RMM:  16    -0.115770484170E+04   -0.42378E-05   -0.16489E-06  1284   0.287E-03    0.159E-02
RMM:  17    -0.115770484434E+04   -0.26431E-05   -0.14014E-06  1244   0.272E-03    0.102E-02
RMM:  18    -0.115770484877E+04   -0.44240E-05   -0.11191E-06  1184   0.231E-03    0.957E-03
RMM:  19    -0.115770485168E+04   -0.29122E-05   -0.81303E-07  1150   0.206E-03    0.813E-03
RMM:  20    -0.115770485464E+04   -0.29637E-05   -0.42857E-07  1104   0.154E-03    0.443E-03
RMM:  21    -0.115770485756E+04   -0.29140E-05   -0.22378E-07  1048   0.108E-03    0.256E-03
RMM:  22    -0.115770486057E+04   -0.30165E-05   -0.16329E-07  1026   0.849E-04    0.374E-03
RMM:  23    -0.115770486242E+04   -0.18472E-05   -0.11982E-07   975   0.744E-04    0.374E-03
RMM:  24    -0.115770486457E+04   -0.21508E-05   -0.77550E-08   837   0.561E-04    0.192E-03
RMM:  25    -0.115770486725E+04   -0.26733E-05   -0.62731E-08   796   0.457E-04    0.993E-04
RMM:  26    -0.115770487014E+04   -0.28964E-05   -0.71336E-08   862   0.469E-04    0.151E-03
RMM:  27    -0.115770487164E+04   -0.14996E-05   -0.54515E-08   804   0.455E-04    0.137E-03
RMM:  28    -0.115770487388E+04   -0.22423E-05   -0.57605E-08   783   0.409E-04    0.954E-04
RMM:  29    -0.115770487566E+04   -0.17771E-05   -0.53701E-08   772   0.421E-04    0.441E-04
RMM:  30    -0.115770487781E+04   -0.21523E-05   -0.66686E-08   782   0.386E-04    0.266E-04
RMM:  31    -0.115770487917E+04   -0.13546E-05   -0.57750E-08   779   0.407E-04    0.252E-04
RMM:  32    -0.115770488022E+04   -0.10487E-05   -0.54071E-08   742   0.370E-04    0.245E-04
RMM:  33    -0.115770488117E+04   -0.94996E-06   -0.50964E-08   732   0.383E-04
  15 F= -.11656755E+04 E0= -.11656649E+04  d E =-.218514E-01  mag=    21.8189
 curvature:  -1.26 expect dE=-0.626E-01 dE for cont linesearch -0.958E-07
 trial: gam= 0.81504 g(F)=  0.498E-01 g(S)=  0.000E+00 ort =-0.126E-03 (trialstep = 0.499E+00)
 search vector abs. value=  0.188E+00
 bond charge predicted
       N       E                     dE             d eps       ncg     rms          rms(c)
DAV:   1    -0.115769322518E+04    0.11655E-01   -0.11780E+01  2004   0.652E+00    0.950E-01
RMM:   2    -0.115772502763E+04   -0.31802E-01   -0.22608E-01  2358   0.943E-01    0.157E+00
RMM:   3    -0.115773488135E+04   -0.98537E-02   -0.51156E-02  2341   0.455E-01    0.281E+00
RMM:   4    -0.115772857801E+04    0.63033E-02   -0.21074E-02  2479   0.249E-01    0.173E+00
RMM:   5    -0.115771938419E+04    0.91938E-02   -0.93921E-03  2195   0.193E-01    0.501E-01
RMM:   6    -0.115771990785E+04   -0.52366E-03   -0.36995E-03  2338   0.994E-02    0.554E-01
RMM:   7    -0.115772009816E+04   -0.19031E-03   -0.16841E-03  2340   0.734E-02    0.591E-01
RMM:   8    -0.115771976175E+04    0.33641E-03   -0.13519E-03  2270   0.754E-02    0.517E-01
RMM:   9    -0.115771986244E+04   -0.10069E-03   -0.13632E-03  2240   0.724E-02    0.391E-01
RMM:  10    -0.115771943460E+04    0.42784E-03   -0.71376E-04  2211   0.589E-02    0.241E-01
RMM:  11    -0.115771946325E+04   -0.28652E-04   -0.23280E-04  2176   0.316E-02    0.242E-01
RMM:  12    -0.115771941227E+04    0.50978E-04   -0.98069E-05  2006   0.196E-02    0.173E-01
RMM:  13    -0.115771940405E+04    0.82246E-05   -0.60963E-05  1849   0.165E-02    0.108E-01
RMM:  14    -0.115771946353E+04   -0.59484E-04   -0.39582E-05  1815   0.123E-02    0.821E-02
RMM:  15    -0.115771948990E+04   -0.26369E-04   -0.22419E-05  1601   0.104E-02    0.420E-02
RMM:  16    -0.115771951155E+04   -0.21650E-04   -0.79447E-06  1464   0.605E-03    0.255E-02
RMM:  17    -0.115771952348E+04   -0.11929E-04   -0.56274E-06  1353   0.488E-03    0.242E-02
RMM:  18    -0.115771953902E+04   -0.15539E-04   -0.41585E-06  1291   0.381E-03    0.253E-02
RMM:  19    -0.115771956319E+04   -0.24170E-04   -0.25134E-06  1280   0.334E-03    0.111E-02
RMM:  20    -0.115771958370E+04   -0.20516E-04   -0.17604E-06  1274   0.285E-03    0.147E-02
RMM:  21    -0.115771959422E+04   -0.10517E-04   -0.11299E-06  1195   0.239E-03    0.116E-02
RMM:  22    -0.115771960576E+04   -0.11535E-04   -0.56087E-07  1103   0.158E-03    0.991E-03
RMM:  23    -0.115771961941E+04   -0.13659E-04   -0.53025E-07  1090   0.149E-03    0.667E-03
RMM:  24    -0.115771963287E+04   -0.13451E-04   -0.49622E-07  1076   0.132E-03    0.521E-03
RMM:  25    -0.115771964592E+04   -0.13056E-04   -0.42201E-07  1075   0.114E-03    0.318E-03
RMM:  26    -0.115771966037E+04   -0.14449E-04   -0.44762E-07  1053   0.999E-04    0.244E-03
RMM:  27    -0.115771967479E+04   -0.14424E-04   -0.48248E-07  1043   0.950E-04    0.158E-03
RMM:  28    -0.115771968891E+04   -0.14117E-04   -0.53801E-07  1061   0.941E-04    0.248E-03
RMM:  29    -0.115771969544E+04   -0.65253E-05   -0.39889E-07   996   0.923E-04    0.174E-03
RMM:  30    -0.115771970540E+04   -0.99610E-05   -0.51086E-07   999   0.790E-04    0.102E-03
RMM:  31    -0.115771971202E+04   -0.66187E-05   -0.42170E-07  1011   0.873E-04    0.983E-04
RMM:  32    -0.115771971605E+04   -0.40291E-05   -0.39610E-07   963   0.729E-04    0.802E-04
RMM:  33    -0.115771971875E+04   -0.27083E-05   -0.30713E-07   948   0.750E-04    0.469E-04
RMM:  34    -0.115771972107E+04   -0.23127E-05   -0.30097E-07   930   0.636E-04    0.320E-04
RMM:  35    -0.115771972203E+04   -0.95980E-06   -0.21862E-07   907   0.661E-04
  16 F= -.11656895E+04 E0= -.11656790E+04  d E =-.140900E-01  mag=    21.8289
 trial-energy change:   -0.014090  1 .order   -0.014062   -0.024794   -0.003330
 step:   0.5769(harm=  0.5769)  dis= 0.01113  next Energy= -1165.689780 (dE=-0.143E-01)
 bond charge predicted
       N       E                     dE             d eps       ncg     rms          rms(c)
DAV:   1    -0.115771948819E+04    0.23288E-03   -0.28377E-01  2124   0.101E+00    0.148E-01
RMM:   2    -0.115772023628E+04   -0.74809E-03   -0.53358E-03  2340   0.146E-01    0.277E-01
RMM:   3    -0.115772037057E+04   -0.13429E-03   -0.11616E-03  2298   0.692E-02    0.398E-01
RMM:   4    -0.115772028902E+04    0.81558E-04   -0.51808E-04  2395   0.397E-02    0.321E-01
RMM:   5    -0.115772004747E+04    0.24154E-03   -0.21951E-04  2005   0.301E-02    0.896E-02
RMM:   6    -0.115772008327E+04   -0.35801E-04   -0.85885E-05  1898   0.161E-02    0.753E-02
RMM:   7    -0.115772010900E+04   -0.25732E-04   -0.46815E-05  1970   0.124E-02    0.114E-01
RMM:   8    -0.115772007817E+04    0.30836E-04   -0.36293E-05  1847   0.128E-02    0.473E-02
RMM:   9    -0.115772010644E+04   -0.28277E-04   -0.34623E-05  1844   0.118E-02    0.572E-02
RMM:  10    -0.115772009141E+04    0.15036E-04   -0.14479E-05  1500   0.879E-03    0.216E-02
RMM:  11    -0.115772009717E+04   -0.57618E-05   -0.47267E-06  1385   0.492E-03    0.268E-02
RMM:  12    -0.115772009734E+04   -0.17434E-06   -0.23217E-06  1289   0.352E-03
  17 F= -.11656898E+04 E0= -.11656792E+04  d E =-.143356E-01  mag=    21.8299
 curvature:  -1.09 expect dE=-0.385E-01 dE for cont linesearch -0.195E-07
 trial: gam= 0.69946 g(F)=  0.352E-01 g(S)=  0.000E+00 ort =-0.580E-04 (trialstep = 0.515E+00)
 search vector abs. value=  0.127E+00
 bond charge predicted
       N       E                     dE             d eps       ncg     rms          rms(c)
DAV:   1    -0.115771444783E+04    0.56493E-02   -0.72149E+00  1992   0.526E+00    0.764E-01
RMM:   2    -0.115773227470E+04   -0.17827E-01   -0.15425E-01  2396   0.770E-01    0.104E+00
RMM:   3    -0.115774111061E+04   -0.88359E-02   -0.30250E-02  2325   0.365E-01    0.180E+00
RMM:   4    -0.115773148182E+04    0.96288E-02   -0.93055E-03  2447   0.203E-01    0.558E-01
RMM:   5    -0.115773191533E+04   -0.43351E-03   -0.24324E-03  2334   0.941E-02    0.682E-01
RMM:   6    -0.115773188206E+04    0.33270E-04   -0.15628E-03  2301   0.679E-02    0.500E-01
RMM:   7    -0.115773154328E+04    0.33878E-03   -0.10633E-03  2261   0.647E-02    0.267E-01
RMM:   8    -0.115773219466E+04   -0.65139E-03   -0.12940E-03  2216   0.708E-02    0.462E-01
RMM:   9    -0.115773174693E+04    0.44773E-03   -0.78060E-04  2175   0.568E-02    0.280E-01
RMM:  10    -0.115773170327E+04    0.43661E-04   -0.44583E-04  2155   0.463E-02    0.255E-01
RMM:  11    -0.115773160510E+04    0.98166E-04   -0.18307E-04  2152   0.277E-02    0.122E-01
RMM:  12    -0.115773164887E+04   -0.43767E-04   -0.91704E-05  1931   0.194E-02    0.112E-01
RMM:  13    -0.115773163366E+04    0.15211E-04   -0.39369E-05  1768   0.138E-02    0.451E-02
RMM:  14    -0.115773164954E+04   -0.15888E-04   -0.15861E-05  1542   0.840E-03    0.340E-02
RMM:  15    -0.115773165786E+04   -0.83114E-05   -0.55420E-06  1406   0.560E-03    0.241E-02
RMM:  16    -0.115773166639E+04   -0.85306E-05   -0.39031E-06  1355   0.435E-03    0.222E-02
RMM:  17    -0.115773167467E+04   -0.82784E-05   -0.29662E-06  1328   0.389E-03    0.194E-02
RMM:  18    -0.115773168221E+04   -0.75456E-05   -0.21466E-06  1289   0.326E-03    0.115E-02
RMM:  19    -0.115773169117E+04   -0.89582E-05   -0.10217E-06  1172   0.222E-03    0.762E-03
RMM:  20    -0.115773169647E+04   -0.53005E-05   -0.70702E-07  1145   0.168E-03    0.821E-03
RMM:  21    -0.115773170175E+04   -0.52783E-05   -0.57404E-07  1125   0.154E-03    0.489E-03
RMM:  22    -0.115773171010E+04   -0.83564E-05   -0.38694E-07  1086   0.121E-03    0.486E-03
RMM:  23    -0.115773171529E+04   -0.51866E-05   -0.29454E-07  1037   0.114E-03    0.369E-03
RMM:  24    -0.115773171972E+04   -0.44333E-05   -0.21766E-07  1002   0.849E-04    0.280E-03
RMM:  25    -0.115773172439E+04   -0.46674E-05   -0.17853E-07   956   0.771E-04    0.204E-03
RMM:  26    -0.115773173051E+04   -0.61208E-05   -0.18881E-07   928   0.656E-04    0.151E-03
RMM:  27    -0.115773173603E+04   -0.55133E-05   -0.18372E-07   940   0.637E-04    0.929E-04
RMM:  28    -0.115773174046E+04   -0.44322E-05   -0.18126E-07   923   0.576E-04    0.946E-04
RMM:  29    -0.115773174320E+04   -0.27422E-05   -0.14881E-07   886   0.567E-04    0.128E-03
RMM:  30    -0.115773174550E+04   -0.22985E-05   -0.12900E-07   831   0.515E-04    0.643E-04
RMM:  31    -0.115773174945E+04   -0.39466E-05   -0.17738E-07   921   0.521E-04    0.434E-04
RMM:  32    -0.115773175187E+04   -0.24240E-05   -0.16364E-07   918   0.547E-04    0.380E-04
RMM:  33    -0.115773175305E+04   -0.11844E-05   -0.13439E-07   823   0.489E-04    0.431E-04
RMM:  34    -0.115773175375E+04   -0.69947E-06   -0.10310E-07   769   0.462E-04
  18 F= -.11657010E+04 E0= -.11656905E+04  d E =-.111925E-01  mag=    21.8318
 trial-energy change:   -0.011192  1 .order   -0.011174   -0.018104   -0.004244
 step:   0.6725(harm=  0.6725)  dis= 0.01139  next Energy= -1165.701619 (dE=-0.118E-01)
 bond charge predicted
       N       E                     dE             d eps       ncg     rms          rms(c)
DAV:   1    -0.115773093832E+04    0.81473E-03   -0.67675E-01  2052   0.161E+00    0.234E-01
RMM:   2    -0.115773256994E+04   -0.16316E-02   -0.14385E-02  2385   0.235E-01    0.331E-01
RMM:   3    -0.115773336825E+04   -0.79831E-03   -0.27851E-03  2311   0.111E-01    0.571E-01
RMM:   4    -0.115773250566E+04    0.86260E-03   -0.88305E-04  2403   0.626E-02    0.241E-01
RMM:   5    -0.115773248375E+04    0.21911E-04   -0.24936E-04  2212   0.306E-02    0.173E-01
RMM:   6    -0.115773251891E+04   -0.35159E-04   -0.15591E-04  2084   0.225E-02    0.149E-01
RMM:   7    -0.115773251590E+04    0.30101E-05   -0.10047E-04  2119   0.200E-02    0.147E-01
RMM:   8    -0.115773250092E+04    0.14977E-04   -0.84956E-05  1963   0.189E-02    0.971E-02
RMM:   9    -0.115773255293E+04   -0.52007E-04   -0.78737E-05  2021   0.177E-02    0.112E-01
RMM:  10    -0.115773251303E+04    0.39895E-04   -0.40335E-05  1750   0.137E-02    0.433E-02
RMM:  11    -0.115773252170E+04   -0.86634E-05   -0.18310E-05  1553   0.872E-03    0.345E-02
RMM:  12    -0.115773252275E+04   -0.10578E-05   -0.58242E-06  1421   0.566E-03    0.215E-02
RMM:  13    -0.115773252361E+04   -0.85348E-06   -0.26103E-06  1332   0.386E-03
  19 F= -.11657016E+04 E0= -.11656912E+04  d E =-.118260E-01  mag=    21.8321
 curvature:  -1.22 expect dE=-0.578E-01 dE for cont linesearch -0.549E-07
 trial: gam= 1.34414 g(F)=  0.475E-01 g(S)=  0.000E+00 ort =-0.758E-04 (trialstep = 0.251E+00)
 search vector abs. value=  0.277E+00
 bond charge predicted
       N       E                     dE             d eps       ncg     rms          rms(c)
DAV:   1    -0.115773361593E+04   -0.10932E-02   -0.35985E+00  1992   0.382E+00    0.499E-01
RMM:   2    -0.115774204463E+04   -0.84287E-02   -0.77343E-02  2403   0.545E-01    0.744E-01
RMM:   3    -0.115774521783E+04   -0.31732E-02   -0.12637E-02  2357   0.239E-01    0.121E+00
RMM:   4    -0.115774192474E+04    0.32931E-02   -0.40057E-03  2478   0.129E-01    0.492E-01
RMM:   5    -0.115774209175E+04   -0.16702E-03   -0.11539E-03  2288   0.613E-02    0.343E-01
RMM:   6    -0.115774236548E+04   -0.27372E-03   -0.65228E-04  2275   0.481E-02    0.373E-01
RMM:   7    -0.115774208474E+04    0.28074E-03   -0.43962E-04  2311   0.403E-02    0.230E-01
RMM:   8    -0.115774223653E+04   -0.15178E-03   -0.45141E-04  2210   0.408E-02    0.246E-01
RMM:   9    -0.115774225455E+04   -0.18026E-04   -0.37533E-04  2171   0.397E-02    0.209E-01
RMM:  10    -0.115774215308E+04    0.10147E-03   -0.18186E-04  2005   0.277E-02    0.919E-02
RMM:  11    -0.115774216088E+04   -0.77918E-05   -0.77928E-05  1885   0.180E-02    0.731E-02
RMM:  12    -0.115774217061E+04   -0.97293E-05   -0.27612E-05  1690   0.109E-02    0.637E-02
RMM:  13    -0.115774216590E+04    0.47105E-05   -0.12927E-05  1492   0.852E-03    0.278E-02
RMM:  14    -0.115774218025E+04   -0.14355E-04   -0.42999E-06  1388   0.469E-03    0.169E-02
RMM:  15    -0.115774218814E+04   -0.78925E-05   -0.27899E-06  1325   0.390E-03    0.171E-02
RMM:  16    -0.115774219109E+04   -0.29501E-05   -0.17153E-06  1256   0.290E-03    0.139E-02
RMM:  17    -0.115774219578E+04   -0.46830E-05   -0.14600E-06  1222   0.257E-03    0.109E-02
RMM:  18    -0.115774220042E+04   -0.46425E-05   -0.10935E-06  1191   0.246E-03    0.825E-03
RMM:  19    -0.115774220506E+04   -0.46440E-05   -0.54377E-07  1112   0.174E-03    0.693E-03
RMM:  20    -0.115774220754E+04   -0.24796E-05   -0.37106E-07  1083   0.141E-03    0.455E-03
RMM:  21    -0.115774221089E+04   -0.33524E-05   -0.24930E-07  1047   0.108E-03    0.474E-03
RMM:  22    -0.115774221354E+04   -0.26476E-05   -0.17114E-07  1025   0.884E-04    0.493E-03
RMM:  23    -0.115774221606E+04   -0.25214E-05   -0.12900E-07   936   0.674E-04    0.329E-03
RMM:  24    -0.115774221783E+04   -0.17713E-05   -0.10231E-07   869   0.634E-04    0.235E-03
RMM:  25    -0.115774221975E+04   -0.19192E-05   -0.88188E-08   827   0.541E-04    0.126E-03
RMM:  26    -0.115774222151E+04   -0.17568E-05   -0.78080E-08   858   0.520E-04    0.942E-04
RMM:  27    -0.115774222362E+04   -0.21101E-05   -0.81424E-08   855   0.462E-04    0.676E-04
RMM:  28    -0.115774222550E+04   -0.18843E-05   -0.82307E-08   852   0.469E-04    0.111E-03
RMM:  29    -0.115774222651E+04   -0.10044E-05   -0.68262E-08   793   0.440E-04    0.546E-04
RMM:  30    -0.115774222790E+04   -0.13895E-05   -0.73206E-08   772   0.403E-04    0.450E-04
RMM:  31    -0.115774222897E+04   -0.10680E-05   -0.74299E-08   815   0.415E-04    0.339E-04
RMM:  32    -0.115774222964E+04   -0.66915E-06   -0.64275E-08   730   0.392E-04
  20 F= -.11657110E+04 E0= -.11657006E+04  d E =-.933872E-02  mag=    21.8346
 trial-energy change:   -0.009339  1 .order   -0.009318   -0.011889   -0.006748
 step:   0.5633(harm=  0.5800)  dis= 0.01442  next Energy= -1165.715203 (dE=-0.136E-01)
 bond charge predicted
       N       E                     dE             d eps       ncg     rms          rms(c)
DAV:   1    -0.115773375044E+04    0.84785E-02   -0.55861E+00  1992   0.476E+00    0.621E-01
RMM:   2    -0.115774692318E+04   -0.13173E-01   -0.12051E-01  2407   0.680E-01    0.925E-01
RMM:   3    -0.115775185336E+04   -0.49302E-02   -0.19626E-02  2358   0.298E-01    0.149E+00
RMM:   4    -0.115774668532E+04    0.51680E-02   -0.61698E-03  2482   0.161E-01    0.562E-01
RMM:   5    -0.115774703394E+04   -0.34861E-03   -0.17312E-03  2320   0.745E-02    0.437E-01
RMM:   6    -0.115774733638E+04   -0.30244E-03   -0.98759E-04  2300   0.590E-02    0.442E-01
RMM:   7    -0.115774696436E+04    0.37202E-03   -0.67735E-04  2326   0.501E-02    0.286E-01
RMM:   8    -0.115774719632E+04   -0.23196E-03   -0.69430E-04  2253   0.503E-02    0.318E-01
RMM:   9    -0.115774717025E+04    0.26073E-04   -0.56466E-04  2182   0.486E-02    0.255E-01
RMM:  10    -0.115774701600E+04    0.15425E-03   -0.27618E-04  2058   0.339E-02    0.109E-01
RMM:  11    -0.115774702807E+04   -0.12072E-04   -0.12042E-04  1969   0.222E-02    0.965E-02
RMM:  12    -0.115774703454E+04   -0.64692E-05   -0.41429E-05  1807   0.134E-02    0.831E-02
RMM:  13    -0.115774702457E+04    0.99642E-05   -0.19964E-05  1581   0.103E-02    0.414E-02
RMM:  14    -0.115774704515E+04   -0.20575E-04   -0.68323E-06  1451   0.574E-03    0.217E-02
RMM:  15    -0.115774705820E+04   -0.13046E-04   -0.44857E-06  1379   0.491E-03    0.227E-02
RMM:  16    -0.115774706186E+04   -0.36619E-05   -0.27728E-06  1315   0.369E-03    0.178E-02
RMM:  17    -0.115774706788E+04   -0.60223E-05   -0.21725E-06  1274   0.314E-03    0.131E-02
RMM:  18    -0.115774707414E+04   -0.62581E-05   -0.16717E-06  1252   0.297E-03    0.120E-02
RMM:  19    -0.115774708093E+04   -0.67903E-05   -0.88415E-07  1190   0.222E-03    0.969E-03
RMM:  20    -0.115774708483E+04   -0.38977E-05   -0.57324E-07  1110   0.177E-03    0.559E-03
RMM:  21    -0.115774708958E+04   -0.47532E-05   -0.37524E-07  1079   0.134E-03    0.579E-03
RMM:  22    -0.115774709287E+04   -0.32929E-05   -0.24962E-07  1051   0.108E-03    0.636E-03
RMM:  23    -0.115774709623E+04   -0.33566E-05   -0.19157E-07  1025   0.847E-04    0.500E-03
RMM:  24    -0.115774709876E+04   -0.25287E-05   -0.15330E-07   925   0.766E-04    0.341E-03
RMM:  25    -0.115774710247E+04   -0.37137E-05   -0.14431E-07   906   0.649E-04    0.156E-03
RMM:  26    -0.115774710535E+04   -0.28822E-05   -0.12846E-07   911   0.634E-04    0.121E-03
RMM:  27    -0.115774710880E+04   -0.34514E-05   -0.14507E-07   906   0.558E-04    0.785E-04
RMM:  28    -0.115774711248E+04   -0.36803E-05   -0.16268E-07   958   0.564E-04    0.831E-04
RMM:  29    -0.115774711463E+04   -0.21489E-05   -0.14201E-07   880   0.538E-04    0.113E-03
RMM:  30    -0.115774711565E+04   -0.10141E-05   -0.10668E-07   822   0.497E-04    0.858E-04
RMM:  31    -0.115774711752E+04   -0.18746E-05   -0.12683E-07   836   0.460E-04    0.451E-04
RMM:  32    -0.115774711849E+04   -0.96579E-06   -0.10224E-07   838   0.480E-04
  21 F= -.11657154E+04 E0= -.11657051E+04  d E =-.137387E-01  mag=    21.8378
 curvature:  -1.69 expect dE=-0.566E-01 dE for cont linesearch -0.105E-04
 trial: gam= 0.67220 g(F)=  0.335E-01 g(S)=  0.000E+00 ort = 0.131E-02 (trialstep = 0.313E+00)
 search vector abs. value=  0.160E+00
 bond charge predicted
       N       E                     dE             d eps       ncg     rms          rms(c)
DAV:   1    -0.115774796956E+04   -0.85204E-03   -0.28911E+00  1992   0.349E+00    0.477E-01
RMM:   2    -0.115775523806E+04   -0.72685E-02   -0.69841E-02  2409   0.520E-01    0.710E-01
RMM:   3    -0.115775830011E+04   -0.30621E-02   -0.11154E-02  2366   0.225E-01    0.117E+00
RMM:   4    -0.115775509173E+04    0.32084E-02   -0.37117E-03  2479   0.123E-01    0.476E-01
RMM:   5    -0.115775527104E+04   -0.17931E-03   -0.10462E-03  2289   0.598E-02    0.329E-01
RMM:   6    -0.115775549578E+04   -0.22474E-03   -0.57187E-04  2308   0.455E-02    0.357E-01
RMM:   7    -0.115775522113E+04    0.27465E-03   -0.36524E-04  2313   0.373E-02    0.200E-01
RMM:   8    -0.115775550372E+04   -0.28259E-03   -0.64611E-04  2182   0.472E-02    0.255E-01
RMM:   9    -0.115775533863E+04    0.16509E-03   -0.38662E-04  2154   0.401E-02    0.202E-01
RMM:  10    -0.115775524957E+04    0.89057E-04   -0.17258E-04  1986   0.263E-02    0.117E-01
RMM:  11    -0.115775523807E+04    0.11507E-04   -0.58594E-05  1892   0.145E-02    0.938E-02
RMM:  12    -0.115775524227E+04   -0.41997E-05   -0.20697E-05  1621   0.998E-03    0.578E-02
RMM:  13    -0.115775525269E+04   -0.10421E-04   -0.11015E-05  1473   0.758E-03    0.304E-02
RMM:  14    -0.115775527713E+04   -0.24440E-04   -0.59024E-06  1414   0.535E-03    0.227E-02
RMM:  15    -0.115775528809E+04   -0.10960E-04   -0.35183E-06  1335   0.445E-03    0.195E-02
RMM:  16    -0.115775529401E+04   -0.59260E-05   -0.17730E-06  1249   0.298E-03    0.152E-02
RMM:  17    -0.115775530051E+04   -0.64949E-05   -0.11459E-06  1210   0.239E-03    0.963E-03
RMM:  18    -0.115775530811E+04   -0.76037E-05   -0.66282E-07  1154   0.192E-03    0.626E-03
RMM:  19    -0.115775531720E+04   -0.90939E-05   -0.53695E-07  1130   0.158E-03    0.755E-03
RMM:  20    -0.115775532312E+04   -0.59126E-05   -0.40510E-07  1084   0.144E-03    0.353E-03
RMM:  21    -0.115775532905E+04   -0.59347E-05   -0.23965E-07  1044   0.923E-04    0.393E-03
RMM:  22    -0.115775533305E+04   -0.40028E-05   -0.15947E-07   984   0.773E-04    0.363E-03
RMM:  23    -0.115775533963E+04   -0.65730E-05   -0.17511E-07   948   0.676E-04    0.285E-03
RMM:  24    -0.115775534446E+04   -0.48324E-05   -0.16990E-07   944   0.760E-04    0.225E-03
RMM:  25    -0.115775535062E+04   -0.61582E-05   -0.19246E-07   967   0.644E-04    0.164E-03
RMM:  26    -0.115775535365E+04   -0.30273E-05   -0.13847E-07   897   0.644E-04    0.155E-03
RMM:  27    -0.115775535824E+04   -0.45945E-05   -0.16331E-07   855   0.525E-04    0.963E-04
RMM:  28    -0.115775536246E+04   -0.42241E-05   -0.15801E-07   907   0.589E-04    0.728E-04
RMM:  29    -0.115775536499E+04   -0.25300E-05   -0.15333E-07   894   0.533E-04    0.112E-03
RMM:  30    -0.115775536691E+04   -0.19192E-05   -0.12800E-07   857   0.542E-04    0.857E-04
RMM:  31    -0.115775536930E+04   -0.23819E-05   -0.16072E-07   892   0.503E-04    0.566E-04
RMM:  32    -0.115775537052E+04   -0.12235E-05   -0.12864E-07   876   0.550E-04    0.541E-04
RMM:  33    -0.115775537137E+04   -0.85244E-06   -0.11734E-07   794   0.446E-04
  22 F= -.11657232E+04 E0= -.11657132E+04  d E =-.786472E-02  mag=    21.8446
 trial-energy change:   -0.007865  1 .order   -0.007865   -0.010771   -0.004959
 step:   0.5806(harm=  0.5806)  dis= 0.01241  next Energy= -1165.725340 (dE=-0.998E-02)
 bond charge predicted
       N       E                     dE             d eps       ncg     rms          rms(c)
DAV:   1    -0.115775245298E+04    0.29175E-02   -0.21049E+00  2004   0.298E+00    0.407E-01
RMM:   2    -0.115775770102E+04   -0.52480E-02   -0.50861E-02  2412   0.444E-01    0.592E-01
RMM:   3    -0.115775995417E+04   -0.22531E-02   -0.81025E-03  2367   0.191E-01    0.100E+00
RMM:   4    -0.115775762904E+04    0.23251E-02   -0.27044E-03  2472   0.105E-01    0.420E-01
RMM:   5    -0.115775774092E+04   -0.11188E-03   -0.78956E-04  2272   0.516E-02    0.275E-01
RMM:   6    -0.115775792903E+04   -0.18812E-03   -0.42295E-04  2291   0.391E-02    0.311E-01
RMM:   7    -0.115775770751E+04    0.22153E-03   -0.26962E-04  2302   0.320E-02    0.159E-01
RMM:   8    -0.115775794266E+04   -0.23515E-03   -0.46854E-04  2154   0.405E-02    0.225E-01
RMM:   9    -0.115775781117E+04    0.13148E-03   -0.28038E-04  2106   0.341E-02    0.171E-01
RMM:  10    -0.115775774854E+04    0.62630E-04   -0.12532E-04  1948   0.225E-02    0.895E-02
RMM:  11    -0.115775774343E+04    0.51066E-05   -0.41291E-05  1808   0.124E-02    0.682E-02
RMM:  12    -0.115775774925E+04   -0.58124E-05   -0.14647E-05  1532   0.855E-03    0.424E-02
RMM:  13    -0.115775775615E+04   -0.69036E-05   -0.72515E-06  1437   0.632E-03    0.215E-02
RMM:  14    -0.115775777289E+04   -0.16738E-04   -0.34529E-06  1361   0.416E-03    0.170E-02
RMM:  15    -0.115775778084E+04   -0.79466E-05   -0.21387E-06  1301   0.351E-03    0.150E-02
RMM:  16    -0.115775778554E+04   -0.47072E-05   -0.11095E-06  1214   0.236E-03    0.118E-02
RMM:  17    -0.115775779097E+04   -0.54265E-05   -0.72533E-07  1163   0.192E-03    0.791E-03
RMM:  18    -0.115775779678E+04   -0.58074E-05   -0.46682E-07  1111   0.161E-03    0.528E-03
RMM:  19    -0.115775780309E+04   -0.63159E-05   -0.37123E-07  1094   0.131E-03    0.612E-03
RMM:  20    -0.115775780723E+04   -0.41368E-05   -0.27803E-07  1058   0.118E-03    0.276E-03
RMM:  21    -0.115775781178E+04   -0.45485E-05   -0.17562E-07  1013   0.770E-04    0.295E-03
RMM:  22    -0.115775781502E+04   -0.32397E-05   -0.12406E-07   929   0.683E-04    0.296E-03
RMM:  23    -0.115775781907E+04   -0.40521E-05   -0.12472E-07   875   0.604E-04    0.285E-03
RMM:  24    -0.115775782328E+04   -0.42120E-05   -0.12965E-07   900   0.651E-04    0.139E-03
RMM:  25    -0.115775782747E+04   -0.41899E-05   -0.13713E-07   931   0.560E-04    0.123E-03
RMM:  26    -0.115775782962E+04   -0.21514E-05   -0.10352E-07   873   0.548E-04    0.112E-03
RMM:  27    -0.115775783269E+04   -0.30705E-05   -0.11449E-07   825   0.478E-04    0.873E-04
RMM:  28    -0.115775783483E+04   -0.21358E-05   -0.99015E-08   833   0.513E-04    0.973E-04
RMM:  29    -0.115775783660E+04   -0.17680E-05   -0.95763E-08   798   0.451E-04    0.613E-04
RMM:  30    -0.115775783881E+04   -0.22177E-05   -0.10876E-07   858   0.481E-04    0.620E-04
RMM:  31    -0.115775784034E+04   -0.15292E-05   -0.11550E-07   874   0.477E-04    0.449E-04
RMM:  32    -0.115775784122E+04   -0.87130E-06   -0.94661E-08   818   0.471E-04
  23 F= -.11657253E+04 E0= -.11657154E+04  d E =-.997124E-02  mag=    21.8503
 curvature:  -1.35 expect dE=-0.450E-01 dE for cont linesearch -0.135E-07
 trial: gam= 1.03944 g(F)=  0.332E-01 g(S)=  0.000E+00 ort =-0.400E-04 (trialstep = 0.285E+00)
 search vector abs. value=  0.206E+00
 bond charge predicted
       N       E                     dE             d eps       ncg     rms          rms(c)
DAV:   1    -0.115775789378E+04   -0.53432E-04   -0.29415E+00  1992   0.349E+00    0.474E-01
RMM:   2    -0.115776529125E+04   -0.73975E-02   -0.68961E-02  2411   0.527E-01    0.823E-01
RMM:   3    -0.115776850941E+04   -0.32182E-02   -0.11803E-02  2401   0.216E-01    0.103E+00
RMM:   4    -0.115776519602E+04    0.33134E-02   -0.37447E-03  2459   0.120E-01    0.344E-01
RMM:   5    -0.115776554814E+04   -0.35211E-03   -0.93072E-04  2330   0.588E-02    0.410E-01
RMM:   6    -0.115776537701E+04    0.17112E-03   -0.44538E-04  2296   0.427E-02    0.232E-01
RMM:   7    -0.115776547712E+04   -0.10010E-03   -0.42018E-04  2161   0.420E-02    0.251E-01
RMM:   8    -0.115776563926E+04   -0.16215E-03   -0.50637E-04  2210   0.429E-02    0.234E-01
RMM:   9    -0.115776554295E+04    0.96310E-04   -0.39252E-04  2132   0.380E-02    0.230E-01
RMM:  10    -0.115776545667E+04    0.86284E-04   -0.12766E-04  2019   0.235E-02    0.183E-01
RMM:  11    -0.115776543658E+04    0.20091E-04   -0.50804E-05  1876   0.142E-02    0.133E-01
RMM:  12    -0.115776543580E+04    0.77948E-06   -0.29708E-05  1742   0.114E-02    0.505E-02
RMM:  13    -0.115776548066E+04   -0.44866E-04   -0.21005E-05  1644   0.946E-03    0.573E-02
RMM:  14    -0.115776548779E+04   -0.71229E-05   -0.10510E-05  1472   0.774E-03    0.319E-02
RMM:  15    -0.115776549041E+04   -0.26244E-05   -0.32536E-06  1344   0.413E-03    0.169E-02
RMM:  16    -0.115776549575E+04   -0.53424E-05   -0.16417E-06  1287   0.330E-03    0.936E-03
RMM:  17    -0.115776550043E+04   -0.46742E-05   -0.85002E-07  1207   0.211E-03    0.104E-02
RMM:  18    -0.115776550609E+04   -0.56664E-05   -0.64212E-07  1169   0.193E-03    0.642E-03
RMM:  19    -0.115776551105E+04   -0.49624E-05   -0.41831E-07  1111   0.149E-03    0.443E-03
RMM:  20    -0.115776551516E+04   -0.41009E-05   -0.28971E-07  1079   0.110E-03    0.556E-03
RMM:  21    -0.115776551846E+04   -0.33019E-05   -0.19548E-07  1037   0.936E-04    0.339E-03
RMM:  22    -0.115776552161E+04   -0.31559E-05   -0.12219E-07   948   0.671E-04    0.141E-03
RMM:  23    -0.115776552446E+04   -0.28454E-05   -0.95568E-08   860   0.584E-04    0.166E-03
RMM:  24    -0.115776552644E+04   -0.19820E-05   -0.76375E-08   814   0.533E-04    0.139E-03
RMM:  25    -0.115776552890E+04   -0.24606E-05   -0.69813E-08   799   0.480E-04    0.926E-04
RMM:  26    -0.115776553119E+04   -0.22925E-05   -0.66173E-08   815   0.460E-04    0.668E-04
RMM:  27    -0.115776553340E+04   -0.22098E-05   -0.64442E-08   795   0.424E-04    0.471E-04
RMM:  28    -0.115776553572E+04   -0.23195E-05   -0.71844E-08   829   0.421E-04    0.391E-04
RMM:  29    -0.115776553768E+04   -0.19567E-05   -0.74805E-08   826   0.426E-04    0.367E-04
RMM:  30    -0.115776553880E+04   -0.11161E-05   -0.61803E-08   760   0.409E-04    0.392E-04
RMM:  31    -0.115776553971E+04   -0.91295E-06   -0.55483E-08   730   0.381E-04
  24 F= -.11657327E+04 E0= -.11657229E+04  d E =-.738337E-02  mag=    21.8514
 trial-energy change:   -0.007383  1 .order   -0.007387   -0.009448   -0.005326
 step:   0.6532(harm=  0.6532)  dis= 0.01688  next Energy= -1165.736159 (dE=-0.108E-01)
 bond charge predicted
       N       E                     dE             d eps       ncg     rms          rms(c)
DAV:   1    -0.115775664292E+04    0.88959E-02   -0.49092E+00  1992   0.451E+00    0.612E-01
RMM:   2    -0.115776905818E+04   -0.12415E-01   -0.11519E-01  2411   0.681E-01    0.106E+00
RMM:   3    -0.115777409696E+04   -0.50388E-02   -0.19723E-02  2401   0.279E-01    0.120E+00
RMM:   4    -0.115776887891E+04    0.52181E-02   -0.59701E-03  2463   0.154E-01    0.364E-01
RMM:   5    -0.115776984696E+04   -0.96805E-03   -0.15937E-03  2371   0.742E-02    0.673E-01
RMM:   6    -0.115776902857E+04    0.81839E-03   -0.74867E-04  2303   0.556E-02    0.269E-01
RMM:   7    -0.115776936601E+04   -0.33745E-03   -0.87017E-04  2194   0.601E-02    0.286E-01
RMM:   8    -0.115776938193E+04   -0.15916E-04   -0.58352E-04  2287   0.470E-02    0.241E-01
RMM:   9    -0.115776937786E+04    0.40719E-05   -0.37092E-04  2203   0.413E-02    0.295E-01
RMM:  10    -0.115776926971E+04    0.10815E-03   -0.16055E-04  2086   0.258E-02    0.200E-01
RMM:  11    -0.115776928389E+04   -0.14185E-04   -0.10247E-04  2003   0.207E-02    0.189E-01
RMM:  12    -0.115776924854E+04    0.35349E-04   -0.47266E-05  1853   0.141E-02    0.563E-02
RMM:  13    -0.115776932803E+04   -0.79489E-04   -0.29849E-05  1776   0.114E-02    0.714E-02
RMM:  14    -0.115776933334E+04   -0.53071E-05   -0.16106E-05  1546   0.916E-03    0.455E-02
RMM:  15    -0.115776933649E+04   -0.31527E-05   -0.48855E-06  1423   0.535E-03    0.180E-02
RMM:  16    -0.115776934629E+04   -0.97953E-05   -0.23087E-06  1315   0.372E-03    0.163E-02
RMM:  17    -0.115776935402E+04   -0.77289E-05   -0.14881E-06  1265   0.281E-03    0.165E-02
RMM:  18    -0.115776936484E+04   -0.10818E-04   -0.96495E-07  1203   0.236E-03    0.561E-03
RMM:  19    -0.115776937380E+04   -0.89623E-05   -0.70509E-07  1139   0.184E-03    0.631E-03
RMM:  20    -0.115776938102E+04   -0.72207E-05   -0.49636E-07  1103   0.160E-03    0.690E-03
RMM:  21    -0.115776938581E+04   -0.47949E-05   -0.32210E-07  1082   0.117E-03    0.480E-03
RMM:  22    -0.115776938998E+04   -0.41646E-05   -0.21296E-07  1023   0.949E-04    0.204E-03
RMM:  23    -0.115776939517E+04   -0.51914E-05   -0.16856E-07   958   0.724E-04    0.228E-03
RMM:  24    -0.115776939798E+04   -0.28087E-05   -0.12311E-07   874   0.679E-04    0.168E-03
RMM:  25    -0.115776940199E+04   -0.40117E-05   -0.11001E-07   867   0.542E-04    0.118E-03
RMM:  26    -0.115776940583E+04   -0.38402E-05   -0.10189E-07   866   0.548E-04    0.899E-04
RMM:  27    -0.115776941008E+04   -0.42499E-05   -0.11663E-07   890   0.497E-04    0.694E-04
RMM:  28    -0.115776941291E+04   -0.28260E-05   -0.99938E-08   862   0.510E-04    0.792E-04
RMM:  29    -0.115776941504E+04   -0.21298E-05   -0.89271E-08   797   0.450E-04    0.743E-04
RMM:  30    -0.115776941762E+04   -0.25861E-05   -0.95431E-08   846   0.464E-04    0.557E-04
RMM:  31    -0.115776941978E+04   -0.21616E-05   -0.10020E-07   853   0.453E-04    0.413E-04
RMM:  32    -0.115776942114E+04   -0.13582E-05   -0.85241E-08   813   0.447E-04    0.258E-04
RMM:  33    -0.115776942242E+04   -0.12735E-05   -0.90023E-08   803   0.417E-04    0.187E-04
RMM:  34    -0.115776942302E+04   -0.60611E-06   -0.70931E-08   803   0.422E-04
  25 F= -.11657362E+04 E0= -.11657263E+04  d E =-.108322E-01  mag=    21.8527
 curvature:  -2.03 expect dE=-0.469E-01 dE for cont linesearch -0.371E-07
 trial: gam= 0.65883 g(F)=  0.231E-01 g(S)=  0.000E+00 ort = 0.613E-04 (trialstep = 0.359E+00)
 search vector abs. value=  0.113E+00
 bond charge predicted
       N       E                     dE             d eps       ncg     rms          rms(c)
DAV:   1    -0.115776870200E+04    0.72042E-03   -0.27378E+00  1992   0.333E+00    0.464E-01
RMM:   2    -0.115777510981E+04   -0.64078E-02   -0.59698E-02  2435   0.494E-01    0.621E-01
RMM:   3    -0.115777956205E+04   -0.44522E-02   -0.11150E-02  2387   0.218E-01    0.113E+00
RMM:   4    -0.115777527095E+04    0.42911E-02   -0.39831E-03  2458   0.126E-01    0.425E-01
RMM:   5    -0.115777527040E+04    0.55008E-06   -0.10936E-03  2318   0.654E-02    0.321E-01
RMM:   6    -0.115777528257E+04   -0.12172E-04   -0.52466E-04  2318   0.437E-02    0.228E-01
RMM:   7    -0.115777529494E+04   -0.12364E-04   -0.34797E-04  2267   0.382E-02    0.166E-01
RMM:   8    -0.115777541564E+04   -0.12070E-03   -0.36323E-04  2215   0.395E-02    0.215E-01
RMM:   9    -0.115777538820E+04    0.27444E-04   -0.25501E-04  2136   0.335E-02    0.129E-01
RMM:  10    -0.115777536641E+04    0.21785E-04   -0.14078E-04  2032   0.241E-02    0.142E-01
RMM:  11    -0.115777534090E+04    0.25511E-04   -0.51271E-05  1805   0.139E-02    0.717E-02
RMM:  12    -0.115777535025E+04   -0.93532E-05   -0.23817E-05  1610   0.107E-02    0.658E-02
RMM:  13    -0.115777534937E+04    0.88765E-06   -0.13458E-05  1511   0.806E-03    0.318E-02
RMM:  14    -0.115777536052E+04   -0.11152E-04   -0.55459E-06  1411   0.535E-03    0.215E-02
RMM:  15    -0.115777536678E+04   -0.62660E-05   -0.27734E-06  1333   0.397E-03    0.177E-02
RMM:  16    -0.115777536945E+04   -0.26611E-05   -0.90856E-07  1208   0.237E-03    0.831E-03
RMM:  17    -0.115777537340E+04   -0.39573E-05   -0.69096E-07  1169   0.198E-03    0.875E-03
RMM:  18    -0.115777537715E+04   -0.37422E-05   -0.65250E-07  1152   0.175E-03    0.793E-03
RMM:  19    -0.115777538059E+04   -0.34468E-05   -0.47027E-07  1117   0.160E-03    0.423E-03
RMM:  20    -0.115777538565E+04   -0.50546E-05   -0.30951E-07  1090   0.115E-03    0.571E-03
RMM:  21    -0.115777538717E+04   -0.15274E-05   -0.21358E-07  1035   0.107E-03    0.501E-03
RMM:  22    -0.115777539002E+04   -0.28467E-05   -0.12463E-07   969   0.668E-04    0.256E-03
RMM:  23    -0.115777539302E+04   -0.30000E-05   -0.10206E-07   916   0.591E-04    0.137E-03
RMM:  24    -0.115777539541E+04   -0.23884E-05   -0.94591E-08   871   0.561E-04    0.164E-03
RMM:  25    -0.115777539665E+04   -0.12381E-05   -0.66754E-08   803   0.505E-04    0.115E-03
RMM:  26    -0.115777539851E+04   -0.18616E-05   -0.61703E-08   757   0.426E-04    0.711E-04
RMM:  27    -0.115777540056E+04   -0.20523E-05   -0.68075E-08   810   0.451E-04    0.792E-04
RMM:  28    -0.115777540308E+04   -0.25173E-05   -0.95498E-08   887   0.448E-04    0.679E-04
RMM:  29    -0.115777540447E+04   -0.13916E-05   -0.72682E-08   805   0.446E-04    0.529E-04
RMM:  30    -0.115777540496E+04   -0.49303E-06   -0.49356E-08   678   0.376E-04
  26 F= -.11657420E+04 E0= -.11657321E+04  d E =-.580839E-02  mag=    21.8546
 trial-energy change:   -0.005808  1 .order   -0.005812   -0.008292   -0.003331
 step:   0.5995(harm=  0.5995)  dis= 0.01162  next Energy= -1165.743093 (dE=-0.693E-02)
 bond charge predicted
       N       E                     dE             d eps       ncg     rms          rms(c)
DAV:   1    -0.115777361850E+04    0.17860E-02   -0.12348E+00  1992   0.223E+00    0.312E-01
RMM:   2    -0.115777647011E+04   -0.28516E-02   -0.26941E-02  2439   0.332E-01    0.417E-01
RMM:   3    -0.115777858755E+04   -0.21174E-02   -0.50341E-03  2388   0.147E-01    0.841E-01
RMM:   4    -0.115777651957E+04    0.20680E-02   -0.18671E-03  2465   0.847E-02    0.308E-01
RMM:   5    -0.115777655805E+04   -0.38485E-04   -0.55495E-04  2217   0.486E-02    0.213E-01
RMM:   6    -0.115777656517E+04   -0.71166E-05   -0.25372E-04  2268   0.286E-02    0.153E-01
RMM:   7    -0.115777657559E+04   -0.10425E-04   -0.16370E-04  2236   0.260E-02    0.115E-01
RMM:   8    -0.115777663687E+04   -0.61279E-04   -0.16456E-04  2164   0.271E-02    0.160E-01
RMM:   9    -0.115777664439E+04   -0.75234E-05   -0.13179E-04  2052   0.230E-02    0.162E-01
RMM:  10    -0.115777659720E+04    0.47198E-04   -0.63691E-05  1878   0.176E-02    0.513E-02
RMM:  11    -0.115777661647E+04   -0.19272E-04   -0.34899E-05  1711   0.121E-02    0.582E-02
RMM:  12    -0.115777661030E+04    0.61707E-05   -0.10242E-05  1466   0.731E-03    0.245E-02
RMM:  13    -0.115777661568E+04   -0.53831E-05   -0.56400E-06  1403   0.550E-03    0.193E-02
RMM:  14    -0.115777661874E+04   -0.30604E-05   -0.20195E-06  1299   0.336E-03    0.144E-02
RMM:  15    -0.115777662042E+04   -0.16825E-05   -0.98091E-07  1234   0.247E-03    0.869E-03
RMM:  16    -0.115777662232E+04   -0.18942E-05   -0.38624E-07  1138   0.151E-03    0.497E-03
RMM:  17    -0.115777662449E+04   -0.21744E-05   -0.30508E-07  1085   0.131E-03    0.475E-03
RMM:  18    -0.115777662685E+04   -0.23602E-05   -0.28364E-07  1080   0.122E-03    0.505E-03
RMM:  19    -0.115777662845E+04   -0.15945E-05   -0.21069E-07  1040   0.104E-03    0.290E-03
RMM:  20    -0.115777663105E+04   -0.26059E-05   -0.13457E-07  1039   0.753E-04    0.269E-03
RMM:  21    -0.115777663185E+04   -0.80173E-06   -0.87486E-08   919   0.644E-04
  27 F= -.11657431E+04 E0= -.11657332E+04  d E =-.691661E-02  mag=    21.8557
 curvature:  -1.46 expect dE=-0.263E-01 dE for cont linesearch -0.250E-07
 trial: gam= 0.78373 g(F)=  0.180E-01 g(S)=  0.000E+00 ort =-0.439E-04 (trialstep = 0.407E+00)
 search vector abs. value=  0.872E-01
 bond charge predicted
       N       E                     dE             d eps       ncg     rms          rms(c)
DAV:   1    -0.115777537437E+04    0.12567E-02   -0.28773E+00  1992   0.340E+00    0.460E-01
RMM:   2    -0.115778261619E+04   -0.72418E-02   -0.59794E-02  2397   0.497E-01    0.695E-01
RMM:   3    -0.115778508692E+04   -0.24707E-02   -0.11714E-02  2350   0.229E-01    0.102E+00
RMM:   4    -0.115778267192E+04    0.24150E-02   -0.39646E-03  2475   0.122E-01    0.613E-01
RMM:   5    -0.115778201713E+04    0.65479E-03   -0.12954E-03  2255   0.711E-02    0.330E-01
RMM:   6    -0.115778205419E+04   -0.37058E-04   -0.63824E-04  2280   0.449E-02    0.242E-01
RMM:   7    -0.115778207165E+04   -0.17467E-04   -0.36004E-04  2301   0.376E-02    0.183E-01
RMM:   8    -0.115778213767E+04   -0.66014E-04   -0.36449E-04  2213   0.399E-02    0.193E-01
RMM:   9    -0.115778215785E+04   -0.20187E-04   -0.24739E-04  2205   0.333E-02    0.156E-01
RMM:  10    -0.115778208712E+04    0.70736E-04   -0.10704E-04  2032   0.227E-02    0.662E-02
RMM:  11    -0.115778211268E+04   -0.25562E-04   -0.38035E-05  1785   0.127E-02    0.836E-02
RMM:  12    -0.115778210534E+04    0.73426E-05   -0.19653E-05  1583   0.911E-03    0.560E-02
RMM:  13    -0.115778210911E+04   -0.37761E-05   -0.11551E-05  1472   0.777E-03    0.309E-02
RMM:  14    -0.115778211822E+04   -0.91016E-05   -0.67731E-06  1424   0.541E-03    0.216E-02
RMM:  15    -0.115778212299E+04   -0.47774E-05   -0.24493E-06  1304   0.396E-03    0.107E-02
RMM:  16    -0.115778212641E+04   -0.34204E-05   -0.94820E-07  1233   0.223E-03    0.126E-02
RMM:  17    -0.115778212893E+04   -0.25202E-05   -0.90686E-07  1193   0.213E-03    0.121E-02
RMM:  18    -0.115778213433E+04   -0.53934E-05   -0.66106E-07  1182   0.182E-03    0.821E-03
RMM:  19    -0.115778213934E+04   -0.50094E-05   -0.53866E-07  1140   0.171E-03    0.734E-03
RMM:  20    -0.115778214332E+04   -0.39872E-05   -0.40761E-07  1113   0.142E-03    0.488E-03
RMM:  21    -0.115778214761E+04   -0.42887E-05   -0.22934E-07  1064   0.109E-03    0.392E-03
RMM:  22    -0.115778215104E+04   -0.34243E-05   -0.14242E-07  1024   0.765E-04    0.255E-03
RMM:  23    -0.115778215420E+04   -0.31609E-05   -0.11100E-07   919   0.645E-04    0.233E-03
RMM:  24    -0.115778215639E+04   -0.21956E-05   -0.83498E-08   823   0.564E-04    0.125E-03
RMM:  25    -0.115778215944E+04   -0.30433E-05   -0.68929E-08   778   0.449E-04    0.738E-04
RMM:  26    -0.115778216254E+04   -0.31047E-05   -0.72169E-08   834   0.446E-04    0.724E-04
RMM:  27    -0.115778216484E+04   -0.22951E-05   -0.69179E-08   825   0.450E-04    0.933E-04
RMM:  28    -0.115778216673E+04   -0.18906E-05   -0.60358E-08   768   0.420E-04    0.576E-04
RMM:  29    -0.115778216810E+04   -0.13766E-05   -0.49183E-08   709   0.392E-04    0.404E-04
RMM:  30    -0.115778216954E+04   -0.14317E-05   -0.46230E-08   679   0.368E-04    0.291E-04
RMM:  31    -0.115778217144E+04   -0.19031E-05   -0.60866E-08   771   0.381E-04    0.264E-04
RMM:  32    -0.115778217257E+04   -0.11359E-05   -0.55692E-08   761   0.390E-04    0.225E-04
RMM:  33    -0.115778217365E+04   -0.10794E-05   -0.54137E-08   699   0.367E-04    0.172E-04
RMM:  34    -0.115778217431E+04   -0.65449E-06   -0.45450E-08   680   0.368E-04
  28 F= -.11657483E+04 E0= -.11657383E+04  d E =-.525482E-02  mag=    21.8552
 trial-energy change:   -0.005255  1 .order   -0.005236   -0.007304   -0.003169
 step:   0.7049(harm=  0.7186)  dis= 0.01180  next Energy= -1165.749502 (dE=-0.642E-02)
 bond charge predicted
       N       E                     dE             d eps       ncg     rms          rms(c)
DAV:   1    -0.115777995912E+04    0.22145E-02   -0.15442E+00  1992   0.250E+00    0.337E-01
RMM:   2    -0.115778382247E+04   -0.38633E-02   -0.32086E-02  2395   0.365E-01    0.516E-01
RMM:   3    -0.115778512467E+04   -0.13022E-02   -0.62669E-03  2351   0.168E-01    0.771E-01
RMM:   4    -0.115778394736E+04    0.11773E-02   -0.21725E-03  2479   0.893E-02    0.517E-01
RMM:   5    -0.115778344384E+04    0.50352E-03   -0.76159E-04  2216   0.550E-02    0.234E-01
RMM:   6    -0.115778351557E+04   -0.71729E-04   -0.35745E-04  2217   0.337E-02    0.175E-01
RMM:   7    -0.115778353112E+04   -0.15550E-04   -0.19464E-04  2298   0.272E-02    0.129E-01
RMM:   8    -0.115778357102E+04   -0.39900E-04   -0.19620E-04  2171   0.297E-02    0.139E-01
RMM:   9    -0.115778359196E+04   -0.20933E-04   -0.12501E-04  2106   0.232E-02    0.140E-01
RMM:  10    -0.115778354464E+04    0.47315E-04   -0.57111E-05  1866   0.157E-02    0.542E-02
RMM:  11    -0.115778356408E+04   -0.19434E-04   -0.27047E-05  1667   0.107E-02    0.687E-02
RMM:  12    -0.115778355628E+04    0.77975E-05   -0.11111E-05  1469   0.751E-03    0.313E-02
RMM:  13    -0.115778356135E+04   -0.50696E-05   -0.56840E-06  1395   0.565E-03    0.240E-02
RMM:  14    -0.115778356600E+04   -0.46543E-05   -0.28803E-06  1327   0.372E-03    0.139E-02
RMM:  15    -0.115778356864E+04   -0.26426E-05   -0.14400E-06  1245   0.300E-03    0.824E-03
RMM:  16    -0.115778357021E+04   -0.15700E-05   -0.49986E-07  1153   0.174E-03    0.849E-03
RMM:  17    -0.115778357140E+04   -0.11856E-05   -0.47424E-07  1131   0.154E-03    0.853E-03
RMM:  18    -0.115778357410E+04   -0.27042E-05   -0.34969E-07  1117   0.133E-03    0.582E-03
RMM:  19    -0.115778357660E+04   -0.24971E-05   -0.26652E-07  1070   0.120E-03    0.527E-03
RMM:  20    -0.115778357883E+04   -0.22269E-05   -0.21755E-07  1047   0.106E-03    0.360E-03
RMM:  21    -0.115778358111E+04   -0.22786E-05   -0.13421E-07  1030   0.842E-04    0.259E-03
RMM:  22    -0.115778358301E+04   -0.19032E-05   -0.80785E-08   936   0.605E-04    0.178E-03
RMM:  23    -0.115778358494E+04   -0.19270E-05   -0.57594E-08   806   0.483E-04    0.904E-04
RMM:  24    -0.115778358621E+04   -0.12762E-05   -0.43968E-08   726   0.441E-04    0.121E-03
RMM:  25    -0.115778358732E+04   -0.11053E-05   -0.33507E-08   676   0.397E-04    0.635E-04
RMM:  26    -0.115778358865E+04   -0.13277E-05   -0.33013E-08   680   0.367E-04    0.471E-04
RMM:  27    -0.115778359010E+04   -0.14566E-05   -0.36501E-08   708   0.375E-04    0.417E-04
RMM:  28    -0.115778359154E+04   -0.14349E-05   -0.38145E-08   703   0.363E-04    0.257E-04
RMM:  29    -0.115778359223E+04   -0.68762E-06   -0.28206E-08   630   0.348E-04
  29 F= -.11657495E+04 E0= -.11657395E+04  d E =-.646256E-02  mag=    21.8546
 curvature:  -1.74 expect dE=-0.289E-01 dE for cont linesearch -0.188E-05
 trial: gam= 0.90490 g(F)=  0.166E-01 g(S)=  0.000E+00 ort = 0.306E-03 (trialstep = 0.459E+00)
 search vector abs. value=  0.886E-01
 bond charge predicted
       N       E                     dE             d eps       ncg     rms          rms(c)
DAV:   1    -0.115777991288E+04    0.36787E-02   -0.37171E+00  1992   0.391E+00    0.530E-01
RMM:   2    -0.115778862065E+04   -0.87078E-02   -0.78549E-02  2390   0.565E-01    0.652E-01
RMM:   3    -0.115779384146E+04   -0.52208E-02   -0.14783E-02  2355   0.258E-01    0.127E+00
RMM:   4    -0.115778906881E+04    0.47726E-02   -0.51830E-03  2471   0.146E-01    0.576E-01
RMM:   5    -0.115778863995E+04    0.42886E-03   -0.15400E-03  2294   0.806E-02    0.313E-01
RMM:   6    -0.115778886002E+04   -0.22006E-03   -0.78480E-04  2326   0.503E-02    0.350E-01
RMM:   7    -0.115778869409E+04    0.16592E-03   -0.48554E-04  2286   0.422E-02    0.245E-01
RMM:   8    -0.115778883726E+04   -0.14317E-03   -0.52200E-04  2184   0.446E-02    0.308E-01
RMM:   9    -0.115778886788E+04   -0.30621E-04   -0.44582E-04  2245   0.418E-02    0.266E-01
RMM:  10    -0.115778867524E+04    0.19264E-03   -0.25425E-04  2120   0.356E-02    0.958E-02
RMM:  11    -0.115778872646E+04   -0.51224E-04   -0.84494E-05  1950   0.185E-02    0.917E-02
RMM:  12    -0.115778871455E+04    0.11912E-04   -0.25552E-05  1657   0.110E-02    0.449E-02
RMM:  13    -0.115778872046E+04   -0.59112E-05   -0.10686E-05  1473   0.747E-03    0.321E-02
RMM:  14    -0.115778872745E+04   -0.69929E-05   -0.50868E-06  1406   0.488E-03    0.215E-02
RMM:  15    -0.115778873098E+04   -0.35305E-05   -0.23085E-06  1334   0.376E-03    0.105E-02
RMM:  16    -0.115778873385E+04   -0.28623E-05   -0.75175E-07  1197   0.207E-03    0.101E-02
RMM:  17    -0.115778873652E+04   -0.26765E-05   -0.79965E-07  1203   0.207E-03    0.121E-02
RMM:  18    -0.115778874102E+04   -0.44997E-05   -0.66649E-07  1160   0.195E-03    0.686E-03
RMM:  19    -0.115778874655E+04   -0.55324E-05   -0.46325E-07  1142   0.157E-03    0.471E-03
RMM:  20    -0.115778874900E+04   -0.24449E-05   -0.37376E-07  1100   0.128E-03    0.541E-03
RMM:  21    -0.115778875238E+04   -0.33759E-05   -0.23592E-07  1069   0.102E-03    0.285E-03
RMM:  22    -0.115778875574E+04   -0.33650E-05   -0.14189E-07  1020   0.769E-04    0.252E-03
RMM:  23    -0.115778875813E+04   -0.23862E-05   -0.10871E-07   905   0.668E-04    0.211E-03
RMM:  24    -0.115778876067E+04   -0.25423E-05   -0.80194E-08   797   0.556E-04    0.122E-03
RMM:  25    -0.115778876368E+04   -0.30117E-05   -0.72879E-08   766   0.473E-04    0.136E-03
RMM:  26    -0.115778876754E+04   -0.38640E-05   -0.89429E-08   856   0.463E-04    0.723E-04
RMM:  27    -0.115778877081E+04   -0.32649E-05   -0.94754E-08   867   0.466E-04    0.715E-04
RMM:  28    -0.115778877236E+04   -0.15488E-05   -0.74500E-08   775   0.450E-04    0.706E-04
RMM:  29    -0.115778877383E+04   -0.14677E-05   -0.62515E-08   694   0.400E-04    0.607E-04
RMM:  30    -0.115778877524E+04   -0.14095E-05   -0.57925E-08   692   0.398E-04    0.462E-04
RMM:  31    -0.115778877748E+04   -0.22412E-05   -0.88484E-08   781   0.404E-04    0.352E-04
RMM:  32    -0.115778877877E+04   -0.12986E-05   -0.78099E-08   793   0.441E-04    0.254E-04
RMM:  33    -0.115778877947E+04   -0.69344E-06   -0.64608E-08   709   0.386E-04
  30 F= -.11657545E+04 E0= -.11657442E+04  d E =-.493395E-02  mag=    21.8478
 trial-energy change:   -0.004934  1 .order   -0.004935   -0.007756   -0.002114
 step:   0.6313(harm=  0.6313)  dis= 0.01007  next Energy= -1165.754873 (dE=-0.533E-02)
 bond charge predicted
       N       E                     dE             d eps       ncg     rms          rms(c)
DAV:   1    -0.115778803212E+04    0.74666E-03   -0.52221E-01  2028   0.146E+00    0.199E-01
RMM:   2    -0.115778920825E+04   -0.11761E-02   -0.10990E-02  2388   0.212E-01    0.246E-01
RMM:   3    -0.115778999712E+04   -0.78887E-03   -0.20622E-03  2347   0.968E-02    0.543E-01
RMM:   4    -0.115778931497E+04    0.68215E-03   -0.78182E-04  2470   0.544E-02    0.304E-01
RMM:   5    -0.115778919399E+04    0.12098E-03   -0.27678E-04  2131   0.346E-02    0.110E-01
RMM:   6    -0.115778925664E+04   -0.62645E-04   -0.12055E-04  2042   0.195E-02    0.122E-01
RMM:   7    -0.115778924295E+04    0.13691E-04   -0.63639E-05  2040   0.151E-02    0.814E-02
RMM:   8    -0.115778927284E+04   -0.29893E-04   -0.69870E-05  1966   0.170E-02    0.115E-01
RMM:   9    -0.115778928067E+04   -0.78293E-05   -0.66905E-05  1996   0.158E-02    0.105E-01
RMM:  10    -0.115778924925E+04    0.31413E-04   -0.36584E-05  1757   0.137E-02    0.373E-02
RMM:  11    -0.115778925992E+04   -0.10664E-04   -0.12325E-05  1497   0.737E-03    0.324E-02
RMM:  12    -0.115778925937E+04    0.55322E-06   -0.39415E-06  1381   0.475E-03
  31 F= -.11657549E+04 E0= -.11657445E+04  d E =-.531926E-02  mag=    21.8464
 curvature:  -1.66 expect dE=-0.298E-01 dE for cont linesearch -0.116E-08
 trial: gam= 1.10793 g(F)=  0.180E-01 g(S)=  0.000E+00 ort =-0.789E-05 (trialstep = 0.345E+00)
 search vector abs. value=  0.127E+00
 bond charge predicted
       N       E                     dE             d eps       ncg     rms          rms(c)
DAV:   1    -0.115778707475E+04    0.21852E-02   -0.30075E+00  1992   0.355E+00    0.448E-01
RMM:   2    -0.115779345748E+04   -0.63827E-02   -0.62022E-02  2399   0.499E-01    0.479E-01
RMM:   3    -0.115779830890E+04   -0.48514E-02   -0.97630E-03  2361   0.214E-01    0.177E+00
RMM:   4    -0.115779366092E+04    0.46480E-02   -0.43377E-03  2518   0.122E-01    0.644E-01
RMM:   5    -0.115779393118E+04   -0.27026E-03   -0.17341E-03  2226   0.893E-02    0.288E-01
RMM:   6    -0.115779418133E+04   -0.25015E-03   -0.67145E-04  2311   0.493E-02    0.340E-01
RMM:   7    -0.115779404449E+04    0.13684E-03   -0.35475E-04  2317   0.379E-02    0.221E-01
RMM:   8    -0.115779409688E+04   -0.52382E-04   -0.35355E-04  2187   0.367E-02    0.197E-01
RMM:   9    -0.115779424098E+04   -0.14411E-03   -0.35701E-04  2210   0.378E-02    0.205E-01
RMM:  10    -0.115779408372E+04    0.15727E-03   -0.17586E-04  2049   0.290E-02    0.773E-02
RMM:  11    -0.115779412188E+04   -0.38164E-04   -0.62219E-05  1924   0.159E-02    0.936E-02
RMM:  12    -0.115779410883E+04    0.13053E-04   -0.21166E-05  1629   0.102E-02    0.424E-02
RMM:  13    -0.115779411416E+04   -0.53337E-05   -0.87176E-06  1461   0.650E-03    0.332E-02
RMM:  14    -0.115779411983E+04   -0.56703E-05   -0.38369E-06  1377   0.451E-03    0.183E-02
RMM:  15    -0.115779412268E+04   -0.28472E-05   -0.21645E-06  1327   0.351E-03    0.130E-02
RMM:  16    -0.115779412492E+04   -0.22446E-05   -0.11387E-06  1241   0.253E-03    0.122E-02
RMM:  17    -0.115779412660E+04   -0.16772E-05   -0.78785E-07  1184   0.221E-03    0.850E-03
RMM:  18    -0.115779412940E+04   -0.28024E-05   -0.56228E-07  1154   0.175E-03    0.553E-03
RMM:  19    -0.115779413130E+04   -0.19014E-05   -0.44674E-07  1129   0.143E-03    0.619E-03
RMM:  20    -0.115779413246E+04   -0.11587E-05   -0.30388E-07  1093   0.117E-03    0.378E-03
RMM:  21    -0.115779413374E+04   -0.12786E-05   -0.15242E-07  1029   0.873E-04    0.239E-03
RMM:  22    -0.115779413527E+04   -0.15262E-05   -0.10659E-07   971   0.685E-04    0.219E-03
RMM:  23    -0.115779413646E+04   -0.11960E-05   -0.77212E-08   896   0.604E-04    0.188E-03
RMM:  24    -0.115779413725E+04   -0.78523E-06   -0.51098E-08   766   0.488E-04
  32 F= -.11657596E+04 E0= -.11657492E+04  d E =-.472507E-02  mag=    21.8428
 trial-energy change:   -0.004725  1 .order   -0.004712   -0.006204   -0.003220
 step:   0.6988(harm=  0.7177)  dis= 0.01261  next Energy= -1165.761251 (dE=-0.639E-02)
 bond charge predicted
       N       E                     dE             d eps       ncg     rms          rms(c)
DAV:   1    -0.115778863003E+04    0.55064E-02   -0.31595E+00  1992   0.364E+00    0.458E-01
RMM:   2    -0.115779525685E+04   -0.66268E-02   -0.65038E-02  2399   0.511E-01    0.459E-01
RMM:   3    -0.115779989748E+04   -0.46406E-02   -0.10051E-02  2366   0.219E-01    0.162E+00
RMM:   4    -0.115779571708E+04    0.41804E-02   -0.41977E-03  2519   0.121E-01    0.635E-01
RMM:   5    -0.115779582975E+04   -0.11268E-03   -0.16431E-03  2236   0.858E-02    0.292E-01
RMM:   6    -0.115779609693E+04   -0.26717E-03   -0.68301E-04  2308   0.494E-02    0.353E-01
RMM:   7    -0.115779593112E+04    0.16581E-03   -0.36989E-04  2319   0.383E-02    0.224E-01
RMM:   8    -0.115779598517E+04   -0.54056E-04   -0.37543E-04  2191   0.382E-02    0.192E-01
RMM:   9    -0.115779612564E+04   -0.14047E-03   -0.34513E-04  2226   0.374E-02    0.201E-01
RMM:  10    -0.115779597419E+04    0.15145E-03   -0.17035E-04  2063   0.287E-02    0.755E-02
RMM:  11    -0.115779601276E+04   -0.38571E-04   -0.63823E-05  1906   0.160E-02    0.914E-02
RMM:  12    -0.115779599926E+04    0.13498E-04   -0.21302E-05  1615   0.101E-02    0.431E-02
RMM:  13    -0.115779600185E+04   -0.25887E-05   -0.80976E-06  1446   0.630E-03    0.333E-02
RMM:  14    -0.115779600680E+04   -0.49505E-05   -0.34034E-06  1373   0.426E-03    0.163E-02
RMM:  15    -0.115779601019E+04   -0.33897E-05   -0.21384E-06  1314   0.338E-03    0.132E-02
RMM:  16    -0.115779601225E+04   -0.20524E-05   -0.12880E-06  1269   0.269E-03    0.113E-02
RMM:  17    -0.115779601401E+04   -0.17682E-05   -0.82407E-07  1178   0.217E-03    0.740E-03
RMM:  18    -0.115779601657E+04   -0.25538E-05   -0.58055E-07  1148   0.171E-03    0.668E-03
RMM:  19    -0.115779601800E+04   -0.14306E-05   -0.43128E-07  1123   0.144E-03    0.517E-03
RMM:  20    -0.115779601947E+04   -0.14756E-05   -0.25113E-07  1069   0.117E-03    0.315E-03
RMM:  21    -0.115779602093E+04   -0.14562E-05   -0.13639E-07  1022   0.811E-04    0.242E-03
RMM:  22    -0.115779602249E+04   -0.15636E-05   -0.10416E-07   956   0.666E-04    0.206E-03
RMM:  23    -0.115779602369E+04   -0.11950E-05   -0.78589E-08   870   0.595E-04    0.173E-03
RMM:  24    -0.115779602452E+04   -0.82744E-06   -0.54537E-08   777   0.489E-04
  33 F= -.11657613E+04 E0= -.11657509E+04  d E =-.645259E-02  mag=    21.8398
 curvature:  -2.52 expect dE=-0.410E-01 dE for cont linesearch -0.308E-05
 trial: gam= 0.85992 g(F)=  0.162E-01 g(S)=  0.000E+00 ort = 0.393E-03 (trialstep = 0.416E+00)
 search vector abs. value=  0.111E+00
 bond charge predicted
       N       E                     dE             d eps       ncg     rms          rms(c)
DAV:   1    -0.115779134667E+04    0.46770E-02   -0.37451E+00  1992   0.403E+00    0.500E-01
RMM:   2    -0.115779986235E+04   -0.85157E-02   -0.82093E-02  2388   0.571E-01    0.663E-01
RMM:   3    -0.115780670802E+04   -0.68457E-02   -0.12600E-02  2327   0.243E-01    0.241E+00
RMM:   4    -0.115779928495E+04    0.74231E-02   -0.64891E-03  2481   0.150E-01    0.773E-01
RMM:   5    -0.115779978169E+04   -0.49674E-03   -0.26802E-03  2213   0.110E-01    0.308E-01
RMM:   6    -0.115780033260E+04   -0.55090E-03   -0.91157E-04  2359   0.559E-02    0.444E-01
RMM:   7    -0.115780011098E+04    0.22162E-03   -0.54337E-04  2347   0.457E-02    0.302E-01
RMM:   8    -0.115780016269E+04   -0.51711E-04   -0.54503E-04  2229   0.478E-02    0.264E-01
RMM:   9    -0.115780022461E+04   -0.61920E-04   -0.40521E-04  2262   0.414E-02    0.214E-01
RMM:  10    -0.115780013460E+04    0.90005E-04   -0.22081E-04  2139   0.327E-02    0.129E-01
RMM:  11    -0.115780015880E+04   -0.24198E-04   -0.98173E-05  1984   0.209E-02    0.125E-01
RMM:  12    -0.115780014303E+04    0.15772E-04   -0.35470E-05  1789   0.132E-02    0.626E-02
RMM:  13    -0.115780015066E+04   -0.76346E-05   -0.16060E-05  1531   0.893E-03    0.432E-02
RMM:  14    -0.115780016025E+04   -0.95892E-05   -0.85465E-06  1455   0.614E-03    0.326E-02
RMM:  15    -0.115780016268E+04   -0.24268E-05   -0.38086E-06  1355   0.472E-03    0.158E-02
RMM:  16    -0.115780016703E+04   -0.43489E-05   -0.19076E-06  1311   0.316E-03    0.165E-02
RMM:  17    -0.115780016889E+04   -0.18651E-05   -0.12854E-06  1255   0.278E-03    0.106E-02
RMM:  18    -0.115780017258E+04   -0.36905E-05   -0.93715E-07  1202   0.222E-03    0.776E-03
RMM:  19    -0.115780017518E+04   -0.25924E-05   -0.68847E-07  1158   0.191E-03    0.725E-03
RMM:  20    -0.115780017654E+04   -0.13639E-05   -0.40899E-07  1114   0.137E-03    0.527E-03
RMM:  21    -0.115780017790E+04   -0.13581E-05   -0.21227E-07  1048   0.106E-03    0.416E-03
RMM:  22    -0.115780017976E+04   -0.18575E-05   -0.13640E-07  1012   0.789E-04    0.353E-03
RMM:  23    -0.115780018151E+04   -0.17542E-05   -0.11330E-07   974   0.742E-04    0.321E-03
RMM:  24    -0.115780018291E+04   -0.13972E-05   -0.81548E-08   838   0.614E-04    0.140E-03
RMM:  25    -0.115780018508E+04   -0.21689E-05   -0.68098E-08   835   0.477E-04    0.104E-03
RMM:  26    -0.115780018667E+04   -0.15962E-05   -0.60070E-08   795   0.446E-04    0.733E-04
RMM:  27    -0.115780018849E+04   -0.18142E-05   -0.64699E-08   762   0.420E-04    0.841E-04
RMM:  28    -0.115780018995E+04   -0.14680E-05   -0.62329E-08   767   0.413E-04    0.740E-04
RMM:  29    -0.115780019091E+04   -0.95529E-06   -0.53967E-08   717   0.387E-04
  34 F= -.11657655E+04 E0= -.11657550E+04  d E =-.418090E-02  mag=    21.8346
 trial-energy change:   -0.004181  1 .order   -0.004175   -0.006897   -0.001452
 step:   0.5267(harm=  0.5267)  dis= 0.00816  next Energy= -1165.765682 (dE=-0.437E-02)
 bond charge predicted
       N       E                     dE             d eps       ncg     rms          rms(c)
DAV:   1    -0.115779975445E+04    0.43551E-03   -0.26627E-01  2010   0.107E+00    0.133E-01
RMM:   2    -0.115780032390E+04   -0.56945E-03   -0.58106E-03  2381   0.152E-01    0.195E-01
RMM:   3    -0.115780074597E+04   -0.42207E-03   -0.89325E-04  2314   0.644E-02    0.528E-01
RMM:   4    -0.115780028130E+04    0.46467E-03   -0.43326E-04  2439   0.391E-02    0.196E-01
RMM:   5    -0.115780032845E+04   -0.47150E-04   -0.15139E-04  2016   0.266E-02    0.802E-02
RMM:   6    -0.115780037245E+04   -0.44004E-04   -0.59144E-05  1991   0.146E-02    0.109E-01
RMM:   7    -0.115780035900E+04    0.13458E-04   -0.35677E-05  1913   0.123E-02    0.677E-02
RMM:   8    -0.115780037424E+04   -0.15248E-04   -0.38985E-05  1809   0.127E-02    0.639E-02
RMM:   9    -0.115780038136E+04   -0.71143E-05   -0.26301E-05  1829   0.108E-02    0.527E-02
RMM:  10    -0.115780037570E+04    0.56631E-05   -0.12882E-05  1504   0.803E-03    0.242E-02
RMM:  11    -0.115780037884E+04   -0.31418E-05   -0.51273E-06  1386   0.516E-03    0.240E-02
RMM:  12    -0.115780037862E+04    0.22097E-06   -0.20416E-06  1312   0.363E-03
  35 F= -.11657657E+04 E0= -.11657551E+04  d E =-.437157E-02  mag=    21.8336
 curvature:  -1.76 expect dE=-0.264E-01 dE for cont linesearch -0.294E-07
 trial: gam= 0.96261 g(F)=  0.150E-01 g(S)=  0.000E+00 ort = 0.430E-04 (trialstep = 0.412E+00)
 search vector abs. value=  0.118E+00
 bond charge predicted
       N       E                     dE             d eps       ncg     rms          rms(c)
DAV:   1    -0.115779500622E+04    0.53726E-02   -0.39806E+00  1992   0.418E+00    0.491E-01
RMM:   2    -0.115780453195E+04   -0.95257E-02   -0.86168E-02  2369   0.594E-01    0.805E-01
RMM:   3    -0.115780887391E+04   -0.43420E-02   -0.13557E-02  2338   0.251E-01    0.199E+00
RMM:   4    -0.115780510843E+04    0.37655E-02   -0.63748E-03  2500   0.146E-01    0.920E-01
RMM:   5    -0.115780413306E+04    0.97537E-03   -0.28094E-03  2214   0.110E-01    0.337E-01
RMM:   6    -0.115780452813E+04   -0.39508E-03   -0.10229E-03  2368   0.572E-02    0.429E-01
RMM:   7    -0.115780431592E+04    0.21221E-03   -0.51751E-04  2313   0.454E-02    0.281E-01
RMM:   8    -0.115780435120E+04   -0.35283E-04   -0.52130E-04  2270   0.464E-02    0.221E-01
RMM:   9    -0.115780448425E+04   -0.13305E-03   -0.41172E-04  2248   0.417E-02    0.234E-01
RMM:  10    -0.115780437919E+04    0.10506E-03   -0.20309E-04  2184   0.312E-02    0.131E-01
RMM:  11    -0.115780440794E+04   -0.28747E-04   -0.96067E-05  1975   0.205E-02    0.121E-01
RMM:  12    -0.115780439771E+04    0.10227E-04   -0.35451E-05  1770   0.129E-02    0.672E-02
RMM:  13    -0.115780440349E+04   -0.57809E-05   -0.17009E-05  1543   0.894E-03    0.480E-02
RMM:  14    -0.115780441180E+04   -0.83135E-05   -0.77202E-06  1450   0.569E-03    0.338E-02
RMM:  15    -0.115780441342E+04   -0.16197E-05   -0.36209E-06  1357   0.460E-03    0.166E-02
RMM:  16    -0.115780441775E+04   -0.43266E-05   -0.15102E-06  1290   0.290E-03    0.152E-02
RMM:  17    -0.115780442004E+04   -0.22844E-05   -0.13647E-06  1257   0.284E-03    0.132E-02
RMM:  18    -0.115780442301E+04   -0.29756E-05   -0.10436E-06  1210   0.234E-03    0.767E-03
RMM:  19    -0.115780442526E+04   -0.22471E-05   -0.61260E-07  1136   0.193E-03    0.620E-03
RMM:  20    -0.115780442639E+04   -0.11278E-05   -0.32298E-07  1092   0.123E-03    0.556E-03
RMM:  21    -0.115780442775E+04   -0.13660E-05   -0.18971E-07  1051   0.105E-03    0.350E-03
RMM:  22    -0.115780443000E+04   -0.22452E-05   -0.12641E-07  1023   0.728E-04    0.348E-03
RMM:  23    -0.115780443110E+04   -0.10983E-05   -0.10403E-07   943   0.741E-04    0.260E-03
RMM:  24    -0.115780443290E+04   -0.18049E-05   -0.75631E-08   861   0.551E-04    0.116E-03
RMM:  25    -0.115780443432E+04   -0.14236E-05   -0.60313E-08   825   0.509E-04    0.110E-03
RMM:  26    -0.115780443570E+04   -0.13766E-05   -0.51150E-08   761   0.442E-04    0.837E-04
RMM:  27    -0.115780443679E+04   -0.10849E-05   -0.42932E-08   709   0.417E-04    0.110E-03
RMM:  28    -0.115780443782E+04   -0.10323E-05   -0.42193E-08   712   0.395E-04    0.783E-04
RMM:  29    -0.115780443867E+04   -0.85489E-06   -0.34729E-08   663   0.365E-04
  36 F= -.11657699E+04 E0= -.11657592E+04  d E =-.421358E-02  mag=    21.8271
 trial-energy change:   -0.004214  1 .order   -0.004214   -0.006212   -0.002216
 step:   0.6404(harm=  0.6404)  dis= 0.00940  next Energy= -1165.770514 (dE=-0.483E-02)
 bond charge predicted
       N       E                     dE             d eps       ncg     rms          rms(c)
DAV:   1    -0.115780208958E+04    0.23482E-02   -0.12243E+00  1992   0.232E+00    0.272E-01
RMM:   2    -0.115780492417E+04   -0.28346E-02   -0.26392E-02  2359   0.329E-01    0.454E-01
RMM:   3    -0.115780620281E+04   -0.12786E-02   -0.41438E-03  2331   0.139E-01    0.101E+00
RMM:   4    -0.115780515051E+04    0.10523E-02   -0.19281E-03  2495   0.802E-02    0.514E-01
RMM:   5    -0.115780483629E+04    0.31422E-03   -0.79786E-04  2170   0.587E-02    0.183E-01
RMM:   6    -0.115780497303E+04   -0.13674E-03   -0.29763E-04  2277   0.311E-02    0.224E-01
RMM:   7    -0.115780492190E+04    0.51129E-04   -0.15597E-04  2257   0.249E-02    0.146E-01
RMM:   8    -0.115780494236E+04   -0.20452E-04   -0.16057E-04  2165   0.255E-02    0.106E-01
RMM:   9    -0.115780499643E+04   -0.54078E-04   -0.12270E-04  2151   0.229E-02    0.127E-01
RMM:  10    -0.115780495862E+04    0.37810E-04   -0.56510E-05  1914   0.167E-02    0.576E-02
RMM:  11    -0.115780497204E+04   -0.13414E-04   -0.25359E-05  1651   0.105E-02    0.522E-02
RMM:  12    -0.115780497249E+04   -0.45095E-06   -0.96750E-06  1466   0.697E-03
  37 F= -.11657705E+04 E0= -.11657596E+04  d E =-.483008E-02  mag=    21.8246
 curvature:  -2.50 expect dE=-0.292E-01 dE for cont linesearch -0.301E-06
 trial: gam= 0.73946 g(F)=  0.117E-01 g(S)=  0.000E+00 ort = 0.119E-03 (trialstep = 0.458E+00)
 search vector abs. value=  0.762E-01
 bond charge predicted
       N       E                     dE             d eps       ncg     rms          rms(c)
DAV:   1    -0.115780004563E+04    0.49264E-02   -0.32495E+00  1992   0.380E+00    0.476E-01
RMM:   2    -0.115780879664E+04   -0.87510E-02   -0.72892E-02  2372   0.552E-01    0.909E-01
RMM:   3    -0.115781100442E+04   -0.22078E-02   -0.12020E-02  2344   0.242E-01    0.167E+00
RMM:   4    -0.115780943036E+04    0.15741E-02   -0.57580E-03  2484   0.140E-01    0.100E+00
RMM:   5    -0.115780775308E+04    0.16773E-02   -0.23871E-03  2210   0.104E-01    0.350E-01
RMM:   6    -0.115780803006E+04   -0.27698E-03   -0.94847E-04  2329   0.584E-02    0.317E-01
RMM:   7    -0.115780799512E+04    0.34938E-04   -0.41171E-04  2329   0.397E-02    0.265E-01
RMM:   8    -0.115780795699E+04    0.38133E-04   -0.36773E-04  2275   0.377E-02    0.201E-01
RMM:   9    -0.115780809994E+04   -0.14295E-03   -0.37599E-04  2233   0.403E-02    0.215E-01
RMM:  10    -0.115780800027E+04    0.99669E-04   -0.19497E-04  2177   0.311E-02    0.115E-01
RMM:  11    -0.115780804140E+04   -0.41133E-04   -0.95269E-05  1976   0.205E-02    0.125E-01
RMM:  12    -0.115780802322E+04    0.18183E-04   -0.34660E-05  1761   0.127E-02    0.845E-02
RMM:  13    -0.115780802210E+04    0.11231E-05   -0.16545E-05  1538   0.878E-03    0.622E-02
RMM:  14    -0.115780802871E+04   -0.66143E-05   -0.71250E-06  1445   0.574E-03    0.347E-02
RMM:  15    -0.115780803369E+04   -0.49755E-05   -0.45259E-06  1368   0.480E-03    0.188E-02
RMM:  16    -0.115780803819E+04   -0.44988E-05   -0.16779E-06  1282   0.318E-03    0.154E-02
RMM:  17    -0.115780804089E+04   -0.26980E-05   -0.18429E-06  1255   0.287E-03    0.169E-02
RMM:  18    -0.115780804216E+04   -0.12716E-05   -0.10733E-06  1205   0.242E-03    0.538E-03
RMM:  19    -0.115780804373E+04   -0.15749E-05   -0.42869E-07  1114   0.151E-03    0.751E-03
RMM:  20    -0.115780804423E+04   -0.49621E-06   -0.29315E-07  1072   0.136E-03
  38 F= -.11657737E+04 E0= -.11657628E+04  d E =-.322652E-02  mag=    21.8218
 trial-energy change:   -0.003227  1 .order   -0.003210   -0.005395   -0.001024
 step:   0.5618(harm=  0.5648)  dis= 0.00582  next Energy= -1165.773859 (dE=-0.334E-02)
 bond charge predicted
       N       E                     dE             d eps       ncg     rms          rms(c)
DAV:   1    -0.115780772512E+04    0.31861E-03   -0.16856E-01  2028   0.864E-01    0.107E-01
RMM:   2    -0.115780812288E+04   -0.39776E-03   -0.37546E-03  2380   0.125E-01    0.177E-01
RMM:   3    -0.115780828868E+04   -0.16580E-03   -0.61603E-04  2329   0.547E-02    0.340E-01
RMM:   4    -0.115780815149E+04    0.13719E-03   -0.27603E-04  2402   0.305E-02    0.208E-01
RMM:   5    -0.115780809811E+04    0.53379E-04   -0.10814E-04  1983   0.222E-02    0.691E-02
RMM:   6    -0.115780813018E+04   -0.32068E-04   -0.39801E-05  1844   0.122E-02    0.761E-02
RMM:   7    -0.115780812743E+04    0.27498E-05   -0.20571E-05  1762   0.932E-03    0.564E-02
RMM:   8    -0.115780813218E+04   -0.47511E-05   -0.20802E-05  1707   0.937E-03    0.387E-02
RMM:   9    -0.115780814481E+04   -0.12629E-04   -0.20632E-05  1782   0.987E-03    0.504E-02
RMM:  10    -0.115780813847E+04    0.63387E-05   -0.93876E-06  1455   0.729E-03    0.236E-02
RMM:  11    -0.115780814116E+04   -0.26888E-05   -0.47312E-06  1372   0.504E-03    0.214E-02
RMM:  12    -0.115780814126E+04   -0.10015E-06   -0.18017E-06  1254   0.324E-03
  39 F= -.11657739E+04 E0= -.11657629E+04  d E =-.335811E-02  mag=    21.8213
 curvature:  -1.82 expect dE=-0.187E-01 dE for cont linesearch -0.102E-05
 trial: gam= 0.86854 g(F)=  0.102E-01 g(S)=  0.000E+00 ort = 0.207E-03 (trialstep = 0.478E+00)
 search vector abs. value=  0.681E-01
 bond charge predicted
       N       E                     dE             d eps       ncg     rms          rms(c)
DAV:   1    -0.115780361965E+04    0.45215E-02   -0.32707E+00  1992   0.375E+00    0.487E-01
RMM:   2    -0.115781230333E+04   -0.86837E-02   -0.69655E-02  2383   0.544E-01    0.886E-01
RMM:   3    -0.115781519135E+04   -0.28880E-02   -0.12509E-02  2361   0.245E-01    0.179E+00
RMM:   4    -0.115781297455E+04    0.22168E-02   -0.60621E-03  2496   0.143E-01    0.103E+00
RMM:   5    -0.115781142019E+04    0.15544E-02   -0.27049E-03  2194   0.110E-01    0.427E-01
RMM:   6    -0.115781144842E+04   -0.28224E-04   -0.93864E-04  2316   0.592E-02    0.273E-01
RMM:   7    -0.115781157637E+04   -0.12796E-03   -0.47313E-04  2322   0.414E-02    0.293E-01
RMM:   8    -0.115781143848E+04    0.13790E-03   -0.34301E-04  2308   0.368E-02    0.172E-01
RMM:   9    -0.115781161666E+04   -0.17818E-03   -0.35719E-04  2224   0.388E-02    0.213E-01
RMM:  10    -0.115781152455E+04    0.92113E-04   -0.19724E-04  2185   0.312E-02    0.132E-01
RMM:  11    -0.115781153015E+04   -0.56012E-05   -0.88062E-05  1938   0.198E-02    0.112E-01
RMM:  12    -0.115781154318E+04   -0.13030E-04   -0.38446E-05  1816   0.125E-02    0.886E-02
RMM:  13    -0.115781153478E+04    0.83943E-05   -0.16602E-05  1533   0.914E-03    0.590E-02
RMM:  14    -0.115781154317E+04   -0.83908E-05   -0.79550E-06  1464   0.588E-03    0.415E-02
RMM:  15    -0.115781154607E+04   -0.28955E-05   -0.36594E-06  1355   0.455E-03    0.252E-02
RMM:  16    -0.115781155075E+04   -0.46841E-05   -0.15085E-06  1289   0.287E-03    0.203E-02
RMM:  17    -0.115781155353E+04   -0.27756E-05   -0.15142E-06  1260   0.283E-03    0.159E-02
RMM:  18    -0.115781155688E+04   -0.33487E-05   -0.94690E-07  1210   0.223E-03    0.642E-03
RMM:  19    -0.115781155899E+04   -0.21160E-05   -0.53012E-07  1135   0.166E-03    0.668E-03
RMM:  20    -0.115781156069E+04   -0.16994E-05   -0.29322E-07  1088   0.130E-03    0.366E-03
RMM:  21    -0.115781156321E+04   -0.25221E-05   -0.17784E-07  1063   0.948E-04    0.341E-03
RMM:  22    -0.115781156564E+04   -0.24248E-05   -0.14449E-07  1048   0.822E-04    0.308E-03
RMM:  23    -0.115781156717E+04   -0.15290E-05   -0.10222E-07   962   0.695E-04    0.250E-03
RMM:  24    -0.115781156854E+04   -0.13762E-05   -0.67124E-08   799   0.550E-04    0.114E-03
RMM:  25    -0.115781157088E+04   -0.23311E-05   -0.59090E-08   808   0.448E-04    0.143E-03
RMM:  26    -0.115781157298E+04   -0.21012E-05   -0.57433E-08   812   0.437E-04    0.112E-03
RMM:  27    -0.115781157414E+04   -0.11589E-05   -0.43956E-08   723   0.405E-04    0.118E-03
RMM:  28    -0.115781157535E+04   -0.12154E-05   -0.36714E-08   660   0.375E-04    0.655E-04
RMM:  29    -0.115781157702E+04   -0.16638E-05   -0.44507E-08   674   0.364E-04    0.452E-04
RMM:  30    -0.115781157823E+04   -0.12104E-05   -0.43504E-08   696   0.380E-04    0.379E-04
RMM:  31    -0.115781157977E+04   -0.15404E-05   -0.57414E-08   737   0.378E-04    0.388E-04
RMM:  32    -0.115781158069E+04   -0.92035E-06   -0.48341E-08   716   0.384E-04
  40 F= -.11657773E+04 E0= -.11657661E+04  d E =-.345045E-02  mag=    21.8141
 trial-energy change:   -0.003450  1 .order   -0.003457   -0.004981   -0.001933
 step:   0.7819(harm=  0.7819)  dis= 0.00773  next Energy= -1165.777944 (dE=-0.407E-02)
 bond charge predicted
       N       E                     dE             d eps       ncg     rms          rms(c)
DAV:   1    -0.115780900354E+04    0.25762E-02   -0.13160E+00  1992   0.238E+00    0.308E-01
RMM:   2    -0.115781245073E+04   -0.34472E-02   -0.27981E-02  2383   0.345E-01    0.576E-01
RMM:   3    -0.115781356640E+04   -0.11157E-02   -0.49837E-03  2362   0.154E-01    0.109E+00
RMM:   4    -0.115781271171E+04    0.85469E-03   -0.24460E-03  2480   0.913E-02    0.656E-01
RMM:   5    -0.115781207266E+04    0.63905E-03   -0.10618E-03  2166   0.694E-02    0.265E-01
RMM:   6    -0.115781211688E+04   -0.44223E-04   -0.36272E-04  2248   0.369E-02    0.174E-01
RMM:   7    -0.115781217746E+04   -0.60575E-04   -0.18985E-04  2265   0.261E-02    0.185E-01
RMM:   8    -0.115781212000E+04    0.57462E-04   -0.14007E-04  2202   0.237E-02    0.934E-02
RMM:   9    -0.115781220965E+04   -0.89650E-04   -0.14607E-04  2178   0.250E-02    0.137E-01
RMM:  10    -0.115781216068E+04    0.48963E-04   -0.73726E-05  2005   0.193E-02    0.692E-02
RMM:  11    -0.115781216939E+04   -0.87024E-05   -0.31976E-05  1707   0.119E-02    0.596E-02
RMM:  12    -0.115781217521E+04   -0.58291E-05   -0.14909E-05  1536   0.773E-03    0.470E-02
RMM:  13    -0.115781217245E+04    0.27635E-05   -0.64475E-06  1414   0.606E-03    0.340E-02
RMM:  14    -0.115781217476E+04   -0.23045E-05   -0.27177E-06  1321   0.356E-03    0.233E-02
RMM:  15    -0.115781217633E+04   -0.15724E-05   -0.12143E-06  1230   0.279E-03    0.135E-02
RMM:  16    -0.115781217819E+04   -0.18648E-05   -0.51357E-07  1162   0.174E-03    0.106E-02
RMM:  17    -0.115781217946E+04   -0.12695E-05   -0.54301E-07  1165   0.175E-03    0.906E-03
RMM:  18    -0.115781218073E+04   -0.12728E-05   -0.41060E-07  1119   0.149E-03    0.460E-03
RMM:  19    -0.115781218186E+04   -0.11292E-05   -0.20976E-07  1073   0.110E-03    0.340E-03
RMM:  20    -0.115781218269E+04   -0.82726E-06   -0.12858E-07  1009   0.806E-04
  41 F= -.11657779E+04 E0= -.11657666E+04  d E =-.405752E-02  mag=    21.8105
 curvature:  -2.56 expect dE=-0.252E-01 dE for cont linesearch -0.389E-09
 trial: gam= 0.99045 g(F)=  0.987E-02 g(S)=  0.000E+00 ort =-0.322E-05 (trialstep = 0.479E+00)
 search vector abs. value=  0.766E-01
 bond charge predicted
       N       E                     dE             d eps       ncg     rms          rms(c)
DAV:   1    -0.115780611832E+04    0.60635E-02   -0.36327E+00  1992   0.392E+00    0.517E-01
RMM:   2    -0.115781593590E+04   -0.98176E-02   -0.77875E-02  2384   0.577E-01    0.954E-01
RMM:   3    -0.115781969647E+04   -0.37606E-02   -0.14255E-02  2374   0.257E-01    0.214E+00
RMM:   4    -0.115781648188E+04    0.32146E-02   -0.73425E-03  2469   0.159E-01    0.111E+00
RMM:   5    -0.115781480841E+04    0.16735E-02   -0.33311E-03  2198   0.124E-01    0.446E-01
RMM:   6    -0.115781483098E+04   -0.22575E-04   -0.11014E-03  2332   0.638E-02    0.319E-01
RMM:   7    -0.115781495519E+04   -0.12420E-03   -0.56869E-04  2311   0.453E-02    0.322E-01
RMM:   8    -0.115781479085E+04    0.16434E-03   -0.39663E-04  2297   0.401E-02    0.201E-01
RMM:   9    -0.115781497820E+04   -0.18735E-03   -0.39698E-04  2243   0.396E-02    0.222E-01
RMM:  10    -0.115781486961E+04    0.10858E-03   -0.21617E-04  2220   0.323E-02    0.142E-01
RMM:  11    -0.115781490473E+04   -0.35116E-04   -0.96553E-05  2002   0.205E-02    0.149E-01
RMM:  12    -0.115781489015E+04    0.14579E-04   -0.42233E-05  1803   0.138E-02    0.936E-02
RMM:  13    -0.115781489991E+04   -0.97622E-05   -0.18673E-05  1552   0.936E-03    0.711E-02
RMM:  14    -0.115781490960E+04   -0.96863E-05   -0.97769E-06  1462   0.660E-03    0.516E-02
RMM:  15    -0.115781491357E+04   -0.39728E-05   -0.44152E-06  1377   0.509E-03    0.291E-02
RMM:  16    -0.115781492133E+04   -0.77567E-05   -0.19160E-06  1294   0.318E-03    0.238E-02
RMM:  17    -0.115781492593E+04   -0.46000E-05   -0.19551E-06  1280   0.324E-03    0.196E-02
RMM:  18    -0.115781493073E+04   -0.48008E-05   -0.13672E-06  1230   0.257E-03    0.946E-03
RMM:  19    -0.115781493442E+04   -0.36896E-05   -0.70955E-07  1167   0.203E-03    0.633E-03
RMM:  20    -0.115781493666E+04   -0.22436E-05   -0.40528E-07  1110   0.145E-03    0.536E-03
RMM:  21    -0.115781493916E+04   -0.24945E-05   -0.23943E-07  1058   0.119E-03    0.333E-03
RMM:  22    -0.115781494330E+04   -0.41450E-05   -0.17096E-07  1066   0.859E-04    0.324E-03
RMM:  23    -0.115781494583E+04   -0.25235E-05   -0.15002E-07  1033   0.821E-04    0.349E-03
RMM:  24    -0.115781494832E+04   -0.24984E-05   -0.10808E-07   904   0.664E-04    0.134E-03
RMM:  25    -0.115781495143E+04   -0.31061E-05   -0.83013E-08   885   0.520E-04    0.146E-03
RMM:  26    -0.115781495403E+04   -0.26008E-05   -0.74600E-08   821   0.475E-04    0.102E-03
RMM:  27    -0.115781495639E+04   -0.23561E-05   -0.72704E-08   817   0.453E-04    0.107E-03
RMM:  28    -0.115781495770E+04   -0.13076E-05   -0.56882E-08   758   0.431E-04    0.980E-04
RMM:  29    -0.115781495885E+04   -0.11508E-05   -0.45665E-08   687   0.383E-04    0.718E-04
RMM:  30    -0.115781496014E+04   -0.12939E-05   -0.42991E-08   678   0.371E-04    0.370E-04
RMM:  31    -0.115781496229E+04   -0.21462E-05   -0.71824E-08   780   0.389E-04    0.441E-04
RMM:  32    -0.115781496350E+04   -0.12149E-05   -0.65442E-08   796   0.422E-04    0.414E-04
RMM:  33    -0.115781496419E+04   -0.68593E-06   -0.51067E-08   694   0.375E-04
  42 F= -.11657807E+04 E0= -.11657692E+04  d E =-.280354E-02  mag=    21.8022
 trial-energy change:   -0.002804  1 .order   -0.002787   -0.004725   -0.000848
 step:   0.5804(harm=  0.5836)  dis= 0.00526  next Energy= -1165.780825 (dE=-0.289E-02)
 bond charge predicted
       N       E                     dE             d eps       ncg     rms          rms(c)
DAV:   1    -0.115781465693E+04    0.30657E-03   -0.16338E-01  2040   0.832E-01    0.110E-01
RMM:   2    -0.115781508403E+04   -0.42709E-03   -0.34957E-03  2382   0.123E-01    0.228E-01
RMM:   3    -0.115781519513E+04   -0.11110E-03   -0.62506E-04  2363   0.539E-02    0.379E-01
RMM:   4    -0.115781509323E+04    0.10190E-03   -0.32195E-04  2392   0.339E-02    0.232E-01
RMM:   5    -0.115781501252E+04    0.80705E-04   -0.13002E-04  1993   0.248E-02    0.893E-02
RMM:   6    -0.115781503235E+04   -0.19828E-04   -0.44192E-05  1844   0.131E-02    0.644E-02
RMM:   7    -0.115781504365E+04   -0.11294E-04   -0.24196E-05  1736   0.972E-03    0.667E-02
RMM:   8    -0.115781503738E+04    0.62640E-05   -0.18766E-05  1712   0.904E-03    0.295E-02
RMM:   9    -0.115781505353E+04   -0.16150E-04   -0.18312E-05  1727   0.897E-03    0.502E-02
RMM:  10    -0.115781504502E+04    0.85084E-05   -0.88575E-06  1460   0.713E-03    0.176E-02
RMM:  11    -0.115781504876E+04   -0.37332E-05   -0.34845E-06  1349   0.438E-03    0.209E-02
RMM:  12    -0.115781504891E+04   -0.15272E-06   -0.15484E-06  1239   0.303E-03
  43 F= -.11657808E+04 E0= -.11657692E+04  d E =-.289255E-02  mag=    21.8012
 curvature:  -2.26 expect dE=-0.180E-01 dE for cont linesearch -0.272E-06
 trial: gam= 0.79617 g(F)=  0.797E-02 g(S)=  0.000E+00 ort = 0.960E-04 (trialstep = 0.499E+00)
 search vector abs. value=  0.567E-01
 bond charge predicted
       N       E                     dE             d eps       ncg     rms          rms(c)
DAV:   1    -0.115781078352E+04    0.42652E-02   -0.29461E+00  1992   0.358E+00    0.423E-01
RMM:   2    -0.115781775896E+04   -0.69754E-02   -0.62897E-02  2390   0.509E-01    0.614E-01
RMM:   3    -0.115782137250E+04   -0.36135E-02   -0.10298E-02  2361   0.223E-01    0.160E+00
RMM:   4    -0.115781872475E+04    0.26477E-02   -0.45529E-03  2522   0.122E-01    0.898E-01
RMM:   5    -0.115781754523E+04    0.11795E-02   -0.21385E-03  2213   0.972E-02    0.281E-01
RMM:   6    -0.115781779025E+04   -0.24502E-03   -0.66336E-04  2340   0.473E-02    0.331E-01
RMM:   7    -0.115781774029E+04    0.49957E-04   -0.37705E-04  2327   0.368E-02    0.262E-01
RMM:   8    -0.115781767879E+04    0.61500E-04   -0.33857E-04  2263   0.374E-02    0.146E-01
RMM:   9    -0.115781780862E+04   -0.12983E-03   -0.28984E-04  2250   0.349E-02    0.185E-01
RMM:  10    -0.115781772103E+04    0.87589E-04   -0.13689E-04  2160   0.257E-02    0.894E-02
RMM:  11    -0.115781773668E+04   -0.15644E-04   -0.56922E-05  1858   0.155E-02    0.773E-02
RMM:  12    -0.115781774819E+04   -0.11514E-04   -0.24695E-05  1662   0.104E-02    0.585E-02
RMM:  13    -0.115781774815E+04    0.46610E-07   -0.15007E-05  1505   0.842E-03    0.442E-02
RMM:  14    -0.115781775230E+04   -0.41528E-05   -0.56874E-06  1415   0.527E-03    0.313E-02
RMM:  15    -0.115781775386E+04   -0.15603E-05   -0.25778E-06  1323   0.400E-03    0.172E-02
RMM:  16    -0.115781775732E+04   -0.34623E-05   -0.98078E-07  1221   0.239E-03    0.131E-02
RMM:  17    -0.115781776094E+04   -0.36148E-05   -0.13176E-06  1260   0.266E-03    0.149E-02
RMM:  18    -0.115781776343E+04   -0.24975E-05   -0.97082E-07  1195   0.219E-03    0.869E-03
RMM:  19    -0.115781776635E+04   -0.29138E-05   -0.46663E-07  1120   0.160E-03    0.457E-03
RMM:  20    -0.115781776883E+04   -0.24839E-05   -0.26979E-07  1092   0.120E-03    0.519E-03
RMM:  21    -0.115781777098E+04   -0.21500E-05   -0.19574E-07  1057   0.106E-03    0.348E-03
RMM:  22    -0.115781777353E+04   -0.25511E-05   -0.11019E-07  1012   0.726E-04    0.254E-03
RMM:  23    -0.115781777536E+04   -0.18261E-05   -0.83503E-08   894   0.623E-04    0.249E-03
RMM:  24    -0.115781777729E+04   -0.19270E-05   -0.63995E-08   823   0.543E-04    0.100E-03
RMM:  25    -0.115781777937E+04   -0.20890E-05   -0.49841E-08   790   0.434E-04    0.102E-03
RMM:  26    -0.115781778124E+04   -0.18647E-05   -0.46708E-08   776   0.420E-04    0.675E-04
RMM:  27    -0.115781778295E+04   -0.17153E-05   -0.45113E-08   756   0.403E-04    0.565E-04
RMM:  28    -0.115781778459E+04   -0.16318E-05   -0.44954E-08   745   0.386E-04    0.628E-04
RMM:  29    -0.115781778541E+04   -0.82140E-06   -0.32738E-08   656   0.364E-04
  44 F= -.11657835E+04 E0= -.11657719E+04  d E =-.269866E-02  mag=    21.7969
 trial-energy change:   -0.002699  1 .order   -0.002710   -0.004017   -0.001403
 step:   0.7783(harm=  0.7671)  dis= 0.00621  next Energy= -1165.783913 (dE=-0.309E-02)
 bond charge predicted
       N       E                     dE             d eps       ncg     rms          rms(c)
DAV:   1    -0.115781600675E+04    0.17778E-02   -0.92172E-01  1992   0.200E+00    0.236E-01
RMM:   2    -0.115781812479E+04   -0.21180E-02   -0.19646E-02  2389   0.284E-01    0.330E-01
RMM:   3    -0.115781921357E+04   -0.10888E-02   -0.32040E-03  2360   0.125E-01    0.794E-01
RMM:   4    -0.115781842236E+04    0.79121E-03   -0.13162E-03  2528   0.664E-02    0.501E-01
RMM:   5    -0.115781805956E+04    0.36280E-03   -0.58573E-04  2153   0.510E-02    0.147E-01
RMM:   6    -0.115781817209E+04   -0.11253E-03   -0.19496E-04  2174   0.260E-02    0.175E-01
RMM:   7    -0.115781816479E+04    0.72975E-05   -0.11334E-04  2215   0.200E-02    0.154E-01
RMM:   8    -0.115781814451E+04    0.20287E-04   -0.10797E-04  2152   0.212E-02    0.790E-02
RMM:   9    -0.115781819274E+04   -0.48236E-04   -0.89061E-05  2111   0.196E-02    0.990E-02
RMM:  10    -0.115781816569E+04    0.27048E-04   -0.40321E-05  1857   0.142E-02    0.442E-02
RMM:  11    -0.115781817457E+04   -0.88781E-05   -0.17308E-05  1569   0.872E-03    0.447E-02
RMM:  12    -0.115781817600E+04   -0.14333E-05   -0.76618E-06  1426   0.634E-03    0.257E-02
RMM:  13    -0.115781817783E+04   -0.18289E-05   -0.43374E-06  1369   0.478E-03    0.212E-02
RMM:  14    -0.115781817915E+04   -0.13136E-05   -0.15619E-06  1280   0.298E-03    0.156E-02
RMM:  15    -0.115781817994E+04   -0.79742E-06   -0.75145E-07  1196   0.226E-03
  45 F= -.11657839E+04 E0= -.11657722E+04  d E =-.307055E-02  mag=    21.7952
 curvature:  -2.70 expect dE=-0.241E-01 dE for cont linesearch -0.450E-06
 trial: gam= 1.13651 g(F)=  0.892E-02 g(S)=  0.000E+00 ort =-0.972E-04 (trialstep = 0.384E+00)
 search vector abs. value=  0.819E-01
 bond charge predicted
       N       E                     dE             d eps       ncg     rms          rms(c)
DAV:   1    -0.115781473894E+04    0.34402E-02   -0.24517E+00  1992   0.329E+00    0.382E-01
RMM:   2    -0.115782035846E+04   -0.56195E-02   -0.53821E-02  2394   0.461E-01    0.444E-01
RMM:   3    -0.115782304532E+04   -0.26869E-02   -0.83265E-03  2334   0.202E-01    0.951E-01
RMM:   4    -0.115782054012E+04    0.25052E-02   -0.27232E-03  2519   0.104E-01    0.420E-01
RMM:   5    -0.115782058952E+04   -0.49405E-04   -0.79346E-04  2307   0.527E-02    0.385E-01
RMM:   6    -0.115782055543E+04    0.34094E-04   -0.40446E-04  2230   0.369E-02    0.247E-01
RMM:   7    -0.115782060402E+04   -0.48591E-04   -0.28631E-04  2274   0.348E-02    0.254E-01
RMM:   8    -0.115782056781E+04    0.36208E-04   -0.26735E-04  2204   0.316E-02    0.191E-01
RMM:   9    -0.115782056111E+04    0.67042E-05   -0.19798E-04  2221   0.302E-02    0.116E-01
RMM:  10    -0.115782055081E+04    0.10302E-04   -0.83711E-05  1989   0.207E-02    0.697E-02
RMM:  11    -0.115782056333E+04   -0.12524E-04   -0.36134E-05  1797   0.121E-02    0.697E-02
RMM:  12    -0.115782056228E+04    0.10556E-05   -0.17145E-05  1543   0.939E-03    0.380E-02
RMM:  13    -0.115782056856E+04   -0.62875E-05   -0.84079E-06  1436   0.649E-03    0.374E-02
RMM:  14    -0.115782057007E+04   -0.15077E-05   -0.27712E-06  1340   0.406E-03    0.208E-02
RMM:  15    -0.115782057257E+04   -0.24960E-05   -0.12168E-06  1265   0.262E-03    0.137E-02
RMM:  16    -0.115782057531E+04   -0.27385E-05   -0.99743E-07  1217   0.242E-03    0.113E-02
RMM:  17    -0.115782057877E+04   -0.34629E-05   -0.92968E-07  1192   0.212E-03    0.102E-02
RMM:  18    -0.115782058255E+04   -0.37859E-05   -0.73182E-07  1161   0.201E-03    0.623E-03
RMM:  19    -0.115782058667E+04   -0.41196E-05   -0.40722E-07  1114   0.149E-03    0.567E-03
RMM:  20    -0.115782058911E+04   -0.24362E-05   -0.25870E-07  1071   0.118E-03    0.411E-03
RMM:  21    -0.115782059266E+04   -0.35524E-05   -0.17633E-07  1045   0.931E-04    0.254E-03
RMM:  22    -0.115782059737E+04   -0.47063E-05   -0.14402E-07  1033   0.772E-04    0.194E-03
RMM:  23    -0.115782060081E+04   -0.34456E-05   -0.10945E-07   927   0.641E-04    0.122E-03
RMM:  24    -0.115782060421E+04   -0.34002E-05   -0.94648E-08   858   0.535E-04    0.117E-03
RMM:  25    -0.115782060640E+04   -0.21892E-05   -0.75699E-08   804   0.495E-04    0.135E-03
RMM:  26    -0.115782060919E+04   -0.27846E-05   -0.78634E-08   782   0.456E-04    0.946E-04
RMM:  27    -0.115782061246E+04   -0.32712E-05   -0.96084E-08   884   0.476E-04    0.826E-04
RMM:  28    -0.115782061546E+04   -0.30039E-05   -0.11122E-07   889   0.483E-04    0.452E-04
RMM:  29    -0.115782061747E+04   -0.20111E-05   -0.99707E-08   827   0.464E-04    0.416E-04
RMM:  30    -0.115782061840E+04   -0.93013E-06   -0.78690E-08   786   0.429E-04
  46 F= -.11657863E+04 E0= -.11657745E+04  d E =-.236846E-02  mag=    21.7886
 trial-energy change:   -0.002368  1 .order   -0.002355   -0.003384   -0.001326
 step:   0.6169(harm=  0.6314)  dis= 0.00585  next Energy= -1165.786668 (dE=-0.277E-02)
 bond charge predicted
       N       E                     dE             d eps       ncg     rms          rms(c)
DAV:   1    -0.115781893239E+04    0.16851E-02   -0.90120E-01  1992   0.199E+00    0.231E-01
RMM:   2    -0.115782095239E+04   -0.20200E-02   -0.19778E-02  2394   0.280E-01    0.263E-01
RMM:   3    -0.115782195175E+04   -0.99936E-03   -0.30443E-03  2336   0.122E-01    0.561E-01
RMM:   4    -0.115782099283E+04    0.95893E-03   -0.98747E-04  2501   0.627E-02    0.203E-01
RMM:   5    -0.115782107421E+04   -0.81387E-04   -0.26344E-04  2238   0.302E-02    0.251E-01
RMM:   6    -0.115782103387E+04    0.40342E-04   -0.14249E-04  2097   0.216E-02    0.144E-01
RMM:   7    -0.115782105864E+04   -0.24764E-04   -0.10498E-04  2125   0.212E-02    0.134E-01
RMM:   8    -0.115782108213E+04   -0.23498E-04   -0.93604E-05  2051   0.183E-02    0.149E-01
RMM:   9    -0.115782105210E+04    0.30035E-04   -0.78253E-05  2102   0.189E-02    0.659E-02
RMM:  10    -0.115782106207E+04   -0.99724E-05   -0.32153E-05  1773   0.132E-02    0.374E-02
RMM:  11    -0.115782106689E+04   -0.48243E-05   -0.12779E-05  1527   0.741E-03    0.368E-02
RMM:  12    -0.115782106575E+04    0.11441E-05   -0.59077E-06  1406   0.604E-03    0.156E-02
RMM:  13    -0.115782106871E+04   -0.29559E-05   -0.23165E-06  1302   0.332E-03    0.179E-02
RMM:  14    -0.115782106909E+04   -0.38447E-06   -0.12489E-06  1217   0.269E-03
  47 F= -.11657867E+04 E0= -.11657748E+04  d E =-.277461E-02  mag=    21.7861
 curvature:  -2.93 expect dE=-0.240E-01 dE for cont linesearch -0.880E-06
 trial: gam= 0.88217 g(F)=  0.821E-02 g(S)=  0.000E+00 ort = 0.157E-03 (trialstep = 0.431E+00)
 search vector abs. value=  0.723E-01
 bond charge predicted
       N       E                     dE             d eps       ncg     rms          rms(c)
DAV:   1    -0.115781716444E+04    0.39043E-02   -0.26560E+00  1992   0.342E+00    0.395E-01
RMM:   2    -0.115782330232E+04   -0.61379E-02   -0.57963E-02  2352   0.481E-01    0.485E-01
RMM:   3    -0.115782671977E+04   -0.34174E-02   -0.92613E-03  2290   0.214E-01    0.120E+00
RMM:   4    -0.115782436736E+04    0.23524E-02   -0.35525E-03  2530   0.112E-01    0.785E-01
RMM:   5    -0.115782326272E+04    0.11046E-02   -0.15177E-03  2196   0.796E-02    0.211E-01
RMM:   6    -0.115782357025E+04   -0.30753E-03   -0.54407E-04  2321   0.417E-02    0.288E-01
RMM:   7    -0.115782350462E+04    0.65627E-04   -0.30602E-04  2338   0.334E-02    0.254E-01
RMM:   8    -0.115782347392E+04    0.30703E-04   -0.32265E-04  2188   0.366E-02    0.170E-01
RMM:   9    -0.115782354330E+04   -0.69384E-04   -0.22478E-04  2257   0.308E-02    0.159E-01
RMM:  10    -0.115782347269E+04    0.70608E-04   -0.11649E-04  2073   0.240E-02    0.816E-02
RMM:  11    -0.115782349676E+04   -0.24068E-04   -0.43605E-05  1841   0.134E-02    0.880E-02
RMM:  12    -0.115782348425E+04    0.12513E-04   -0.19148E-05  1536   0.950E-03    0.285E-02
RMM:  13    -0.115782349286E+04   -0.86100E-05   -0.77448E-06  1455   0.601E-03    0.292E-02
RMM:  14    -0.115782349579E+04   -0.29369E-05   -0.30243E-06  1359   0.395E-03    0.218E-02
RMM:  15    -0.115782349736E+04   -0.15673E-05   -0.13749E-06  1266   0.299E-03    0.132E-02
RMM:  16    -0.115782350245E+04   -0.50911E-05   -0.93149E-07  1213   0.217E-03    0.103E-02
RMM:  17    -0.115782350503E+04   -0.25788E-05   -0.83364E-07  1204   0.221E-03    0.806E-03
RMM:  18    -0.115782350768E+04   -0.26517E-05   -0.42718E-07  1124   0.150E-03    0.539E-03
RMM:  19    -0.115782350901E+04   -0.13289E-05   -0.24696E-07  1062   0.119E-03    0.470E-03
RMM:  20    -0.115782351056E+04   -0.15498E-05   -0.14994E-07  1010   0.857E-04    0.322E-03
RMM:  21    -0.115782351289E+04   -0.23292E-05   -0.10771E-07   988   0.755E-04    0.175E-03
RMM:  22    -0.115782351641E+04   -0.35216E-05   -0.89214E-08   912   0.559E-04    0.114E-03
RMM:  23    -0.115782351802E+04   -0.16032E-05   -0.62676E-08   861   0.521E-04    0.156E-03
RMM:  24    -0.115782351909E+04   -0.10731E-05   -0.43429E-08   728   0.443E-04    0.874E-04
RMM:  25    -0.115782352052E+04   -0.14276E-05   -0.34258E-08   687   0.390E-04    0.582E-04
RMM:  26    -0.115782352234E+04   -0.18226E-05   -0.40034E-08   711   0.377E-04    0.550E-04
RMM:  27    -0.115782352399E+04   -0.16508E-05   -0.41268E-08   736   0.387E-04    0.479E-04
RMM:  28    -0.115782352504E+04   -0.10452E-05   -0.34151E-08   683   0.365E-04    0.538E-04
RMM:  29    -0.115782352602E+04   -0.98623E-06   -0.30034E-08   644   0.350E-04
  48 F= -.11657892E+04 E0= -.11657773E+04  d E =-.251948E-02  mag=    21.7816
 trial-energy change:   -0.002519  1 .order   -0.002500   -0.003596   -0.001405
 step:   0.6854(harm=  0.7065)  dis= 0.00683  next Energy= -1165.789608 (dE=-0.294E-02)
 bond charge predicted
       N       E                     dE             d eps       ncg     rms          rms(c)
DAV:   1    -0.115782172260E+04    0.18024E-02   -0.92992E-01  1992   0.202E+00    0.233E-01
RMM:   2    -0.115782380174E+04   -0.20791E-02   -0.20248E-02  2353   0.284E-01    0.275E-01
RMM:   3    -0.115782501603E+04   -0.12143E-02   -0.31993E-03  2294   0.125E-01    0.685E-01
RMM:   4    -0.115782412736E+04    0.88867E-03   -0.12000E-03  2523   0.663E-02    0.457E-01
RMM:   5    -0.115782380739E+04    0.31997E-03   -0.48039E-04  2145   0.448E-02    0.128E-01
RMM:   6    -0.115782393397E+04   -0.12658E-03   -0.18526E-04  2174   0.247E-02    0.157E-01
RMM:   7    -0.115782392000E+04    0.13973E-04   -0.10253E-04  2214   0.199E-02    0.152E-01
RMM:   8    -0.115782391294E+04    0.70565E-05   -0.10518E-04  2051   0.208E-02    0.111E-01
RMM:   9    -0.115782393388E+04   -0.20933E-04   -0.73510E-05  2098   0.180E-02    0.850E-02
RMM:  10    -0.115782392223E+04    0.11649E-04   -0.38255E-05  1801   0.139E-02    0.504E-02
RMM:  11    -0.115782392847E+04   -0.62376E-05   -0.13653E-05  1536   0.795E-03    0.473E-02
RMM:  12    -0.115782392546E+04    0.30060E-05   -0.59790E-06  1403   0.586E-03    0.162E-02
RMM:  13    -0.115782392866E+04   -0.31978E-05   -0.25032E-06  1315   0.347E-03    0.160E-02
RMM:  14    -0.115782392980E+04   -0.11443E-05   -0.11157E-06  1231   0.259E-03    0.109E-02
RMM:  15    -0.115782393056E+04   -0.75658E-06   -0.56066E-07  1174   0.195E-03
  49 F= -.11657896E+04 E0= -.11657778E+04  d E =-.295878E-02  mag=    21.7799
 curvature:  -3.04 expect dE=-0.296E-01 dE for cont linesearch -0.135E-05
 trial: gam= 1.20197 g(F)=  0.974E-02 g(S)=  0.000E+00 ort = 0.179E-03 (trialstep = 0.304E+00)
 search vector abs. value=  0.115E+00
 bond charge predicted
       N       E                     dE             d eps       ncg     rms          rms(c)
DAV:   1    -0.115782093054E+04    0.29993E-02   -0.20995E+00  1992   0.302E+00    0.360E-01
RMM:   2    -0.115782569247E+04   -0.47619E-02   -0.45357E-02  2346   0.428E-01    0.416E-01
RMM:   3    -0.115782840330E+04   -0.27108E-02   -0.73830E-03  2288   0.194E-01    0.945E-01
RMM:   4    -0.115782628148E+04    0.21218E-02   -0.27024E-03  2513   0.103E-01    0.596E-01
RMM:   5    -0.115782572874E+04    0.55273E-03   -0.87931E-04  2241   0.577E-02    0.191E-01
RMM:   6    -0.115782595685E+04   -0.22811E-03   -0.42486E-04  2264   0.380E-02    0.194E-01
RMM:   7    -0.115782588291E+04    0.73949E-04   -0.22979E-04  2270   0.302E-02    0.136E-01
RMM:   8    -0.115782611116E+04   -0.22825E-03   -0.28431E-04  2189   0.330E-02    0.316E-01
RMM:   9    -0.115782592869E+04    0.18247E-03   -0.20571E-04  2217   0.291E-02    0.164E-01
RMM:  10    -0.115782591222E+04    0.16473E-04   -0.12424E-04  2021   0.253E-02    0.668E-02
RMM:  11    -0.115782593345E+04   -0.21231E-04   -0.36213E-05  1812   0.124E-02    0.579E-02
RMM:  12    -0.115782592971E+04    0.37452E-05   -0.12745E-05  1483   0.823E-03    0.218E-02
RMM:  13    -0.115782593507E+04   -0.53668E-05   -0.65847E-06  1398   0.540E-03    0.216E-02
RMM:  14    -0.115782593716E+04   -0.20859E-05   -0.26835E-06  1322   0.371E-03    0.168E-02
RMM:  15    -0.115782593935E+04   -0.21942E-05   -0.13298E-06  1269   0.284E-03    0.913E-03
RMM:  16    -0.115782594301E+04   -0.36582E-05   -0.69129E-07  1192   0.192E-03    0.108E-02
RMM:  17    -0.115782594576E+04   -0.27457E-05   -0.55233E-07  1164   0.182E-03    0.540E-03
RMM:  18    -0.115782594913E+04   -0.33785E-05   -0.31870E-07  1107   0.130E-03    0.633E-03
RMM:  19    -0.115782595088E+04   -0.17482E-05   -0.23209E-07  1051   0.116E-03    0.396E-03
RMM:  20    -0.115782595356E+04   -0.26763E-05   -0.12882E-07  1005   0.755E-04    0.176E-03
RMM:  21    -0.115782595552E+04   -0.19625E-05   -0.91220E-08   893   0.641E-04    0.149E-03
RMM:  22    -0.115782595722E+04   -0.17015E-05   -0.62205E-08   796   0.523E-04    0.929E-04
RMM:  23    -0.115782595919E+04   -0.19701E-05   -0.50856E-08   769   0.429E-04    0.130E-03
RMM:  24    -0.115782596033E+04   -0.11336E-05   -0.40876E-08   731   0.425E-04    0.112E-03
RMM:  25    -0.115782596259E+04   -0.22681E-05   -0.52117E-08   776   0.389E-04    0.453E-04
RMM:  26    -0.115782596450E+04   -0.19086E-05   -0.52879E-08   779   0.402E-04    0.514E-04
RMM:  27    -0.115782596580E+04   -0.12930E-05   -0.48623E-08   725   0.375E-04    0.368E-04
RMM:  28    -0.115782596692E+04   -0.11194E-05   -0.42250E-08   679   0.369E-04    0.247E-04
RMM:  29    -0.115782596805E+04   -0.11359E-05   -0.49268E-08   695   0.361E-04    0.355E-04
RMM:  30    -0.115782596843E+04   -0.37375E-06   -0.34430E-08   653   0.361E-04
  50 F= -.11657919E+04 E0= -.11657801E+04  d E =-.224322E-02  mag=    21.7793
 trial-energy change:   -0.002243  1 .order   -0.002220   -0.003023   -0.001416
 step:   0.5358(harm=  0.5715)  dis= 0.00723  next Energy= -1165.792423 (dE=-0.279E-02)
 bond charge predicted
       N       E                     dE             d eps       ncg     rms          rms(c)
DAV:   1    -0.115782348915E+04    0.24789E-02   -0.12256E+00  1992   0.231E+00    0.275E-01
RMM:   2    -0.115782623211E+04   -0.27430E-02   -0.26455E-02  2350   0.327E-01    0.315E-01
RMM:   3    -0.115782778939E+04   -0.15573E-02   -0.43134E-03  2288   0.147E-01    0.694E-01
RMM:   4    -0.115782648848E+04    0.13009E-02   -0.15372E-03  2514   0.788E-02    0.405E-01
RMM:   5    -0.115782627930E+04    0.20918E-03   -0.44792E-04  2245   0.400E-02    0.166E-01
RMM:   6    -0.115782640424E+04   -0.12494E-03   -0.24352E-04  2188   0.293E-02    0.149E-01
RMM:   7    -0.115782636195E+04    0.42291E-04   -0.13823E-04  2236   0.244E-02    0.107E-01
RMM:   8    -0.115782651526E+04   -0.15331E-03   -0.16220E-04  2161   0.248E-02    0.252E-01
RMM:   9    -0.115782637401E+04    0.14124E-03   -0.12013E-04  2144   0.227E-02    0.102E-01
RMM:  10    -0.115782638728E+04   -0.13266E-04   -0.65572E-05  1883   0.180E-02    0.487E-02
RMM:  11    -0.115782640049E+04   -0.13208E-04   -0.23305E-05  1641   0.964E-03    0.436E-02
RMM:  12    -0.115782639780E+04    0.26879E-05   -0.73736E-06  1434   0.677E-03    0.188E-02
RMM:  13    -0.115782640043E+04   -0.26340E-05   -0.28832E-06  1331   0.378E-03    0.179E-02
RMM:  14    -0.115782640198E+04   -0.15475E-05   -0.14168E-06  1261   0.285E-03    0.109E-02
RMM:  15    -0.115782640370E+04   -0.17233E-05   -0.75164E-07  1196   0.218E-03    0.701E-03
RMM:  16    -0.115782640559E+04   -0.18861E-05   -0.43196E-07  1155   0.153E-03    0.828E-03
RMM:  17    -0.115782640709E+04   -0.15006E-05   -0.35461E-07  1128   0.146E-03    0.357E-03
RMM:  18    -0.115782640881E+04   -0.17200E-05   -0.20145E-07  1069   0.103E-03    0.507E-03
RMM:  19    -0.115782640980E+04   -0.99577E-06   -0.13571E-07  1009   0.908E-04
  51 F= -.11657925E+04 E0= -.11657808E+04  d E =-.283879E-02  mag=    21.7794
 curvature:  -3.23 expect dE=-0.244E-01 dE for cont linesearch -0.623E-05
 trial: gam= 0.75559 g(F)=  0.755E-02 g(S)=  0.000E+00 ort = 0.470E-03 (trialstep = 0.350E+00)
 search vector abs. value=  0.737E-01
 bond charge predicted
       N       E                     dE             d eps       ncg     rms          rms(c)
DAV:   1    -0.115782406297E+04    0.23458E-02   -0.18044E+00  1992   0.277E+00    0.335E-01
RMM:   2    -0.115782805321E+04   -0.39902E-02   -0.38117E-02  2338   0.393E-01    0.364E-01
RMM:   3    -0.115783038637E+04   -0.23332E-02   -0.64604E-03  2300   0.177E-01    0.837E-01
RMM:   4    -0.115782841774E+04    0.19686E-02   -0.22600E-03  2511   0.936E-02    0.487E-01
RMM:   5    -0.115782820754E+04    0.21020E-03   -0.68926E-04  2260   0.478E-02    0.244E-01
RMM:   6    -0.115782830672E+04   -0.99173E-04   -0.34605E-04  2226   0.357E-02    0.173E-01
RMM:   7    -0.115782830118E+04    0.55389E-05   -0.19042E-04  2292   0.283E-02    0.178E-01
RMM:   8    -0.115782833970E+04   -0.38524E-04   -0.15502E-04  2152   0.242E-02    0.206E-01
RMM:   9    -0.115782832756E+04    0.12144E-04   -0.15922E-04  2148   0.268E-02    0.129E-01
RMM:  10    -0.115782830508E+04    0.22474E-04   -0.86003E-05  2018   0.211E-02    0.625E-02
RMM:  11    -0.115782831686E+04   -0.11774E-04   -0.30734E-05  1750   0.118E-02    0.499E-02
RMM:  12    -0.115782831948E+04   -0.26251E-05   -0.10054E-05  1473   0.746E-03    0.296E-02
RMM:  13    -0.115782832135E+04   -0.18712E-05   -0.41243E-06  1376   0.480E-03    0.211E-02
RMM:  14    -0.115782832511E+04   -0.37540E-05   -0.22441E-06  1306   0.333E-03    0.118E-02
RMM:  15    -0.115782832866E+04   -0.35583E-05   -0.10506E-06  1217   0.265E-03    0.101E-02
RMM:  16    -0.115782833095E+04   -0.22865E-05   -0.55197E-07  1169   0.180E-03    0.807E-03
RMM:  17    -0.115782833385E+04   -0.28943E-05   -0.42513E-07  1133   0.160E-03    0.525E-03
RMM:  18    -0.115782833770E+04   -0.38530E-05   -0.36593E-07  1132   0.137E-03    0.520E-03
RMM:  19    -0.115782833982E+04   -0.21223E-05   -0.26715E-07  1076   0.111E-03    0.440E-03
RMM:  20    -0.115782834203E+04   -0.22052E-05   -0.16265E-07  1035   0.921E-04    0.284E-03
RMM:  21    -0.115782834386E+04   -0.18358E-05   -0.88717E-08   930   0.636E-04    0.274E-03
RMM:  22    -0.115782834542E+04   -0.15564E-05   -0.62135E-08   825   0.529E-04    0.196E-03
RMM:  23    -0.115782834722E+04   -0.18045E-05   -0.54588E-08   795   0.478E-04    0.161E-03
RMM:  24    -0.115782834855E+04   -0.13314E-05   -0.43399E-08   737   0.447E-04    0.805E-04
RMM:  25    -0.115782834997E+04   -0.14152E-05   -0.35916E-08   697   0.379E-04    0.531E-04
RMM:  26    -0.115782835124E+04   -0.12692E-05   -0.31505E-08   652   0.366E-04    0.451E-04
RMM:  27    -0.115782835314E+04   -0.18972E-05   -0.42324E-08   684   0.364E-04    0.459E-04
RMM:  28    -0.115782835441E+04   -0.12786E-05   -0.44253E-08   743   0.383E-04    0.548E-04
RMM:  29    -0.115782835501E+04   -0.59861E-06   -0.30049E-08   636   0.353E-04
  52 F= -.11657946E+04 E0= -.11657829E+04  d E =-.211679E-02  mag=    21.7796
 trial-energy change:   -0.002117  1 .order   -0.002098   -0.002767   -0.001429
 step:   0.6715(harm=  0.7239)  dis= 0.00769  next Energy= -1165.795253 (dE=-0.279E-02)
 bond charge predicted
       N       E                     dE             d eps       ncg     rms          rms(c)
DAV:   1    -0.115782534021E+04    0.30142E-02   -0.15192E+00  1992   0.255E+00    0.308E-01
RMM:   2    -0.115782868277E+04   -0.33426E-02   -0.32064E-02  2338   0.361E-01    0.332E-01
RMM:   3    -0.115783062175E+04   -0.19390E-02   -0.54510E-03  2300   0.162E-01    0.746E-01
RMM:   4    -0.115782893438E+04    0.16874E-02   -0.18875E-03  2508   0.853E-02    0.387E-01
RMM:   5    -0.115782885337E+04    0.81011E-04   -0.53416E-04  2264   0.410E-02    0.247E-01
RMM:   6    -0.115782889995E+04   -0.46581E-04   -0.28178E-04  2203   0.326E-02    0.162E-01
RMM:   7    -0.115782890949E+04   -0.95439E-05   -0.16328E-04  2255   0.263E-02    0.173E-01
RMM:   8    -0.115782892175E+04   -0.12259E-04   -0.12831E-04  2126   0.222E-02    0.175E-01
RMM:   9    -0.115782893397E+04   -0.12220E-04   -0.13411E-04  2131   0.247E-02    0.121E-01
RMM:  10    -0.115782890776E+04    0.26213E-04   -0.71003E-05  1977   0.192E-02    0.550E-02
RMM:  11    -0.115782891908E+04   -0.11317E-04   -0.25164E-05  1688   0.107E-02    0.433E-02
RMM:  12    -0.115782892139E+04   -0.23174E-05   -0.85384E-06  1455   0.696E-03    0.254E-02
RMM:  13    -0.115782892273E+04   -0.13310E-05   -0.33813E-06  1348   0.436E-03    0.185E-02
RMM:  14    -0.115782892514E+04   -0.24119E-05   -0.17037E-06  1262   0.296E-03    0.101E-02
RMM:  15    -0.115782892784E+04   -0.27000E-05   -0.77290E-07  1187   0.229E-03    0.841E-03
RMM:  16    -0.115782892975E+04   -0.19092E-05   -0.43603E-07  1159   0.159E-03    0.697E-03
RMM:  17    -0.115782893208E+04   -0.23378E-05   -0.33997E-07  1108   0.144E-03    0.456E-03
RMM:  18    -0.115782893501E+04   -0.29303E-05   -0.28707E-07  1102   0.125E-03    0.423E-03
RMM:  19    -0.115782893653E+04   -0.15199E-05   -0.21098E-07  1061   0.969E-04    0.400E-03
RMM:  20    -0.115782893806E+04   -0.15238E-05   -0.12943E-07  1009   0.801E-04    0.241E-03
RMM:  21    -0.115782893962E+04   -0.15585E-05   -0.72561E-08   889   0.581E-04    0.233E-03
RMM:  22    -0.115782894090E+04   -0.12841E-05   -0.50370E-08   767   0.485E-04    0.162E-03
RMM:  23    -0.115782894221E+04   -0.13066E-05   -0.41395E-08   728   0.439E-04    0.131E-03
RMM:  24    -0.115782894321E+04   -0.10036E-05   -0.33933E-08   708   0.411E-04    0.722E-04
RMM:  25    -0.115782894419E+04   -0.98288E-06   -0.26148E-08   628   0.356E-04
  53 F= -.11657953E+04 E0= -.11657837E+04  d E =-.285965E-02  mag=    21.7796
 curvature:  -3.31 expect dE=-0.261E-01 dE for cont linesearch -0.120E-04
 trial: gam= 1.04375 g(F)=  0.788E-02 g(S)=  0.000E+00 ort = 0.518E-03 (trialstep = 0.342E+00)
 search vector abs. value=  0.892E-01
 bond charge predicted
       N       E                     dE             d eps       ncg     rms          rms(c)
DAV:   1    -0.115782594237E+04    0.30008E-02   -0.21084E+00  1992   0.303E+00    0.353E-01
RMM:   2    -0.115783069556E+04   -0.47532E-02   -0.44798E-02  2329   0.424E-01    0.415E-01
RMM:   3    -0.115783302247E+04   -0.23269E-02   -0.73918E-03  2274   0.191E-01    0.841E-01
RMM:   4    -0.115783100750E+04    0.20150E-02   -0.25626E-03  2522   0.990E-02    0.491E-01
RMM:   5    -0.115783077388E+04    0.23362E-03   -0.73383E-04  2273   0.482E-02    0.291E-01
RMM:   6    -0.115783080147E+04   -0.27590E-04   -0.36977E-04  2227   0.371E-02    0.166E-01
RMM:   7    -0.115783080077E+04    0.70389E-06   -0.20453E-04  2275   0.296E-02    0.120E-01
RMM:   8    -0.115783089704E+04   -0.96274E-04   -0.20466E-04  2228   0.299E-02    0.206E-01
RMM:   9    -0.115783094330E+04   -0.46255E-04   -0.20383E-04  2203   0.274E-02    0.221E-01
RMM:  10    -0.115783081400E+04    0.12930E-03   -0.11764E-04  2046   0.238E-02    0.721E-02
RMM:  11    -0.115783084129E+04   -0.27284E-04   -0.44041E-05  1822   0.142E-02    0.504E-02
RMM:  12    -0.115783084696E+04   -0.56734E-05   -0.15205E-05  1560   0.811E-03    0.346E-02
RMM:  13    -0.115783084748E+04   -0.52017E-06   -0.67240E-06  1405   0.602E-03
  54 F= -.11657974E+04 E0= -.11657857E+04  d E =-.203884E-02  mag=    21.7800
 trial-energy change:   -0.002039  1 .order   -0.002061   -0.002880   -0.001242
 step:   0.6488(harm=  0.6015)  dis= 0.00836  next Energy= -1165.797905 (dE=-0.258E-02)
 bond charge predicted
       N       E                     dE             d eps       ncg     rms          rms(c)
DAV:   1    -0.115782723046E+04    0.36165E-02   -0.16931E+00  1992   0.272E+00    0.317E-01
RMM:   2    -0.115783104665E+04   -0.38162E-02   -0.35982E-02  2327   0.380E-01    0.370E-01
RMM:   3    -0.115783290084E+04   -0.18542E-02   -0.59041E-03  2270   0.173E-01    0.747E-01
RMM:   4    -0.115783125687E+04    0.16440E-02   -0.20340E-03  2524   0.906E-02    0.350E-01
RMM:   5    -0.115783117965E+04    0.77222E-04   -0.54731E-04  2280   0.441E-02    0.291E-01
RMM:   6    -0.115783114480E+04    0.34854E-04   -0.27006E-04  2208   0.318E-02    0.216E-01
RMM:   7    -0.115783119767E+04   -0.52878E-04   -0.18918E-04  2220   0.270E-02    0.215E-01
RMM:   8    -0.115783115350E+04    0.44178E-04   -0.18439E-04  2202   0.276E-02    0.129E-01
RMM:   9    -0.115783121713E+04   -0.63632E-04   -0.18973E-04  2179   0.289E-02    0.115E-01
RMM:  10    -0.115783118107E+04    0.36061E-04   -0.69436E-05  2026   0.193E-02    0.503E-02
RMM:  11    -0.115783119583E+04   -0.14767E-04   -0.27679E-05  1691   0.110E-02    0.603E-02
RMM:  12    -0.115783119562E+04    0.21691E-06   -0.11719E-05  1501   0.737E-03    0.276E-02
RMM:  13    -0.115783120004E+04   -0.44261E-05   -0.51091E-06  1397   0.518E-03    0.183E-02
RMM:  14    -0.115783120571E+04   -0.56677E-05   -0.18735E-06  1297   0.295E-03    0.116E-02
RMM:  15    -0.115783121133E+04   -0.56151E-05   -0.10341E-06  1231   0.248E-03    0.701E-03
RMM:  16    -0.115783121765E+04   -0.63195E-05   -0.53096E-07  1181   0.175E-03    0.624E-03
RMM:  17    -0.115783122212E+04   -0.44785E-05   -0.49581E-07  1165   0.152E-03    0.679E-03
RMM:  18    -0.115783122725E+04   -0.51203E-05   -0.35998E-07  1124   0.128E-03    0.438E-03
RMM:  19    -0.115783123166E+04   -0.44163E-05   -0.20633E-07  1058   0.105E-03    0.308E-03
RMM:  20    -0.115783123575E+04   -0.40872E-05   -0.15759E-07  1038   0.783E-04    0.350E-03
RMM:  21    -0.115783123918E+04   -0.34314E-05   -0.12717E-07  1000   0.766E-04    0.189E-03
RMM:  22    -0.115783124379E+04   -0.46136E-05   -0.10096E-07   882   0.531E-04    0.157E-03
RMM:  23    -0.115783124643E+04   -0.26323E-05   -0.75807E-08   828   0.533E-04    0.118E-03
RMM:  24    -0.115783124863E+04   -0.21996E-05   -0.59208E-08   748   0.432E-04    0.928E-04
RMM:  25    -0.115783125079E+04   -0.21670E-05   -0.50862E-08   740   0.422E-04    0.679E-04
RMM:  26    -0.115783125375E+04   -0.29578E-05   -0.60577E-08   749   0.397E-04    0.548E-04
RMM:  27    -0.115783125747E+04   -0.37179E-05   -0.80659E-08   840   0.441E-04    0.450E-04
RMM:  28    -0.115783126036E+04   -0.28892E-05   -0.86144E-08   855   0.437E-04    0.335E-04
RMM:  29    -0.115783126181E+04   -0.14523E-05   -0.65883E-08   761   0.415E-04    0.480E-04
RMM:  30    -0.115783126278E+04   -0.97472E-06   -0.52707E-08   693   0.372E-04
  55 F= -.11657979E+04 E0= -.11657862E+04  d E =-.257085E-02  mag=    21.7810
 curvature:  -3.08 expect dE=-0.213E-01 dE for cont linesearch -0.951E-05
 trial: gam= 1.04314 g(F)=  0.691E-02 g(S)=  0.000E+00 ort =-0.525E-03 (trialstep = 0.350E+00)
 search vector abs. value=  0.103E+00
 bond charge predicted
       N       E                     dE             d eps       ncg     rms          rms(c)
DAV:   1    -0.115782684151E+04    0.44203E-02   -0.24970E+00  1992   0.333E+00    0.376E-01
RMM:   2    -0.115783253411E+04   -0.56926E-02   -0.54234E-02  2321   0.464E-01    0.453E-01
RMM:   3    -0.115783518822E+04   -0.26541E-02   -0.84838E-03  2268   0.209E-01    0.934E-01
RMM:   4    -0.115783294103E+04    0.22472E-02   -0.29581E-03  2533   0.107E-01    0.580E-01
RMM:   5    -0.115783257989E+04    0.36114E-03   -0.88543E-04  2247   0.552E-02    0.280E-01
RMM:   6    -0.115783268571E+04   -0.10582E-03   -0.43417E-04  2262   0.402E-02    0.189E-01
RMM:   7    -0.115783269033E+04   -0.46157E-05   -0.25448E-04  2299   0.324E-02    0.185E-01
RMM:   8    -0.115783280041E+04   -0.11008E-03   -0.22534E-04  2220   0.295E-02    0.269E-01
RMM:   9    -0.115783270976E+04    0.90648E-04   -0.23925E-04  2169   0.325E-02    0.149E-01
RMM:  10    -0.115783271113E+04   -0.13641E-05   -0.12252E-04  2099   0.247E-02    0.896E-02
RMM:  11    -0.115783270587E+04    0.52538E-05   -0.48765E-05  1849   0.146E-02    0.560E-02
RMM:  12    -0.115783271368E+04   -0.78052E-05   -0.14812E-05  1559   0.809E-03    0.404E-02
RMM:  13    -0.115783271386E+04   -0.18044E-06   -0.68350E-06  1400   0.585E-03
  56 F= -.11657995E+04 E0= -.11657878E+04  d E =-.161958E-02  mag=    21.7819
 trial-energy change:   -0.001620  1 .order   -0.001647   -0.002227   -0.001067
 step:   0.8363(harm=  0.6714)  dis= 0.01183  next Energy= -1165.800184 (dE=-0.229E-02)
 bond charge predicted
       N       E                     dE             d eps       ncg     rms          rms(c)
DAV:   1    -0.115782139844E+04    0.11315E-01   -0.48266E+00  1992   0.463E+00    0.525E-01
RMM:   2    -0.115783252456E+04   -0.11126E-01   -0.10518E-01  2332   0.645E-01    0.632E-01
RMM:   3    -0.115783779386E+04   -0.52693E-02   -0.16333E-02  2267   0.291E-01    0.133E+00
RMM:   4    -0.115783342298E+04    0.43709E-02   -0.57550E-03  2532   0.151E-01    0.840E-01
RMM:   5    -0.115783262185E+04    0.80112E-03   -0.17806E-03  2247   0.796E-02    0.372E-01
RMM:   6    -0.115783280038E+04   -0.17852E-03   -0.83182E-04  2299   0.552E-02    0.272E-01
RMM:   7    -0.115783275819E+04    0.42190E-04   -0.45075E-04  2331   0.424E-02    0.239E-01
RMM:   8    -0.115783304150E+04   -0.28331E-03   -0.48872E-04  2234   0.447E-02    0.404E-01
RMM:   9    -0.115783286470E+04    0.17680E-03   -0.50814E-04  2250   0.447E-02    0.234E-01
RMM:  10    -0.115783280724E+04    0.57458E-04   -0.25999E-04  2166   0.368E-02    0.133E-01
RMM:  11    -0.115783280689E+04    0.34705E-06   -0.99604E-05  2017   0.209E-02    0.964E-02
RMM:  12    -0.115783281288E+04   -0.59829E-05   -0.32372E-05  1762   0.119E-02    0.622E-02
RMM:  13    -0.115783281511E+04   -0.22342E-05   -0.15470E-05  1516   0.857E-03    0.339E-02
RMM:  14    -0.115783282908E+04   -0.13970E-04   -0.76558E-06  1454   0.586E-03    0.248E-02
RMM:  15    -0.115783284071E+04   -0.11633E-04   -0.40129E-06  1374   0.480E-03    0.207E-02
RMM:  16    -0.115783284820E+04   -0.74844E-05   -0.19334E-06  1299   0.334E-03    0.152E-02
RMM:  17    -0.115783285576E+04   -0.75604E-05   -0.14137E-06  1229   0.267E-03    0.115E-02
RMM:  18    -0.115783286358E+04   -0.78177E-05   -0.10057E-06  1207   0.212E-03    0.704E-03
RMM:  19    -0.115783287304E+04   -0.94591E-05   -0.52079E-07  1154   0.175E-03    0.372E-03
RMM:  20    -0.115783288166E+04   -0.86275E-05   -0.38723E-07  1113   0.125E-03    0.609E-03
RMM:  21    -0.115783288631E+04   -0.46428E-05   -0.29865E-07  1062   0.124E-03    0.441E-03
RMM:  22    -0.115783289278E+04   -0.64694E-05   -0.19536E-07  1022   0.773E-04    0.278E-03
RMM:  23    -0.115783289649E+04   -0.37096E-05   -0.14712E-07   967   0.767E-04    0.226E-03
RMM:  24    -0.115783290127E+04   -0.47810E-05   -0.12248E-07   874   0.589E-04    0.172E-03
RMM:  25    -0.115783290537E+04   -0.40991E-05   -0.10158E-07   862   0.589E-04    0.100E-03
RMM:  26    -0.115783291216E+04   -0.67936E-05   -0.13890E-07   913   0.493E-04    0.746E-04
RMM:  27    -0.115783291775E+04   -0.55875E-05   -0.14333E-07   930   0.553E-04    0.791E-04
RMM:  28    -0.115783292180E+04   -0.40494E-05   -0.14731E-07   878   0.500E-04    0.883E-04
RMM:  29    -0.115783292389E+04   -0.20955E-05   -0.97574E-08   816   0.500E-04    0.647E-04
RMM:  30    -0.115783292591E+04   -0.20139E-05   -0.85408E-08   731   0.410E-04    0.457E-04
RMM:  31    -0.115783292834E+04   -0.24335E-05   -0.86672E-08   808   0.443E-04    0.329E-04
RMM:  32    -0.115783293109E+04   -0.27464E-05   -0.11847E-07   872   0.435E-04    0.254E-04
RMM:  33    -0.115783293275E+04   -0.16692E-05   -0.93578E-08   838   0.462E-04    0.200E-04
RMM:  34    -0.115783293393E+04   -0.11728E-05   -0.88742E-08   778   0.404E-04    0.169E-04
RMM:  35    -0.115783293469E+04   -0.76004E-06   -0.75844E-08   770   0.420E-04
  57 F= -.11658000E+04 E0= -.11657883E+04  d E =-.206539E-02  mag=    21.7847
 curvature:  -4.00 expect dE=-0.338E-01 dE for cont linesearch -0.845E-04
 trial: gam= 1.13354 g(F)=  0.847E-02 g(S)=  0.000E+00 ort =-0.147E-02 (trialstep = 0.335E+00)
 search vector abs. value=  0.137E+00
 bond charge predicted
       N       E                     dE             d eps       ncg     rms          rms(c)
DAV:   1    -0.115782705276E+04    0.58812E-02   -0.29968E+00  1992   0.367E+00    0.408E-01
RMM:   2    -0.115783378945E+04   -0.67367E-02   -0.66621E-02  2362   0.513E-01    0.433E-01
RMM:   3    -0.115783769984E+04   -0.39104E-02   -0.95908E-03  2298   0.223E-01    0.113E+00
RMM:   4    -0.115783443426E+04    0.32656E-02   -0.35135E-03  2530   0.118E-01    0.610E-01
RMM:   5    -0.115783407222E+04    0.36205E-03   -0.11022E-03  2230   0.650E-02    0.255E-01
RMM:   6    -0.115783428267E+04   -0.21046E-03   -0.49793E-04  2318   0.415E-02    0.302E-01
RMM:   7    -0.115783418949E+04    0.93186E-04   -0.30139E-04  2334   0.347E-02    0.238E-01
RMM:   8    -0.115783424295E+04   -0.53461E-04   -0.34598E-04  2198   0.376E-02    0.197E-01
RMM:   9    -0.115783426949E+04   -0.26545E-04   -0.25838E-04  2241   0.343E-02    0.155E-01
RMM:  10    -0.115783421519E+04    0.54300E-04   -0.12534E-04  2104   0.252E-02    0.901E-02
RMM:  11    -0.115783423133E+04   -0.16141E-04   -0.55471E-05  1870   0.157E-02    0.806E-02
RMM:  12    -0.115783422620E+04    0.51337E-05   -0.19286E-05  1579   0.965E-03    0.382E-02
RMM:  13    -0.115783423045E+04   -0.42470E-05   -0.88565E-06  1466   0.678E-03    0.228E-02
RMM:  14    -0.115783423684E+04   -0.63966E-05   -0.44116E-06  1401   0.435E-03    0.210E-02
RMM:  15    -0.115783423961E+04   -0.27671E-05   -0.20338E-06  1306   0.358E-03    0.134E-02
RMM:  16    -0.115783424242E+04   -0.28118E-05   -0.93775E-07  1216   0.230E-03    0.111E-02
RMM:  17    -0.115783424506E+04   -0.26362E-05   -0.75992E-07  1192   0.198E-03    0.716E-03
RMM:  18    -0.115783424801E+04   -0.29554E-05   -0.47335E-07  1147   0.162E-03    0.459E-03
RMM:  19    -0.115783425078E+04   -0.27707E-05   -0.27743E-07  1095   0.128E-03    0.252E-03
RMM:  20    -0.115783425284E+04   -0.20555E-05   -0.17437E-07  1057   0.913E-04    0.332E-03
RMM:  21    -0.115783425407E+04   -0.12283E-05   -0.12563E-07  1005   0.796E-04    0.264E-03
RMM:  22    -0.115783425543E+04   -0.13579E-05   -0.74091E-08   851   0.569E-04    0.144E-03
RMM:  23    -0.115783425677E+04   -0.13440E-05   -0.55522E-08   791   0.506E-04    0.111E-03
RMM:  24    -0.115783425783E+04   -0.10576E-05   -0.41229E-08   742   0.444E-04    0.105E-03
RMM:  25    -0.115783425877E+04   -0.93958E-06   -0.34088E-08   734   0.403E-04
  58 F= -.11658015E+04 E0= -.11657899E+04  d E =-.151259E-02  mag=    21.7840
 trial-energy change:   -0.001513  1 .order   -0.001514   -0.002276   -0.000751
 step:   0.4999(harm=  0.4999)  dis= 0.00823  next Energy= -1165.801661 (dE=-0.170E-02)
 bond charge predicted
       N       E                     dE             d eps       ncg     rms          rms(c)
DAV:   1    -0.115783261601E+04    0.16418E-02   -0.72593E-01  1992   0.181E+00    0.201E-01
RMM:   2    -0.115783420285E+04   -0.15868E-02   -0.16094E-02  2353   0.253E-01    0.212E-01
RMM:   3    -0.115783516059E+04   -0.95774E-03   -0.23275E-03  2294   0.110E-01    0.570E-01
RMM:   4    -0.115783437230E+04    0.78829E-03   -0.86171E-04  2527   0.580E-02    0.331E-01
RMM:   5    -0.115783426373E+04    0.10857E-03   -0.29009E-04  2137   0.337E-02    0.116E-01
RMM:   6    -0.115783434145E+04   -0.77720E-04   -0.12224E-04  2143   0.208E-02    0.131E-01
RMM:   7    -0.115783432604E+04    0.15412E-04   -0.70319E-05  2095   0.171E-02    0.116E-01
RMM:   8    -0.115783434986E+04   -0.23818E-04   -0.82668E-05  2000   0.181E-02    0.115E-01
RMM:   9    -0.115783434588E+04    0.39791E-05   -0.61866E-05  2027   0.170E-02    0.717E-02
RMM:  10    -0.115783434390E+04    0.19792E-05   -0.29505E-05  1753   0.124E-02    0.481E-02
RMM:  11    -0.115783434931E+04   -0.54092E-05   -0.13547E-05  1539   0.814E-03    0.396E-02
RMM:  12    -0.115783434922E+04    0.91095E-07   -0.48343E-06  1404   0.545E-03
  59 F= -.11658017E+04 E0= -.11657901E+04  d E =-.169402E-02  mag=    21.7837
 curvature:  -5.05 expect dE=-0.269E-01 dE for cont linesearch -0.422E-06
 trial: gam= 0.34443 g(F)=  0.533E-02 g(S)=  0.000E+00 ort = 0.107E-03 (trialstep = 0.368E+00)
 search vector abs. value=  0.217E-01
 bond charge predicted
       N       E                     dE             d eps       ncg     rms          rms(c)
DAV:   1    -0.115783427362E+04    0.75688E-04   -0.58087E-01  1992   0.164E+00    0.195E-01
RMM:   2    -0.115783558339E+04   -0.13098E-02   -0.13614E-02  2432   0.234E-01    0.242E-01
RMM:   3    -0.115783663483E+04   -0.10514E-02   -0.19003E-03  2367   0.976E-02    0.711E-01
RMM:   4    -0.115783551609E+04    0.11187E-02   -0.86788E-04  2499   0.562E-02    0.211E-01
RMM:   5    -0.115783565788E+04   -0.14179E-03   -0.24142E-04  2172   0.340E-02    0.120E-01
RMM:   6    -0.115783573331E+04   -0.75430E-04   -0.11645E-04  2237   0.203E-02    0.171E-01
RMM:   7    -0.115783566028E+04    0.73032E-04   -0.73494E-05  2111   0.189E-02    0.675E-02
RMM:   8    -0.115783573162E+04   -0.71348E-04   -0.85480E-05  2012   0.189E-02    0.125E-01
RMM:   9    -0.115783570062E+04    0.31003E-04   -0.52998E-05  1934   0.154E-02    0.611E-02
RMM:  10    -0.115783570111E+04   -0.48910E-06   -0.22412E-05  1648   0.107E-02    0.357E-02
RMM:  11    -0.115783570643E+04   -0.53148E-05   -0.92587E-06  1476   0.689E-03    0.287E-02
RMM:  12    -0.115783570816E+04   -0.17309E-05   -0.38809E-06  1398   0.508E-03    0.170E-02
RMM:  13    -0.115783570997E+04   -0.18106E-05   -0.16465E-06  1282   0.303E-03    0.147E-02
RMM:  14    -0.115783571090E+04   -0.93294E-06   -0.81032E-07  1210   0.237E-03
  60 F= -.11658031E+04 E0= -.11657915E+04  d E =-.139925E-02  mag=    21.7831
 trial-energy change:   -0.001399  1 .order   -0.001400   -0.001977   -0.000824
 step:   0.6311(harm=  0.6311)  dis= 0.00378  next Energy= -1165.803352 (dE=-0.170E-02)
 bond charge predicted
       N       E                     dE             d eps       ncg     rms          rms(c)
DAV:   1    -0.115783525217E+04    0.45779E-03   -0.29702E-01  2028   0.118E+00    0.140E-01
RMM:   2    -0.115783591826E+04   -0.66609E-03   -0.69674E-03  2429   0.168E-01    0.181E-01
RMM:   3    -0.115783642599E+04   -0.50773E-03   -0.97846E-04  2362   0.701E-02    0.521E-01
RMM:   4    -0.115783587857E+04    0.54742E-03   -0.45501E-04  2472   0.407E-02    0.170E-01
RMM:   5    -0.115783594943E+04   -0.70860E-04   -0.13360E-04  2065   0.252E-02    0.879E-02
RMM:   6    -0.115783599757E+04   -0.48143E-04   -0.72758E-05  2107   0.160E-02    0.118E-01
RMM:   7    -0.115783596255E+04    0.35024E-04   -0.40009E-05  1926   0.138E-02    0.554E-02
RMM:   8    -0.115783598830E+04   -0.25752E-04   -0.45190E-05  1840   0.130E-02    0.721E-02
RMM:   9    -0.115783598660E+04    0.17044E-05   -0.26114E-05  1843   0.105E-02    0.486E-02
RMM:  10    -0.115783598294E+04    0.36541E-05   -0.13920E-05  1518   0.820E-03    0.267E-02
RMM:  11    -0.115783598627E+04   -0.33297E-05   -0.50332E-06  1408   0.511E-03    0.187E-02
RMM:  12    -0.115783598826E+04   -0.19877E-05   -0.20672E-06  1313   0.368E-03    0.127E-02
RMM:  13    -0.115783598933E+04   -0.10692E-05   -0.83863E-07  1208   0.226E-03    0.109E-02
RMM:  14    -0.115783599004E+04   -0.71018E-06   -0.38685E-07  1162   0.154E-03
  61 F= -.11658034E+04 E0= -.11657918E+04  d E =-.170495E-02  mag=    21.7824
 curvature:  -1.27 expect dE=-0.600E-02 dE for cont linesearch -0.705E-07
 trial: gam= 0.92439 g(F)=  0.471E-02 g(S)=  0.000E+00 ort = 0.347E-04 (trialstep = 0.392E+00)
 search vector abs. value=  0.233E-01
 bond charge predicted
       N       E                     dE             d eps       ncg     rms          rms(c)
DAV:   1    -0.115783529844E+04    0.69089E-03   -0.70429E-01  1992   0.183E+00    0.227E-01
RMM:   2    -0.115783702378E+04   -0.17253E-02   -0.16826E-02  2444   0.264E-01    0.377E-01
RMM:   3    -0.115783819565E+04   -0.11719E-02   -0.24678E-03  2386   0.108E-01    0.782E-01
RMM:   4    -0.115783691709E+04    0.12786E-02   -0.10972E-03  2488   0.646E-02    0.240E-01
RMM:   5    -0.115783702342E+04   -0.10633E-03   -0.27267E-04  2191   0.355E-02    0.141E-01
RMM:   6    -0.115783712065E+04   -0.97235E-04   -0.15033E-04  2278   0.231E-02    0.170E-01
RMM:   7    -0.115783705213E+04    0.68528E-04   -0.96717E-05  2070   0.207E-02    0.829E-02
RMM:   8    -0.115783712217E+04   -0.70048E-04   -0.11338E-04  2129   0.204E-02    0.117E-01
RMM:   9    -0.115783708900E+04    0.33175E-04   -0.59730E-05  1980   0.167E-02    0.711E-02
RMM:  10    -0.115783709557E+04   -0.65696E-05   -0.28818E-05  1730   0.114E-02    0.624E-02
RMM:  11    -0.115783709151E+04    0.40585E-05   -0.10647E-05  1484   0.748E-03    0.260E-02
RMM:  12    -0.115783709835E+04   -0.68409E-05   -0.43503E-06  1404   0.511E-03    0.203E-02
RMM:  13    -0.115783710168E+04   -0.33288E-05   -0.21270E-06  1299   0.353E-03    0.197E-02
RMM:  14    -0.115783710173E+04   -0.45780E-07   -0.10430E-06  1223   0.258E-03
  62 F= -.11658045E+04 E0= -.11657930E+04  d E =-.115480E-02  mag=    21.7822
 trial-energy change:   -0.001155  1 .order   -0.001150   -0.001855   -0.000445
 step:   0.5121(harm=  0.5151)  dis= 0.00330  next Energy= -1165.804585 (dE=-0.122E-02)
 bond charge predicted
       N       E                     dE             d eps       ncg     rms          rms(c)
DAV:   1    -0.115783699033E+04    0.11135E-03   -0.66918E-02  2058   0.563E-01    0.716E-02
RMM:   2    -0.115783717511E+04   -0.18478E-03   -0.16186E-03  2436   0.821E-02    0.180E-01
RMM:   3    -0.115783719885E+04   -0.23748E-04   -0.23653E-04  2383   0.332E-02    0.219E-01
RMM:   4    -0.115783715638E+04    0.42479E-04   -0.10792E-04  2291   0.214E-02    0.114E-01
RMM:   5    -0.115783714313E+04    0.13241E-04   -0.32096E-05  1744   0.128E-02    0.423E-02
RMM:   6    -0.115783716162E+04   -0.18484E-04   -0.14866E-05  1619   0.808E-03    0.542E-02
RMM:   7    -0.115783715850E+04    0.31176E-05   -0.93751E-06  1562   0.698E-03    0.282E-02
RMM:   8    -0.115783716517E+04   -0.66660E-05   -0.95105E-06  1507   0.695E-03    0.320E-02
RMM:   9    -0.115783716813E+04   -0.29613E-05   -0.65495E-06  1435   0.604E-03    0.283E-02
RMM:  10    -0.115783716732E+04    0.80499E-06   -0.32754E-06  1343   0.461E-03
  63 F= -.11658046E+04 E0= -.11657930E+04  d E =-.123361E-02  mag=    21.7822
 curvature:  -1.27 expect dE=-0.375E-02 dE for cont linesearch -0.109E-05
 trial: gam= 0.62238 g(F)=  0.296E-02 g(S)=  0.000E+00 ort = 0.142E-03 (trialstep = 0.416E+00)
 search vector abs. value=  0.122E-01
 bond charge predicted
       N       E                     dE             d eps       ncg     rms          rms(c)
DAV:   1    -0.115783696725E+04    0.20088E-03   -0.41764E-01  1992   0.141E+00    0.178E-01
RMM:   2    -0.115783792008E+04   -0.95283E-03   -0.96431E-03  2392   0.200E-01    0.223E-01
RMM:   3    -0.115783882796E+04   -0.90787E-03   -0.15340E-03  2321   0.882E-02    0.655E-01
RMM:   4    -0.115783788914E+04    0.93881E-03   -0.73177E-04  2501   0.514E-02    0.218E-01
RMM:   5    -0.115783797091E+04   -0.81764E-04   -0.22996E-04  2105   0.328E-02    0.988E-02
RMM:   6    -0.115783801047E+04   -0.39565E-04   -0.80336E-05  2131   0.171E-02    0.122E-01
RMM:   7    -0.115783799167E+04    0.18802E-04   -0.51875E-05  1972   0.150E-02    0.933E-02
RMM:   8    -0.115783800757E+04   -0.15898E-04   -0.58101E-05  1952   0.159E-02    0.795E-02
RMM:   9    -0.115783801713E+04   -0.95597E-05   -0.46020E-05  1914   0.148E-02    0.730E-02
RMM:  10    -0.115783800722E+04    0.99129E-05   -0.20925E-05  1637   0.106E-02    0.327E-02
RMM:  11    -0.115783801174E+04   -0.45184E-05   -0.89746E-06  1476   0.679E-03    0.235E-02
RMM:  12    -0.115783801420E+04   -0.24606E-05   -0.35741E-06  1365   0.473E-03    0.198E-02
RMM:  13    -0.115783801493E+04   -0.73368E-06   -0.17871E-06  1292   0.327E-03
  64 F= -.11658055E+04 E0= -.11657940E+04  d E =-.878546E-03  mag=    21.7822
 trial-energy change:   -0.000879  1 .order   -0.000894   -0.001267   -0.000521
 step:   0.7962(harm=  0.7062)  dis= 0.00421  next Energy= -1165.805700 (dE=-0.111E-02)
 bond charge predicted
       N       E                     dE             d eps       ncg     rms          rms(c)
DAV:   1    -0.115783727202E+04    0.74218E-03   -0.35035E-01  2004   0.129E+00    0.164E-01
RMM:   2    -0.115783814385E+04   -0.87183E-03   -0.81374E-03  2391   0.184E-01    0.316E-01
RMM:   3    -0.115783862497E+04   -0.48112E-03   -0.12468E-03  2334   0.781E-02    0.563E-01
RMM:   4    -0.115783807742E+04    0.54755E-03   -0.61001E-04  2475   0.487E-02    0.197E-01
RMM:   5    -0.115783810141E+04   -0.23984E-04   -0.17246E-04  2089   0.286E-02    0.960E-02
RMM:   6    -0.115783815274E+04   -0.51339E-04   -0.77983E-05  2109   0.165E-02    0.126E-01
RMM:   7    -0.115783812384E+04    0.28909E-04   -0.47675E-05  1933   0.147E-02    0.724E-02
RMM:   8    -0.115783814515E+04   -0.21313E-04   -0.49845E-05  1929   0.141E-02    0.684E-02
RMM:   9    -0.115783814969E+04   -0.45435E-05   -0.33991E-05  1863   0.125E-02    0.594E-02
RMM:  10    -0.115783814613E+04    0.35582E-05   -0.15883E-05  1553   0.903E-03    0.369E-02
RMM:  11    -0.115783814849E+04   -0.23588E-05   -0.72314E-06  1442   0.619E-03    0.225E-02
RMM:  12    -0.115783815157E+04   -0.30731E-05   -0.30118E-06  1345   0.427E-03    0.137E-02
RMM:  13    -0.115783815433E+04   -0.27661E-05   -0.13923E-06  1276   0.288E-03    0.133E-02
RMM:  14    -0.115783815557E+04   -0.12357E-05   -0.70965E-07  1178   0.214E-03    0.918E-03
RMM:  15    -0.115783815671E+04   -0.11385E-05   -0.32952E-07  1150   0.149E-03    0.630E-03
RMM:  16    -0.115783815769E+04   -0.98469E-06   -0.19738E-07  1108   0.111E-03
  65 F= -.11658056E+04 E0= -.11657942E+04  d E =-.104961E-02  mag=    21.7823
 curvature:  -1.27 expect dE=-0.679E-02 dE for cont linesearch -0.143E-04
 trial: gam= 1.94058 g(F)=  0.533E-02 g(S)=  0.000E+00 ort =-0.370E-03 (trialstep = 0.120E+00)
 search vector abs. value=  0.497E-01
 bond charge predicted
       N       E                     dE             d eps       ncg     rms          rms(c)
DAV:   1    -0.115783824233E+04   -0.85623E-04   -0.14342E-01  2004   0.824E-01    0.980E-02
RMM:   2    -0.115783855470E+04   -0.31238E-03   -0.31504E-03  2357   0.115E-01    0.149E-01
RMM:   3    -0.115783880959E+04   -0.25488E-03   -0.48449E-04  2295   0.506E-02    0.380E-01
RMM:   4    -0.115783853381E+04    0.27578E-03   -0.24468E-04  2449   0.296E-02    0.131E-01
RMM:   5    -0.115783857090E+04   -0.37090E-04   -0.72248E-05  1921   0.190E-02    0.514E-02
RMM:   6    -0.115783859500E+04   -0.24108E-04   -0.29586E-05  1861   0.104E-02    0.754E-02
RMM:   7    -0.115783858372E+04    0.11283E-04   -0.16471E-05  1647   0.874E-03    0.484E-02
RMM:   8    -0.115783859303E+04   -0.93118E-05   -0.17836E-05  1625   0.869E-03    0.426E-02
RMM:   9    -0.115783859861E+04   -0.55769E-05   -0.12563E-05  1692   0.809E-03    0.357E-02
RMM:  10    -0.115783859706E+04    0.15510E-05   -0.63960E-06  1437   0.620E-03    0.194E-02
RMM:  11    -0.115783859960E+04   -0.25411E-05   -0.31511E-06  1349   0.428E-03    0.147E-02
RMM:  12    -0.115783860105E+04   -0.14516E-05   -0.12877E-06  1244   0.299E-03    0.101E-02
RMM:  13    -0.115783860178E+04   -0.73275E-06   -0.57227E-07  1168   0.198E-03
  66 F= -.11658061E+04 E0= -.11657947E+04  d E =-.488965E-03  mag=    21.7824
 trial-energy change:   -0.000489  1 .order   -0.000485   -0.000555   -0.000415
 step:   0.3516(harm=  0.4761)  dis= 0.00400  next Energy= -1165.806562 (dE=-0.918E-03)
 bond charge predicted
       N       E                     dE             d eps       ncg     rms          rms(c)
DAV:   1    -0.115783772732E+04    0.87373E-03   -0.52910E-01  1992   0.158E+00    0.188E-01
RMM:   2    -0.115783894348E+04   -0.12162E-02   -0.11634E-02  2360   0.220E-01    0.321E-01
RMM:   3    -0.115783975316E+04   -0.80968E-03   -0.17643E-03  2313   0.957E-02    0.665E-01
RMM:   4    -0.115783891036E+04    0.84280E-03   -0.84879E-04  2503   0.557E-02    0.229E-01
RMM:   5    -0.115783896668E+04   -0.56317E-04   -0.22060E-04  2138   0.327E-02    0.102E-01
RMM:   6    -0.115783903929E+04   -0.72612E-04   -0.10318E-04  2194   0.192E-02    0.148E-01
RMM:   7    -0.115783899029E+04    0.48995E-04   -0.59589E-05  2010   0.163E-02    0.781E-02
RMM:   8    -0.115783902734E+04   -0.37050E-04   -0.66476E-05  1965   0.160E-02    0.867E-02
RMM:   9    -0.115783902919E+04   -0.18472E-05   -0.45504E-05  1982   0.147E-02    0.686E-02
RMM:  10    -0.115783902227E+04    0.69149E-05   -0.21400E-05  1620   0.107E-02    0.430E-02
RMM:  11    -0.115783902718E+04   -0.49033E-05   -0.11002E-05  1497   0.730E-03    0.341E-02
RMM:  12    -0.115783902841E+04   -0.12300E-05   -0.42406E-06  1398   0.523E-03    0.157E-02
RMM:  13    -0.115783903198E+04   -0.35728E-05   -0.21112E-06  1318   0.348E-03    0.169E-02
RMM:  14    -0.115783903317E+04   -0.11920E-05   -0.86893E-07  1209   0.240E-03    0.109E-02
RMM:  15    -0.115783903442E+04   -0.12474E-05   -0.51651E-07  1169   0.180E-03    0.715E-03
RMM:  16    -0.115783903599E+04   -0.15732E-05   -0.28551E-07  1139   0.136E-03    0.570E-03
RMM:  17    -0.115783903736E+04   -0.13688E-05   -0.20717E-07  1095   0.112E-03    0.339E-03
RMM:  18    -0.115783903876E+04   -0.14024E-05   -0.14301E-07  1024   0.897E-04    0.324E-03
RMM:  19    -0.115783904024E+04   -0.14756E-05   -0.10213E-07   977   0.737E-04    0.255E-03
RMM:  20    -0.115783904149E+04   -0.12513E-05   -0.70624E-08   892   0.639E-04    0.155E-03
RMM:  21    -0.115783904289E+04   -0.13934E-05   -0.53126E-08   847   0.524E-04    0.102E-03
RMM:  22    -0.115783904391E+04   -0.10278E-05   -0.36685E-08   765   0.437E-04    0.863E-04
RMM:  23    -0.115783904459E+04   -0.67711E-06   -0.24824E-08   664   0.388E-04
  67 F= -.11658067E+04 E0= -.11657952E+04  d E =-.101780E-02  mag=    21.7827
 curvature:  -2.25 expect dE=-0.632E-02 dE for cont linesearch -0.550E-04
 ZBRENT: extrapolating
 opt :   0.4603  next Energy= -1165.806722 (dE=-0.108E-02)
 bond charge predicted
       N       E                     dE             d eps       ncg     rms          rms(c)
DAV:   1    -0.115783878035E+04    0.26356E-03   -0.11698E-01  2028   0.744E-01    0.882E-02
RMM:   2    -0.115783902760E+04   -0.24725E-03   -0.25630E-03  2354   0.103E-01    0.126E-01
RMM:   3    -0.115783925501E+04   -0.22740E-03   -0.39456E-04  2287   0.457E-02    0.355E-01
RMM:   4    -0.115783899968E+04    0.25532E-03   -0.19849E-04  2432   0.267E-02    0.108E-01
RMM:   5    -0.115783904428E+04   -0.44592E-04   -0.58294E-05  1878   0.170E-02    0.469E-02
RMM:   6    -0.115783906372E+04   -0.19447E-04   -0.22877E-05  1805   0.927E-03    0.673E-02
RMM:   7    -0.115783905437E+04    0.93497E-05   -0.12988E-05  1552   0.798E-03    0.427E-02
RMM:   8    -0.115783906358E+04   -0.92085E-05   -0.14875E-05  1585   0.801E-03    0.403E-02
RMM:   9    -0.115783906647E+04   -0.28869E-05   -0.10474E-05  1612   0.748E-03    0.329E-02
RMM:  10    -0.115783906516E+04    0.13077E-05   -0.53556E-06  1427   0.579E-03    0.148E-02
RMM:  11    -0.115783906755E+04   -0.23908E-05   -0.27469E-06  1328   0.390E-03    0.137E-02
RMM:  12    -0.115783906792E+04   -0.37281E-06   -0.10663E-06  1216   0.286E-03
  68 F= -.11658067E+04 E0= -.11657953E+04  d E =-.108150E-02  mag=    21.7828
 curvature:  -2.45 expect dE=-0.811E-02 dE for cont linesearch -0.406E-06
 trial: gam= 0.31535 g(F)=  0.331E-02 g(S)=  0.000E+00 ort = 0.908E-04 (trialstep = 0.188E+00)
 search vector abs. value=  0.831E-02
 bond charge predicted
       N       E                     dE             d eps       ncg     rms          rms(c)
DAV:   1    -0.115783937895E+04   -0.31140E-03   -0.61833E-02  2016   0.543E-01    0.687E-02
RMM:   2    -0.115783952113E+04   -0.14218E-03   -0.14305E-03  2399   0.778E-02    0.136E-01
RMM:   3    -0.115783959103E+04   -0.69899E-04   -0.21192E-04  2356   0.322E-02    0.240E-01
RMM:   4    -0.115783949592E+04    0.95104E-04   -0.10048E-04  2272   0.203E-02    0.864E-02
RMM:   5    -0.115783951244E+04   -0.16513E-04   -0.30634E-05  1749   0.127E-02    0.383E-02
RMM:   6    -0.115783952867E+04   -0.16235E-04   -0.13552E-05  1662   0.756E-03    0.649E-02
RMM:   7    -0.115783951857E+04    0.10106E-04   -0.10404E-05  1553   0.722E-03    0.277E-02
RMM:   8    -0.115783953099E+04   -0.12425E-04   -0.11990E-05  1607   0.768E-03    0.434E-02
RMM:   9    -0.115783952807E+04    0.29175E-05   -0.74873E-06  1440   0.640E-03    0.258E-02
RMM:  10    -0.115783952834E+04   -0.26597E-06   -0.33284E-06  1348   0.474E-03
  69 F= -.11658073E+04 E0= -.11657958E+04  d E =-.526227E-03  mag=    21.7830
 trial-energy change:   -0.000526  1 .order   -0.000530   -0.000628   -0.000432
 step:   0.6047(harm=  0.6047)  dis= 0.00272  next Energy= -1165.807734 (dE=-0.101E-02)
 bond charge predicted
       N       E                     dE             d eps       ncg     rms          rms(c)
DAV:   1    -0.115783910512E+04    0.42295E-03   -0.30211E-01  1992   0.120E+00    0.151E-01
RMM:   2    -0.115783975947E+04   -0.65434E-03   -0.69667E-03  2395   0.172E-01    0.187E-01
RMM:   3    -0.115784030239E+04   -0.54292E-03   -0.10516E-03  2345   0.755E-02    0.515E-01
RMM:   4    -0.115783978770E+04    0.51469E-03   -0.48733E-04  2502   0.423E-02    0.268E-01
RMM:   5    -0.115783976462E+04    0.23078E-04   -0.17847E-04  2115   0.293E-02    0.676E-02
RMM:   6    -0.115783982507E+04   -0.60453E-04   -0.63323E-05  2133   0.160E-02    0.936E-02
RMM:   7    -0.115783981058E+04    0.14495E-04   -0.46262E-05  2008   0.143E-02    0.624E-02
RMM:   8    -0.115783984210E+04   -0.31521E-04   -0.38817E-05  1973   0.130E-02    0.103E-01
RMM:   9    -0.115783981557E+04    0.26529E-04   -0.21088E-05  1602   0.101E-02    0.471E-02
RMM:  10    -0.115783982493E+04   -0.93601E-05   -0.13058E-05  1481   0.786E-03    0.425E-02
RMM:  11    -0.115783982358E+04    0.13495E-05   -0.59226E-06  1361   0.542E-03    0.200E-02
RMM:  12    -0.115783982560E+04   -0.20157E-05   -0.23633E-06  1324   0.373E-03    0.122E-02
RMM:  13    -0.115783982690E+04   -0.12995E-05   -0.11990E-06  1261   0.276E-03    0.993E-03
RMM:  14    -0.115783982778E+04   -0.88617E-06   -0.69858E-07  1184   0.213E-03
  70 F= -.11658077E+04 E0= -.11657963E+04  d E =-.971278E-03  mag=    21.7833
 curvature:  -0.75 expect dE=-0.208E-02 dE for cont linesearch -0.147E-05
 trial: gam= 0.90515 g(F)=  0.276E-02 g(S)=  0.000E+00 ort =-0.128E-03 (trialstep = 0.242E+00)
 search vector abs. value=  0.933E-02
 bond charge predicted
       N       E                     dE             d eps       ncg     rms          rms(c)
DAV:   1    -0.115783995633E+04   -0.12944E-03   -0.11432E-01  2016   0.740E-01    0.933E-02
RMM:   2    -0.115784020920E+04   -0.25286E-03   -0.25850E-03  2403   0.106E-01    0.127E-01
RMM:   3    -0.115784042303E+04   -0.21383E-03   -0.40543E-04  2345   0.465E-02    0.324E-01
RMM:   4    -0.115784020958E+04    0.21345E-03   -0.19131E-04  2470   0.269E-02    0.178E-01
RMM:   5    -0.115784020962E+04   -0.39399E-07   -0.73832E-05  1915   0.190E-02    0.541E-02
RMM:   6    -0.115784023803E+04   -0.28407E-04   -0.27989E-05  1799   0.105E-02    0.750E-02
RMM:   7    -0.115784022957E+04    0.84538E-05   -0.15435E-05  1716   0.846E-03    0.462E-02
RMM:   8    -0.115784023830E+04   -0.87223E-05   -0.15776E-05  1623   0.873E-03    0.386E-02
RMM:   9    -0.115784024518E+04   -0.68874E-05   -0.11657E-05  1650   0.764E-03    0.395E-02
RMM:  10    -0.115784024119E+04    0.39963E-05   -0.60670E-06  1389   0.585E-03    0.176E-02
RMM:  11    -0.115784024348E+04   -0.22878E-05   -0.22081E-06  1294   0.355E-03    0.136E-02
RMM:  12    -0.115784024367E+04   -0.19130E-06   -0.11843E-06  1204   0.270E-03
  71 F= -.11658082E+04 E0= -.11657968E+04  d E =-.522416E-03  mag=    21.7834
 trial-energy change:   -0.000522  1 .order   -0.000522   -0.000639   -0.000404
 step:   0.6588(harm=  0.6588)  dis= 0.00325  next Energy= -1165.808568 (dE=-0.871E-03)
 bond charge predicted
       N       E                     dE             d eps       ncg     rms          rms(c)
DAV:   1    -0.115783953969E+04    0.70379E-03   -0.34019E-01  1992   0.128E+00    0.160E-01
RMM:   2    -0.115784028541E+04   -0.74572E-03   -0.76653E-03  2406   0.183E-01    0.185E-01
RMM:   3    -0.115784094328E+04   -0.65787E-03   -0.11569E-03  2345   0.799E-02    0.549E-01
RMM:   4    -0.115784028161E+04    0.66167E-03   -0.50255E-04  2496   0.466E-02    0.258E-01
RMM:   5    -0.115784032520E+04   -0.43591E-04   -0.17103E-04  2121   0.281E-02    0.113E-01
RMM:   6    -0.115784037957E+04   -0.54370E-04   -0.76882E-05  2030   0.174E-02    0.130E-01
RMM:   7    -0.115784035934E+04    0.20227E-04   -0.44094E-05  2011   0.139E-02    0.660E-02
RMM:   8    -0.115784038352E+04   -0.24174E-04   -0.43154E-05  1905   0.138E-02    0.794E-02
RMM:   9    -0.115784039181E+04   -0.82940E-05   -0.37305E-05  1925   0.128E-02    0.639E-02
RMM:  10    -0.115784038323E+04    0.85809E-05   -0.16512E-05  1551   0.931E-03    0.290E-02
RMM:  11    -0.115784038613E+04   -0.28988E-05   -0.60421E-06  1445   0.567E-03    0.210E-02
RMM:  12    -0.115784038736E+04   -0.12350E-05   -0.26971E-06  1328   0.413E-03    0.164E-02
RMM:  13    -0.115784038868E+04   -0.13194E-05   -0.15484E-06  1255   0.293E-03    0.142E-02
RMM:  14    -0.115784038909E+04   -0.40395E-06   -0.69717E-07  1192   0.217E-03
  72 F= -.11658085E+04 E0= -.11657971E+04  d E =-.851460E-03  mag=    21.7832
 curvature:  -1.16 expect dE=-0.338E-02 dE for cont linesearch -0.805E-06
 trial: gam= 1.00408 g(F)=  0.291E-02 g(S)=  0.000E+00 ort =-0.804E-04 (trialstep = 0.250E+00)
 search vector abs. value=  0.122E-01
 bond charge predicted
       N       E                     dE             d eps       ncg     rms          rms(c)
DAV:   1    -0.115784036684E+04    0.21845E-04   -0.16343E-01  2016   0.880E-01    0.111E-01
RMM:   2    -0.115784072275E+04   -0.35591E-03   -0.36513E-03  2399   0.125E-01    0.143E-01
RMM:   3    -0.115784095308E+04   -0.23033E-03   -0.55627E-04  2329   0.557E-02    0.338E-01
RMM:   4    -0.115784071201E+04    0.24106E-03   -0.22529E-04  2449   0.324E-02    0.139E-01
RMM:   5    -0.115784074488E+04   -0.32864E-04   -0.70589E-05  1947   0.189E-02    0.732E-02
RMM:   6    -0.115784077506E+04   -0.30182E-04   -0.34020E-05  1885   0.109E-02    0.109E-01
RMM:   7    -0.115784075329E+04    0.21766E-04   -0.24030E-05  1812   0.103E-02    0.535E-02
RMM:   8    -0.115784077091E+04   -0.17621E-04   -0.24024E-05  1768   0.107E-02    0.544E-02
RMM:   9    -0.115784077811E+04   -0.71941E-05   -0.19147E-05  1753   0.943E-03    0.442E-02
RMM:  10    -0.115784077302E+04    0.50908E-05   -0.88030E-06  1453   0.711E-03    0.160E-02
RMM:  11    -0.115784077620E+04   -0.31787E-05   -0.29223E-06  1323   0.392E-03    0.174E-02
RMM:  12    -0.115784077594E+04    0.25553E-06   -0.15329E-06  1223   0.290E-03
  73 F= -.11658091E+04 E0= -.11657976E+04  d E =-.548155E-03  mag=    21.7831
 trial-energy change:   -0.000548  1 .order   -0.000545   -0.000705   -0.000384
 step:   0.5482(harm=  0.5482)  dis= 0.00314  next Energy= -1165.809323 (dE=-0.775E-03)
 bond charge predicted
       N       E                     dE             d eps       ncg     rms          rms(c)
DAV:   1    -0.115784022598E+04    0.55021E-03   -0.23357E-01  2004   0.105E+00    0.133E-01
RMM:   2    -0.115784075162E+04   -0.52564E-03   -0.52154E-03  2394   0.149E-01    0.183E-01
RMM:   3    -0.115784110719E+04   -0.35557E-03   -0.81255E-04  2334   0.670E-02    0.422E-01
RMM:   4    -0.115784071624E+04    0.39094E-03   -0.32064E-04  2478   0.380E-02    0.154E-01
RMM:   5    -0.115784076882E+04   -0.52575E-04   -0.93915E-05  2020   0.220E-02    0.100E-01
RMM:   6    -0.115784079852E+04   -0.29705E-04   -0.48991E-05  1954   0.128E-02    0.128E-01
RMM:   7    -0.115784077752E+04    0.21004E-04   -0.34446E-05  1908   0.121E-02    0.536E-02
RMM:   8    -0.115784080249E+04   -0.24967E-04   -0.33967E-05  1844   0.125E-02    0.736E-02
RMM:   9    -0.115784080330E+04   -0.81227E-06   -0.27607E-05  1852   0.113E-02    0.489E-02
RMM:  10    -0.115784079975E+04    0.35520E-05   -0.10468E-05  1505   0.771E-03    0.278E-02
RMM:  11    -0.115784080173E+04   -0.19829E-05   -0.32880E-06  1354   0.424E-03    0.232E-02
RMM:  12    -0.115784080258E+04   -0.85146E-06   -0.17478E-06  1292   0.339E-03
  74 F= -.11658093E+04 E0= -.11657978E+04  d E =-.767823E-03  mag=    21.7831
 curvature:  -1.18 expect dE=-0.314E-02 dE for cont linesearch -0.724E-07
 trial: gam= 0.91181 g(F)=  0.267E-02 g(S)=  0.000E+00 ort =-0.273E-04 (trialstep = 0.296E+00)
 search vector abs. value=  0.127E-01
 bond charge predicted
       N       E                     dE             d eps       ncg     rms          rms(c)
DAV:   1    -0.115784061179E+04    0.18993E-03   -0.24006E-01  2016   0.106E+00    0.134E-01
RMM:   2    -0.115784112043E+04   -0.50864E-03   -0.52477E-03  2375   0.149E-01    0.170E-01
RMM:   3    -0.115784149661E+04   -0.37618E-03   -0.77878E-04  2314   0.670E-02    0.476E-01
RMM:   4    -0.115784108706E+04    0.40955E-03   -0.37488E-04  2461   0.403E-02    0.190E-01
RMM:   5    -0.115784115439E+04   -0.67326E-04   -0.11828E-04  2044   0.240E-02    0.106E-01
RMM:   6    -0.115784118242E+04   -0.28029E-04   -0.52314E-05  1961   0.145E-02    0.956E-02
RMM:   7    -0.115784117943E+04    0.29890E-05   -0.33632E-05  1907   0.123E-02    0.602E-02
RMM:   8    -0.115784119255E+04   -0.13116E-04   -0.32282E-05  1846   0.121E-02    0.685E-02
RMM:   9    -0.115784119805E+04   -0.54996E-05   -0.31180E-05  1846   0.119E-02    0.476E-02
RMM:  10    -0.115784119550E+04    0.25492E-05   -0.12895E-05  1541   0.842E-03    0.213E-02
RMM:  11    -0.115784119723E+04   -0.17330E-05   -0.41487E-06  1397   0.480E-03    0.167E-02
RMM:  12    -0.115784119867E+04   -0.14354E-05   -0.17390E-06  1292   0.322E-03    0.134E-02
RMM:  13    -0.115784119910E+04   -0.43882E-06   -0.90043E-07  1209   0.235E-03
  75 F= -.11658099E+04 E0= -.11657984E+04  d E =-.568529E-03  mag=    21.7831
 trial-energy change:   -0.000569  1 .order   -0.000568   -0.000781   -0.000356
 step:   0.5437(harm=  0.5437)  dis= 0.00315  next Energy= -1165.810035 (dE=-0.718E-03)
 bond charge predicted
       N       E                     dE             d eps       ncg     rms          rms(c)
DAV:   1    -0.115784079199E+04    0.40668E-03   -0.16917E-01  2028   0.892E-01    0.112E-01
RMM:   2    -0.115784113239E+04   -0.34040E-03   -0.36858E-03  2375   0.124E-01    0.113E-01
RMM:   3    -0.115784143667E+04   -0.30428E-03   -0.53352E-04  2299   0.556E-02    0.361E-01
RMM:   4    -0.115784110722E+04    0.32945E-03   -0.22794E-04  2455   0.323E-02    0.911E-02
RMM:   5    -0.115784118394E+04   -0.76713E-04   -0.63926E-05  1953   0.184E-02    0.799E-02
RMM:   6    -0.115784120320E+04   -0.19258E-04   -0.32160E-05  1889   0.106E-02    0.120E-01
RMM:   7    -0.115784118036E+04    0.22838E-04   -0.24920E-05  1708   0.100E-02    0.542E-02
RMM:   8    -0.115784119917E+04   -0.18814E-04   -0.24290E-05  1761   0.104E-02    0.519E-02
RMM:   9    -0.115784120617E+04   -0.69984E-05   -0.20796E-05  1746   0.994E-03    0.478E-02
RMM:  10    -0.115784120191E+04    0.42578E-05   -0.91955E-06  1475   0.722E-03    0.205E-02
RMM:  11    -0.115784120454E+04   -0.26229E-05   -0.38406E-06  1344   0.457E-03    0.189E-02
RMM:  12    -0.115784120539E+04   -0.85628E-06   -0.15247E-06  1245   0.297E-03
  76 F= -.11658100E+04 E0= -.11657985E+04  d E =-.719326E-03  mag=    21.7831
 curvature:  -1.31 expect dE=-0.308E-02 dE for cont linesearch -0.781E-07
 trial: gam= 0.87630 g(F)=  0.235E-02 g(S)=  0.000E+00 ort = 0.275E-04 (trialstep = 0.345E+00)
 search vector abs. value=  0.122E-01
 bond charge predicted
       N       E                     dE             d eps       ncg     rms          rms(c)
DAV:   1    -0.115784095337E+04    0.25117E-03   -0.30423E-01  2004   0.120E+00    0.144E-01
RMM:   2    -0.115784156173E+04   -0.60836E-03   -0.64910E-03  2361   0.167E-01    0.148E-01
RMM:   3    -0.115784229614E+04   -0.73442E-03   -0.93202E-04  2317   0.721E-02    0.582E-01
RMM:   4    -0.115784146249E+04    0.83366E-03   -0.46234E-04  2518   0.423E-02    0.138E-01
RMM:   5    -0.115784164180E+04   -0.17932E-03   -0.12514E-04  2071   0.247E-02    0.939E-02
RMM:   6    -0.115784168464E+04   -0.42839E-04   -0.50605E-05  2009   0.144E-02    0.124E-01
RMM:   7    -0.115784166411E+04    0.20525E-04   -0.37071E-05  1910   0.130E-02    0.598E-02
RMM:   8    -0.115784169354E+04   -0.29426E-04   -0.39811E-05  1887   0.135E-02    0.824E-02
RMM:   9    -0.115784169126E+04    0.22806E-05   -0.30593E-05  1838   0.115E-02    0.524E-02
RMM:  10    -0.115784168951E+04    0.17476E-05   -0.16405E-05  1588   0.917E-03    0.277E-02
RMM:  11    -0.115784169458E+04   -0.50641E-05   -0.51942E-06  1400   0.522E-03    0.314E-02
RMM:  12    -0.115784169347E+04    0.11024E-05   -0.25095E-06  1296   0.387E-03    0.210E-02
RMM:  13    -0.115784169468E+04   -0.12032E-05   -0.11467E-06  1233   0.254E-03    0.125E-02
RMM:  14    -0.115784169716E+04   -0.24804E-05   -0.70975E-07  1182   0.217E-03    0.586E-03
RMM:  15    -0.115784169935E+04   -0.21895E-05   -0.35679E-07  1148   0.151E-03    0.745E-03
RMM:  16    -0.115784170028E+04   -0.93465E-06   -0.23980E-07  1142   0.118E-03
  77 F= -.11658107E+04 E0= -.11657992E+04  d E =-.617281E-03  mag=    21.7830
 trial-energy change:   -0.000617  1 .order   -0.000618   -0.000821   -0.000415
 step:   0.6992(harm=  0.6992)  dis= 0.00380  next Energy= -1165.810867 (dE=-0.831E-03)
 bond charge predicted
       N       E                     dE             d eps       ncg     rms          rms(c)
DAV:   1    -0.115784101610E+04    0.68325E-03   -0.31996E-01  1992   0.123E+00    0.148E-01
RMM:   2    -0.115784163917E+04   -0.62307E-03   -0.68158E-03  2360   0.171E-01    0.126E-01
RMM:   3    -0.115784227586E+04   -0.63670E-03   -0.90627E-04  2315   0.707E-02    0.528E-01
RMM:   4    -0.115784160794E+04    0.66792E-03   -0.43785E-04  2505   0.400E-02    0.119E-01
RMM:   5    -0.115784175703E+04   -0.14909E-03   -0.12110E-04  2057   0.245E-02    0.880E-02
RMM:   6    -0.115784177617E+04   -0.19138E-04   -0.44256E-05  2021   0.133E-02    0.950E-02
RMM:   7    -0.115784176924E+04    0.69334E-05   -0.30692E-05  1851   0.118E-02    0.764E-02
RMM:   8    -0.115784179323E+04   -0.23988E-04   -0.40184E-05  1874   0.129E-02    0.889E-02
RMM:   9    -0.115784178701E+04    0.62170E-05   -0.30622E-05  1817   0.123E-02    0.525E-02
RMM:  10    -0.115784178793E+04   -0.91458E-06   -0.15498E-05  1557   0.905E-03    0.283E-02
RMM:  11    -0.115784179267E+04   -0.47472E-05   -0.61580E-06  1434   0.590E-03    0.267E-02
RMM:  12    -0.115784179207E+04    0.60043E-06   -0.21077E-06  1310   0.392E-03
  78 F= -.11658109E+04 E0= -.11657994E+04  d E =-.834388E-03  mag=    21.7828
 curvature:  -1.79 expect dE=-0.389E-02 dE for cont linesearch -0.775E-06
 trial: gam= 0.92666 g(F)=  0.217E-02 g(S)=  0.000E+00 ort = 0.726E-04 (trialstep = 0.397E+00)
 search vector abs. value=  0.128E-01
 bond charge predicted
       N       E                     dE             d eps       ncg     rms          rms(c)
DAV:   1    -0.115784121253E+04    0.58014E-03   -0.43199E-01  2004   0.143E+00    0.177E-01
RMM:   2    -0.115784224842E+04   -0.10359E-02   -0.93807E-03  2372   0.201E-01    0.401E-01
RMM:   3    -0.115784261552E+04   -0.36709E-03   -0.14004E-03  2353   0.832E-02    0.547E-01
RMM:   4    -0.115784219215E+04    0.42336E-03   -0.64259E-04  2469   0.508E-02    0.223E-01
RMM:   5    -0.115784219717E+04   -0.50162E-05   -0.17224E-04  2165   0.288E-02    0.978E-02
RMM:   6    -0.115784226233E+04   -0.65157E-04   -0.82802E-05  2099   0.178E-02    0.145E-01
RMM:   7    -0.115784222035E+04    0.41978E-04   -0.49545E-05  2093   0.151E-02    0.596E-02
RMM:   8    -0.115784227266E+04   -0.52313E-04   -0.62728E-05  1964   0.164E-02    0.111E-01
RMM:   9    -0.115784225598E+04    0.16685E-04   -0.39254E-05  1925   0.136E-02    0.559E-02
RMM:  10    -0.115784226055E+04   -0.45678E-05   -0.16119E-05  1574   0.906E-03    0.475E-02
RMM:  11    -0.115784226025E+04    0.29700E-06   -0.50319E-06  1414   0.530E-03
  79 F= -.11658115E+04 E0= -.11657999E+04  d E =-.596843E-03  mag=    21.7823
 trial-energy change:   -0.000597  1 .order   -0.000616   -0.000888   -0.000343
 step:   0.8489(harm=  0.6469)  dis= 0.00453  next Energy= -1165.811635 (dE=-0.764E-03)
 bond charge predicted
       N       E                     dE             d eps       ncg     rms          rms(c)
DAV:   1    -0.115784077255E+04    0.14880E-02   -0.56026E-01  2004   0.162E+00    0.200E-01
RMM:   2    -0.115784198135E+04   -0.12088E-02   -0.12115E-02  2377   0.228E-01    0.307E-01
RMM:   3    -0.115784302958E+04   -0.10482E-02   -0.18576E-03  2355   0.954E-02    0.724E-01
RMM:   4    -0.115784191608E+04    0.11135E-02   -0.89827E-04  2488   0.584E-02    0.202E-01
RMM:   5    -0.115784207556E+04   -0.15948E-03   -0.23217E-04  2176   0.331E-02    0.133E-01
RMM:   6    -0.115784212339E+04   -0.47831E-04   -0.10686E-04  2167   0.207E-02    0.144E-01
RMM:   7    -0.115784209517E+04    0.28224E-04   -0.65875E-05  2195   0.172E-02    0.670E-02
RMM:   8    -0.115784213936E+04   -0.44191E-04   -0.81269E-05  2041   0.186E-02    0.867E-02
RMM:   9    -0.115784214044E+04   -0.10756E-05   -0.48355E-05  1932   0.150E-02    0.781E-02
RMM:  10    -0.115784213233E+04    0.81039E-05   -0.21954E-05  1623   0.104E-02    0.437E-02
RMM:  11    -0.115784213791E+04   -0.55795E-05   -0.91379E-06  1465   0.683E-03    0.233E-02
RMM:  12    -0.115784214344E+04   -0.55315E-05   -0.40610E-06  1378   0.494E-03    0.185E-02
RMM:  13    -0.115784214559E+04   -0.21507E-05   -0.17069E-06  1287   0.316E-03    0.106E-02
RMM:  14    -0.115784214884E+04   -0.32430E-05   -0.78399E-07  1200   0.208E-03    0.886E-03
RMM:  15    -0.115784215109E+04   -0.22528E-05   -0.52187E-07  1177   0.177E-03    0.550E-03
RMM:  16    -0.115784215408E+04   -0.29861E-05   -0.31351E-07  1140   0.134E-03    0.449E-03
RMM:  17    -0.115784215631E+04   -0.22380E-05   -0.23998E-07  1095   0.118E-03    0.387E-03
RMM:  18    -0.115784215814E+04   -0.18235E-05   -0.15462E-07  1018   0.870E-04    0.346E-03
RMM:  19    -0.115784215966E+04   -0.15241E-05   -0.96296E-08   916   0.729E-04    0.207E-03
RMM:  20    -0.115784216158E+04   -0.19175E-05   -0.70030E-08   880   0.587E-04    0.153E-03
RMM:  21    -0.115784216368E+04   -0.21033E-05   -0.61026E-08   879   0.547E-04    0.107E-03
RMM:  22    -0.115784216554E+04   -0.18589E-05   -0.48770E-08   822   0.444E-04    0.109E-03
RMM:  23    -0.115784216648E+04   -0.93528E-06   -0.33923E-08   717   0.417E-04
  80 F= -.11658115E+04 E0= -.11658001E+04  d E =-.649297E-03  mag=    21.7812
 curvature:  -0.64 expect dE=-0.250E-02 dE for cont linesearch -0.259E-04
 ZBRENT: interpolating
 opt :   0.6439  next Energy= -1165.811593 (dE=-0.723E-03)
 bond charge predicted
       N       E                     dE             d eps       ncg     rms          rms(c)
DAV:   1    -0.115784202550E+04    0.14004E-03   -0.11527E-01  2040   0.737E-01    0.905E-02
RMM:   2    -0.115784226165E+04   -0.23614E-03   -0.24873E-03  2375   0.103E-01    0.149E-01
RMM:   3    -0.115784249064E+04   -0.22899E-03   -0.38199E-04  2344   0.431E-02    0.414E-01
RMM:   4    -0.115784219144E+04    0.29920E-03   -0.19817E-04  2388   0.279E-02    0.907E-02
RMM:   5    -0.115784227835E+04   -0.86915E-04   -0.53596E-05  1868   0.163E-02    0.579E-02
RMM:   6    -0.115784230392E+04   -0.25570E-04   -0.22989E-05  1797   0.989E-03    0.756E-02
RMM:   7    -0.115784229522E+04    0.87079E-05   -0.13835E-05  1696   0.831E-03    0.356E-02
RMM:   8    -0.115784231199E+04   -0.16779E-04   -0.16565E-05  1635   0.841E-03    0.523E-02
RMM:   9    -0.115784230983E+04    0.21680E-05   -0.98343E-06  1470   0.682E-03    0.299E-02
RMM:  10    -0.115784231204E+04   -0.22089E-05   -0.73757E-06  1430   0.613E-03    0.201E-02
RMM:  11    -0.115784231305E+04   -0.10179E-05   -0.23459E-06  1293   0.381E-03    0.153E-02
RMM:  12    -0.115784231316E+04   -0.10374E-06   -0.84725E-07  1207   0.249E-03
  81 F= -.11658116E+04 E0= -.11658001E+04  d E =-.729681E-03  mag=    21.7812
 curvature:  -1.82 expect dE=-0.380E-02 dE for cont linesearch -0.709E-07
 trial: gam= 0.99920 g(F)=  0.209E-02 g(S)=  0.000E+00 ort =-0.223E-04 (trialstep = 0.385E+00)
 search vector abs. value=  0.148E-01
 bond charge predicted
       N       E                     dE             d eps       ncg     rms          rms(c)
DAV:   1    -0.115784156868E+04    0.74437E-03   -0.46714E-01  2028   0.148E+00    0.176E-01
RMM:   2    -0.115784249917E+04   -0.93048E-03   -0.10027E-02  2359   0.207E-01    0.205E-01
RMM:   3    -0.115784353832E+04   -0.10391E-02   -0.14922E-03  2324   0.882E-02    0.683E-01
RMM:   4    -0.115784245236E+04    0.10860E-02   -0.72839E-04  2501   0.513E-02    0.160E-01
RMM:   5    -0.115784263991E+04   -0.18755E-03   -0.19392E-04  2138   0.307E-02    0.108E-01
RMM:   6    -0.115784268537E+04   -0.45456E-04   -0.77266E-05  2149   0.172E-02    0.131E-01
RMM:   7    -0.115784265609E+04    0.29275E-04   -0.48151E-05  1971   0.151E-02    0.724E-02
RMM:   8    -0.115784269629E+04   -0.40199E-04   -0.60775E-05  1949   0.156E-02    0.927E-02
RMM:   9    -0.115784269061E+04    0.56776E-05   -0.37960E-05  1898   0.134E-02    0.615E-02
RMM:  10    -0.115784268821E+04    0.24089E-05   -0.22083E-05  1603   0.104E-02    0.318E-02
RMM:  11    -0.115784269399E+04   -0.57803E-05   -0.67855E-06  1434   0.620E-03    0.294E-02
RMM:  12    -0.115784269334E+04    0.64763E-06   -0.34139E-06  1347   0.458E-03
  82 F= -.11658122E+04 E0= -.11658008E+04  d E =-.575666E-03  mag=    21.7818
 trial-energy change:   -0.000576  1 .order   -0.000592   -0.000796   -0.000388
 step:   0.7525(harm=  0.7525)  dis= 0.00423  next Energy= -1165.812377 (dE=-0.777E-03)
 bond charge predicted
       N       E                     dE             d eps       ncg     rms          rms(c)
DAV:   1    -0.115784162683E+04    0.10672E-02   -0.42454E-01  2040   0.141E+00    0.169E-01
RMM:   2    -0.115784257464E+04   -0.94780E-03   -0.91868E-03  2361   0.199E-01    0.330E-01
RMM:   3    -0.115784316252E+04   -0.58789E-03   -0.13744E-03  2339   0.829E-02    0.592E-01
RMM:   4    -0.115784248946E+04    0.67307E-03   -0.63171E-04  2498   0.488E-02    0.163E-01
RMM:   5    -0.115784259807E+04   -0.10861E-03   -0.15073E-04  2132   0.270E-02    0.977E-02
RMM:   6    -0.115784265235E+04   -0.54282E-04   -0.70153E-05  2120   0.164E-02    0.137E-01
RMM:   7    -0.115784261543E+04    0.36918E-04   -0.44857E-05  1963   0.143E-02    0.612E-02
RMM:   8    -0.115784265659E+04   -0.41157E-04   -0.51505E-05  1952   0.146E-02    0.945E-02
RMM:   9    -0.115784265396E+04    0.26301E-05   -0.39428E-05  1868   0.133E-02    0.695E-02
RMM:  10    -0.115784264863E+04    0.53286E-05   -0.17086E-05  1586   0.981E-03    0.307E-02
RMM:  11    -0.115784265628E+04   -0.76525E-05   -0.68847E-06  1427   0.571E-03    0.256E-02
RMM:  12    -0.115784265875E+04   -0.24723E-05   -0.27949E-06  1333   0.436E-03    0.125E-02
RMM:  13    -0.115784266261E+04   -0.38574E-05   -0.13748E-06  1242   0.261E-03    0.131E-02
RMM:  14    -0.115784266474E+04   -0.21347E-05   -0.78060E-07  1189   0.224E-03    0.652E-03
RMM:  15    -0.115784266716E+04   -0.24126E-05   -0.33869E-07  1149   0.139E-03    0.640E-03
RMM:  16    -0.115784266979E+04   -0.26378E-05   -0.22269E-07  1139   0.116E-03    0.363E-03
RMM:  17    -0.115784267139E+04   -0.15913E-05   -0.12184E-07  1037   0.830E-04    0.276E-03
RMM:  18    -0.115784267386E+04   -0.24737E-05   -0.87612E-08   941   0.669E-04    0.164E-03
RMM:  19    -0.115784267578E+04   -0.19167E-05   -0.72570E-08   901   0.611E-04    0.197E-03
RMM:  20    -0.115784267756E+04   -0.17865E-05   -0.58307E-08   836   0.535E-04    0.146E-03
RMM:  21    -0.115784267909E+04   -0.15234E-05   -0.44837E-08   781   0.472E-04    0.103E-03
RMM:  22    -0.115784268067E+04   -0.15854E-05   -0.35820E-08   742   0.409E-04    0.101E-03
RMM:  23    -0.115784268176E+04   -0.10833E-05   -0.29352E-08   711   0.398E-04    0.719E-04
RMM:  24    -0.115784268316E+04   -0.14011E-05   -0.25474E-08   652   0.363E-04    0.428E-04
RMM:  25    -0.115784268438E+04   -0.12271E-05   -0.24271E-08   634   0.352E-04    0.331E-04
RMM:  26    -0.115784268586E+04   -0.14760E-05   -0.29845E-08   643   0.344E-04    0.273E-04
RMM:  27    -0.115784268704E+04   -0.11850E-05   -0.32121E-08   683   0.355E-04    0.424E-04
RMM:  28    -0.115784268785E+04   -0.81008E-06   -0.27223E-08   634   0.341E-04
  83 F= -.11658124E+04 E0= -.11658010E+04  d E =-.756456E-03  mag=    21.7828
 curvature:  -2.69 expect dE=-0.679E-02 dE for cont linesearch -0.101E-05
 trial: gam= 1.21713 g(F)=  0.252E-02 g(S)=  0.000E+00 ort =-0.746E-04 (trialstep = 0.280E+00)
 search vector abs. value=  0.242E-01
 bond charge predicted
       N       E                     dE             d eps       ncg     rms          rms(c)
DAV:   1    -0.115784202364E+04    0.66340E-03   -0.40947E-01  2028   0.138E+00    0.159E-01
RMM:   2    -0.115784287660E+04   -0.85296E-03   -0.88352E-03  2341   0.192E-01    0.241E-01
RMM:   3    -0.115784353904E+04   -0.66244E-03   -0.13123E-03  2303   0.840E-02    0.578E-01
RMM:   4    -0.115784290592E+04    0.63313E-03   -0.64068E-04  2518   0.474E-02    0.227E-01
RMM:   5    -0.115784293802E+04   -0.32098E-04   -0.19993E-04  2094   0.307E-02    0.813E-02
RMM:   6    -0.115784298419E+04   -0.46177E-04   -0.71332E-05  2127   0.163E-02    0.113E-01
RMM:   7    -0.115784296476E+04    0.19434E-04   -0.40503E-05  1884   0.130E-02    0.801E-02
RMM:   8    -0.115784298431E+04   -0.19553E-04   -0.51452E-05  1964   0.150E-02    0.753E-02
RMM:   9    -0.115784299544E+04   -0.11130E-04   -0.38590E-05  1904   0.128E-02    0.702E-02
RMM:  10    -0.115784298704E+04    0.84047E-05   -0.18751E-05  1620   0.100E-02    0.311E-02
RMM:  11    -0.115784299132E+04   -0.42807E-05   -0.70168E-06  1423   0.585E-03    0.298E-02
RMM:  12    -0.115784299315E+04   -0.18280E-05   -0.28747E-06  1332   0.407E-03    0.152E-02
RMM:  13    -0.115784299552E+04   -0.23678E-05   -0.13777E-06  1261   0.287E-03    0.112E-02
RMM:  14    -0.115784299735E+04   -0.18376E-05   -0.53155E-07  1169   0.192E-03    0.882E-03
RMM:  15    -0.115784299867E+04   -0.13181E-05   -0.27796E-07  1148   0.134E-03    0.579E-03
RMM:  16    -0.115784300014E+04   -0.14653E-05   -0.19183E-07  1124   0.107E-03    0.376E-03
RMM:  17    -0.115784300168E+04   -0.15453E-05   -0.11243E-07  1059   0.804E-04    0.231E-03
RMM:  18    -0.115784300270E+04   -0.10131E-05   -0.91234E-08   942   0.676E-04    0.283E-03
RMM:  19    -0.115784300394E+04   -0.12455E-05   -0.67411E-08   859   0.586E-04    0.175E-03
RMM:  20    -0.115784300519E+04   -0.12500E-05   -0.47592E-08   872   0.513E-04    0.139E-03
RMM:  21    -0.115784300611E+04   -0.92193E-06   -0.33950E-08   767   0.453E-04
  84 F= -.11658129E+04 E0= -.11658015E+04  d E =-.532771E-03  mag=    21.7838
 trial-energy change:   -0.000533  1 .order   -0.000533   -0.000680   -0.000387
 step:   0.6486(harm=  0.6486)  dis= 0.00454  next Energy= -1165.813145 (dE=-0.788E-03)
 bond charge predicted
       N       E                     dE             d eps       ncg     rms          rms(c)
DAV:   1    -0.115784127184E+04    0.17333E-02   -0.71216E-01  1992   0.182E+00    0.210E-01
RMM:   2    -0.115784278820E+04   -0.15164E-02   -0.15364E-02  2340   0.253E-01    0.314E-01
RMM:   3    -0.115784391775E+04   -0.11295E-02   -0.22800E-03  2299   0.111E-01    0.732E-01
RMM:   4    -0.115784285875E+04    0.10590E-02   -0.10919E-03  2536   0.619E-02    0.288E-01
RMM:   5    -0.115784288610E+04   -0.27342E-04   -0.32608E-04  2162   0.390E-02    0.110E-01
RMM:   6    -0.115784295289E+04   -0.66791E-04   -0.12099E-04  2249   0.212E-02    0.148E-01
RMM:   7    -0.115784291992E+04    0.32973E-04   -0.69974E-05  2045   0.170E-02    0.104E-01
RMM:   8    -0.115784294854E+04   -0.28628E-04   -0.88015E-05  2115   0.195E-02    0.979E-02
RMM:   9    -0.115784296755E+04   -0.19008E-04   -0.67346E-05  2050   0.166E-02    0.948E-02
RMM:  10    -0.115784295034E+04    0.17216E-04   -0.33029E-05  1801   0.131E-02    0.431E-02
RMM:  11    -0.115784295703E+04   -0.66956E-05   -0.12021E-05  1487   0.727E-03    0.423E-02
RMM:  12    -0.115784295934E+04   -0.23120E-05   -0.48827E-06  1387   0.520E-03    0.192E-02
RMM:  13    -0.115784296392E+04   -0.45769E-05   -0.23765E-06  1326   0.362E-03    0.144E-02
RMM:  14    -0.115784296731E+04   -0.33932E-05   -0.92767E-07  1217   0.248E-03    0.123E-02
RMM:  15    -0.115784296926E+04   -0.19514E-05   -0.44134E-07  1162   0.170E-03    0.825E-03
RMM:  16    -0.115784297155E+04   -0.22826E-05   -0.30248E-07  1137   0.134E-03    0.493E-03
RMM:  17    -0.115784297441E+04   -0.28650E-05   -0.19098E-07  1100   0.103E-03    0.313E-03
RMM:  18    -0.115784297615E+04   -0.17335E-05   -0.15842E-07  1017   0.862E-04    0.376E-03
RMM:  19    -0.115784297827E+04   -0.21212E-05   -0.11390E-07  1003   0.723E-04    0.195E-03
RMM:  20    -0.115784298049E+04   -0.22254E-05   -0.75021E-08   906   0.611E-04    0.164E-03
RMM:  21    -0.115784298212E+04   -0.16323E-05   -0.57171E-08   826   0.532E-04    0.133E-03
RMM:  22    -0.115784298330E+04   -0.11752E-05   -0.34538E-08   728   0.431E-04    0.905E-04
RMM:  23    -0.115784298411E+04   -0.80984E-06   -0.23509E-08   664   0.369E-04
  85 F= -.11658132E+04 E0= -.11658018E+04  d E =-.793707E-03  mag=    21.7851
 curvature:  -3.23 expect dE=-0.895E-02 dE for cont linesearch -0.294E-07
 trial: gam= 1.01489 g(F)=  0.277E-02 g(S)=  0.000E+00 ort = 0.148E-04 (trialstep = 0.309E+00)
 search vector abs. value=  0.278E-01
 bond charge predicted
       N       E                     dE             d eps       ncg     rms          rms(c)
DAV:   1    -0.115784201783E+04    0.96547E-03   -0.56422E-01  1992   0.162E+00    0.190E-01
RMM:   2    -0.115784324467E+04   -0.12268E-02   -0.12492E-02  2336   0.227E-01    0.274E-01
RMM:   3    -0.115784408580E+04   -0.84113E-03   -0.18793E-03  2287   0.101E-01    0.640E-01
RMM:   4    -0.115784334351E+04    0.74229E-03   -0.89754E-04  2541   0.560E-02    0.312E-01
RMM:   5    -0.115784328996E+04    0.53552E-04   -0.30565E-04  2134   0.377E-02    0.971E-02
RMM:   6    -0.115784333761E+04   -0.47650E-04   -0.10633E-04  2184   0.200E-02    0.103E-01
RMM:   7    -0.115784335177E+04   -0.14158E-04   -0.64995E-05  2048   0.158E-02    0.137E-01
RMM:   8    -0.115784333121E+04    0.20561E-04   -0.66621E-05  2035   0.171E-02    0.872E-02
RMM:   9    -0.115784336023E+04   -0.29019E-04   -0.56951E-05  1944   0.158E-02    0.849E-02
RMM:  10    -0.115784335074E+04    0.94883E-05   -0.28338E-05  1779   0.123E-02    0.431E-02
RMM:  11    -0.115784335253E+04   -0.17935E-05   -0.10357E-05  1468   0.720E-03    0.362E-02
RMM:  12    -0.115784335564E+04   -0.31057E-05   -0.41058E-06  1368   0.471E-03    0.209E-02
RMM:  13    -0.115784335832E+04   -0.26834E-05   -0.20140E-06  1310   0.345E-03    0.881E-03
RMM:  14    -0.115784336256E+04   -0.42335E-05   -0.78304E-07  1203   0.223E-03    0.982E-03
RMM:  15    -0.115784336458E+04   -0.20230E-05   -0.42828E-07  1161   0.172E-03    0.818E-03
RMM:  16    -0.115784336609E+04   -0.15118E-05   -0.22230E-07  1138   0.117E-03    0.508E-03
RMM:  17    -0.115784336834E+04   -0.22469E-05   -0.14496E-07  1084   0.875E-04    0.314E-03
RMM:  18    -0.115784336992E+04   -0.15794E-05   -0.13201E-07   988   0.789E-04    0.327E-03
RMM:  19    -0.115784337232E+04   -0.24035E-05   -0.91485E-08   970   0.680E-04    0.176E-03
RMM:  20    -0.115784337439E+04   -0.20708E-05   -0.83612E-08   943   0.641E-04    0.179E-03
RMM:  21    -0.115784337607E+04   -0.16826E-05   -0.53346E-08   826   0.541E-04    0.108E-03
RMM:  22    -0.115784337719E+04   -0.11139E-05   -0.32019E-08   738   0.411E-04    0.113E-03
RMM:  23    -0.115784337801E+04   -0.81949E-06   -0.23298E-08   671   0.380E-04
  86 F= -.11658138E+04 E0= -.11658024E+04  d E =-.652359E-03  mag=    21.7856
 trial-energy change:   -0.000652  1 .order   -0.000645   -0.000859   -0.000431
 step:   0.5716(harm=  0.6194)  dis= 0.00407  next Energy= -1165.813991 (dE=-0.841E-03)
 bond charge predicted
       N       E                     dE             d eps       ncg     rms          rms(c)
DAV:   1    -0.115784238799E+04    0.98920E-03   -0.41001E-01  1992   0.138E+00    0.162E-01
RMM:   2    -0.115784326712E+04   -0.87914E-03   -0.90785E-03  2335   0.194E-01    0.232E-01
RMM:   3    -0.115784388719E+04   -0.62007E-03   -0.13670E-03  2287   0.863E-02    0.555E-01
RMM:   4    -0.115784333692E+04    0.55027E-03   -0.65713E-04  2534   0.479E-02    0.270E-01
RMM:   5    -0.115784330444E+04    0.32481E-04   -0.22869E-04  2104   0.326E-02    0.827E-02
RMM:   6    -0.115784334382E+04   -0.39375E-04   -0.78286E-05  2114   0.172E-02    0.913E-02
RMM:   7    -0.115784335235E+04   -0.85322E-05   -0.47181E-05  1933   0.134E-02    0.115E-01
RMM:   8    -0.115784333857E+04    0.13777E-04   -0.49067E-05  1957   0.147E-02    0.732E-02
RMM:   9    -0.115784336169E+04   -0.23121E-04   -0.41843E-05  1879   0.136E-02    0.721E-02
RMM:  10    -0.115784335539E+04    0.62985E-05   -0.20604E-05  1663   0.105E-02    0.365E-02
RMM:  11    -0.115784335705E+04   -0.16568E-05   -0.76216E-06  1427   0.634E-03    0.296E-02
RMM:  12    -0.115784335999E+04   -0.29385E-05   -0.30521E-06  1336   0.410E-03    0.180E-02
RMM:  13    -0.115784336199E+04   -0.20008E-05   -0.14882E-06  1270   0.302E-03    0.730E-03
RMM:  14    -0.115784336537E+04   -0.33798E-05   -0.57141E-07  1174   0.193E-03    0.818E-03
RMM:  15    -0.115784336704E+04   -0.16703E-05   -0.32486E-07  1149   0.150E-03    0.666E-03
RMM:  16    -0.115784336838E+04   -0.13352E-05   -0.16933E-07  1126   0.102E-03    0.398E-03
RMM:  17    -0.115784337019E+04   -0.18137E-05   -0.10941E-07  1057   0.761E-04    0.271E-03
RMM:  18    -0.115784337141E+04   -0.12256E-05   -0.94576E-08   920   0.682E-04    0.271E-03
RMM:  19    -0.115784337340E+04   -0.19812E-05   -0.69797E-08   911   0.602E-04    0.158E-03
RMM:  20    -0.115784337511E+04   -0.17119E-05   -0.67370E-08   902   0.585E-04    0.160E-03
RMM:  21    -0.115784337650E+04   -0.13886E-05   -0.43426E-08   835   0.494E-04    0.914E-04
RMM:  22    -0.115784337746E+04   -0.95880E-06   -0.24610E-08   671   0.380E-04
  87 F= -.11658140E+04 E0= -.11658026E+04  d E =-.872121E-03  mag=    21.7860
 curvature:  -3.01 expect dE=-0.786E-02 dE for cont linesearch -0.512E-05
 trial: gam= 0.90420 g(F)=  0.261E-02 g(S)=  0.000E+00 ort = 0.217E-03 (trialstep = 0.361E+00)
 search vector abs. value=  0.257E-01
 bond charge predicted
       N       E                     dE             d eps       ncg     rms          rms(c)
DAV:   1    -0.115784208838E+04    0.12881E-02   -0.70942E-01  1992   0.181E+00    0.204E-01
RMM:   2    -0.115784359019E+04   -0.15018E-02   -0.15628E-02  2318   0.254E-01    0.240E-01
RMM:   3    -0.115784465346E+04   -0.10633E-02   -0.22806E-03  2267   0.115E-01    0.650E-01
RMM:   4    -0.115784375660E+04    0.89686E-03   -0.92785E-04  2538   0.619E-02    0.352E-01
RMM:   5    -0.115784367781E+04    0.78784E-04   -0.32234E-04  2164   0.390E-02    0.139E-01
RMM:   6    -0.115784375564E+04   -0.77827E-04   -0.13633E-04  2206   0.216E-02    0.178E-01
RMM:   7    -0.115784370886E+04    0.46777E-04   -0.81105E-05  2177   0.189E-02    0.856E-02
RMM:   8    -0.115784375167E+04   -0.42812E-04   -0.83624E-05  2127   0.197E-02    0.106E-01
RMM:   9    -0.115784375924E+04   -0.75605E-05   -0.74020E-05  2067   0.184E-02    0.815E-02
RMM:  10    -0.115784374812E+04    0.11119E-04   -0.33538E-05  1808   0.131E-02    0.423E-02
RMM:  11    -0.115784375081E+04   -0.26955E-05   -0.12897E-05  1501   0.772E-03    0.358E-02
RMM:  12    -0.115784375284E+04   -0.20321E-05   -0.46030E-06  1403   0.510E-03    0.197E-02
RMM:  13    -0.115784375501E+04   -0.21670E-05   -0.23852E-06  1331   0.365E-03    0.138E-02
RMM:  14    -0.115784375840E+04   -0.33884E-05   -0.85699E-07  1212   0.229E-03    0.874E-03
RMM:  15    -0.115784376141E+04   -0.30114E-05   -0.59151E-07  1179   0.190E-03    0.665E-03
RMM:  16    -0.115784376443E+04   -0.30239E-05   -0.33896E-07  1149   0.138E-03    0.430E-03
RMM:  17    -0.115784376667E+04   -0.22345E-05   -0.20431E-07  1095   0.102E-03    0.359E-03
RMM:  18    -0.115784376859E+04   -0.19206E-05   -0.12610E-07  1012   0.835E-04    0.213E-03
RMM:  19    -0.115784377152E+04   -0.29310E-05   -0.97169E-08   977   0.676E-04    0.164E-03
RMM:  20    -0.115784377384E+04   -0.23176E-05   -0.79485E-08   926   0.631E-04    0.136E-03
RMM:  21    -0.115784377539E+04   -0.15483E-05   -0.54004E-08   810   0.508E-04    0.114E-03
RMM:  22    -0.115784377638E+04   -0.99133E-06   -0.33813E-08   717   0.421E-04
  88 F= -.11658147E+04 E0= -.11658034E+04  d E =-.720177E-03  mag=    21.7858
 trial-energy change:   -0.000720  1 .order   -0.000714   -0.001012   -0.000416
 step:   0.5917(harm=  0.6135)  dis= 0.00379  next Energy= -1165.814877 (dE=-0.855E-03)
 bond charge predicted
       N       E                     dE             d eps       ncg     rms          rms(c)
DAV:   1    -0.115784303328E+04    0.74211E-03   -0.28898E-01  1992   0.116E+00    0.130E-01
RMM:   2    -0.115784362792E+04   -0.59464E-03   -0.63620E-03  2318   0.162E-01    0.156E-01
RMM:   3    -0.115784407076E+04   -0.44283E-03   -0.92984E-04  2267   0.731E-02    0.421E-01
RMM:   4    -0.115784368777E+04    0.38299E-03   -0.38801E-04  2540   0.393E-02    0.234E-01
RMM:   5    -0.115784366380E+04    0.23972E-04   -0.13718E-04  2050   0.255E-02    0.835E-02
RMM:   6    -0.115784370622E+04   -0.42421E-04   -0.56071E-05  1983   0.142E-02    0.114E-01
RMM:   7    -0.115784368501E+04    0.21208E-04   -0.32630E-05  1894   0.121E-02    0.546E-02
RMM:   8    -0.115784370780E+04   -0.22784E-04   -0.35313E-05  1871   0.129E-02    0.709E-02
RMM:   9    -0.115784371002E+04   -0.22271E-05   -0.30003E-05  1844   0.119E-02    0.485E-02
RMM:  10    -0.115784370810E+04    0.19274E-05   -0.13242E-05  1540   0.848E-03    0.273E-02
RMM:  11    -0.115784370977E+04   -0.16729E-05   -0.53372E-06  1394   0.530E-03    0.228E-02
RMM:  12    -0.115784371141E+04   -0.16448E-05   -0.18704E-06  1303   0.343E-03    0.119E-02
RMM:  13    -0.115784371285E+04   -0.14372E-05   -0.92244E-07  1207   0.242E-03    0.822E-03
RMM:  14    -0.115784371502E+04   -0.21728E-05   -0.39264E-07  1153   0.163E-03    0.494E-03
RMM:  15    -0.115784371679E+04   -0.17664E-05   -0.25617E-07  1145   0.125E-03    0.406E-03
RMM:  16    -0.115784371855E+04   -0.17638E-05   -0.15148E-07  1126   0.929E-04    0.248E-03
RMM:  17    -0.115784371996E+04   -0.14077E-05   -0.93797E-08  1025   0.690E-04    0.234E-03
RMM:  18    -0.115784372123E+04   -0.12680E-05   -0.59908E-08   858   0.591E-04    0.136E-03
RMM:  19    -0.115784372321E+04   -0.19791E-05   -0.50328E-08   861   0.491E-04    0.987E-04
RMM:  20    -0.115784372466E+04   -0.14459E-05   -0.41287E-08   832   0.464E-04    0.885E-04
RMM:  21    -0.115784372544E+04   -0.77980E-06   -0.25461E-08   683   0.392E-04
  89 F= -.11658149E+04 E0= -.11658035E+04  d E =-.874149E-03  mag=    21.7856
 curvature:  -2.79 expect dE=-0.624E-02 dE for cont linesearch -0.117E-05
 trial: gam= 0.96575 g(F)=  0.224E-02 g(S)=  0.000E+00 ort = 0.104E-03 (trialstep = 0.396E+00)
 search vector abs. value=  0.264E-01
 bond charge predicted
       N       E                     dE             d eps       ncg     rms          rms(c)
DAV:   1    -0.115784188389E+04    0.18408E-02   -0.88504E-01  1992   0.201E+00    0.229E-01
RMM:   2    -0.115784376150E+04   -0.18776E-02   -0.19222E-02  2355   0.282E-01    0.278E-01
RMM:   3    -0.115784497838E+04   -0.12169E-02   -0.27204E-03  2302   0.125E-01    0.757E-01
RMM:   4    -0.115784376560E+04    0.12128E-02   -0.10862E-03  2534   0.695E-02    0.251E-01
RMM:   5    -0.115784390316E+04   -0.13756E-03   -0.32409E-04  2204   0.410E-02    0.137E-01
RMM:   6    -0.115784403585E+04   -0.13269E-03   -0.15579E-04  2304   0.215E-02    0.293E-01
RMM:   7    -0.115784387697E+04    0.15887E-03   -0.11208E-04  2127   0.207E-02    0.927E-02
RMM:   8    -0.115784396991E+04   -0.92938E-04   -0.11239E-04  2109   0.229E-02    0.124E-01
RMM:   9    -0.115784397181E+04   -0.18991E-05   -0.85270E-05  2138   0.197E-02    0.890E-02
RMM:  10    -0.115784395900E+04    0.12811E-04   -0.41592E-05  1846   0.144E-02    0.684E-02
RMM:  11    -0.115784395668E+04    0.23232E-05   -0.13034E-05  1526   0.776E-03    0.558E-02
RMM:  12    -0.115784395825E+04   -0.15742E-05   -0.52537E-06  1401   0.543E-03    0.287E-02
RMM:  13    -0.115784396499E+04   -0.67443E-05   -0.31651E-06  1366   0.425E-03    0.181E-02
RMM:  14    -0.115784397173E+04   -0.67306E-05   -0.16891E-06  1287   0.309E-03    0.179E-02
RMM:  15    -0.115784397413E+04   -0.24083E-05   -0.95036E-07  1226   0.254E-03    0.149E-02
RMM:  16    -0.115784397720E+04   -0.30667E-05   -0.42796E-07  1161   0.162E-03    0.862E-03
RMM:  17    -0.115784398005E+04   -0.28466E-05   -0.35845E-07  1130   0.133E-03    0.634E-03
RMM:  18    -0.115784398273E+04   -0.26785E-05   -0.20484E-07  1074   0.981E-04    0.274E-03
RMM:  19    -0.115784398595E+04   -0.32216E-05   -0.13646E-07  1053   0.812E-04    0.307E-03
RMM:  20    -0.115784398824E+04   -0.22881E-05   -0.97472E-08   987   0.697E-04    0.249E-03
RMM:  21    -0.115784398997E+04   -0.17379E-05   -0.64863E-08   850   0.566E-04    0.182E-03
RMM:  22    -0.115784399129E+04   -0.13189E-05   -0.39295E-08   723   0.439E-04    0.126E-03
RMM:  23    -0.115784399261E+04   -0.13155E-05   -0.29835E-08   670   0.396E-04    0.775E-04
RMM:  24    -0.115784399432E+04   -0.17157E-05   -0.29107E-08   675   0.377E-04    0.493E-04
RMM:  25    -0.115784399595E+04   -0.16278E-05   -0.29623E-08   676   0.360E-04    0.437E-04
RMM:  26    -0.115784399704E+04   -0.10837E-05   -0.24396E-08   628   0.346E-04    0.382E-04
RMM:  27    -0.115784399784E+04   -0.80755E-06   -0.19081E-08   582   0.330E-04
  90 F= -.11658155E+04 E0= -.11658042E+04  d E =-.646899E-03  mag=    21.7841
 trial-energy change:   -0.000647  1 .order   -0.000641   -0.000926   -0.000356
 step:   0.6218(harm=  0.6440)  dis= 0.00385  next Energy= -1165.815646 (dE=-0.749E-03)
 bond charge predicted
       N       E                     dE             d eps       ncg     rms          rms(c)
DAV:   1    -0.115784321659E+04    0.78045E-03   -0.28630E-01  2016   0.115E+00    0.130E-01
RMM:   2    -0.115784379905E+04   -0.58246E-03   -0.62162E-03  2356   0.161E-01    0.160E-01
RMM:   3    -0.115784419116E+04   -0.39211E-03   -0.87699E-04  2303   0.708E-02    0.419E-01
RMM:   4    -0.115784378798E+04    0.40319E-03   -0.34785E-04  2510   0.396E-02    0.130E-01
RMM:   5    -0.115784385623E+04   -0.68253E-04   -0.10025E-04  2039   0.228E-02    0.675E-02
RMM:   6    -0.115784389881E+04   -0.42574E-04   -0.44861E-05  2029   0.129E-02    0.145E-01
RMM:   7    -0.115784385331E+04    0.45495E-04   -0.29796E-05  1788   0.103E-02    0.644E-02
RMM:   8    -0.115784388966E+04   -0.36352E-04   -0.40100E-05  1844   0.134E-02    0.769E-02
RMM:   9    -0.115784388654E+04    0.31179E-05   -0.26365E-05  1851   0.114E-02    0.440E-02
RMM:  10    -0.115784388500E+04    0.15475E-05   -0.12914E-05  1527   0.803E-03    0.327E-02
RMM:  11    -0.115784388541E+04   -0.41904E-06   -0.43527E-06  1375   0.485E-03
  91 F= -.11658156E+04 E0= -.11658042E+04  d E =-.747473E-03  mag=    21.7835
 curvature:  -3.61 expect dE=-0.763E-02 dE for cont linesearch -0.275E-05
 trial: gam= 0.91372 g(F)=  0.211E-02 g(S)=  0.000E+00 ort = 0.142E-03 (trialstep = 0.441E+00)
 search vector abs. value=  0.244E-01
 bond charge predicted
       N       E                     dE             d eps       ncg     rms          rms(c)
DAV:   1    -0.115784160487E+04    0.22801E-02   -0.10505E+00  1992   0.217E+00    0.254E-01
RMM:   2    -0.115784388879E+04   -0.22839E-02   -0.22356E-02  2343   0.304E-01    0.329E-01
RMM:   3    -0.115784545204E+04   -0.15633E-02   -0.33085E-03  2308   0.136E-01    0.880E-01
RMM:   4    -0.115784395344E+04    0.14986E-02   -0.13738E-03  2531   0.768E-02    0.386E-01
RMM:   5    -0.115784400852E+04   -0.55077E-04   -0.46001E-04  2215   0.471E-02    0.218E-01
RMM:   6    -0.115784406024E+04   -0.51719E-04   -0.21436E-04  2220   0.268E-02    0.193E-01
RMM:   7    -0.115784405052E+04    0.97178E-05   -0.13668E-04  2240   0.235E-02    0.110E-01
RMM:   8    -0.115784406879E+04   -0.18269E-04   -0.13463E-04  2154   0.243E-02    0.108E-01
RMM:   9    -0.115784411456E+04   -0.45767E-04   -0.11422E-04  2203   0.216E-02    0.123E-01
RMM:  10    -0.115784406212E+04    0.52442E-04   -0.59167E-05  1888   0.172E-02    0.605E-02
RMM:  11    -0.115784406905E+04   -0.69356E-05   -0.18039E-05  1617   0.877E-03    0.522E-02
RMM:  12    -0.115784407132E+04   -0.22722E-05   -0.71851E-06  1440   0.586E-03    0.307E-02
RMM:  13    -0.115784407871E+04   -0.73913E-05   -0.32125E-06  1359   0.431E-03    0.217E-02
RMM:  14    -0.115784408456E+04   -0.58480E-05   -0.14911E-06  1295   0.291E-03    0.172E-02
RMM:  15    -0.115784408860E+04   -0.40368E-05   -0.85536E-07  1209   0.229E-03    0.115E-02
RMM:  16    -0.115784409343E+04   -0.48354E-05   -0.52422E-07  1173   0.166E-03    0.740E-03
RMM:  17    -0.115784409735E+04   -0.39187E-05   -0.38485E-07  1132   0.147E-03    0.475E-03
RMM:  18    -0.115784410117E+04   -0.38210E-05   -0.22773E-07  1086   0.108E-03    0.310E-03
RMM:  19    -0.115784410576E+04   -0.45873E-05   -0.17275E-07  1062   0.934E-04    0.304E-03
RMM:  20    -0.115784410922E+04   -0.34583E-05   -0.13381E-07   996   0.799E-04    0.171E-03
RMM:  21    -0.115784411252E+04   -0.33030E-05   -0.88638E-08   863   0.619E-04    0.141E-03
RMM:  22    -0.115784411468E+04   -0.21560E-05   -0.57802E-08   792   0.483E-04    0.135E-03
RMM:  23    -0.115784411673E+04   -0.20460E-05   -0.41663E-08   705   0.425E-04    0.631E-04
RMM:  24    -0.115784411940E+04   -0.26783E-05   -0.41789E-08   718   0.389E-04    0.595E-04
RMM:  25    -0.115784412161E+04   -0.22084E-05   -0.41577E-08   744   0.387E-04    0.476E-04
RMM:  26    -0.115784412389E+04   -0.22758E-05   -0.43115E-08   736   0.370E-04    0.624E-04
RMM:  27    -0.115784412544E+04   -0.15553E-05   -0.34637E-08   672   0.369E-04    0.530E-04
RMM:  28    -0.115784412817E+04   -0.27257E-05   -0.54979E-08   750   0.366E-04    0.465E-04
RMM:  29    -0.115784412946E+04   -0.12932E-05   -0.42878E-08   729   0.387E-04    0.300E-04
RMM:  30    -0.115784413104E+04   -0.15743E-05   -0.46909E-08   671   0.347E-04    0.218E-04
RMM:  31    -0.115784413267E+04   -0.16311E-05   -0.53593E-08   741   0.386E-04    0.131E-04
RMM:  32    -0.115784413368E+04   -0.10163E-05   -0.58640E-08   753   0.375E-04    0.123E-04
RMM:  33    -0.115784413419E+04   -0.50521E-06   -0.40162E-08   669   0.369E-04
  92 F= -.11658163E+04 E0= -.11658049E+04  d E =-.674824E-03  mag=    21.7815
 trial-energy change:   -0.000675  1 .order   -0.000665   -0.000990   -0.000341
 step:   0.6470(harm=  0.6736)  dis= 0.00375  next Energy= -1165.816399 (dE=-0.755E-03)
 bond charge predicted
       N       E                     dE             d eps       ncg     rms          rms(c)
DAV:   1    -0.115784348591E+04    0.64777E-03   -0.22768E-01  2064   0.101E+00    0.118E-01
RMM:   2    -0.115784393000E+04   -0.44409E-03   -0.48303E-03  2343   0.141E-01    0.127E-01
RMM:   3    -0.115784424572E+04   -0.31571E-03   -0.69169E-04  2294   0.626E-02    0.345E-01
RMM:   4    -0.115784394719E+04    0.29852E-03   -0.26824E-04  2478   0.349E-02    0.120E-01
RMM:   5    -0.115784399118E+04   -0.43986E-04   -0.76833E-05  1995   0.196E-02    0.606E-02
RMM:   6    -0.115784402127E+04   -0.30092E-04   -0.35693E-05  1960   0.117E-02    0.117E-01
RMM:   7    -0.115784399369E+04    0.27582E-04   -0.22796E-05  1699   0.898E-03    0.652E-02
RMM:   8    -0.115784401539E+04   -0.21695E-04   -0.31312E-05  1789   0.116E-02    0.659E-02
RMM:   9    -0.115784401902E+04   -0.36298E-05   -0.24301E-05  1814   0.104E-02    0.438E-02
RMM:  10    -0.115784401488E+04    0.41378E-05   -0.12620E-05  1501   0.785E-03    0.264E-02
RMM:  11    -0.115784401554E+04   -0.66248E-06   -0.40977E-06  1351   0.460E-03
  93 F= -.11658164E+04 E0= -.11658050E+04  d E =-.754512E-03  mag=    21.7812
 curvature:  -3.62 expect dE=-0.707E-02 dE for cont linesearch -0.365E-05
 trial: gam= 0.90078 g(F)=  0.195E-02 g(S)=  0.000E+00 ort = 0.157E-03 (trialstep = 0.483E+00)
 search vector abs. value=  0.220E-01
 bond charge predicted
       N       E                     dE             d eps       ncg     rms          rms(c)
DAV:   1    -0.115784154902E+04    0.24659E-02   -0.11477E+00  1992   0.224E+00    0.272E-01
RMM:   2    -0.115784411238E+04   -0.25634E-02   -0.24006E-02  2336   0.317E-01    0.368E-01
RMM:   3    -0.115784556930E+04   -0.14569E-02   -0.39612E-03  2293   0.146E-01    0.827E-01
RMM:   4    -0.115784434027E+04    0.12290E-02   -0.15239E-03  2520   0.807E-02    0.444E-01
RMM:   5    -0.115784416023E+04    0.18004E-03   -0.56385E-04  2178   0.511E-02    0.163E-01
RMM:   6    -0.115784431974E+04   -0.15952E-03   -0.22501E-04  2332   0.258E-02    0.254E-01
RMM:   7    -0.115784419469E+04    0.12505E-03   -0.12854E-04  2261   0.227E-02    0.105E-01
RMM:   8    -0.115784426152E+04   -0.66825E-04   -0.13486E-04  2152   0.245E-02    0.117E-01
RMM:   9    -0.115784428295E+04   -0.21431E-04   -0.90542E-05  2190   0.198E-02    0.103E-01
RMM:  10    -0.115784425374E+04    0.29213E-04   -0.43438E-05  1824   0.147E-02    0.425E-02
RMM:  11    -0.115784426862E+04   -0.14888E-04   -0.17100E-05  1584   0.849E-03    0.456E-02
RMM:  12    -0.115784426783E+04    0.79288E-06   -0.70759E-06  1422   0.627E-03
  94 F= -.11658171E+04 E0= -.11658056E+04  d E =-.655806E-03  mag=    21.7811
 trial-energy change:   -0.000656  1 .order   -0.000709   -0.001011   -0.000408
 step:   0.8090(harm=  0.8090)  dis= 0.00416  next Energy= -1165.817246 (dE=-0.847E-03)
 bond charge predicted
       N       E                     dE             d eps       ncg     rms          rms(c)
DAV:   1    -0.115784287427E+04    0.13944E-02   -0.52537E-01  2052   0.152E+00    0.183E-01
RMM:   2    -0.115784399741E+04   -0.11231E-02   -0.10961E-02  2338   0.214E-01    0.241E-01
RMM:   3    -0.115784481722E+04   -0.81981E-03   -0.17380E-03  2299   0.979E-02    0.716E-01
RMM:   4    -0.115784407676E+04    0.74046E-03   -0.83079E-04  2527   0.552E-02    0.320E-01
RMM:   5    -0.115784406155E+04    0.15210E-04   -0.31420E-04  2121   0.388E-02    0.123E-01
RMM:   6    -0.115784412617E+04   -0.64622E-04   -0.12156E-04  2166   0.204E-02    0.139E-01
RMM:   7    -0.115784409640E+04    0.29769E-04   -0.57774E-05  2044   0.155E-02    0.757E-02
RMM:   8    -0.115784411856E+04   -0.22159E-04   -0.58807E-05  1956   0.159E-02    0.782E-02
RMM:   9    -0.115784414383E+04   -0.25268E-04   -0.51987E-05  1973   0.148E-02    0.860E-02
RMM:  10    -0.115784412887E+04    0.14954E-04   -0.30771E-05  1732   0.124E-02    0.341E-02
RMM:  11    -0.115784413634E+04   -0.74686E-05   -0.92845E-06  1465   0.680E-03    0.295E-02
RMM:  12    -0.115784414246E+04   -0.61227E-05   -0.41724E-06  1376   0.494E-03    0.222E-02
RMM:  13    -0.115784414605E+04   -0.35851E-05   -0.18788E-06  1261   0.337E-03    0.129E-02
RMM:  14    -0.115784415174E+04   -0.56954E-05   -0.74413E-07  1211   0.200E-03    0.112E-02
RMM:  15    -0.115784415600E+04   -0.42558E-05   -0.53887E-07  1180   0.175E-03    0.493E-03
RMM:  16    -0.115784416080E+04   -0.48004E-05   -0.31053E-07  1134   0.124E-03    0.488E-03
RMM:  17    -0.115784416567E+04   -0.48728E-05   -0.20985E-07  1108   0.110E-03    0.258E-03
RMM:  18    -0.115784416972E+04   -0.40513E-05   -0.13392E-07  1021   0.773E-04    0.296E-03
RMM:  19    -0.115784417282E+04   -0.30962E-05   -0.10140E-07   926   0.701E-04    0.203E-03
RMM:  20    -0.115784417605E+04   -0.32321E-05   -0.74305E-08   866   0.550E-04    0.179E-03
RMM:  21    -0.115784417961E+04   -0.35541E-05   -0.67579E-08   843   0.513E-04    0.136E-03
RMM:  22    -0.115784418201E+04   -0.24022E-05   -0.53388E-08   779   0.450E-04    0.129E-03
RMM:  23    -0.115784418406E+04   -0.20487E-05   -0.42947E-08   745   0.412E-04    0.637E-04
RMM:  24    -0.115784418645E+04   -0.23968E-05   -0.40150E-08   709   0.367E-04    0.421E-04
RMM:  25    -0.115784418878E+04   -0.23221E-05   -0.43388E-08   730   0.376E-04    0.419E-04
RMM:  26    -0.115784419139E+04   -0.26150E-05   -0.51693E-08   741   0.379E-04    0.401E-04
RMM:  27    -0.115784419310E+04   -0.17111E-05   -0.45456E-08   721   0.383E-04    0.415E-04
RMM:  28    -0.115784419458E+04   -0.14754E-05   -0.43634E-08   694   0.359E-04    0.259E-04
RMM:  29    -0.115784419632E+04   -0.17444E-05   -0.46357E-08   697   0.367E-04    0.263E-04
RMM:  30    -0.115784419780E+04   -0.14743E-05   -0.52156E-08   714   0.371E-04    0.174E-04
RMM:  31    -0.115784419908E+04   -0.12832E-05   -0.63198E-08   758   0.388E-04    0.172E-04
RMM:  32    -0.115784419970E+04   -0.62091E-06   -0.51173E-08   750   0.382E-04
  95 F= -.11658173E+04 E0= -.11658059E+04  d E =-.860505E-03  mag=    21.7816
 curvature:  -4.26 expect dE=-0.112E-01 dE for cont linesearch -0.160E-06
 trial: gam= 1.38542 g(F)=  0.263E-02 g(S)=  0.000E+00 ort = 0.288E-04 (trialstep = 0.268E+00)
 search vector abs. value=  0.450E-01
 bond charge predicted
       N       E                     dE             d eps       ncg     rms          rms(c)
DAV:   1    -0.115784276474E+04    0.14343E-02   -0.73378E-01  2040   0.178E+00    0.219E-01
RMM:   2    -0.115784431322E+04   -0.15485E-02   -0.15130E-02  2330   0.250E-01    0.253E-01
RMM:   3    -0.115784530256E+04   -0.98934E-03   -0.25644E-03  2285   0.115E-01    0.537E-01
RMM:   4    -0.115784442691E+04    0.87566E-03   -0.87825E-04  2493   0.617E-02    0.204E-01
RMM:   5    -0.115784444284E+04   -0.15928E-04   -0.20208E-04  2249   0.279E-02    0.155E-01
RMM:   6    -0.115784448961E+04   -0.46775E-04   -0.11055E-04  2111   0.202E-02    0.202E-01
RMM:   7    -0.115784444513E+04    0.44479E-04   -0.80982E-05  2065   0.177E-02    0.106E-01
RMM:   8    -0.115784447749E+04   -0.32353E-04   -0.86944E-05  2033   0.198E-02    0.950E-02
RMM:   9    -0.115784449737E+04   -0.19889E-04   -0.66703E-05  2059   0.168E-02    0.922E-02
RMM:  10    -0.115784447875E+04    0.18628E-04   -0.37211E-05  1775   0.132E-02    0.440E-02
RMM:  11    -0.115784448248E+04   -0.37353E-05   -0.13051E-05  1508   0.779E-03    0.322E-02
RMM:  12    -0.115784448533E+04   -0.28463E-05   -0.61094E-06  1413   0.560E-03    0.238E-02
RMM:  13    -0.115784448746E+04   -0.21315E-05   -0.23899E-06  1314   0.394E-03    0.898E-03
RMM:  14    -0.115784449134E+04   -0.38817E-05   -0.85511E-07  1192   0.218E-03    0.991E-03
RMM:  15    -0.115784449392E+04   -0.25770E-05   -0.50846E-07  1165   0.189E-03    0.671E-03
RMM:  16    -0.115784449622E+04   -0.23014E-05   -0.26692E-07  1132   0.120E-03    0.433E-03
RMM:  17    -0.115784449839E+04   -0.21711E-05   -0.18871E-07  1074   0.102E-03    0.326E-03
RMM:  18    -0.115784450049E+04   -0.20995E-05   -0.11774E-07   984   0.737E-04    0.274E-03
RMM:  19    -0.115784450261E+04   -0.21226E-05   -0.93112E-08   958   0.703E-04    0.193E-03
RMM:  20    -0.115784450498E+04   -0.23709E-05   -0.67591E-08   877   0.589E-04    0.133E-03
RMM:  21    -0.115784450668E+04   -0.16980E-05   -0.49343E-08   827   0.507E-04    0.136E-03
RMM:  22    -0.115784450771E+04   -0.10287E-05   -0.31292E-08   701   0.420E-04    0.117E-03
RMM:  23    -0.115784450917E+04   -0.14590E-05   -0.25807E-08   679   0.377E-04    0.656E-04
RMM:  24    -0.115784451091E+04   -0.17436E-05   -0.26938E-08   668   0.355E-04    0.454E-04
RMM:  25    -0.115784451227E+04   -0.13544E-05   -0.25370E-08   652   0.351E-04    0.381E-04
RMM:  26    -0.115784451341E+04   -0.11448E-05   -0.21387E-08   602   0.332E-04    0.468E-04
RMM:  27    -0.115784451432E+04   -0.90790E-06   -0.19622E-08   602   0.329E-04
  96 F= -.11658178E+04 E0= -.11658065E+04  d E =-.583501E-03  mag=    21.7806
 trial-energy change:   -0.000584  1 .order   -0.000586   -0.000716   -0.000456
 step:   0.7388(harm=  0.7388)  dis= 0.00518  next Energy= -1165.818245 (dE=-0.986E-03)
 bond charge predicted
       N       E                     dE             d eps       ncg     rms          rms(c)
DAV:   1    -0.115783905075E+04    0.54627E-02   -0.22575E+00  1992   0.312E+00    0.384E-01
RMM:   2    -0.115784400072E+04   -0.49500E-02   -0.46584E-02  2336   0.439E-01    0.444E-01
RMM:   3    -0.115784696401E+04   -0.29633E-02   -0.78962E-03  2285   0.201E-01    0.942E-01
RMM:   4    -0.115784430830E+04    0.26557E-02   -0.26854E-03  2500   0.108E-01    0.357E-01
RMM:   5    -0.115784431141E+04   -0.31187E-05   -0.64295E-04  2312   0.493E-02    0.271E-01
RMM:   6    -0.115784442744E+04   -0.11603E-03   -0.34310E-04  2281   0.353E-02    0.358E-01
RMM:   7    -0.115784429328E+04    0.13416E-03   -0.25201E-04  2263   0.309E-02    0.192E-01
RMM:   8    -0.115784435230E+04   -0.59014E-04   -0.26457E-04  2181   0.344E-02    0.159E-01
RMM:   9    -0.115784441028E+04   -0.57978E-04   -0.20613E-04  2241   0.293E-02    0.166E-01
RMM:  10    -0.115784434800E+04    0.62275E-04   -0.11703E-04  2071   0.231E-02    0.821E-02
RMM:  11    -0.115784435315E+04   -0.51516E-05   -0.42560E-05  1786   0.137E-02    0.588E-02
RMM:  12    -0.115784436022E+04   -0.70700E-05   -0.19225E-05  1572   0.922E-03    0.444E-02
RMM:  13    -0.115784436498E+04   -0.47607E-05   -0.73738E-06  1443   0.669E-03    0.151E-02
RMM:  14    -0.115784437629E+04   -0.11303E-04   -0.28067E-06  1347   0.369E-03    0.177E-02
RMM:  15    -0.115784438317E+04   -0.68844E-05   -0.14795E-06  1282   0.311E-03    0.130E-02
RMM:  16    -0.115784438903E+04   -0.58605E-05   -0.76994E-07  1203   0.200E-03    0.860E-03
RMM:  17    -0.115784439511E+04   -0.60766E-05   -0.55066E-07  1174   0.175E-03    0.589E-03
RMM:  18    -0.115784440098E+04   -0.58715E-05   -0.34659E-07  1112   0.124E-03    0.500E-03
RMM:  19    -0.115784440645E+04   -0.54753E-05   -0.26624E-07  1074   0.116E-03    0.349E-03
RMM:  20    -0.115784441291E+04   -0.64581E-05   -0.19034E-07  1053   0.934E-04    0.231E-03
RMM:  21    -0.115784441753E+04   -0.46191E-05   -0.13923E-07   999   0.789E-04    0.250E-03
RMM:  22    -0.115784442030E+04   -0.27646E-05   -0.92010E-08   850   0.605E-04    0.201E-03
RMM:  23    -0.115784442418E+04   -0.38847E-05   -0.71505E-08   830   0.514E-04    0.103E-03
RMM:  24    -0.115784442924E+04   -0.50617E-05   -0.74642E-08   826   0.463E-04    0.891E-04
RMM:  25    -0.115784443280E+04   -0.35536E-05   -0.66817E-08   827   0.462E-04    0.817E-04
RMM:  26    -0.115784443562E+04   -0.28251E-05   -0.56084E-08   752   0.410E-04    0.822E-04
RMM:  27    -0.115784443861E+04   -0.29920E-05   -0.56219E-08   765   0.409E-04    0.644E-04
RMM:  28    -0.115784444339E+04   -0.47788E-05   -0.85272E-08   850   0.412E-04    0.594E-04
RMM:  29    -0.115784444649E+04   -0.31012E-05   -0.79399E-08   858   0.444E-04    0.343E-04
RMM:  30    -0.115784444851E+04   -0.20137E-05   -0.68108E-08   758   0.399E-04    0.302E-04
RMM:  31    -0.115784445027E+04   -0.17658E-05   -0.60180E-08   729   0.400E-04    0.193E-04
RMM:  32    -0.115784445240E+04   -0.21246E-05   -0.83121E-08   819   0.398E-04    0.230E-04
RMM:  33    -0.115784445381E+04   -0.14134E-05   -0.78937E-08   828   0.433E-04    0.167E-04
RMM:  34    -0.115784445454E+04   -0.73302E-06   -0.65757E-08   747   0.389E-04
  97 F= -.11658183E+04 E0= -.11658069E+04  d E =-.994766E-03  mag=    21.7784
 curvature:  -6.23 expect dE=-0.171E-01 dE for cont linesearch -0.294E-07
 trial: gam= 1.02068 g(F)=  0.275E-02 g(S)=  0.000E+00 ort = 0.146E-04 (trialstep = 0.328E+00)
 search vector abs. value=  0.497E-01
 bond charge predicted
       N       E                     dE             d eps       ncg     rms          rms(c)
DAV:   1    -0.115784186702E+04    0.25868E-02   -0.12302E+00  2016   0.230E+00    0.278E-01
RMM:   2    -0.115784447066E+04   -0.26036E-02   -0.25256E-02  2300   0.322E-01    0.373E-01
RMM:   3    -0.115784651655E+04   -0.20459E-02   -0.39988E-03  2271   0.148E-01    0.935E-01
RMM:   4    -0.115784474037E+04    0.17762E-02   -0.18440E-03  2546   0.812E-02    0.451E-01
RMM:   5    -0.115784462672E+04    0.11365E-03   -0.58490E-04  2180   0.530E-02    0.122E-01
RMM:   6    -0.115784475091E+04   -0.12419E-03   -0.19442E-04  2312   0.266E-02    0.203E-01
RMM:   7    -0.115784469763E+04    0.53280E-04   -0.11716E-04  2230   0.217E-02    0.146E-01
RMM:   8    -0.115784475369E+04   -0.56056E-04   -0.14390E-04  2143   0.254E-02    0.160E-01
RMM:   9    -0.115784473739E+04    0.16296E-04   -0.11170E-04  2176   0.223E-02    0.926E-02
RMM:  10    -0.115784473924E+04   -0.18442E-05   -0.63913E-05  1905   0.172E-02    0.772E-02
RMM:  11    -0.115784472848E+04    0.10761E-04   -0.25196E-05  1641   0.107E-02    0.433E-02
RMM:  12    -0.115784473471E+04   -0.62293E-05   -0.82422E-06  1461   0.662E-03    0.263E-02
RMM:  13    -0.115784473832E+04   -0.36148E-05   -0.37150E-06  1362   0.464E-03    0.135E-02
RMM:  14    -0.115784474463E+04   -0.63082E-05   -0.15602E-06  1273   0.296E-03    0.125E-02
RMM:  15    -0.115784474813E+04   -0.35030E-05   -0.86669E-07  1199   0.231E-03    0.655E-03
RMM:  16    -0.115784475219E+04   -0.40627E-05   -0.43381E-07  1170   0.150E-03    0.586E-03
RMM:  17    -0.115784475537E+04   -0.31802E-05   -0.29315E-07  1106   0.128E-03    0.495E-03
RMM:  18    -0.115784475855E+04   -0.31742E-05   -0.17894E-07  1054   0.988E-04    0.279E-03
RMM:  19    -0.115784476378E+04   -0.52271E-05   -0.14793E-07  1039   0.821E-04    0.251E-03
RMM:  20    -0.115784476697E+04   -0.31918E-05   -0.12891E-07   979   0.817E-04    0.241E-03
RMM:  21    -0.115784476948E+04   -0.25095E-05   -0.88001E-08   889   0.641E-04    0.181E-03
RMM:  22    -0.115784477191E+04   -0.24350E-05   -0.65859E-08   870   0.536E-04    0.132E-03
RMM:  23    -0.115784477436E+04   -0.24473E-05   -0.54538E-08   794   0.483E-04    0.823E-04
RMM:  24    -0.115784477701E+04   -0.26547E-05   -0.47122E-08   756   0.431E-04    0.744E-04
RMM:  25    -0.115784477939E+04   -0.23744E-05   -0.41517E-08   712   0.395E-04    0.513E-04
RMM:  26    -0.115784478138E+04   -0.19879E-05   -0.38704E-08   713   0.372E-04    0.589E-04
RMM:  27    -0.115784478291E+04   -0.15343E-05   -0.34247E-08   697   0.364E-04    0.351E-04
RMM:  28    -0.115784478570E+04   -0.27926E-05   -0.52264E-08   748   0.365E-04    0.285E-04
RMM:  29    -0.115784478722E+04   -0.15216E-05   -0.45986E-08   754   0.386E-04    0.252E-04
RMM:  30    -0.115784478868E+04   -0.14591E-05   -0.44319E-08   685   0.353E-04    0.167E-04
RMM:  31    -0.115784479003E+04   -0.13497E-05   -0.45590E-08   702   0.371E-04    0.159E-04
RMM:  32    -0.115784479114E+04   -0.11082E-05   -0.53690E-08   717   0.365E-04    0.116E-04
RMM:  33    -0.115784479178E+04   -0.63440E-06   -0.45288E-08   706   0.376E-04
  98 F= -.11658189E+04 E0= -.11658075E+04  d E =-.672766E-03  mag=    21.7774
 trial-energy change:   -0.000673  1 .order   -0.000672   -0.000908   -0.000436
 step:   0.6320(harm=  0.6320)  dis= 0.00461  next Energy= -1165.819128 (dE=-0.874E-03)
 bond charge predicted
       N       E                     dE             d eps       ncg     rms          rms(c)
DAV:   1    -0.115784218683E+04    0.26043E-02   -0.10521E+00  2016   0.213E+00    0.257E-01
RMM:   2    -0.115784439842E+04   -0.22116E-02   -0.21590E-02  2298   0.298E-01    0.343E-01
RMM:   3    -0.115784616229E+04   -0.17639E-02   -0.34227E-03  2270   0.137E-01    0.873E-01
RMM:   4    -0.115784463155E+04    0.15307E-02   -0.15893E-03  2549   0.751E-02    0.425E-01
RMM:   5    -0.115784453751E+04    0.94038E-04   -0.51028E-04  2174   0.495E-02    0.113E-01
RMM:   6    -0.115784464983E+04   -0.11231E-03   -0.16833E-04  2295   0.248E-02    0.188E-01
RMM:   7    -0.115784460258E+04    0.47245E-04   -0.10031E-04  2194   0.201E-02    0.133E-01
RMM:   8    -0.115784465295E+04   -0.50367E-04   -0.12329E-04  2126   0.235E-02    0.148E-01
RMM:   9    -0.115784463906E+04    0.13885E-04   -0.95224E-05  2144   0.206E-02    0.858E-02
RMM:  10    -0.115784464154E+04   -0.24806E-05   -0.55247E-05  1873   0.160E-02    0.722E-02
RMM:  11    -0.115784463222E+04    0.93203E-05   -0.21889E-05  1608   0.100E-02    0.400E-02
RMM:  12    -0.115784463785E+04   -0.56305E-05   -0.73179E-06  1449   0.631E-03    0.247E-02
RMM:  13    -0.115784464098E+04   -0.31220E-05   -0.32281E-06  1352   0.435E-03    0.121E-02
RMM:  14    -0.115784464667E+04   -0.56983E-05   -0.13520E-06  1262   0.276E-03    0.120E-02
RMM:  15    -0.115784464962E+04   -0.29505E-05   -0.75883E-07  1188   0.219E-03    0.587E-03
RMM:  16    -0.115784465327E+04   -0.36479E-05   -0.37008E-07  1165   0.137E-03    0.555E-03
RMM:  17    -0.115784465601E+04   -0.27380E-05   -0.25494E-07  1104   0.120E-03    0.450E-03
RMM:  18    -0.115784465888E+04   -0.28671E-05   -0.15221E-07  1023   0.908E-04    0.259E-03
RMM:  19    -0.115784466345E+04   -0.45684E-05   -0.12988E-07  1031   0.778E-04    0.235E-03
RMM:  20    -0.115784466624E+04   -0.27925E-05   -0.11321E-07   968   0.768E-04    0.228E-03
RMM:  21    -0.115784466848E+04   -0.22425E-05   -0.75784E-08   857   0.604E-04    0.165E-03
RMM:  22    -0.115784467060E+04   -0.21202E-05   -0.57132E-08   846   0.509E-04    0.124E-03
RMM:  23    -0.115784467277E+04   -0.21720E-05   -0.47758E-08   784   0.464E-04    0.768E-04
RMM:  24    -0.115784467515E+04   -0.23739E-05   -0.41128E-08   740   0.408E-04    0.734E-04
RMM:  25    -0.115784467716E+04   -0.20140E-05   -0.36260E-08   700   0.381E-04    0.473E-04
RMM:  26    -0.115784467889E+04   -0.17259E-05   -0.32498E-08   685   0.358E-04    0.545E-04
RMM:  27    -0.115784468024E+04   -0.13539E-05   -0.30255E-08   673   0.352E-04    0.323E-04
RMM:  28    -0.115784468273E+04   -0.24920E-05   -0.46027E-08   711   0.355E-04    0.249E-04
RMM:  29    -0.115784468410E+04   -0.13665E-05   -0.39748E-08   709   0.376E-04    0.240E-04
RMM:  30    -0.115784468531E+04   -0.12122E-05   -0.39993E-08   672   0.346E-04    0.156E-04
RMM:  31    -0.115784468649E+04   -0.11748E-05   -0.41034E-08   696   0.362E-04    0.154E-04
RMM:  32    -0.115784468744E+04   -0.95111E-06   -0.46043E-08   692   0.353E-04
  99 F= -.11658191E+04 E0= -.11658077E+04  d E =-.878265E-03  mag=    21.7764
 curvature:  -5.68 expect dE=-0.174E-01 dE for cont linesearch -0.396E-08
 trial: gam= 1.10409 g(F)=  0.306E-02 g(S)=  0.000E+00 ort = 0.589E-05 (trialstep = 0.304E+00)
 search vector abs. value=  0.636E-01
 bond charge predicted
       N       E                     dE             d eps       ncg     rms          rms(c)
DAV:   1    -0.115784185723E+04    0.28293E-02   -0.13351E+00  2004   0.240E+00    0.288E-01
RMM:   2    -0.115784469062E+04   -0.28334E-02   -0.28072E-02  2314   0.337E-01    0.370E-01
RMM:   3    -0.115784702262E+04   -0.23320E-02   -0.43422E-03  2287   0.152E-01    0.989E-01
RMM:   4    -0.115784491860E+04    0.21040E-02   -0.19751E-03  2549   0.849E-02    0.428E-01
RMM:   5    -0.115784490505E+04    0.13548E-04   -0.60950E-04  2191   0.542E-02    0.135E-01
RMM:   6    -0.115784500833E+04   -0.10327E-03   -0.20759E-04  2322   0.278E-02    0.190E-01
RMM:   7    -0.115784497895E+04    0.29375E-04   -0.12329E-04  2214   0.220E-02    0.164E-01
RMM:   8    -0.115784502175E+04   -0.42796E-04   -0.16214E-04  2152   0.270E-02    0.162E-01
RMM:   9    -0.115784502343E+04   -0.16844E-05   -0.12755E-04  2205   0.232E-02    0.106E-01
RMM:  10    -0.115784501808E+04    0.53504E-05   -0.86347E-05  1924   0.188E-02    0.751E-02
RMM:  11    -0.115784500623E+04    0.11856E-04   -0.28909E-05  1664   0.113E-02    0.463E-02
RMM:  12    -0.115784501131E+04   -0.50830E-05   -0.10762E-05  1483   0.727E-03    0.295E-02
RMM:  13    -0.115784501393E+04   -0.26170E-05   -0.47858E-06  1376   0.498E-03    0.135E-02
RMM:  14    -0.115784501938E+04   -0.54547E-05   -0.14615E-06  1274   0.287E-03    0.120E-02
RMM:  15    -0.115784502304E+04   -0.36610E-05   -0.84775E-07  1196   0.226E-03    0.678E-03
RMM:  16    -0.115784502835E+04   -0.53117E-05   -0.55775E-07  1191   0.166E-03    0.685E-03
RMM:  17    -0.115784503200E+04   -0.36429E-05   -0.36605E-07  1144   0.139E-03    0.573E-03
RMM:  18    -0.115784503501E+04   -0.30164E-05   -0.19678E-07  1065   0.993E-04    0.285E-03
RMM:  19    -0.115784503902E+04   -0.40022E-05   -0.14635E-07  1009   0.832E-04    0.279E-03
RMM:  20    -0.115784504162E+04   -0.25994E-05   -0.10387E-07   933   0.710E-04    0.260E-03
RMM:  21    -0.115784504394E+04   -0.23252E-05   -0.67315E-08   832   0.539E-04    0.153E-03
RMM:  22    -0.115784504564E+04   -0.17022E-05   -0.47508E-08   762   0.474E-04    0.115E-03
RMM:  23    -0.115784504778E+04   -0.21368E-05   -0.39746E-08   740   0.418E-04    0.887E-04
RMM:  24    -0.115784504965E+04   -0.18657E-05   -0.33214E-08   702   0.389E-04    0.602E-04
RMM:  25    -0.115784505226E+04   -0.26177E-05   -0.39880E-08   726   0.365E-04    0.418E-04
RMM:  26    -0.115784505477E+04   -0.25044E-05   -0.45852E-08   777   0.378E-04    0.504E-04
RMM:  27    -0.115784505595E+04   -0.11834E-05   -0.34266E-08   696   0.363E-04    0.452E-04
RMM:  28    -0.115784505773E+04   -0.17759E-05   -0.33293E-08   637   0.343E-04    0.222E-04
RMM:  29    -0.115784505935E+04   -0.16217E-05   -0.39702E-08   671   0.357E-04    0.306E-04
RMM:  30    -0.115784506054E+04   -0.11882E-05   -0.41391E-08   684   0.358E-04    0.184E-04
RMM:  31    -0.115784506161E+04   -0.10683E-05   -0.40204E-08   676   0.356E-04    0.186E-04
RMM:  32    -0.115784506259E+04   -0.98508E-06   -0.44285E-08   689   0.353E-04
 100 F= -.11658199E+04 E0= -.11658085E+04  d E =-.732761E-03  mag=    21.7767
 trial-energy change:   -0.000733  1 .order   -0.000732   -0.000932   -0.000532
 step:   0.7068(harm=  0.7068)  dis= 0.00584  next Energy= -1165.820216 (dE=-0.108E-02)
 bond charge predicted
       N       E                     dE             d eps       ncg     rms          rms(c)
DAV:   1    -0.115783930253E+04    0.57591E-02   -0.23497E+00  1992   0.318E+00    0.383E-01
RMM:   2    -0.115784437818E+04   -0.50756E-02   -0.49423E-02  2315   0.448E-01    0.491E-01
RMM:   3    -0.115784836017E+04   -0.39820E-02   -0.76404E-03  2285   0.202E-01    0.125E+00
RMM:   4    -0.115784480608E+04    0.35541E-02   -0.33782E-03  2542   0.113E-01    0.523E-01
RMM:   5    -0.115784472926E+04    0.76823E-04   -0.97370E-04  2215   0.687E-02    0.178E-01
RMM:   6    -0.115784485619E+04   -0.12693E-03   -0.34408E-04  2357   0.358E-02    0.218E-01
RMM:   7    -0.115784485610E+04    0.90455E-07   -0.21611E-04  2268   0.292E-02    0.237E-01
RMM:   8    -0.115784490128E+04   -0.45179E-04   -0.27489E-04  2194   0.347E-02    0.234E-01
RMM:   9    -0.115784488690E+04    0.14372E-04   -0.22579E-04  2256   0.312E-02    0.142E-01
RMM:  10    -0.115784487894E+04    0.79686E-05   -0.15265E-04  2033   0.250E-02    0.100E-01
RMM:  11    -0.115784485639E+04    0.22547E-04   -0.50500E-05  1802   0.148E-02    0.607E-02
RMM:  12    -0.115784486467E+04   -0.82778E-05   -0.18660E-05  1568   0.924E-03    0.396E-02
RMM:  13    -0.115784486787E+04   -0.32046E-05   -0.82850E-06  1428   0.640E-03    0.168E-02
RMM:  14    -0.115784487667E+04   -0.88034E-05   -0.26301E-06  1333   0.372E-03    0.155E-02
RMM:  15    -0.115784488277E+04   -0.60973E-05   -0.14899E-06  1255   0.292E-03    0.101E-02
RMM:  16    -0.115784489075E+04   -0.79804E-05   -0.95170E-07  1212   0.217E-03    0.877E-03
RMM:  17    -0.115784489652E+04   -0.57651E-05   -0.60426E-07  1179   0.176E-03    0.717E-03
RMM:  18    -0.115784490154E+04   -0.50263E-05   -0.33715E-07  1111   0.130E-03    0.378E-03
RMM:  19    -0.115784490771E+04   -0.61619E-05   -0.24511E-07  1066   0.107E-03    0.410E-03
RMM:  20    -0.115784491166E+04   -0.39500E-05   -0.16801E-07  1003   0.888E-04    0.328E-03
RMM:  21    -0.115784491550E+04   -0.38441E-05   -0.11379E-07   926   0.673E-04    0.196E-03
RMM:  22    -0.115784491859E+04   -0.30892E-05   -0.85571E-08   856   0.591E-04    0.173E-03
RMM:  23    -0.115784492180E+04   -0.32098E-05   -0.66788E-08   802   0.499E-04    0.123E-03
RMM:  24    -0.115784492466E+04   -0.28576E-05   -0.53748E-08   760   0.444E-04    0.676E-04
RMM:  25    -0.115784492885E+04   -0.41898E-05   -0.63722E-08   804   0.408E-04    0.771E-04
RMM:  26    -0.115784493304E+04   -0.41917E-05   -0.71860E-08   850   0.425E-04    0.549E-04
RMM:  27    -0.115784493646E+04   -0.34221E-05   -0.74761E-08   832   0.420E-04    0.481E-04
RMM:  28    -0.115784493827E+04   -0.18126E-05   -0.56946E-08   753   0.410E-04    0.499E-04
RMM:  29    -0.115784494028E+04   -0.20063E-05   -0.55420E-08   701   0.375E-04    0.458E-04
RMM:  30    -0.115784494214E+04   -0.18642E-05   -0.55557E-08   741   0.391E-04    0.227E-04
RMM:  31    -0.115784494434E+04   -0.21953E-05   -0.70987E-08   791   0.388E-04    0.337E-04
RMM:  32    -0.115784494594E+04   -0.16010E-05   -0.69862E-08   802   0.412E-04    0.270E-04
RMM:  33    -0.115784494705E+04   -0.11101E-05   -0.69435E-08   781   0.390E-04    0.109E-04
RMM:  34    -0.115784494760E+04   -0.55019E-06   -0.52654E-08   704   0.386E-04
 101 F= -.11658202E+04 E0= -.11658088E+04  d E =-.109155E-02  mag=    21.7772
 curvature:  -7.33 expect dE=-0.282E-01 dE for cont linesearch -0.380E-07
 trial: gam= 1.25679 g(F)=  0.385E-02 g(S)=  0.000E+00 ort = 0.182E-04 (trialstep = 0.234E+00)
 search vector abs. value=  0.104E+00
 bond charge predicted
       N       E                     dE             d eps       ncg     rms          rms(c)
DAV:   1    -0.115784217894E+04    0.27681E-02   -0.12977E+00  2016   0.238E+00    0.276E-01
RMM:   2    -0.115784498108E+04   -0.28021E-02   -0.27641E-02  2295   0.334E-01    0.360E-01
RMM:   3    -0.115784691647E+04   -0.19354E-02   -0.42012E-03  2272   0.151E-01    0.897E-01
RMM:   4    -0.115784534788E+04    0.15686E-02   -0.18287E-03  2545   0.819E-02    0.491E-01
RMM:   5    -0.115784512360E+04    0.22428E-03   -0.61747E-04  2178   0.541E-02    0.135E-01
RMM:   6    -0.115784528243E+04   -0.15883E-03   -0.21967E-04  2316   0.278E-02    0.241E-01
RMM:   7    -0.115784518229E+04    0.10014E-03   -0.12700E-04  2249   0.230E-02    0.123E-01
RMM:   8    -0.115784527377E+04   -0.91485E-04   -0.15043E-04  2163   0.264E-02    0.161E-01
RMM:   9    -0.115784525363E+04    0.20141E-04   -0.11272E-04  2180   0.220E-02    0.952E-02
RMM:  10    -0.115784526154E+04   -0.79020E-05   -0.70168E-05  1933   0.177E-02    0.791E-02
RMM:  11    -0.115784524962E+04    0.11912E-04   -0.27963E-05  1668   0.112E-02    0.453E-02
RMM:  12    -0.115784525418E+04   -0.45562E-05   -0.90223E-06  1476   0.700E-03    0.246E-02
RMM:  13    -0.115784525715E+04   -0.29739E-05   -0.38493E-06  1364   0.476E-03    0.147E-02
RMM:  14    -0.115784526198E+04   -0.48272E-05   -0.15806E-06  1270   0.296E-03    0.129E-02
RMM:  15    -0.115784526474E+04   -0.27641E-05   -0.90411E-07  1200   0.228E-03    0.613E-03
RMM:  16    -0.115784526854E+04   -0.37967E-05   -0.47285E-07  1169   0.158E-03    0.564E-03
RMM:  17    -0.115784527168E+04   -0.31400E-05   -0.33304E-07  1125   0.135E-03    0.463E-03
RMM:  18    -0.115784527462E+04   -0.29381E-05   -0.20045E-07  1079   0.104E-03    0.228E-03
RMM:  19    -0.115784527841E+04   -0.37951E-05   -0.12918E-07  1015   0.777E-04    0.188E-03
RMM:  20    -0.115784528025E+04   -0.18331E-05   -0.87628E-08   895   0.654E-04    0.200E-03
RMM:  21    -0.115784528191E+04   -0.16642E-05   -0.55144E-08   784   0.506E-04    0.112E-03
RMM:  22    -0.115784528333E+04   -0.14166E-05   -0.36629E-08   735   0.424E-04    0.801E-04
RMM:  23    -0.115784528554E+04   -0.22151E-05   -0.35153E-08   723   0.378E-04    0.563E-04
RMM:  24    -0.115784528808E+04   -0.25394E-05   -0.42566E-08   771   0.385E-04    0.665E-04
RMM:  25    -0.115784528916E+04   -0.10793E-05   -0.31931E-08   711   0.379E-04    0.570E-04
RMM:  26    -0.115784529046E+04   -0.13017E-05   -0.24423E-08   615   0.335E-04    0.331E-04
RMM:  27    -0.115784529166E+04   -0.11966E-05   -0.23690E-08   590   0.334E-04    0.270E-04
RMM:  28    -0.115784529306E+04   -0.14021E-05   -0.28612E-08   617   0.338E-04    0.225E-04
RMM:  29    -0.115784529400E+04   -0.94244E-06   -0.30521E-08   648   0.344E-04
 102 F= -.11658209E+04 E0= -.11658096E+04  d E =-.709533E-03  mag=    21.7767
 trial-energy change:   -0.000710  1 .order   -0.000709   -0.000907   -0.000511
 step:   0.5369(harm=  0.5369)  dis= 0.00570  next Energy= -1165.821263 (dE=-0.104E-02)
 bond charge predicted
       N       E                     dE             d eps       ncg     rms          rms(c)
DAV:   1    -0.115783995454E+04    0.53385E-02   -0.21654E+00  1992   0.307E+00    0.356E-01
RMM:   2    -0.115784470118E+04   -0.47466E-02   -0.46126E-02  2296   0.432E-01    0.466E-01
RMM:   3    -0.115784786778E+04   -0.31666E-02   -0.70172E-03  2270   0.196E-01    0.113E+00
RMM:   4    -0.115784528921E+04    0.25786E-02   -0.30035E-03  2549   0.106E-01    0.595E-01
RMM:   5    -0.115784493004E+04    0.35917E-03   -0.96000E-04  2199   0.676E-02    0.180E-01
RMM:   6    -0.115784515975E+04   -0.22971E-03   -0.35684E-04  2367   0.351E-02    0.320E-01
RMM:   7    -0.115784498905E+04    0.17070E-03   -0.21487E-04  2301   0.299E-02    0.160E-01
RMM:   8    -0.115784513028E+04   -0.14123E-03   -0.24949E-04  2198   0.341E-02    0.208E-01
RMM:   9    -0.115784509489E+04    0.35391E-04   -0.19160E-04  2238   0.285E-02    0.124E-01
RMM:  10    -0.115784510439E+04   -0.94969E-05   -0.11760E-04  2033   0.229E-02    0.102E-01
RMM:  11    -0.115784508293E+04    0.21457E-04   -0.46448E-05  1815   0.144E-02    0.561E-02
RMM:  12    -0.115784509084E+04   -0.79051E-05   -0.14714E-05  1552   0.860E-03    0.335E-02
RMM:  13    -0.115784509472E+04   -0.38864E-05   -0.63319E-06  1419   0.595E-03    0.205E-02
RMM:  14    -0.115784510211E+04   -0.73888E-05   -0.26177E-06  1328   0.368E-03    0.168E-02
RMM:  15    -0.115784510729E+04   -0.51780E-05   -0.15007E-06  1239   0.287E-03    0.787E-03
RMM:  16    -0.115784511364E+04   -0.63488E-05   -0.80360E-07  1200   0.205E-03    0.745E-03
RMM:  17    -0.115784511867E+04   -0.50356E-05   -0.53577E-07  1176   0.170E-03    0.615E-03
RMM:  18    -0.115784512342E+04   -0.47471E-05   -0.32335E-07  1112   0.131E-03    0.304E-03
RMM:  19    -0.115784512992E+04   -0.64990E-05   -0.21753E-07  1075   0.100E-03    0.263E-03
RMM:  20    -0.115784513295E+04   -0.30288E-05   -0.15098E-07   986   0.846E-04    0.256E-03
RMM:  21    -0.115784513581E+04   -0.28567E-05   -0.95605E-08   872   0.620E-04    0.148E-03
RMM:  22    -0.115784513821E+04   -0.24096E-05   -0.63597E-08   819   0.515E-04    0.101E-03
RMM:  23    -0.115784514174E+04   -0.35218E-05   -0.60355E-08   810   0.451E-04    0.106E-03
RMM:  24    -0.115784514481E+04   -0.30767E-05   -0.60145E-08   811   0.477E-04    0.830E-04
RMM:  25    -0.115784514805E+04   -0.32406E-05   -0.59502E-08   790   0.425E-04    0.582E-04
RMM:  26    -0.115784514981E+04   -0.17529E-05   -0.44941E-08   747   0.400E-04    0.701E-04
RMM:  27    -0.115784515130E+04   -0.14897E-05   -0.35018E-08   661   0.360E-04    0.395E-04
RMM:  28    -0.115784515373E+04   -0.24378E-05   -0.43541E-08   700   0.363E-04    0.283E-04
RMM:  29    -0.115784515584E+04   -0.21053E-05   -0.47431E-08   721   0.376E-04    0.263E-04
RMM:  30    -0.115784515766E+04   -0.18161E-05   -0.49868E-08   728   0.375E-04    0.200E-04
RMM:  31    -0.115784515942E+04   -0.17693E-05   -0.55766E-08   752   0.378E-04    0.154E-04
RMM:  32    -0.115784516086E+04   -0.14341E-05   -0.59251E-08   754   0.385E-04    0.119E-04
RMM:  33    -0.115784516185E+04   -0.99112E-06   -0.56867E-08   734   0.380E-04
 103 F= -.11658213E+04 E0= -.11658099E+04  d E =-.104636E-02  mag=    21.7760
 curvature:  -7.24 expect dE=-0.237E-01 dE for cont linesearch -0.281E-07
 trial: gam= 0.85972 g(F)=  0.327E-02 g(S)=  0.000E+00 ort = 0.201E-04 (trialstep = 0.295E+00)
 search vector abs. value=  0.805E-01
 bond charge predicted
       N       E                     dE             d eps       ncg     rms          rms(c)
DAV:   1    -0.115784180585E+04    0.33550E-02   -0.15619E+00  2004   0.261E+00    0.300E-01
RMM:   2    -0.115784529273E+04   -0.34869E-02   -0.33773E-02  2312   0.367E-01    0.408E-01
RMM:   3    -0.115784732088E+04   -0.20282E-02   -0.50787E-03  2278   0.167E-01    0.927E-01
RMM:   4    -0.115784583733E+04    0.14836E-02   -0.21052E-03  2545   0.894E-02    0.606E-01
RMM:   5    -0.115784534234E+04    0.49499E-03   -0.75085E-04  2195   0.590E-02    0.182E-01
RMM:   6    -0.115784552334E+04   -0.18101E-03   -0.28222E-04  2308   0.311E-02    0.252E-01
RMM:   7    -0.115784543844E+04    0.84900E-04   -0.15509E-04  2271   0.257E-02    0.120E-01
RMM:   8    -0.115784553570E+04   -0.97257E-04   -0.17205E-04  2189   0.282E-02    0.170E-01
RMM:   9    -0.115784552088E+04    0.14822E-04   -0.13736E-04  2177   0.240E-02    0.114E-01
RMM:  10    -0.115784552390E+04   -0.30210E-05   -0.82511E-05  1993   0.195E-02    0.818E-02
RMM:  11    -0.115784551442E+04    0.94826E-05   -0.34915E-05  1751   0.128E-02    0.480E-02
RMM:  12    -0.115784552178E+04   -0.73670E-05   -0.12424E-05  1518   0.766E-03    0.380E-02
RMM:  13    -0.115784552110E+04    0.68222E-06   -0.55329E-06  1396   0.566E-03
 104 F= -.11658220E+04 E0= -.11658106E+04  d E =-.738213E-03  mag=    21.7752
 trial-energy change:   -0.000738  1 .order   -0.000775   -0.000970   -0.000581
 step:   0.7344(harm=  0.7344)  dis= 0.00687  next Energy= -1165.822478 (dE=-0.121E-02)
 bond charge predicted
       N       E                     dE             d eps       ncg     rms          rms(c)
DAV:   1    -0.115783702959E+04    0.84922E-02   -0.34741E+00  1992   0.389E+00    0.448E-01
RMM:   2    -0.115784490090E+04   -0.78713E-02   -0.75216E-02  2315   0.548E-01    0.571E-01
RMM:   3    -0.115784917389E+04   -0.42730E-02   -0.11375E-02  2277   0.250E-01    0.129E+00
RMM:   4    -0.115784607717E+04    0.30967E-02   -0.43558E-03  2523   0.135E-01    0.825E-01
RMM:   5    -0.115784509414E+04    0.98302E-03   -0.14684E-03  2232   0.805E-02    0.316E-01
RMM:   6    -0.115784535126E+04   -0.25712E-03   -0.62503E-04  2353   0.461E-02    0.358E-01
RMM:   7    -0.115784520865E+04    0.14261E-03   -0.34749E-04  2315   0.385E-02    0.175E-01
RMM:   8    -0.115784535645E+04   -0.14780E-03   -0.35433E-04  2258   0.397E-02    0.242E-01
RMM:   9    -0.115784534610E+04    0.10351E-04   -0.30974E-04  2240   0.351E-02    0.180E-01
RMM:  10    -0.115784534901E+04   -0.29151E-05   -0.18082E-04  2172   0.278E-02    0.136E-01
RMM:  11    -0.115784531248E+04    0.36535E-04   -0.79005E-05  1961   0.191E-02    0.601E-02
RMM:  12    -0.115784533929E+04   -0.26809E-04   -0.27261E-05  1718   0.108E-02    0.595E-02
RMM:  13    -0.115784533907E+04    0.22088E-06   -0.12396E-05  1496   0.817E-03    0.368E-02
RMM:  14    -0.115784535052E+04   -0.11449E-04   -0.35724E-06  1381   0.426E-03    0.227E-02
RMM:  15    -0.115784535886E+04   -0.83422E-05   -0.20399E-06  1302   0.337E-03    0.132E-02
RMM:  16    -0.115784536860E+04   -0.97406E-05   -0.11247E-06  1246   0.255E-03    0.813E-03
RMM:  17    -0.115784537783E+04   -0.92294E-05   -0.78201E-07  1200   0.210E-03    0.820E-03
RMM:  18    -0.115784538408E+04   -0.62485E-05   -0.69021E-07  1183   0.183E-03    0.685E-03
RMM:  19    -0.115784539444E+04   -0.10369E-04   -0.43016E-07  1151   0.142E-03    0.394E-03
RMM:  20    -0.115784539866E+04   -0.42187E-05   -0.27077E-07  1058   0.118E-03    0.390E-03
RMM:  21    -0.115784540323E+04   -0.45622E-05   -0.16944E-07  1001   0.854E-04    0.311E-03
RMM:  22    -0.115784540775E+04   -0.45230E-05   -0.12095E-07   956   0.729E-04    0.289E-03
RMM:  23    -0.115784541549E+04   -0.77441E-05   -0.12890E-07   926   0.650E-04    0.189E-03
RMM:  24    -0.115784542020E+04   -0.47080E-05   -0.10474E-07   905   0.651E-04    0.114E-03
RMM:  25    -0.115784542577E+04   -0.55662E-05   -0.92299E-08   840   0.490E-04    0.101E-03
RMM:  26    -0.115784543083E+04   -0.50642E-05   -0.85409E-08   868   0.479E-04    0.954E-04
RMM:  27    -0.115784543353E+04   -0.26946E-05   -0.67229E-08   779   0.437E-04    0.683E-04
RMM:  28    -0.115784543844E+04   -0.49166E-05   -0.81978E-08   803   0.423E-04    0.410E-04
RMM:  29    -0.115784544237E+04   -0.39311E-05   -0.82351E-08   824   0.440E-04    0.324E-04
RMM:  30    -0.115784544565E+04   -0.32752E-05   -0.87567E-08   837   0.424E-04    0.276E-04
RMM:  31    -0.115784544823E+04   -0.25808E-05   -0.80649E-08   814   0.429E-04    0.286E-04
RMM:  32    -0.115784545082E+04   -0.25926E-05   -0.87685E-08   788   0.415E-04    0.216E-04
RMM:  33    -0.115784545299E+04   -0.21727E-05   -0.95905E-08   830   0.441E-04    0.158E-04
RMM:  34    -0.115784545394E+04   -0.94652E-06   -0.77456E-08   780   0.420E-04
 105 F= -.11658225E+04 E0= -.11658111E+04  d E =-.123634E-02  mag=    21.7721
 curvature:  -8.98 expect dE=-0.314E-01 dE for cont linesearch -0.368E-06
 trial: gam= 1.04353 g(F)=  0.350E-02 g(S)=  0.000E+00 ort = 0.574E-04 (trialstep = 0.338E+00)
 search vector abs. value=  0.913E-01
 bond charge predicted
       N       E                     dE             d eps       ncg     rms          rms(c)
DAV:   1    -0.115784032387E+04    0.51291E-02   -0.23356E+00  2004   0.318E+00    0.365E-01
RMM:   2    -0.115784548827E+04   -0.51644E-02   -0.50196E-02  2316   0.446E-01    0.459E-01
RMM:   3    -0.115784875538E+04   -0.32671E-02   -0.74465E-03  2273   0.203E-01    0.119E+00
RMM:   4    -0.115784616036E+04    0.25950E-02   -0.30772E-03  2540   0.111E-01    0.655E-01
RMM:   5    -0.115784569049E+04    0.46987E-03   -0.10667E-03  2211   0.711E-02    0.263E-01
RMM:   6    -0.115784586626E+04   -0.17577E-03   -0.42784E-04  2335   0.375E-02    0.316E-01
RMM:   7    -0.115784575819E+04    0.10806E-03   -0.24727E-04  2298   0.321E-02    0.148E-01
RMM:   8    -0.115784586628E+04   -0.10809E-03   -0.25123E-04  2212   0.337E-02    0.199E-01
RMM:   9    -0.115784586931E+04   -0.30325E-05   -0.22254E-04  2217   0.301E-02    0.157E-01
RMM:  10    -0.115784586030E+04    0.90080E-05   -0.13206E-04  2135   0.242E-02    0.112E-01
RMM:  11    -0.115784583556E+04    0.24739E-04   -0.51411E-05  1856   0.157E-02    0.598E-02
RMM:  12    -0.115784584827E+04   -0.12709E-04   -0.22868E-05  1646   0.970E-03    0.508E-02
RMM:  13    -0.115784584907E+04   -0.80168E-06   -0.10339E-05  1474   0.748E-03    0.322E-02
RMM:  14    -0.115784585572E+04   -0.66492E-05   -0.35871E-06  1335   0.403E-03    0.278E-02
RMM:  15    -0.115784585768E+04   -0.19617E-05   -0.18898E-06  1246   0.298E-03    0.165E-02
RMM:  16    -0.115784586211E+04   -0.44281E-05   -0.81906E-07  1202   0.212E-03    0.748E-03
RMM:  17    -0.115784586753E+04   -0.54196E-05   -0.61749E-07  1172   0.193E-03    0.694E-03
RMM:  18    -0.115784587099E+04   -0.34622E-05   -0.48142E-07  1144   0.168E-03    0.634E-03
RMM:  19    -0.115784587542E+04   -0.44218E-05   -0.33445E-07  1116   0.135E-03    0.403E-03
RMM:  20    -0.115784587797E+04   -0.25557E-05   -0.23271E-07  1045   0.112E-03    0.279E-03
RMM:  21    -0.115784588033E+04   -0.23599E-05   -0.12099E-07   979   0.740E-04    0.256E-03
RMM:  22    -0.115784588269E+04   -0.23597E-05   -0.82286E-08   905   0.642E-04    0.229E-03
RMM:  23    -0.115784588570E+04   -0.30087E-05   -0.69206E-08   853   0.533E-04    0.196E-03
RMM:  24    -0.115784588775E+04   -0.20520E-05   -0.54681E-08   807   0.505E-04    0.114E-03
RMM:  25    -0.115784589027E+04   -0.25146E-05   -0.46602E-08   770   0.420E-04    0.748E-04
RMM:  26    -0.115784589209E+04   -0.18184E-05   -0.39971E-08   752   0.407E-04    0.911E-04
RMM:  27    -0.115784589353E+04   -0.14471E-05   -0.32026E-08   677   0.372E-04    0.804E-04
RMM:  28    -0.115784589575E+04   -0.22173E-05   -0.37452E-08   686   0.365E-04    0.310E-04
RMM:  29    -0.115784589799E+04   -0.22367E-05   -0.49020E-08   746   0.375E-04    0.328E-04
RMM:  30    -0.115784589930E+04   -0.13155E-05   -0.41057E-08   707   0.376E-04    0.296E-04
RMM:  31    -0.115784590066E+04   -0.13543E-05   -0.42342E-08   692   0.356E-04    0.164E-04
RMM:  32    -0.115784590191E+04   -0.12585E-05   -0.44139E-08   713   0.366E-04    0.217E-04
RMM:  33    -0.115784590294E+04   -0.10249E-05   -0.49382E-08   702   0.364E-04    0.123E-04
RMM:  34    -0.115784590348E+04   -0.54220E-06   -0.43258E-08   697   0.365E-04
 106 F= -.11658234E+04 E0= -.11658119E+04  d E =-.884822E-03  mag=    21.7712
 trial-energy change:   -0.000885  1 .order   -0.000879   -0.001200   -0.000558
 step:   0.6061(harm=  0.6309)  dis= 0.00606  next Energy= -1165.823616 (dE=-0.111E-02)
 bond charge predicted
       N       E                     dE             d eps       ncg     rms          rms(c)
DAV:   1    -0.115784226717E+04    0.36358E-02   -0.14792E+00  2004   0.253E+00    0.291E-01
RMM:   2    -0.115784549927E+04   -0.32321E-02   -0.31780E-02  2315   0.355E-01    0.367E-01
RMM:   3    -0.115784757199E+04   -0.20727E-02   -0.47209E-03  2280   0.162E-01    0.939E-01
RMM:   4    -0.115784592230E+04    0.16497E-02   -0.19512E-03  2533   0.883E-02    0.539E-01
RMM:   5    -0.115784562603E+04    0.29626E-03   -0.67805E-04  2198   0.564E-02    0.208E-01
RMM:   6    -0.115784575934E+04   -0.13331E-03   -0.27573E-04  2270   0.305E-02    0.245E-01
RMM:   7    -0.115784569396E+04    0.65375E-04   -0.15425E-04  2278   0.253E-02    0.116E-01
RMM:   8    -0.115784577178E+04   -0.77812E-04   -0.16013E-04  2178   0.268E-02    0.162E-01
RMM:   9    -0.115784577117E+04    0.60364E-06   -0.14040E-04  2173   0.239E-02    0.122E-01
RMM:  10    -0.115784576878E+04    0.23967E-05   -0.83616E-05  2019   0.193E-02    0.864E-02
RMM:  11    -0.115784575473E+04    0.14048E-04   -0.32765E-05  1745   0.126E-02    0.443E-02
RMM:  12    -0.115784576348E+04   -0.87493E-05   -0.14381E-05  1534   0.785E-03    0.396E-02
RMM:  13    -0.115784576368E+04   -0.20093E-06   -0.63392E-06  1409   0.612E-03
 107 F= -.11658236E+04 E0= -.11658121E+04  d E =-.109184E-02  mag=    21.7708
 curvature:  -8.04 expect dE=-0.233E-01 dE for cont linesearch -0.141E-05
 trial: gam= 0.81955 g(F)=  0.290E-02 g(S)=  0.000E+00 ort = 0.127E-03 (trialstep = 0.391E+00)
 search vector abs. value=  0.644E-01
 bond charge predicted
       N       E                     dE             d eps       ncg     rms          rms(c)
DAV:   1    -0.115784105032E+04    0.47132E-02   -0.22052E+00  1992   0.306E+00    0.353E-01
RMM:   2    -0.115784574685E+04   -0.46965E-02   -0.47129E-02  2316   0.430E-01    0.374E-01
RMM:   3    -0.115784869182E+04   -0.29450E-02   -0.68082E-03  2282   0.196E-01    0.118E+00
RMM:   4    -0.115784628737E+04    0.24044E-02   -0.28158E-03  2542   0.105E-01    0.583E-01
RMM:   5    -0.115784610709E+04    0.18028E-03   -0.10327E-03  2200   0.693E-02    0.235E-01
RMM:   6    -0.115784634991E+04   -0.24282E-03   -0.40526E-04  2356   0.368E-02    0.315E-01
RMM:   7    -0.115784615620E+04    0.19372E-03   -0.21798E-04  2293   0.296E-02    0.154E-01
RMM:   8    -0.115784625246E+04   -0.96265E-04   -0.22639E-04  2208   0.313E-02    0.188E-01
RMM:   9    -0.115784626118E+04   -0.87231E-05   -0.19594E-04  2223   0.279E-02    0.154E-01
RMM:  10    -0.115784624659E+04    0.14595E-04   -0.12336E-04  2027   0.222E-02    0.108E-01
RMM:  11    -0.115784623038E+04    0.16207E-04   -0.51343E-05  1818   0.152E-02    0.513E-02
RMM:  12    -0.115784624920E+04   -0.18820E-04   -0.26587E-05  1627   0.104E-02    0.421E-02
RMM:  13    -0.115784625511E+04   -0.59114E-05   -0.98087E-06  1466   0.727E-03    0.284E-02
RMM:  14    -0.115784626199E+04   -0.68743E-05   -0.33251E-06  1343   0.390E-03    0.255E-02
RMM:  15    -0.115784626722E+04   -0.52295E-05   -0.15441E-06  1232   0.295E-03    0.134E-02
RMM:  16    -0.115784627382E+04   -0.65999E-05   -0.74923E-07  1198   0.200E-03    0.956E-03
RMM:  17    -0.115784628142E+04   -0.76070E-05   -0.70097E-07  1180   0.206E-03    0.804E-03
RMM:  18    -0.115784628964E+04   -0.82137E-05   -0.56009E-07  1167   0.175E-03    0.658E-03
RMM:  19    -0.115784629838E+04   -0.87445E-05   -0.43751E-07  1140   0.158E-03    0.453E-03
RMM:  20    -0.115784630288E+04   -0.44938E-05   -0.25020E-07  1058   0.116E-03    0.365E-03
RMM:  21    -0.115784630868E+04   -0.58066E-05   -0.17649E-07  1031   0.874E-04    0.366E-03
RMM:  22    -0.115784631326E+04   -0.45774E-05   -0.13246E-07   955   0.764E-04    0.302E-03
RMM:  23    -0.115784632023E+04   -0.69744E-05   -0.11397E-07   915   0.596E-04    0.169E-03
RMM:  24    -0.115784632531E+04   -0.50801E-05   -0.92970E-08   875   0.559E-04    0.935E-04
RMM:  25    -0.115784633146E+04   -0.61495E-05   -0.10223E-07   877   0.487E-04    0.106E-03
RMM:  26    -0.115784633413E+04   -0.26621E-05   -0.72975E-08   813   0.485E-04    0.108E-03
RMM:  27    -0.115784633918E+04   -0.50500E-05   -0.90111E-08   799   0.417E-04    0.624E-04
RMM:  28    -0.115784634372E+04   -0.45482E-05   -0.88105E-08   844   0.465E-04    0.372E-04
RMM:  29    -0.115784634774E+04   -0.40139E-05   -0.10596E-07   859   0.437E-04    0.327E-04
RMM:  30    -0.115784635039E+04   -0.26546E-05   -0.82451E-08   794   0.463E-04    0.246E-04
RMM:  31    -0.115784635302E+04   -0.26248E-05   -0.98782E-08   810   0.411E-04    0.224E-04
RMM:  32    -0.115784635527E+04   -0.22521E-05   -0.93853E-08   849   0.467E-04    0.200E-04
RMM:  33    -0.115784635657E+04   -0.13032E-05   -0.90311E-08   800   0.416E-04    0.118E-04
RMM:  34    -0.115784635710E+04   -0.52746E-06   -0.63597E-08   739   0.415E-04
 108 F= -.11658246E+04 E0= -.11658131E+04  d E =-.978164E-03  mag=    21.7681
 trial-energy change:   -0.000978  1 .order   -0.000931   -0.001177   -0.000686
 step:   0.6684(harm=  0.9387)  dis= 0.00570  next Energy= -1165.824836 (dE=-0.124E-02)
 bond charge predicted
       N       E                     dE             d eps       ncg     rms          rms(c)
DAV:   1    -0.115784380656E+04    0.25500E-02   -0.11062E+00  2016   0.217E+00    0.250E-01
RMM:   2    -0.115784610269E+04   -0.22961E-02   -0.23594E-02  2315   0.305E-01    0.259E-01
RMM:   3    -0.115784761169E+04   -0.15090E-02   -0.34146E-03  2284   0.137E-01    0.722E-01
RMM:   4    -0.115784637444E+04    0.12372E-02   -0.13052E-03  2520   0.750E-02    0.360E-01
RMM:   5    -0.115784630745E+04    0.66989E-04   -0.37714E-04  2218   0.407E-02    0.172E-01
RMM:   6    -0.115784642088E+04   -0.11342E-03   -0.18522E-04  2200   0.253E-02    0.237E-01
RMM:   7    -0.115784633896E+04    0.81917E-04   -0.11381E-04  2206   0.217E-02    0.101E-01
RMM:   8    -0.115784640441E+04   -0.65456E-04   -0.11824E-04  2115   0.231E-02    0.135E-01
RMM:   9    -0.115784641130E+04   -0.68836E-05   -0.10040E-04  2125   0.199E-02    0.113E-01
RMM:  10    -0.115784640060E+04    0.10695E-04   -0.62951E-05  1917   0.164E-02    0.731E-02
RMM:  11    -0.115784639330E+04    0.73080E-05   -0.23740E-05  1638   0.106E-02    0.366E-02
RMM:  12    -0.115784640064E+04   -0.73420E-05   -0.11601E-05  1495   0.733E-03    0.301E-02
RMM:  13    -0.115784640299E+04   -0.23540E-05   -0.47041E-06  1383   0.540E-03    0.196E-02
RMM:  14    -0.115784640718E+04   -0.41903E-05   -0.15035E-06  1254   0.283E-03    0.176E-02
RMM:  15    -0.115784640877E+04   -0.15888E-05   -0.85868E-07  1188   0.229E-03    0.106E-02
RMM:  16    -0.115784641147E+04   -0.26957E-05   -0.36314E-07  1155   0.138E-03    0.612E-03
RMM:  17    -0.115784641425E+04   -0.27807E-05   -0.26619E-07  1115   0.126E-03    0.539E-03
RMM:  18    -0.115784641690E+04   -0.26511E-05   -0.20671E-07  1063   0.108E-03    0.382E-03
RMM:  19    -0.115784642130E+04   -0.44017E-05   -0.15826E-07  1063   0.928E-04    0.252E-03
RMM:  20    -0.115784642326E+04   -0.19631E-05   -0.11093E-07   987   0.788E-04    0.260E-03
RMM:  21    -0.115784642488E+04   -0.16214E-05   -0.68745E-08   860   0.601E-04    0.194E-03
RMM:  22    -0.115784642658E+04   -0.16962E-05   -0.45473E-08   806   0.486E-04    0.182E-03
RMM:  23    -0.115784642886E+04   -0.22790E-05   -0.43135E-08   791   0.454E-04    0.120E-03
RMM:  24    -0.115784643082E+04   -0.19611E-05   -0.36111E-08   748   0.428E-04    0.718E-04
RMM:  25    -0.115784643309E+04   -0.22657E-05   -0.34175E-08   690   0.376E-04    0.545E-04
RMM:  26    -0.115784643449E+04   -0.14049E-05   -0.28222E-08   676   0.364E-04    0.776E-04
RMM:  27    -0.115784643589E+04   -0.13942E-05   -0.25900E-08   635   0.341E-04    0.561E-04
RMM:  28    -0.115784643757E+04   -0.16808E-05   -0.29223E-08   643   0.342E-04    0.266E-04
RMM:  29    -0.115784643920E+04   -0.16317E-05   -0.35082E-08   666   0.349E-04    0.226E-04
RMM:  30    -0.115784644043E+04   -0.12304E-05   -0.35852E-08   671   0.356E-04    0.174E-04
RMM:  31    -0.115784644150E+04   -0.10674E-05   -0.36104E-08   662   0.349E-04    0.155E-04
RMM:  32    -0.115784644237E+04   -0.87632E-06   -0.34619E-08   653   0.350E-04
 109 F= -.11658249E+04 E0= -.11658134E+04  d E =-.133636E-02  mag=    21.7665
 curvature:  -7.60 expect dE=-0.167E-01 dE for cont linesearch -0.815E-04
 ZBRENT: increasing intervall
 opt :   1.2226  next Energy= -1165.824884 (dE=-0.129E-02)
 bond charge predicted
       N       E                     dE             d eps       ncg     rms          rms(c)
DAV:   1    -0.115783530101E+04    0.11140E-01   -0.44249E+00  1992   0.434E+00    0.500E-01
RMM:   2    -0.115784482585E+04   -0.95248E-02   -0.94511E-02  2316   0.609E-01    0.514E-01
RMM:   3    -0.115785080774E+04   -0.59819E-02   -0.13716E-02  2281   0.275E-01    0.148E+00
RMM:   4    -0.115784602875E+04    0.47790E-02   -0.52584E-03  2525   0.150E-01    0.721E-01
RMM:   5    -0.115784558255E+04    0.44619E-03   -0.15816E-03  2248   0.847E-02    0.358E-01
RMM:   6    -0.115784589465E+04   -0.31210E-03   -0.75942E-04  2352   0.496E-02    0.482E-01
RMM:   7    -0.115784560618E+04    0.28847E-03   -0.46782E-04  2313   0.436E-02    0.214E-01
RMM:   8    -0.115784577444E+04   -0.16826E-03   -0.46198E-04  2234   0.456E-02    0.262E-01
RMM:   9    -0.115784581221E+04   -0.37768E-04   -0.41225E-04  2276   0.398E-02    0.237E-01
RMM:  10    -0.115784575404E+04    0.58170E-04   -0.26737E-04  2186   0.338E-02    0.163E-01
RMM:  11    -0.115784570785E+04    0.46191E-04   -0.10179E-04  2011   0.215E-02    0.916E-02
RMM:  12    -0.115784572567E+04   -0.17823E-04   -0.48715E-05  1833   0.143E-02    0.622E-02
RMM:  13    -0.115784573550E+04   -0.98272E-05   -0.19782E-05  1583   0.101E-02    0.446E-02
RMM:  14    -0.115784575073E+04   -0.15230E-04   -0.80506E-06  1449   0.591E-03    0.440E-02
RMM:  15    -0.115784575283E+04   -0.21066E-05   -0.38079E-06  1318   0.430E-03    0.280E-02
RMM:  16    -0.115784576075E+04   -0.79162E-05   -0.15615E-06  1282   0.283E-03    0.152E-02
RMM:  17    -0.115784577021E+04   -0.94585E-05   -0.11567E-06  1241   0.262E-03    0.117E-02
RMM:  18    -0.115784577819E+04   -0.79861E-05   -0.79785E-07  1200   0.213E-03    0.735E-03
RMM:  19    -0.115784579147E+04   -0.13280E-04   -0.57666E-07  1177   0.176E-03    0.462E-03
RMM:  20    -0.115784579845E+04   -0.69732E-05   -0.38686E-07  1110   0.143E-03    0.536E-03
RMM:  21    -0.115784580294E+04   -0.44887E-05   -0.25060E-07  1047   0.109E-03    0.388E-03
RMM:  22    -0.115784580807E+04   -0.51367E-05   -0.15349E-07  1018   0.802E-04    0.324E-03
RMM:  23    -0.115784581577E+04   -0.76986E-05   -0.14031E-07   965   0.701E-04    0.231E-03
RMM:  24    -0.115784582231E+04   -0.65405E-05   -0.13296E-07   947   0.702E-04    0.180E-03
RMM:  25    -0.115784582775E+04   -0.54417E-05   -0.10958E-07   870   0.610E-04    0.116E-03
RMM:  26    -0.115784583189E+04   -0.41370E-05   -0.87154E-08   840   0.513E-04    0.148E-03
RMM:  27    -0.115784583635E+04   -0.44572E-05   -0.81342E-08   831   0.474E-04    0.123E-03
RMM:  28    -0.115784584184E+04   -0.54898E-05   -0.90690E-08   846   0.452E-04    0.628E-04
RMM:  29    -0.115784584754E+04   -0.56989E-05   -0.10714E-07   887   0.467E-04    0.465E-04
RMM:  30    -0.115784585178E+04   -0.42422E-05   -0.10736E-07   878   0.471E-04    0.361E-04
RMM:  31    -0.115784585470E+04   -0.29205E-05   -0.97492E-08   827   0.452E-04    0.309E-04
RMM:  32    -0.115784585788E+04   -0.31844E-05   -0.10457E-07   854   0.447E-04    0.311E-04
RMM:  33    -0.115784586092E+04   -0.30403E-05   -0.12071E-07   868   0.468E-04    0.259E-04
RMM:  34    -0.115784586253E+04   -0.16057E-05   -0.11154E-07   875   0.470E-04    0.154E-04
RMM:  35    -0.115784586325E+04   -0.72571E-06   -0.83373E-08   782   0.428E-04
 110 F= -.11658249E+04 E0= -.11658133E+04  d E =-.130402E-02  mag=    21.7632
 curvature:   4.73 expect dE= 0.346E-01 dE for cont linesearch  0.708E-04
 ZBRENT: bracketing found
 ZBRENT: interpolating
 opt :   0.9225  next Energy= -1165.825040 (dE=-0.144E-02)
 bond charge predicted
       N       E                     dE             d eps       ncg     rms          rms(c)
DAV:   1    -0.115784321617E+04    0.26464E-02   -0.12974E+00  2016   0.235E+00    0.271E-01
RMM:   2    -0.115784592199E+04   -0.27058E-02   -0.27619E-02  2304   0.330E-01    0.284E-01
RMM:   3    -0.115784764607E+04   -0.17241E-02   -0.40143E-03  2283   0.149E-01    0.730E-01
RMM:   4    -0.115784616050E+04    0.14856E-02   -0.15286E-03  2528   0.815E-02    0.326E-01
RMM:   5    -0.115784617353E+04   -0.13025E-04   -0.37160E-04  2278   0.382E-02    0.183E-01
RMM:   6    -0.115784628509E+04   -0.11156E-03   -0.19328E-04  2220   0.274E-02    0.218E-01
RMM:   7    -0.115784620032E+04    0.84765E-04   -0.12083E-04  2189   0.229E-02    0.114E-01
RMM:   8    -0.115784628794E+04   -0.87615E-04   -0.14198E-04  2156   0.247E-02    0.165E-01
RMM:   9    -0.115784626123E+04    0.26709E-04   -0.11027E-04  2156   0.212E-02    0.110E-01
RMM:  10    -0.115784625968E+04    0.15456E-05   -0.64217E-05  1892   0.160E-02    0.716E-02
RMM:  11    -0.115784625551E+04    0.41694E-05   -0.26339E-05  1652   0.109E-02    0.348E-02
RMM:  12    -0.115784626315E+04   -0.76363E-05   -0.12003E-05  1499   0.761E-03    0.275E-02
RMM:  13    -0.115784626353E+04   -0.37945E-06   -0.46870E-06  1387   0.531E-03
 111 F= -.11658250E+04 E0= -.11658134E+04  d E =-.140803E-02  mag=    21.7641
 curvature:  -7.06 expect dE=-0.276E-01 dE for cont linesearch -0.166E-06
 trial: gam= 1.40249 g(F)=  0.390E-02 g(S)=  0.000E+00 ort = 0.389E-04 (trialstep = 0.245E+00)
 search vector abs. value=  0.131E+00
 bond charge predicted
       N       E                     dE             d eps       ncg     rms          rms(c)
DAV:   1    -0.115784255823E+04    0.37049E-02   -0.17524E+00  2016   0.271E+00    0.320E-01
RMM:   2    -0.115784626749E+04   -0.37093E-02   -0.37208E-02  2311   0.381E-01    0.373E-01
RMM:   3    -0.115784918964E+04   -0.29222E-02   -0.54673E-03  2276   0.171E-01    0.141E+00
RMM:   4    -0.115784651839E+04    0.26712E-02   -0.27619E-03  2539   0.977E-02    0.588E-01
RMM:   5    -0.115784654436E+04   -0.25971E-04   -0.11194E-03  2179   0.728E-02    0.202E-01
RMM:   6    -0.115784676370E+04   -0.21934E-03   -0.35800E-04  2343   0.353E-02    0.286E-01
RMM:   7    -0.115784663024E+04    0.13346E-03   -0.18276E-04  2285   0.268E-02    0.150E-01
RMM:   8    -0.115784670745E+04   -0.77208E-04   -0.18309E-04  2165   0.287E-02    0.170E-01
RMM:   9    -0.115784672792E+04   -0.20470E-04   -0.15790E-04  2182   0.249E-02    0.148E-01
RMM:  10    -0.115784671041E+04    0.17507E-04   -0.10757E-04  1992   0.212E-02    0.954E-02
RMM:  11    -0.115784669835E+04    0.12059E-04   -0.41947E-05  1790   0.139E-02    0.456E-02
RMM:  12    -0.115784670887E+04   -0.10521E-04   -0.20222E-05  1606   0.979E-03    0.443E-02
RMM:  13    -0.115784670740E+04    0.14725E-05   -0.75419E-06  1459   0.673E-03    0.347E-02
RMM:  14    -0.115784670986E+04   -0.24639E-05   -0.23549E-06  1346   0.362E-03    0.221E-02
RMM:  15    -0.115784671262E+04   -0.27550E-05   -0.13255E-06  1274   0.291E-03    0.122E-02
RMM:  16    -0.115784671564E+04   -0.30265E-05   -0.66913E-07  1182   0.201E-03    0.843E-03
RMM:  17    -0.115784671763E+04   -0.19905E-05   -0.55753E-07  1159   0.175E-03    0.905E-03
RMM:  18    -0.115784671957E+04   -0.19366E-05   -0.41815E-07  1128   0.141E-03    0.765E-03
RMM:  19    -0.115784672311E+04   -0.35346E-05   -0.26698E-07  1105   0.122E-03    0.342E-03
RMM:  20    -0.115784672500E+04   -0.18971E-05   -0.18539E-07  1048   0.995E-04    0.452E-03
RMM:  21    -0.115784672628E+04   -0.12764E-05   -0.11332E-07  1004   0.825E-04    0.387E-03
RMM:  22    -0.115784672737E+04   -0.10948E-05   -0.63905E-08   861   0.575E-04    0.388E-03
RMM:  23    -0.115784672868E+04   -0.13084E-05   -0.47989E-08   812   0.537E-04    0.247E-03
RMM:  24    -0.115784673057E+04   -0.18836E-05   -0.39026E-08   757   0.446E-04    0.126E-03
RMM:  25    -0.115784673232E+04   -0.17577E-05   -0.33889E-08   731   0.418E-04    0.550E-04
RMM:  26    -0.115784673378E+04   -0.14601E-05   -0.28341E-08   676   0.357E-04    0.544E-04
RMM:  27    -0.115784673437E+04   -0.58614E-06   -0.17519E-08   594   0.343E-04
 112 F= -.11658258E+04 E0= -.11658142E+04  d E =-.793465E-03  mag=    21.7622
 trial-energy change:   -0.000793  1 .order   -0.000758   -0.000970   -0.000546
 step:   0.4161(harm=  0.5608)  dis= 0.00511  next Energy= -1165.826002 (dE=-0.996E-03)
 bond charge predicted
       N       E                     dE             d eps       ncg     rms          rms(c)
DAV:   1    -0.115784477346E+04    0.19603E-02   -0.85183E-01  1992   0.189E+00    0.223E-01
RMM:   2    -0.115784651828E+04   -0.17448E-02   -0.18102E-02  2312   0.265E-01    0.258E-01
RMM:   3    -0.115784791105E+04   -0.13928E-02   -0.26310E-03  2278   0.119E-01    0.945E-01
RMM:   4    -0.115784661442E+04    0.12966E-02   -0.13000E-03  2544   0.678E-02    0.399E-01
RMM:   5    -0.115784665868E+04   -0.44262E-04   -0.49149E-04  2144   0.480E-02    0.149E-01
RMM:   6    -0.115784677772E+04   -0.11904E-03   -0.17290E-04  2239   0.248E-02    0.197E-01
RMM:   7    -0.115784670646E+04    0.71257E-04   -0.89012E-05  2171   0.187E-02    0.936E-02
RMM:   8    -0.115784675884E+04   -0.52375E-04   -0.96950E-05  2063   0.207E-02    0.125E-01
RMM:   9    -0.115784675648E+04    0.23569E-05   -0.76451E-05  2003   0.174E-02    0.976E-02
RMM:  10    -0.115784674973E+04    0.67470E-05   -0.49759E-05  1855   0.146E-02    0.615E-02
RMM:  11    -0.115784674780E+04    0.19356E-05   -0.18731E-05  1575   0.933E-03    0.325E-02
RMM:  12    -0.115784675563E+04   -0.78313E-05   -0.95612E-06  1475   0.702E-03    0.296E-02
RMM:  13    -0.115784675821E+04   -0.25827E-05   -0.36670E-06  1369   0.487E-03    0.220E-02
RMM:  14    -0.115784676205E+04   -0.38372E-05   -0.80730E-07  1200   0.232E-03    0.123E-02
RMM:  15    -0.115784676435E+04   -0.23025E-05   -0.58246E-07  1173   0.198E-03    0.959E-03
RMM:  16    -0.115784676699E+04   -0.26418E-05   -0.33691E-07  1145   0.138E-03    0.617E-03
RMM:  17    -0.115784676984E+04   -0.28484E-05   -0.28561E-07  1111   0.124E-03    0.611E-03
RMM:  18    -0.115784677324E+04   -0.34046E-05   -0.28589E-07  1091   0.111E-03    0.627E-03
RMM:  19    -0.115784677677E+04   -0.35245E-05   -0.17927E-07  1060   0.103E-03    0.220E-03
RMM:  20    -0.115784677972E+04   -0.29478E-05   -0.94121E-08   995   0.649E-04    0.274E-03
RMM:  21    -0.115784678135E+04   -0.16294E-05   -0.71783E-08   896   0.626E-04    0.306E-03
RMM:  22    -0.115784678317E+04   -0.18241E-05   -0.47756E-08   786   0.479E-04    0.245E-03
RMM:  23    -0.115784678519E+04   -0.20195E-05   -0.39476E-08   763   0.445E-04    0.136E-03
RMM:  24    -0.115784678743E+04   -0.22372E-05   -0.40113E-08   747   0.417E-04    0.832E-04
RMM:  25    -0.115784678931E+04   -0.18820E-05   -0.35528E-08   732   0.400E-04    0.500E-04
RMM:  26    -0.115784679074E+04   -0.14329E-05   -0.27023E-08   646   0.350E-04    0.663E-04
RMM:  27    -0.115784679210E+04   -0.13620E-05   -0.25983E-08   628   0.343E-04    0.343E-04
RMM:  28    -0.115784679433E+04   -0.22240E-05   -0.36936E-08   648   0.343E-04    0.241E-04
RMM:  29    -0.115784679561E+04   -0.12868E-05   -0.37282E-08   691   0.362E-04    0.177E-04
RMM:  30    -0.115784679660E+04   -0.98133E-06   -0.33762E-08   642   0.343E-04
 113 F= -.11658261E+04 E0= -.11658144E+04  d E =-.108087E-02  mag=    21.7601
 curvature:  -7.31 expect dE=-0.153E-01 dE for cont linesearch -0.619E-04
 ZBRENT: increasing intervall
 opt :   0.7579  next Energy= -1165.826045 (dE=-0.104E-02)
 bond charge predicted
       N       E                     dE             d eps       ncg     rms          rms(c)
DAV:   1    -0.115783822118E+04    0.85744E-02   -0.34074E+00  1992   0.378E+00    0.446E-01
RMM:   2    -0.115784548118E+04   -0.72600E-02   -0.72496E-02  2316   0.531E-01    0.508E-01
RMM:   3    -0.115785114745E+04   -0.56663E-02   -0.10553E-02  2280   0.238E-01    0.204E+00
RMM:   4    -0.115784598116E+04    0.51663E-02   -0.53329E-03  2549   0.137E-01    0.844E-01
RMM:   5    -0.115784596341E+04    0.17750E-04   -0.21833E-03  2195   0.101E-01    0.308E-01
RMM:   6    -0.115784637003E+04   -0.40662E-03   -0.73179E-04  2366   0.509E-02    0.403E-01
RMM:   7    -0.115784610163E+04    0.26840E-03   -0.36910E-04  2349   0.377E-02    0.200E-01
RMM:   8    -0.115784624525E+04   -0.14362E-03   -0.38344E-04  2193   0.410E-02    0.252E-01
RMM:   9    -0.115784623535E+04    0.99000E-05   -0.30963E-04  2219   0.341E-02    0.198E-01
RMM:  10    -0.115784619615E+04    0.39201E-04   -0.20696E-04  2145   0.294E-02    0.123E-01
RMM:  11    -0.115784618133E+04    0.14818E-04   -0.81246E-05  1950   0.189E-02    0.672E-02
RMM:  12    -0.115784620443E+04   -0.23100E-04   -0.41677E-05  1812   0.138E-02    0.646E-02
RMM:  13    -0.115784620598E+04   -0.15491E-05   -0.14905E-05  1546   0.897E-03    0.465E-02
RMM:  14    -0.115784621652E+04   -0.10533E-04   -0.37707E-06  1391   0.458E-03    0.275E-02
RMM:  15    -0.115784622306E+04   -0.65452E-05   -0.26016E-06  1321   0.382E-03    0.203E-02
RMM:  16    -0.115784623023E+04   -0.71720E-05   -0.14325E-06  1252   0.269E-03    0.140E-02
RMM:  17    -0.115784623780E+04   -0.75702E-05   -0.11292E-06  1226   0.245E-03    0.144E-02
RMM:  18    -0.115784624651E+04   -0.87088E-05   -0.10077E-06  1220   0.222E-03    0.120E-02
RMM:  19    -0.115784625668E+04   -0.10167E-04   -0.61870E-07  1172   0.193E-03    0.442E-03
RMM:  20    -0.115784626358E+04   -0.69003E-05   -0.33960E-07  1104   0.131E-03    0.566E-03
RMM:  21    -0.115784626749E+04   -0.39085E-05   -0.24863E-07  1046   0.118E-03    0.577E-03
RMM:  22    -0.115784627255E+04   -0.50617E-05   -0.16740E-07  1033   0.828E-04    0.505E-03
RMM:  23    -0.115784627809E+04   -0.55421E-05   -0.13808E-07   988   0.782E-04    0.287E-03
RMM:  24    -0.115784628444E+04   -0.63458E-05   -0.12368E-07   919   0.657E-04    0.178E-03
RMM:  25    -0.115784629086E+04   -0.64237E-05   -0.11185E-07   890   0.605E-04    0.101E-03
RMM:  26    -0.115784629507E+04   -0.42140E-05   -0.90390E-08   842   0.508E-04    0.126E-03
RMM:  27    -0.115784629823E+04   -0.31536E-05   -0.73220E-08   791   0.467E-04    0.643E-04
RMM:  28    -0.115784630372E+04   -0.54907E-05   -0.94904E-08   833   0.431E-04    0.655E-04
RMM:  29    -0.115784630705E+04   -0.33285E-05   -0.83423E-08   854   0.458E-04    0.453E-04
RMM:  30    -0.115784630984E+04   -0.27900E-05   -0.75087E-08   744   0.402E-04    0.370E-04
RMM:  31    -0.115784631231E+04   -0.24743E-05   -0.71203E-08   763   0.419E-04    0.293E-04
RMM:  32    -0.115784631570E+04   -0.33852E-05   -0.10606E-07   860   0.421E-04    0.291E-04
RMM:  33    -0.115784631749E+04   -0.17981E-05   -0.87170E-08   863   0.459E-04    0.194E-04
RMM:  34    -0.115784631859E+04   -0.10907E-05   -0.70125E-08   731   0.384E-04    0.129E-04
RMM:  35    -0.115784631945E+04   -0.86010E-06   -0.59163E-08   711   0.396E-04
 114 F= -.11658261E+04 E0= -.11658143E+04  d E =-.105482E-02  mag=    21.7561
 curvature:   5.01 expect dE= 0.299E-01 dE for cont linesearch  0.575E-04
 ZBRENT: bracketing found
 ZBRENT: interpolating
 opt :   0.5740  next Energy= -1165.826170 (dE=-0.116E-02)
 bond charge predicted
       N       E                     dE             d eps       ncg     rms          rms(c)
DAV:   1    -0.115784433399E+04    0.19846E-02   -0.98640E-01  2016   0.203E+00    0.240E-01
RMM:   2    -0.115784636158E+04   -0.20276E-02   -0.20921E-02  2302   0.286E-01    0.283E-01
RMM:   3    -0.115784783415E+04   -0.14726E-02   -0.30722E-03  2276   0.129E-01    0.827E-01
RMM:   4    -0.115784648017E+04    0.13540E-02   -0.13656E-03  2536   0.708E-02    0.338E-01
RMM:   5    -0.115784655849E+04   -0.78328E-04   -0.40284E-04  2162   0.432E-02    0.158E-01
RMM:   6    -0.115784666560E+04   -0.10711E-03   -0.16915E-04  2257   0.245E-02    0.196E-01
RMM:   7    -0.115784659079E+04    0.74813E-04   -0.96425E-05  2149   0.199E-02    0.105E-01
RMM:   8    -0.115784665727E+04   -0.66484E-04   -0.11609E-04  2116   0.223E-02    0.142E-01
RMM:   9    -0.115784664021E+04    0.17067E-04   -0.87511E-05  2067   0.189E-02    0.103E-01
RMM:  10    -0.115784663650E+04    0.37093E-05   -0.54210E-05  1857   0.151E-02    0.739E-02
RMM:  11    -0.115784663056E+04    0.59333E-05   -0.19610E-05  1588   0.961E-03    0.478E-02
RMM:  12    -0.115784663403E+04   -0.34707E-05   -0.90372E-06  1464   0.683E-03    0.258E-02
RMM:  13    -0.115784663911E+04   -0.50807E-05   -0.43358E-06  1390   0.520E-03    0.164E-02
RMM:  14    -0.115784664389E+04   -0.47745E-05   -0.93367E-07  1223   0.256E-03    0.130E-02
RMM:  15    -0.115784664491E+04   -0.10250E-05   -0.58981E-07  1169   0.203E-03    0.114E-02
RMM:  16    -0.115784664657E+04   -0.16540E-05   -0.33163E-07  1147   0.142E-03    0.682E-03
RMM:  17    -0.115784664866E+04   -0.20964E-05   -0.27853E-07  1099   0.126E-03    0.500E-03
RMM:  18    -0.115784665153E+04   -0.28639E-05   -0.30772E-07  1097   0.115E-03    0.636E-03
RMM:  19    -0.115784665429E+04   -0.27630E-05   -0.20116E-07  1054   0.109E-03    0.242E-03
RMM:  20    -0.115784665695E+04   -0.26548E-05   -0.11256E-07  1017   0.725E-04    0.211E-03
RMM:  21    -0.115784665866E+04   -0.17154E-05   -0.86144E-08   923   0.699E-04    0.157E-03
RMM:  22    -0.115784666088E+04   -0.22174E-05   -0.52428E-08   799   0.499E-04    0.135E-03
RMM:  23    -0.115784666216E+04   -0.12843E-05   -0.35744E-08   721   0.435E-04    0.110E-03
RMM:  24    -0.115784666371E+04   -0.15466E-05   -0.28659E-08   689   0.381E-04    0.655E-04
RMM:  25    -0.115784666533E+04   -0.16202E-05   -0.27324E-08   681   0.363E-04    0.559E-04
RMM:  26    -0.115784666663E+04   -0.12962E-05   -0.25929E-08   670   0.353E-04    0.719E-04
RMM:  27    -0.115784666797E+04   -0.13458E-05   -0.25076E-08   646   0.345E-04    0.425E-04
RMM:  28    -0.115784666907E+04   -0.11018E-05   -0.21102E-08   588   0.326E-04    0.238E-04
RMM:  29    -0.115784667001E+04   -0.93262E-06   -0.19361E-08   564   0.324E-04
 115 F= -.11658262E+04 E0= -.11658145E+04  d E =-.116258E-02  mag=    21.7579
 curvature:  -7.23 expect dE=-0.238E-01 dE for cont linesearch -0.354E-07
 trial: gam= 0.79627 g(F)=  0.328E-02 g(S)=  0.000E+00 ort = 0.253E-04 (trialstep = 0.311E+00)
 search vector abs. value=  0.862E-01
 bond charge predicted
       N       E                     dE             d eps       ncg     rms          rms(c)
DAV:   1    -0.115784265933E+04    0.40097E-02   -0.18999E+00  1992   0.281E+00    0.324E-01
RMM:   2    -0.115784655676E+04   -0.38974E-02   -0.39611E-02  2298   0.391E-01    0.363E-01
RMM:   3    -0.115784900266E+04   -0.24459E-02   -0.55557E-03  2271   0.175E-01    0.115E+00
RMM:   4    -0.115784705863E+04    0.19440E-02   -0.25298E-03  2548   0.948E-02    0.606E-01
RMM:   5    -0.115784686898E+04    0.18965E-03   -0.91860E-04  2183   0.640E-02    0.205E-01
RMM:   6    -0.115784712656E+04   -0.25757E-03   -0.34783E-04  2313   0.356E-02    0.294E-01
RMM:   7    -0.115784697186E+04    0.15470E-03   -0.19272E-04  2304   0.271E-02    0.158E-01
RMM:   8    -0.115784704642E+04   -0.74567E-04   -0.20830E-04  2155   0.303E-02    0.177E-01
RMM:   9    -0.115784705898E+04   -0.12559E-04   -0.17101E-04  2183   0.263E-02    0.146E-01
RMM:  10    -0.115784702830E+04    0.30686E-04   -0.10602E-04  2003   0.214E-02    0.934E-02
RMM:  11    -0.115784702035E+04    0.79474E-05   -0.41502E-05  1790   0.136E-02    0.566E-02
RMM:  12    -0.115784702490E+04   -0.45527E-05   -0.17678E-05  1572   0.931E-03    0.340E-02
RMM:  13    -0.115784703136E+04   -0.64608E-05   -0.67466E-06  1445   0.649E-03    0.300E-02
RMM:  14    -0.115784703645E+04   -0.50833E-05   -0.20763E-06  1321   0.353E-03    0.226E-02
RMM:  15    -0.115784703980E+04   -0.33505E-05   -0.10580E-06  1237   0.259E-03    0.136E-02
RMM:  16    -0.115784704467E+04   -0.48768E-05   -0.54294E-07  1165   0.179E-03    0.761E-03
RMM:  17    -0.115784704921E+04   -0.45394E-05   -0.41891E-07  1147   0.161E-03    0.545E-03
RMM:  18    -0.115784705422E+04   -0.50052E-05   -0.44616E-07  1134   0.144E-03    0.741E-03
RMM:  19    -0.115784705987E+04   -0.56518E-05   -0.36716E-07  1119   0.142E-03    0.336E-03
RMM:  20    -0.115784706351E+04   -0.36389E-05   -0.20368E-07  1039   0.947E-04    0.447E-03
RMM:  21    -0.115784706628E+04   -0.27769E-05   -0.14358E-07  1007   0.857E-04    0.341E-03
RMM:  22    -0.115784706942E+04   -0.31333E-05   -0.81932E-08   884   0.581E-04    0.316E-03
RMM:  23    -0.115784707273E+04   -0.33126E-05   -0.72361E-08   845   0.554E-04    0.261E-03
RMM:  24    -0.115784707553E+04   -0.28037E-05   -0.57723E-08   785   0.495E-04    0.149E-03
RMM:  25    -0.115784707898E+04   -0.34505E-05   -0.56651E-08   803   0.436E-04    0.769E-04
RMM:  26    -0.115784708097E+04   -0.19841E-05   -0.44978E-08   752   0.417E-04    0.896E-04
RMM:  27    -0.115784708361E+04   -0.26395E-05   -0.44787E-08   718   0.384E-04    0.790E-04
RMM:  28    -0.115784708603E+04   -0.24215E-05   -0.46440E-08   740   0.390E-04    0.533E-04
RMM:  29    -0.115784708912E+04   -0.30851E-05   -0.63107E-08   791   0.389E-04    0.270E-04
RMM:  30    -0.115784709121E+04   -0.20903E-05   -0.58911E-08   792   0.407E-04    0.212E-04
RMM:  31    -0.115784709292E+04   -0.17177E-05   -0.58758E-08   739   0.378E-04    0.144E-04
RMM:  32    -0.115784709457E+04   -0.16470E-05   -0.59830E-08   748   0.395E-04    0.130E-04
RMM:  33    -0.115784709545E+04   -0.88090E-06   -0.55988E-08   729   0.379E-04
 116 F= -.11658269E+04 E0= -.11658152E+04  d E =-.777078E-03  mag=    21.7561
 trial-energy change:   -0.000777  1 .order   -0.000778   -0.001027   -0.000529
 step:   0.6413(harm=  0.6413)  dis= 0.00641  next Energy= -1165.827228 (dE=-0.106E-02)
 bond charge predicted
       N       E                     dE             d eps       ncg     rms          rms(c)
DAV:   1    -0.115784199433E+04    0.51002E-02   -0.21458E+00  1992   0.298E+00    0.344E-01
RMM:   2    -0.115784640565E+04   -0.44113E-02   -0.44748E-02  2299   0.415E-01    0.385E-01
RMM:   3    -0.115784916728E+04   -0.27616E-02   -0.63012E-03  2275   0.186E-01    0.123E+00
RMM:   4    -0.115784698140E+04    0.21859E-02   -0.28358E-03  2548   0.101E-01    0.649E-01
RMM:   5    -0.115784674648E+04    0.23492E-03   -0.10427E-03  2188   0.682E-02    0.217E-01
RMM:   6    -0.115784703287E+04   -0.28639E-03   -0.39278E-04  2319   0.380E-02    0.312E-01
RMM:   7    -0.115784685847E+04    0.17440E-03   -0.21784E-04  2313   0.288E-02    0.170E-01
RMM:   8    -0.115784693435E+04   -0.75881E-04   -0.23437E-04  2164   0.321E-02    0.188E-01
RMM:   9    -0.115784694786E+04   -0.13509E-04   -0.19402E-04  2195   0.279E-02    0.156E-01
RMM:  10    -0.115784691259E+04    0.35269E-04   -0.12062E-04  2042   0.228E-02    0.100E-01
RMM:  11    -0.115784690404E+04    0.85546E-05   -0.47394E-05  1821   0.146E-02    0.606E-02
RMM:  12    -0.115784691040E+04   -0.63597E-05   -0.20138E-05  1600   0.988E-03    0.361E-02
RMM:  13    -0.115784691908E+04   -0.86831E-05   -0.76389E-06  1453   0.687E-03    0.329E-02
RMM:  14    -0.115784692564E+04   -0.65567E-05   -0.23812E-06  1344   0.377E-03    0.246E-02
RMM:  15    -0.115784693006E+04   -0.44234E-05   -0.11908E-06  1246   0.273E-03    0.148E-02
RMM:  16    -0.115784693639E+04   -0.63307E-05   -0.62503E-07  1175   0.192E-03    0.820E-03
RMM:  17    -0.115784694241E+04   -0.60183E-05   -0.46901E-07  1150   0.172E-03    0.543E-03
RMM:  18    -0.115784694936E+04   -0.69478E-05   -0.46790E-07  1139   0.151E-03    0.795E-03
RMM:  19    -0.115784695640E+04   -0.70373E-05   -0.40265E-07  1139   0.154E-03    0.325E-03
RMM:  20    -0.115784696169E+04   -0.52977E-05   -0.24538E-07  1055   0.995E-04    0.471E-03
RMM:  21    -0.115784696472E+04   -0.30319E-05   -0.16945E-07  1014   0.892E-04    0.386E-03
RMM:  22    -0.115784696864E+04   -0.39149E-05   -0.97175E-08   893   0.609E-04    0.342E-03
RMM:  23    -0.115784697285E+04   -0.42148E-05   -0.87627E-08   867   0.595E-04    0.282E-03
RMM:  24    -0.115784697664E+04   -0.37902E-05   -0.72310E-08   809   0.522E-04    0.157E-03
RMM:  25    -0.115784698115E+04   -0.45041E-05   -0.72444E-08   829   0.468E-04    0.881E-04
RMM:  26    -0.115784698366E+04   -0.25128E-05   -0.57633E-08   804   0.446E-04    0.964E-04
RMM:  27    -0.115784698727E+04   -0.36069E-05   -0.60448E-08   769   0.406E-04    0.857E-04
RMM:  28    -0.115784699053E+04   -0.32629E-05   -0.61032E-08   788   0.415E-04    0.564E-04
RMM:  29    -0.115784699467E+04   -0.41350E-05   -0.84508E-08   824   0.414E-04    0.295E-04
RMM:  30    -0.115784699741E+04   -0.27439E-05   -0.76764E-08   828   0.441E-04    0.235E-04
RMM:  31    -0.115784699966E+04   -0.22457E-05   -0.80446E-08   807   0.405E-04    0.172E-04
RMM:  32    -0.115784700180E+04   -0.21445E-05   -0.80790E-08   801   0.428E-04    0.146E-04
RMM:  33    -0.115784700285E+04   -0.10475E-05   -0.72886E-08   760   0.402E-04    0.121E-04
RMM:  34    -0.115784700346E+04   -0.60931E-06   -0.55378E-08   695   0.387E-04
 117 F= -.11658272E+04 E0= -.11658154E+04  d E =-.105929E-02  mag=    21.7538
 curvature:  -8.37 expect dE=-0.324E-01 dE for cont linesearch -0.230E-08
 trial: gam= 1.18871 g(F)=  0.387E-02 g(S)=  0.000E+00 ort = 0.487E-05 (trialstep = 0.259E+00)
 search vector abs. value=  0.126E+00
 bond charge predicted
       N       E                     dE             d eps       ncg     rms          rms(c)
DAV:   1    -0.115784292062E+04    0.40822E-02   -0.19194E+00  2004   0.282E+00    0.328E-01
RMM:   2    -0.115784692404E+04   -0.40034E-02   -0.40254E-02  2295   0.392E-01    0.381E-01
RMM:   3    -0.115784915873E+04   -0.22347E-02   -0.57804E-03  2268   0.179E-01    0.929E-01
RMM:   4    -0.115784747900E+04    0.16797E-02   -0.23323E-03  2520   0.974E-02    0.594E-01
RMM:   5    -0.115784713629E+04    0.34271E-03   -0.65344E-04  2212   0.520E-02    0.177E-01
RMM:   6    -0.115784742024E+04   -0.28395E-03   -0.33395E-04  2263   0.363E-02    0.274E-01
RMM:   7    -0.115784729516E+04    0.12508E-03   -0.18408E-04  2285   0.275E-02    0.166E-01
RMM:   8    -0.115784738044E+04   -0.85271E-04   -0.20932E-04  2150   0.303E-02    0.196E-01
RMM:   9    -0.115784736938E+04    0.11057E-04   -0.16704E-04  2179   0.257E-02    0.138E-01
RMM:  10    -0.115784734511E+04    0.24272E-04   -0.10371E-04  1993   0.215E-02    0.814E-02
RMM:  11    -0.115784734929E+04   -0.41793E-05   -0.47192E-05  1818   0.145E-02    0.592E-02
RMM:  12    -0.115784735122E+04   -0.19290E-05   -0.18130E-05  1564   0.966E-03    0.359E-02
RMM:  13    -0.115784735379E+04   -0.25775E-05   -0.64804E-06  1428   0.615E-03    0.189E-02
RMM:  14    -0.115784736267E+04   -0.88795E-05   -0.24603E-06  1362   0.368E-03    0.175E-02
RMM:  15    -0.115784736694E+04   -0.42686E-05   -0.14161E-06  1282   0.302E-03    0.968E-03
RMM:  16    -0.115784737205E+04   -0.51139E-05   -0.58716E-07  1176   0.183E-03    0.738E-03
RMM:  17    -0.115784737599E+04   -0.39383E-05   -0.46848E-07  1150   0.159E-03    0.630E-03
RMM:  18    -0.115784738059E+04   -0.45930E-05   -0.32831E-07  1115   0.127E-03    0.490E-03
RMM:  19    -0.115784738877E+04   -0.81858E-05   -0.25492E-07  1107   0.113E-03    0.319E-03
RMM:  20    -0.115784739262E+04   -0.38486E-05   -0.19389E-07  1023   0.972E-04    0.399E-03
RMM:  21    -0.115784739553E+04   -0.29056E-05   -0.11937E-07   970   0.767E-04    0.217E-03
RMM:  22    -0.115784739854E+04   -0.30133E-05   -0.77603E-08   857   0.561E-04    0.188E-03
RMM:  23    -0.115784740183E+04   -0.32915E-05   -0.67397E-08   810   0.555E-04    0.100E-03
RMM:  24    -0.115784740678E+04   -0.49453E-05   -0.71061E-08   845   0.477E-04    0.911E-04
RMM:  25    -0.115784740974E+04   -0.29645E-05   -0.57436E-08   813   0.473E-04    0.889E-04
RMM:  26    -0.115784741205E+04   -0.23079E-05   -0.42513E-08   694   0.388E-04    0.602E-04
RMM:  27    -0.115784741529E+04   -0.32438E-05   -0.47802E-08   717   0.386E-04    0.416E-04
RMM:  28    -0.115784741821E+04   -0.29161E-05   -0.54000E-08   762   0.384E-04    0.320E-04
RMM:  29    -0.115784742064E+04   -0.24331E-05   -0.49952E-08   741   0.384E-04    0.276E-04
RMM:  30    -0.115784742317E+04   -0.25297E-05   -0.57453E-08   742   0.377E-04    0.243E-04
RMM:  31    -0.115784742588E+04   -0.27102E-05   -0.70197E-08   800   0.401E-04    0.184E-04
RMM:  32    -0.115784742768E+04   -0.18034E-05   -0.68016E-08   773   0.403E-04    0.165E-04
RMM:  33    -0.115784742897E+04   -0.12853E-05   -0.63999E-08   747   0.389E-04    0.987E-05
RMM:  34    -0.115784742975E+04   -0.77597E-06   -0.51659E-08   684   0.378E-04
 118 F= -.11658280E+04 E0= -.11658162E+04  d E =-.804155E-03  mag=    21.7521
 trial-energy change:   -0.000804  1 .order   -0.000802   -0.001003   -0.000601
 step:   0.6458(harm=  0.6458)  dis= 0.00779  next Energy= -1165.828480 (dE=-0.125E-02)
 bond charge predicted
       N       E                     dE             d eps       ncg     rms          rms(c)
DAV:   1    -0.115783717474E+04    0.10254E-01   -0.43053E+00  1992   0.422E+00    0.491E-01
RMM:   2    -0.115784634029E+04   -0.91655E-02   -0.90414E-02  2298   0.588E-01    0.567E-01
RMM:   3    -0.115785125149E+04   -0.49112E-02   -0.12932E-02  2268   0.268E-01    0.138E+00
RMM:   4    -0.115784746761E+04    0.37839E-02   -0.52233E-03  2528   0.146E-01    0.843E-01
RMM:   5    -0.115784681830E+04    0.64931E-03   -0.13752E-03  2241   0.753E-02    0.281E-01
RMM:   6    -0.115784735787E+04   -0.53957E-03   -0.74990E-04  2299   0.541E-02    0.419E-01
RMM:   7    -0.115784708310E+04    0.27477E-03   -0.41822E-04  2333   0.412E-02    0.251E-01
RMM:   8    -0.115784722964E+04   -0.14654E-03   -0.46129E-04  2207   0.450E-02    0.283E-01
RMM:   9    -0.115784722103E+04    0.86087E-05   -0.38553E-04  2243   0.385E-02    0.213E-01
RMM:  10    -0.115784714864E+04    0.72397E-04   -0.23751E-04  2145   0.324E-02    0.119E-01
RMM:  11    -0.115784715112E+04   -0.24892E-05   -0.10593E-04  2012   0.215E-02    0.847E-02
RMM:  12    -0.115784715556E+04   -0.44374E-05   -0.41418E-05  1758   0.140E-02    0.559E-02
RMM:  13    -0.115784715719E+04   -0.16308E-05   -0.14418E-05  1530   0.862E-03    0.299E-02
RMM:  14    -0.115784717328E+04   -0.16084E-04   -0.54517E-06  1437   0.519E-03    0.262E-02
RMM:  15    -0.115784718146E+04   -0.81802E-05   -0.30677E-06  1363   0.431E-03    0.140E-02
RMM:  16    -0.115784719130E+04   -0.98385E-05   -0.13210E-06  1267   0.270E-03    0.100E-02
RMM:  17    -0.115784720021E+04   -0.89115E-05   -0.96959E-07  1209   0.236E-03    0.958E-03
RMM:  18    -0.115784720852E+04   -0.83149E-05   -0.77693E-07  1180   0.188E-03    0.815E-03
RMM:  19    -0.115784722360E+04   -0.15077E-04   -0.58686E-07  1184   0.167E-03    0.500E-03
RMM:  20    -0.115784723006E+04   -0.64578E-05   -0.40585E-07  1107   0.142E-03    0.533E-03
RMM:  21    -0.115784723547E+04   -0.54113E-05   -0.22591E-07  1022   0.105E-03    0.352E-03
RMM:  22    -0.115784723974E+04   -0.42763E-05   -0.14559E-07   979   0.785E-04    0.316E-03
RMM:  23    -0.115784724703E+04   -0.72850E-05   -0.12860E-07   932   0.708E-04    0.151E-03
RMM:  24    -0.115784725609E+04   -0.90614E-05   -0.13108E-07   935   0.640E-04    0.137E-03
RMM:  25    -0.115784726264E+04   -0.65463E-05   -0.11487E-07   891   0.604E-04    0.140E-03
RMM:  26    -0.115784726641E+04   -0.37700E-05   -0.84340E-08   815   0.499E-04    0.868E-04
RMM:  27    -0.115784727373E+04   -0.73269E-05   -0.10448E-07   855   0.460E-04    0.593E-04
RMM:  28    -0.115784727962E+04   -0.58806E-05   -0.10297E-07   873   0.484E-04    0.494E-04
RMM:  29    -0.115784728438E+04   -0.47657E-05   -0.10325E-07   844   0.453E-04    0.444E-04
RMM:  30    -0.115784728886E+04   -0.44785E-05   -0.10200E-07   843   0.463E-04    0.375E-04
RMM:  31    -0.115784729368E+04   -0.48157E-05   -0.12419E-07   891   0.460E-04    0.270E-04
RMM:  32    -0.115784729767E+04   -0.39931E-05   -0.12652E-07   888   0.493E-04    0.250E-04
RMM:  33    -0.115784730037E+04   -0.27022E-05   -0.12801E-07   867   0.472E-04    0.165E-04
RMM:  34    -0.115784730189E+04   -0.15208E-05   -0.10491E-07   823   0.469E-04    0.134E-04
RMM:  35    -0.115784730295E+04   -0.10620E-05   -0.92661E-08   776   0.422E-04    0.110E-04
RMM:  36    -0.115784730360E+04   -0.64760E-06   -0.77895E-08   787   0.423E-04
 119 F= -.11658285E+04 E0= -.11658166E+04  d E =-.124535E-02  mag=    21.7497
 curvature: -10.46 expect dE=-0.443E-01 dE for cont linesearch -0.329E-07
 trial: gam= 1.09342 g(F)=  0.424E-02 g(S)=  0.000E+00 ort =-0.199E-04 (trialstep = 0.273E+00)
 search vector abs. value=  0.154E+00
 bond charge predicted
       N       E                     dE             d eps       ncg     rms          rms(c)
DAV:   1    -0.115784145956E+04    0.58434E-02   -0.26352E+00  2004   0.331E+00    0.379E-01
RMM:   2    -0.115784713197E+04   -0.56724E-02   -0.55876E-02  2284   0.459E-01    0.477E-01
RMM:   3    -0.115785038036E+04   -0.32484E-02   -0.79966E-03  2254   0.210E-01    0.116E+00
RMM:   4    -0.115784798008E+04    0.24003E-02   -0.34041E-03  2525   0.114E-01    0.760E-01
RMM:   5    -0.115784735099E+04    0.62909E-03   -0.10794E-03  2194   0.698E-02    0.220E-01
RMM:   6    -0.115784770172E+04   -0.35073E-03   -0.49164E-04  2310   0.422E-02    0.340E-01
RMM:   7    -0.115784751916E+04    0.18256E-03   -0.25820E-04  2332   0.320E-02    0.182E-01
RMM:   8    -0.115784765387E+04   -0.13471E-03   -0.28804E-04  2171   0.352E-02    0.230E-01
RMM:   9    -0.115784761115E+04    0.42723E-04   -0.21934E-04  2224   0.292E-02    0.139E-01
RMM:  10    -0.115784761568E+04   -0.45240E-05   -0.13125E-04  2085   0.244E-02    0.107E-01
RMM:  11    -0.115784760464E+04    0.11035E-04   -0.61678E-05  1886   0.167E-02    0.688E-02
RMM:  12    -0.115784760897E+04   -0.43279E-05   -0.21611E-05  1616   0.103E-02    0.400E-02
RMM:  13    -0.115784761259E+04   -0.36254E-05   -0.10222E-05  1474   0.690E-03    0.240E-02
RMM:  14    -0.115784762173E+04   -0.91332E-05   -0.36531E-06  1389   0.454E-03    0.196E-02
RMM:  15    -0.115784762600E+04   -0.42740E-05   -0.21861E-06  1310   0.357E-03    0.116E-02
RMM:  16    -0.115784763080E+04   -0.47991E-05   -0.86056E-07  1209   0.214E-03    0.889E-03
RMM:  17    -0.115784763506E+04   -0.42597E-05   -0.57827E-07  1168   0.181E-03    0.746E-03
RMM:  18    -0.115784764021E+04   -0.51553E-05   -0.42119E-07  1128   0.155E-03    0.581E-03
RMM:  19    -0.115784764829E+04   -0.80735E-05   -0.33993E-07  1122   0.135E-03    0.385E-03
RMM:  20    -0.115784765213E+04   -0.38425E-05   -0.25626E-07  1061   0.114E-03    0.415E-03
RMM:  21    -0.115784765473E+04   -0.25994E-05   -0.14383E-07   997   0.860E-04    0.246E-03
RMM:  22    -0.115784765747E+04   -0.27398E-05   -0.94420E-08   880   0.631E-04    0.258E-03
RMM:  23    -0.115784766073E+04   -0.32639E-05   -0.77954E-08   856   0.611E-04    0.134E-03
RMM:  24    -0.115784766612E+04   -0.53814E-05   -0.80402E-08   881   0.489E-04    0.112E-03
RMM:  25    -0.115784766916E+04   -0.30477E-05   -0.65090E-08   833   0.508E-04    0.122E-03
RMM:  26    -0.115784767142E+04   -0.22593E-05   -0.49079E-08   725   0.414E-04    0.701E-04
RMM:  27    -0.115784767429E+04   -0.28631E-05   -0.48144E-08   734   0.396E-04    0.476E-04
RMM:  28    -0.115784767800E+04   -0.37174E-05   -0.62967E-08   777   0.388E-04    0.285E-04
RMM:  29    -0.115784768100E+04   -0.29981E-05   -0.66792E-08   806   0.410E-04    0.278E-04
RMM:  30    -0.115784768309E+04   -0.20912E-05   -0.61471E-08   765   0.394E-04    0.299E-04
RMM:  31    -0.115784768525E+04   -0.21555E-05   -0.61705E-08   737   0.393E-04    0.224E-04
RMM:  32    -0.115784768689E+04   -0.16419E-05   -0.65163E-08   759   0.392E-04    0.178E-04
RMM:  33    -0.115784768827E+04   -0.13803E-05   -0.65958E-08   766   0.396E-04    0.116E-04
RMM:  34    -0.115784768911E+04   -0.84180E-06   -0.56469E-08   712   0.382E-04
 120 F= -.11658293E+04 E0= -.11658174E+04  d E =-.875883E-03  mag=    21.7485
 trial-energy change:   -0.000876  1 .order   -0.000876   -0.001153   -0.000599
 step:   0.5693(harm=  0.5693)  dis= 0.00759  next Energy= -1165.829673 (dE=-0.120E-02)
 bond charge predicted
       N       E                     dE             d eps       ncg     rms          rms(c)
DAV:   1    -0.115784018817E+04    0.75001E-02   -0.30867E+00  1992   0.358E+00    0.410E-01
RMM:   2    -0.115784686550E+04   -0.66773E-02   -0.65525E-02  2285   0.497E-01    0.517E-01
RMM:   3    -0.115785065606E+04   -0.37906E-02   -0.93714E-03  2256   0.228E-01    0.126E+00
RMM:   4    -0.115784783866E+04    0.28174E-02   -0.39728E-03  2525   0.123E-01    0.812E-01
RMM:   5    -0.115784712284E+04    0.71581E-03   -0.12494E-03  2210   0.749E-02    0.242E-01
RMM:   6    -0.115784751396E+04   -0.39112E-03   -0.57134E-04  2315   0.454E-02    0.369E-01
RMM:   7    -0.115784730350E+04    0.21046E-03   -0.30530E-04  2337   0.347E-02    0.199E-01
RMM:   8    -0.115784745133E+04   -0.14783E-03   -0.33593E-04  2182   0.379E-02    0.247E-01
RMM:   9    -0.115784740562E+04    0.45714E-04   -0.25900E-04  2235   0.315E-02    0.152E-01
RMM:  10    -0.115784740686E+04   -0.12442E-05   -0.15527E-04  2116   0.265E-02    0.115E-01
RMM:  11    -0.115784739403E+04    0.12837E-04   -0.72323E-05  1944   0.181E-02    0.745E-02
RMM:  12    -0.115784739903E+04   -0.49988E-05   -0.25896E-05  1647   0.111E-02    0.448E-02
RMM:  13    -0.115784740234E+04   -0.33153E-05   -0.11917E-05  1496   0.739E-03    0.257E-02
RMM:  14    -0.115784741310E+04   -0.10759E-04   -0.42337E-06  1402   0.485E-03    0.214E-02
RMM:  15    -0.115784741803E+04   -0.49354E-05   -0.25607E-06  1330   0.386E-03    0.126E-02
RMM:  16    -0.115784742350E+04   -0.54688E-05   -0.99740E-07  1217   0.231E-03    0.963E-03
RMM:  17    -0.115784742846E+04   -0.49529E-05   -0.68254E-07  1181   0.195E-03    0.813E-03
RMM:  18    -0.115784743439E+04   -0.59313E-05   -0.49439E-07  1130   0.168E-03    0.631E-03
RMM:  19    -0.115784744361E+04   -0.92195E-05   -0.39890E-07  1144   0.146E-03    0.418E-03
RMM:  20    -0.115784744802E+04   -0.44136E-05   -0.29866E-07  1087   0.123E-03    0.444E-03
RMM:  21    -0.115784745097E+04   -0.29539E-05   -0.16336E-07   998   0.919E-04    0.265E-03
RMM:  22    -0.115784745405E+04   -0.30798E-05   -0.10802E-07   921   0.667E-04    0.281E-03
RMM:  23    -0.115784745774E+04   -0.36850E-05   -0.88368E-08   878   0.648E-04    0.149E-03
RMM:  24    -0.115784746423E+04   -0.64894E-05   -0.93725E-08   888   0.505E-04    0.121E-03
RMM:  25    -0.115784746761E+04   -0.33817E-05   -0.74237E-08   861   0.535E-04    0.140E-03
RMM:  26    -0.115784747038E+04   -0.27679E-05   -0.58294E-08   750   0.431E-04    0.708E-04
RMM:  27    -0.115784747369E+04   -0.33154E-05   -0.55930E-08   764   0.415E-04    0.533E-04
RMM:  28    -0.115784747779E+04   -0.40944E-05   -0.70978E-08   800   0.403E-04    0.332E-04
RMM:  29    -0.115784748098E+04   -0.31911E-05   -0.68073E-08   799   0.423E-04    0.330E-04
RMM:  30    -0.115784748333E+04   -0.23528E-05   -0.67024E-08   773   0.397E-04    0.328E-04
RMM:  31    -0.115784748614E+04   -0.28041E-05   -0.73698E-08   790   0.410E-04    0.231E-04
RMM:  32    -0.115784748824E+04   -0.21035E-05   -0.77077E-08   784   0.411E-04    0.196E-04
RMM:  33    -0.115784748980E+04   -0.15651E-05   -0.75944E-08   771   0.411E-04    0.124E-04
RMM:  34    -0.115784749085E+04   -0.10457E-05   -0.69547E-08   757   0.400E-04    0.128E-04
RMM:  35    -0.115784749141E+04   -0.56189E-06   -0.53375E-08   680   0.380E-04
 121 F= -.11658297E+04 E0= -.11658177E+04  d E =-.121001E-02  mag=    21.7471
 curvature: -10.43 expect dE=-0.348E-01 dE for cont linesearch -0.170E-06
 trial: gam= 0.78022 g(F)=  0.334E-02 g(S)=  0.000E+00 ort = 0.501E-04 (trialstep = 0.333E+00)
 search vector abs. value=  0.974E-01
 bond charge predicted
       N       E                     dE             d eps       ncg     rms          rms(c)
DAV:   1    -0.115784210111E+04    0.53897E-02   -0.24333E+00  1992   0.318E+00    0.366E-01
RMM:   2    -0.115784730936E+04   -0.52082E-02   -0.52361E-02  2280   0.440E-01    0.434E-01
RMM:   3    -0.115785092291E+04   -0.36136E-02   -0.73789E-03  2253   0.203E-01    0.123E+00
RMM:   4    -0.115784784634E+04    0.30766E-02   -0.32517E-03  2536   0.111E-01    0.607E-01
RMM:   5    -0.115784767747E+04    0.16887E-03   -0.10118E-03  2202   0.693E-02    0.212E-01
RMM:   6    -0.115784792250E+04   -0.24503E-03   -0.40928E-04  2347   0.377E-02    0.341E-01
RMM:   7    -0.115784774320E+04    0.17930E-03   -0.24491E-04  2292   0.317E-02    0.185E-01
RMM:   8    -0.115784785797E+04   -0.11477E-03   -0.24800E-04  2176   0.326E-02    0.215E-01
RMM:   9    -0.115784784890E+04    0.90727E-05   -0.22611E-04  2238   0.299E-02    0.134E-01
RMM:  10    -0.115784786788E+04   -0.18985E-04   -0.14127E-04  2071   0.251E-02    0.122E-01
RMM:  11    -0.115784782784E+04    0.40041E-04   -0.60845E-05  1866   0.167E-02    0.425E-02
RMM:  12    -0.115784784119E+04   -0.13346E-04   -0.18282E-05  1593   0.912E-03    0.380E-02
RMM:  13    -0.115784784169E+04   -0.50216E-06   -0.80104E-06  1454   0.668E-03
 122 F= -.11658305E+04 E0= -.11658185E+04  d E =-.803117E-03  mag=    21.7471
 trial-energy change:   -0.000803  1 .order   -0.000856   -0.001123   -0.000590
 step:   0.7006(harm=  0.7006)  dis= 0.00728  next Energy= -1165.830866 (dE=-0.118E-02)
 bond charge predicted
       N       E                     dE             d eps       ncg     rms          rms(c)
DAV:   1    -0.115784055123E+04    0.72900E-02   -0.29793E+00  1992   0.352E+00    0.405E-01
RMM:   2    -0.115784695189E+04   -0.64007E-02   -0.64269E-02  2285   0.487E-01    0.442E-01
RMM:   3    -0.115785125190E+04   -0.43000E-02   -0.89585E-03  2256   0.225E-01    0.132E+00
RMM:   4    -0.115784765345E+04    0.35985E-02   -0.38051E-03  2540   0.122E-01    0.653E-01
RMM:   5    -0.115784745109E+04    0.20235E-03   -0.11870E-03  2204   0.749E-02    0.259E-01
RMM:   6    -0.115784771622E+04   -0.26513E-03   -0.50511E-04  2364   0.414E-02    0.383E-01
RMM:   7    -0.115784749899E+04    0.21723E-03   -0.30170E-04  2305   0.352E-02    0.196E-01
RMM:   8    -0.115784762513E+04   -0.12614E-03   -0.29526E-04  2199   0.353E-02    0.230E-01
RMM:   9    -0.115784762138E+04    0.37540E-05   -0.26475E-04  2263   0.315E-02    0.163E-01
RMM:  10    -0.115784764402E+04   -0.22639E-04   -0.17060E-04  2108   0.269E-02    0.137E-01
RMM:  11    -0.115784759755E+04    0.46465E-04   -0.74777E-05  1913   0.188E-02    0.477E-02
RMM:  12    -0.115784762133E+04   -0.23782E-04   -0.23162E-05  1649   0.987E-03    0.412E-02
RMM:  13    -0.115784762482E+04   -0.34899E-05   -0.10761E-05  1484   0.736E-03    0.257E-02
RMM:  14    -0.115784763544E+04   -0.10620E-04   -0.40504E-06  1383   0.430E-03    0.230E-02
RMM:  15    -0.115784764418E+04   -0.87361E-05   -0.22509E-06  1282   0.358E-03    0.121E-02
RMM:  16    -0.115784765432E+04   -0.10141E-04   -0.11609E-06  1223   0.220E-03    0.121E-02
RMM:  17    -0.115784766185E+04   -0.75328E-05   -0.74523E-07  1195   0.213E-03    0.501E-03
RMM:  18    -0.115784767257E+04   -0.10714E-04   -0.39810E-07  1133   0.132E-03    0.462E-03
RMM:  19    -0.115784768060E+04   -0.80293E-05   -0.38541E-07  1119   0.144E-03    0.487E-03
RMM:  20    -0.115784768922E+04   -0.86254E-05   -0.27540E-07  1056   0.106E-03    0.353E-03
RMM:  21    -0.115784769409E+04   -0.48677E-05   -0.18096E-07  1009   0.900E-04    0.243E-03
RMM:  22    -0.115784769935E+04   -0.52644E-05   -0.12589E-07   892   0.670E-04    0.187E-03
RMM:  23    -0.115784770463E+04   -0.52808E-05   -0.98997E-08   895   0.580E-04    0.216E-03
RMM:  24    -0.115784771080E+04   -0.61605E-05   -0.95527E-08   853   0.509E-04    0.176E-03
RMM:  25    -0.115784771529E+04   -0.44910E-05   -0.84252E-08   840   0.505E-04    0.135E-03
RMM:  26    -0.115784772089E+04   -0.56040E-05   -0.92079E-08   840   0.476E-04    0.129E-03
RMM:  27    -0.115784772496E+04   -0.40696E-05   -0.79040E-08   830   0.462E-04    0.911E-04
RMM:  28    -0.115784772971E+04   -0.47496E-05   -0.89104E-08   825   0.422E-04    0.430E-04
RMM:  29    -0.115784773586E+04   -0.61458E-05   -0.11499E-07   892   0.470E-04    0.350E-04
RMM:  30    -0.115784773955E+04   -0.36983E-05   -0.11084E-07   866   0.472E-04    0.268E-04
RMM:  31    -0.115784774299E+04   -0.34395E-05   -0.11548E-07   865   0.462E-04    0.227E-04
RMM:  32    -0.115784774575E+04   -0.27543E-05   -0.11714E-07   873   0.470E-04    0.185E-04
RMM:  33    -0.115784774714E+04   -0.13916E-05   -0.96161E-08   814   0.447E-04    0.156E-04
RMM:  34    -0.115784774838E+04   -0.12378E-05   -0.89876E-08   784   0.420E-04    0.113E-04
RMM:  35    -0.115784774909E+04   -0.71630E-06   -0.77828E-08   770   0.417E-04
 123 F= -.11658309E+04 E0= -.11658189E+04  d E =-.121203E-02  mag=    21.7468
 curvature: -10.11 expect dE=-0.411E-01 dE for cont linesearch -0.232E-06
 trial: gam= 1.21436 g(F)=  0.406E-02 g(S)=  0.000E+00 ort = 0.473E-04 (trialstep = 0.268E+00)
 search vector abs. value=  0.148E+00
 bond charge predicted
       N       E                     dE             d eps       ncg     rms          rms(c)
DAV:   1    -0.115784263049E+04    0.51179E-02   -0.23910E+00  1992   0.313E+00    0.358E-01
RMM:   2    -0.115784776224E+04   -0.51317E-02   -0.51405E-02  2288   0.434E-01    0.458E-01
RMM:   3    -0.115785131387E+04   -0.35516E-02   -0.72338E-03  2269   0.196E-01    0.123E+00
RMM:   4    -0.115784815205E+04    0.31618E-02   -0.32369E-03  2564   0.107E-01    0.530E-01
RMM:   5    -0.115784813243E+04    0.19618E-04   -0.91394E-04  2201   0.661E-02    0.185E-01
RMM:   6    -0.115784830217E+04   -0.16974E-03   -0.37042E-04  2358   0.353E-02    0.245E-01
RMM:   7    -0.115784820464E+04    0.97532E-04   -0.21862E-04  2255   0.300E-02    0.175E-01
RMM:   8    -0.115784840617E+04   -0.20153E-03   -0.25699E-04  2194   0.318E-02    0.327E-01
RMM:   9    -0.115784823866E+04    0.16752E-03   -0.22038E-04  2215   0.310E-02    0.135E-01
RMM:  10    -0.115784828615E+04   -0.47496E-04   -0.13462E-04  2040   0.250E-02    0.118E-01
RMM:  11    -0.115784825884E+04    0.27308E-04   -0.53154E-05  1843   0.153E-02    0.491E-02
RMM:  12    -0.115784827084E+04   -0.11993E-04   -0.18745E-05  1591   0.897E-03    0.291E-02
RMM:  13    -0.115784827545E+04   -0.46131E-05   -0.73219E-06  1411   0.603E-03    0.188E-02
RMM:  14    -0.115784827974E+04   -0.42911E-05   -0.19251E-06  1321   0.348E-03    0.131E-02
RMM:  15    -0.115784828280E+04   -0.30592E-05   -0.10474E-06  1228   0.259E-03    0.948E-03
RMM:  16    -0.115784828833E+04   -0.55271E-05   -0.86669E-07  1191   0.219E-03    0.810E-03
RMM:  17    -0.115784829300E+04   -0.46746E-05   -0.60724E-07  1181   0.197E-03    0.554E-03
RMM:  18    -0.115784829609E+04   -0.30895E-05   -0.32635E-07  1102   0.127E-03    0.575E-03
RMM:  19    -0.115784829834E+04   -0.22492E-05   -0.20422E-07  1022   0.109E-03    0.242E-03
RMM:  20    -0.115784830144E+04   -0.30979E-05   -0.13843E-07   972   0.724E-04    0.299E-03
RMM:  21    -0.115784830387E+04   -0.24310E-05   -0.11188E-07   919   0.728E-04    0.196E-03
RMM:  22    -0.115784830685E+04   -0.29776E-05   -0.78792E-08   843   0.558E-04    0.169E-03
RMM:  23    -0.115784830861E+04   -0.17624E-05   -0.58617E-08   794   0.540E-04    0.105E-03
RMM:  24    -0.115784831032E+04   -0.17070E-05   -0.36900E-08   692   0.390E-04    0.753E-04
RMM:  25    -0.115784831254E+04   -0.22207E-05   -0.38495E-08   719   0.384E-04    0.764E-04
RMM:  26    -0.115784831420E+04   -0.16619E-05   -0.35346E-08   712   0.381E-04    0.703E-04
RMM:  27    -0.115784831640E+04   -0.21986E-05   -0.39764E-08   717   0.369E-04    0.417E-04
RMM:  28    -0.115784831818E+04   -0.17855E-05   -0.40311E-08   712   0.365E-04    0.359E-04
RMM:  29    -0.115784831955E+04   -0.13692E-05   -0.33336E-08   644   0.348E-04    0.274E-04
RMM:  30    -0.115784832057E+04   -0.10174E-05   -0.29275E-08   621   0.336E-04    0.231E-04
RMM:  31    -0.115784832206E+04   -0.14866E-05   -0.36902E-08   651   0.338E-04    0.281E-04
RMM:  32    -0.115784832328E+04   -0.12197E-05   -0.41675E-08   687   0.353E-04    0.140E-04
RMM:  33    -0.115784832417E+04   -0.89203E-06   -0.37644E-08   651   0.347E-04
 124 F= -.11658318E+04 E0= -.11658199E+04  d E =-.944062E-03  mag=    21.7467
 trial-energy change:   -0.000944  1 .order   -0.000942   -0.001102   -0.000783
 step:   0.9240(harm=  0.9240)  dis= 0.01149  next Energy= -1165.832798 (dE=-0.190E-02)
 bond charge predicted
       N       E                     dE             d eps       ncg     rms          rms(c)
DAV:   1    -0.115781390404E+04    0.34419E-01   -0.14376E+01  1992   0.768E+00    0.881E-01
RMM:   2    -0.115784611674E+04   -0.32213E-01   -0.31231E-01  2305   0.107E+00    0.114E+00
RMM:   3    -0.115786429338E+04   -0.18177E-01   -0.43557E-02  2276   0.478E-01    0.233E+00
RMM:   4    -0.115784779789E+04    0.16495E-01   -0.16570E-02  2538   0.261E-01    0.798E-01
RMM:   5    -0.115784813969E+04   -0.34180E-03   -0.37257E-03  2296   0.125E-01    0.610E-01
RMM:   6    -0.115784846601E+04   -0.32633E-03   -0.18753E-03  2371   0.830E-02    0.611E-01
RMM:   7    -0.115784796511E+04    0.50090E-03   -0.13241E-03  2256   0.745E-02    0.335E-01
RMM:   8    -0.115784878664E+04   -0.82153E-03   -0.16134E-03  2247   0.793E-02    0.525E-01
RMM:   9    -0.115784853433E+04    0.25231E-03   -0.12773E-03  2245   0.726E-02    0.606E-01
RMM:  10    -0.115784808913E+04    0.44519E-03   -0.70658E-04  2198   0.547E-02    0.261E-01
RMM:  11    -0.115784820462E+04   -0.11549E-03   -0.38707E-04  2143   0.417E-02    0.315E-01
RMM:  12    -0.115784806020E+04    0.14442E-03   -0.15121E-04  2136   0.260E-02    0.119E-01
RMM:  13    -0.115784812489E+04   -0.64687E-04   -0.59480E-05  1871   0.176E-02    0.560E-02
RMM:  14    -0.115784816411E+04   -0.39220E-04   -0.23266E-05  1742   0.108E-02    0.427E-02
RMM:  15    -0.115784818070E+04   -0.16594E-04   -0.11705E-05  1507   0.774E-03    0.348E-02
RMM:  16    -0.115784819729E+04   -0.16588E-04   -0.60173E-06  1434   0.555E-03    0.245E-02
RMM:  17    -0.115784821422E+04   -0.16928E-04   -0.44525E-06  1369   0.476E-03    0.194E-02
RMM:  18    -0.115784822843E+04   -0.14208E-04   -0.31658E-06  1318   0.375E-03    0.135E-02
RMM:  19    -0.115784824821E+04   -0.19785E-04   -0.16063E-06  1266   0.299E-03    0.957E-03
RMM:  20    -0.115784825766E+04   -0.94466E-05   -0.90121E-07  1199   0.227E-03    0.780E-03
RMM:  21    -0.115784826710E+04   -0.94484E-05   -0.48700E-07  1133   0.157E-03    0.566E-03
RMM:  22    -0.115784827414E+04   -0.70380E-05   -0.35413E-07  1068   0.128E-03    0.481E-03
RMM:  23    -0.115784828642E+04   -0.12277E-04   -0.28257E-07  1056   0.109E-03    0.220E-03
RMM:  24    -0.115784830139E+04   -0.14973E-04   -0.27772E-07  1056   0.823E-04    0.303E-03
RMM:  25    -0.115784830843E+04   -0.70394E-05   -0.19682E-07   973   0.812E-04    0.274E-03
RMM:  26    -0.115784831452E+04   -0.60920E-05   -0.14990E-07   881   0.645E-04    0.154E-03
RMM:  27    -0.115784832258E+04   -0.80535E-05   -0.14762E-07   919   0.578E-04    0.171E-03
RMM:  28    -0.115784832881E+04   -0.62307E-05   -0.12446E-07   877   0.545E-04    0.128E-03
RMM:  29    -0.115784833824E+04   -0.94291E-05   -0.16362E-07   936   0.534E-04    0.100E-03
RMM:  30    -0.115784834704E+04   -0.87999E-05   -0.18508E-07   967   0.588E-04    0.103E-03
RMM:  31    -0.115784835383E+04   -0.67964E-05   -0.19612E-07   942   0.562E-04    0.456E-04
RMM:  32    -0.115784835867E+04   -0.48372E-05   -0.16691E-07   905   0.551E-04    0.373E-04
RMM:  33    -0.115784836279E+04   -0.41168E-05   -0.15508E-07   851   0.509E-04    0.510E-04
RMM:  34    -0.115784836697E+04   -0.41822E-05   -0.16505E-07   897   0.534E-04    0.528E-04
RMM:  35    -0.115784836961E+04   -0.26365E-05   -0.15130E-07   910   0.524E-04    0.245E-04
RMM:  36    -0.115784837144E+04   -0.18387E-05   -0.13496E-07   868   0.493E-04    0.381E-04
RMM:  37    -0.115784837257E+04   -0.11232E-05   -0.11375E-07   834   0.469E-04    0.236E-04
RMM:  38    -0.115784837311E+04   -0.54485E-06   -0.85922E-08   771   0.429E-04
 125 F= -.11658328E+04 E0= -.11658208E+04  d E =-.190039E-02  mag=    21.7464
 curvature: -16.59 expect dE=-0.954E-01 dE for cont linesearch -0.174E-08
 trial: gam= 1.43812 g(F)=  0.575E-02 g(S)=  0.000E+00 ort = 0.394E-05 (trialstep = 0.189E+00)
 search vector abs. value=  0.312E+00
 bond charge predicted
       N       E                     dE             d eps       ncg     rms          rms(c)
DAV:   1    -0.115784293874E+04    0.54338E-02   -0.25201E+00  1992   0.320E+00    0.367E-01
RMM:   2    -0.115784852881E+04   -0.55901E-02   -0.54552E-02  2280   0.446E-01    0.534E-01
RMM:   3    -0.115785197739E+04   -0.34486E-02   -0.77368E-03  2259   0.203E-01    0.123E+00
RMM:   4    -0.115784898813E+04    0.29893E-02   -0.35452E-03  2566   0.109E-01    0.583E-01
RMM:   5    -0.115784874095E+04    0.24718E-03   -0.10542E-03  2210   0.711E-02    0.181E-01
RMM:   6    -0.115784892470E+04   -0.18375E-03   -0.40315E-04  2375   0.363E-02    0.252E-01
RMM:   7    -0.115784882502E+04    0.99676E-04   -0.22817E-04  2242   0.304E-02    0.187E-01
RMM:   8    -0.115784902508E+04   -0.20006E-03   -0.26747E-04  2203   0.327E-02    0.337E-01
RMM:   9    -0.115784884483E+04    0.18025E-03   -0.22721E-04  2213   0.313E-02    0.137E-01
RMM:  10    -0.115784892013E+04   -0.75295E-04   -0.14836E-04  2078   0.265E-02    0.141E-01
RMM:  11    -0.115784887293E+04    0.47201E-04   -0.59487E-05  1877   0.167E-02    0.631E-02
RMM:  12    -0.115784888516E+04   -0.12230E-04   -0.19609E-05  1606   0.936E-03    0.293E-02
RMM:  13    -0.115784889380E+04   -0.86464E-05   -0.83049E-06  1454   0.684E-03    0.214E-02
RMM:  14    -0.115784889871E+04   -0.49103E-05   -0.30528E-06  1360   0.414E-03    0.194E-02
RMM:  15    -0.115784890091E+04   -0.21987E-05   -0.14837E-06  1250   0.296E-03    0.119E-02
RMM:  16    -0.115784890519E+04   -0.42823E-05   -0.10328E-06  1207   0.225E-03    0.925E-03
RMM:  17    -0.115784891052E+04   -0.53289E-05   -0.75980E-07  1198   0.208E-03    0.854E-03
RMM:  18    -0.115784891381E+04   -0.32905E-05   -0.46882E-07  1137   0.162E-03    0.621E-03
RMM:  19    -0.115784891766E+04   -0.38476E-05   -0.22681E-07  1072   0.112E-03    0.366E-03
RMM:  20    -0.115784891996E+04   -0.22996E-05   -0.14941E-07   987   0.819E-04    0.335E-03
RMM:  21    -0.115784892302E+04   -0.30556E-05   -0.11146E-07   931   0.714E-04    0.155E-03
RMM:  22    -0.115784892618E+04   -0.31664E-05   -0.80322E-08   872   0.540E-04    0.137E-03
RMM:  23    -0.115784892836E+04   -0.21750E-05   -0.58032E-08   795   0.478E-04    0.840E-04
RMM:  24    -0.115784893003E+04   -0.16705E-05   -0.43952E-08   736   0.407E-04    0.949E-04
RMM:  25    -0.115784893137E+04   -0.13442E-05   -0.34301E-08   680   0.390E-04    0.831E-04
RMM:  26    -0.115784893344E+04   -0.20640E-05   -0.40654E-08   728   0.377E-04    0.592E-04
RMM:  27    -0.115784893558E+04   -0.21464E-05   -0.46386E-08   774   0.392E-04    0.580E-04
RMM:  28    -0.115784893706E+04   -0.14798E-05   -0.38465E-08   702   0.369E-04    0.346E-04
RMM:  29    -0.115784893814E+04   -0.10735E-05   -0.30650E-08   641   0.350E-04    0.315E-04
RMM:  30    -0.115784893934E+04   -0.12017E-05   -0.31022E-08   635   0.337E-04    0.240E-04
RMM:  31    -0.115784894065E+04   -0.13116E-05   -0.35886E-08   656   0.345E-04    0.292E-04
RMM:  32    -0.115784894189E+04   -0.12432E-05   -0.42680E-08   689   0.354E-04    0.289E-04
RMM:  33    -0.115784894272E+04   -0.82846E-06   -0.37285E-08   661   0.355E-04
 126 F= -.11658337E+04 E0= -.11658217E+04  d E =-.913412E-03  mag=    21.7465
 trial-energy change:   -0.000913  1 .order   -0.000913   -0.001090   -0.000737
 step:   0.5851(harm=  0.5851)  dis= 0.01037  next Energy= -1165.834479 (dE=-0.168E-02)
 bond charge predicted
       N       E                     dE             d eps       ncg     rms          rms(c)
DAV:   1    -0.115782260639E+04    0.26335E-01   -0.11013E+01  1992   0.669E+00    0.770E-01
RMM:   2    -0.115784780196E+04   -0.25196E-01   -0.23977E-01  2292   0.934E-01    0.113E+00
RMM:   3    -0.115786086644E+04   -0.13064E-01   -0.34027E-02  2258   0.422E-01    0.204E+00
RMM:   4    -0.115784921794E+04    0.11648E-01   -0.13431E-02  2544   0.226E-01    0.814E-01
RMM:   5    -0.115784868106E+04    0.53688E-03   -0.30778E-03  2255   0.119E-01    0.459E-01
RMM:   6    -0.115784908373E+04   -0.40266E-03   -0.14854E-03  2416   0.708E-02    0.540E-01
RMM:   7    -0.115784864054E+04    0.44319E-03   -0.94477E-04  2244   0.617E-02    0.295E-01
RMM:   8    -0.115784933191E+04   -0.69137E-03   -0.12058E-03  2242   0.689E-02    0.534E-01
RMM:   9    -0.115784903775E+04    0.29416E-03   -0.10288E-03  2272   0.623E-02    0.518E-01
RMM:  10    -0.115784882223E+04    0.21551E-03   -0.65557E-04  2189   0.540E-02    0.277E-01
RMM:  11    -0.115784881506E+04    0.71766E-05   -0.28045E-04  2147   0.355E-02    0.291E-01
RMM:  12    -0.115784872316E+04    0.91899E-04   -0.11735E-04  2104   0.222E-02    0.113E-01
RMM:  13    -0.115784879063E+04   -0.67472E-04   -0.52672E-05  1856   0.163E-02    0.473E-02
RMM:  14    -0.115784883484E+04   -0.44212E-04   -0.23281E-05  1717   0.105E-02    0.552E-02
RMM:  15    -0.115784884266E+04   -0.78171E-05   -0.11561E-05  1491   0.738E-03    0.451E-02
RMM:  16    -0.115784885042E+04   -0.77544E-05   -0.58194E-06  1383   0.530E-03    0.262E-02
RMM:  17    -0.115784886457E+04   -0.14154E-04   -0.36572E-06  1354   0.440E-03    0.202E-02
RMM:  18    -0.115784887638E+04   -0.11812E-04   -0.22372E-06  1319   0.349E-03    0.123E-02
RMM:  19    -0.115784889460E+04   -0.18219E-04   -0.12653E-06  1237   0.263E-03    0.830E-03
RMM:  20    -0.115784890283E+04   -0.82264E-05   -0.83938E-07  1196   0.220E-03    0.716E-03
RMM:  21    -0.115784891083E+04   -0.80080E-05   -0.44680E-07  1115   0.145E-03    0.409E-03
RMM:  22    -0.115784891757E+04   -0.67392E-05   -0.29532E-07  1047   0.111E-03    0.335E-03
RMM:  23    -0.115784892522E+04   -0.76505E-05   -0.23522E-07  1009   0.991E-04    0.196E-03
RMM:  24    -0.115784893698E+04   -0.11757E-04   -0.22085E-07  1011   0.762E-04    0.190E-03
RMM:  25    -0.115784894354E+04   -0.65545E-05   -0.17148E-07   940   0.718E-04    0.136E-03
RMM:  26    -0.115784894852E+04   -0.49796E-05   -0.12631E-07   878   0.569E-04    0.141E-03
RMM:  27    -0.115784895287E+04   -0.43547E-05   -0.10612E-07   871   0.536E-04    0.151E-03
RMM:  28    -0.115784895915E+04   -0.62814E-05   -0.11753E-07   875   0.500E-04    0.114E-03
RMM:  29    -0.115784896731E+04   -0.81620E-05   -0.15969E-07   945   0.538E-04    0.930E-04
RMM:  30    -0.115784897225E+04   -0.49350E-05   -0.13710E-07   906   0.537E-04    0.727E-04
RMM:  31    -0.115784897727E+04   -0.50186E-05   -0.14392E-07   864   0.503E-04    0.570E-04
RMM:  32    -0.115784898109E+04   -0.38201E-05   -0.14069E-07   891   0.512E-04    0.377E-04
RMM:  33    -0.115784898483E+04   -0.37389E-05   -0.15312E-07   892   0.493E-04    0.832E-04
RMM:  34    -0.115784898729E+04   -0.24593E-05   -0.13072E-07   890   0.509E-04    0.380E-04
RMM:  35    -0.115784898901E+04   -0.17233E-05   -0.11919E-07   839   0.457E-04    0.368E-04
RMM:  36    -0.115784899008E+04   -0.10676E-05   -0.98303E-08   813   0.455E-04    0.434E-04
RMM:  37    -0.115784899076E+04   -0.68190E-06   -0.77814E-08   729   0.404E-04
 127 F= -.11658345E+04 E0= -.11658224E+04  d E =-.168359E-02  mag=    21.7467
 curvature: -15.84 expect dE=-0.731E-01 dE for cont linesearch -0.260E-09
 trial: gam= 0.78215 g(F)=  0.462E-02 g(S)=  0.000E+00 ort = 0.226E-05 (trialstep = 0.268E+00)
 search vector abs. value=  0.195E+00
 bond charge predicted
       N       E                     dE             d eps       ncg     rms          rms(c)
DAV:   1    -0.115784200751E+04    0.69826E-02   -0.32132E+00  1992   0.361E+00    0.413E-01
RMM:   2    -0.115784914571E+04   -0.71382E-02   -0.69576E-02  2267   0.499E-01    0.572E-01
RMM:   3    -0.115785331825E+04   -0.41725E-02   -0.99363E-03  2229   0.231E-01    0.132E+00
RMM:   4    -0.115784985134E+04    0.34669E-02   -0.43838E-03  2554   0.123E-01    0.689E-01
RMM:   5    -0.115784938061E+04    0.47073E-03   -0.13386E-03  2203   0.797E-02    0.217E-01
RMM:   6    -0.115784964772E+04   -0.26711E-03   -0.52711E-04  2383   0.416E-02    0.330E-01
RMM:   7    -0.115784947468E+04    0.17304E-03   -0.29430E-04  2286   0.341E-02    0.226E-01
RMM:   8    -0.115784964883E+04   -0.17415E-03   -0.32759E-04  2193   0.366E-02    0.308E-01
RMM:   9    -0.115784952229E+04    0.12654E-03   -0.28314E-04  2248   0.340E-02    0.144E-01
RMM:  10    -0.115784959749E+04   -0.75194E-04   -0.17539E-04  2122   0.282E-02    0.160E-01
RMM:  11    -0.115784953144E+04    0.66045E-04   -0.79207E-05  1953   0.195E-02    0.800E-02
RMM:  12    -0.115784954325E+04   -0.11810E-04   -0.20460E-05  1665   0.964E-03    0.352E-02
RMM:  13    -0.115784955533E+04   -0.12081E-04   -0.10539E-05  1511   0.765E-03    0.298E-02
RMM:  14    -0.115784956148E+04   -0.61415E-05   -0.53329E-06  1391   0.492E-03    0.213E-02
RMM:  15    -0.115784956712E+04   -0.56433E-05   -0.22473E-06  1298   0.367E-03    0.159E-02
RMM:  16    -0.115784957092E+04   -0.37985E-05   -0.11419E-06  1236   0.243E-03    0.134E-02
RMM:  17    -0.115784957773E+04   -0.68146E-05   -0.77862E-07  1197   0.216E-03    0.696E-03
RMM:  18    -0.115784958375E+04   -0.60154E-05   -0.65442E-07  1170   0.180E-03    0.621E-03
RMM:  19    -0.115784958949E+04   -0.57377E-05   -0.34492E-07  1116   0.139E-03    0.481E-03
RMM:  20    -0.115784959278E+04   -0.32915E-05   -0.22305E-07  1030   0.102E-03    0.392E-03
RMM:  21    -0.115784959709E+04   -0.43177E-05   -0.15394E-07   992   0.826E-04    0.177E-03
RMM:  22    -0.115784960115E+04   -0.40555E-05   -0.10370E-07   874   0.599E-04    0.143E-03
RMM:  23    -0.115784960378E+04   -0.26342E-05   -0.72582E-08   817   0.509E-04    0.112E-03
RMM:  24    -0.115784960601E+04   -0.22292E-05   -0.58283E-08   778   0.461E-04    0.141E-03
RMM:  25    -0.115784960878E+04   -0.27643E-05   -0.55191E-08   771   0.432E-04    0.142E-03
RMM:  26    -0.115784961210E+04   -0.33218E-05   -0.62958E-08   810   0.429E-04    0.829E-04
RMM:  27    -0.115784961416E+04   -0.20559E-05   -0.51340E-08   769   0.421E-04    0.525E-04
RMM:  28    -0.115784961695E+04   -0.27973E-05   -0.54166E-08   707   0.372E-04    0.436E-04
RMM:  29    -0.115784961938E+04   -0.24309E-05   -0.56974E-08   758   0.396E-04    0.362E-04
RMM:  30    -0.115784962129E+04   -0.19103E-05   -0.55365E-08   735   0.380E-04    0.248E-04
RMM:  31    -0.115784962337E+04   -0.20786E-05   -0.58444E-08   740   0.381E-04    0.239E-04
RMM:  32    -0.115784962555E+04   -0.21753E-05   -0.76241E-08   790   0.391E-04    0.246E-04
RMM:  33    -0.115784962661E+04   -0.10615E-05   -0.57461E-08   737   0.398E-04    0.135E-04
RMM:  34    -0.115784962751E+04   -0.90414E-06   -0.57082E-08   691   0.357E-04
 128 F= -.11658355E+04 E0= -.11658235E+04  d E =-.105276E-02  mag=    21.7462
 trial-energy change:   -0.001053  1 .order   -0.001054   -0.001240   -0.000867
 step:   0.8932(harm=  0.8932)  dis= 0.01227  next Energy= -1165.836543 (dE=-0.206E-02)
 bond charge predicted
       N       E                     dE             d eps       ncg     rms          rms(c)
DAV:   1    -0.115780886692E+04    0.40760E-01   -0.17408E+01  2004   0.839E+00    0.967E-01
RMM:   2    -0.115784827436E+04   -0.39407E-01   -0.37380E-01  2283   0.116E+00    0.137E+00
RMM:   3    -0.115786755932E+04   -0.19285E-01   -0.53495E-02  2240   0.534E-01    0.241E+00
RMM:   4    -0.115784983442E+04    0.17725E-01   -0.20156E-02  2531   0.286E-01    0.920E-01
RMM:   5    -0.115784942774E+04    0.40669E-03   -0.44791E-03  2285   0.140E-01    0.659E-01
RMM:   6    -0.115784979795E+04   -0.37021E-03   -0.22863E-03  2369   0.914E-02    0.679E-01
RMM:   7    -0.115784922594E+04    0.57201E-03   -0.15126E-03  2262   0.786E-02    0.398E-01
RMM:   8    -0.115784981199E+04   -0.58605E-03   -0.17833E-03  2244   0.831E-02    0.510E-01
RMM:   9    -0.115785015295E+04   -0.34096E-03   -0.16787E-03  2263   0.811E-02    0.786E-01
RMM:  10    -0.115784928343E+04    0.86952E-03   -0.98265E-04  2222   0.641E-02    0.346E-01
RMM:  11    -0.115784938894E+04   -0.10551E-03   -0.51989E-04  2167   0.498E-02    0.392E-01
RMM:  12    -0.115784923781E+04    0.15113E-03   -0.21471E-04  2186   0.301E-02    0.167E-01
RMM:  13    -0.115784931279E+04   -0.74978E-04   -0.98888E-05  1993   0.224E-02    0.638E-02
RMM:  14    -0.115784938101E+04   -0.68219E-04   -0.37644E-05  1866   0.136E-02    0.646E-02
RMM:  15    -0.115784939878E+04   -0.17773E-04   -0.16252E-05  1589   0.901E-03    0.478E-02
RMM:  16    -0.115784941622E+04   -0.17437E-04   -0.82011E-06  1483   0.659E-03    0.253E-02
RMM:  17    -0.115784944398E+04   -0.27760E-04   -0.63267E-06  1407   0.548E-03    0.256E-02
RMM:  18    -0.115784945959E+04   -0.15610E-04   -0.40504E-06  1325   0.425E-03    0.194E-02
RMM:  19    -0.115784948692E+04   -0.27336E-04   -0.23159E-06  1309   0.328E-03    0.111E-02
RMM:  20    -0.115784950146E+04   -0.14543E-04   -0.14142E-06  1279   0.283E-03    0.934E-03
RMM:  21    -0.115784951400E+04   -0.12538E-04   -0.69849E-07  1176   0.184E-03    0.525E-03
RMM:  22    -0.115784952444E+04   -0.10438E-04   -0.46287E-07  1092   0.142E-03    0.479E-03
RMM:  23    -0.115784953708E+04   -0.12643E-04   -0.35142E-07  1053   0.118E-03    0.262E-03
RMM:  24    -0.115784955694E+04   -0.19856E-04   -0.35332E-07  1082   0.979E-04    0.299E-03
RMM:  25    -0.115784956526E+04   -0.83162E-05   -0.24554E-07  1003   0.940E-04    0.300E-03
RMM:  26    -0.115784957276E+04   -0.74994E-05   -0.18876E-07   914   0.703E-04    0.167E-03
RMM:  27    -0.115784958172E+04   -0.89666E-05   -0.16044E-07   913   0.628E-04    0.144E-03
RMM:  28    -0.115784959491E+04   -0.13184E-04   -0.21460E-07   965   0.585E-04    0.101E-03
RMM:  29    -0.115784961006E+04   -0.15150E-04   -0.27626E-07  1002   0.646E-04    0.118E-03
RMM:  30    -0.115784962213E+04   -0.12076E-04   -0.31039E-07   977   0.666E-04    0.789E-04
RMM:  31    -0.115784962879E+04   -0.66570E-05   -0.26027E-07   933   0.665E-04    0.649E-04
RMM:  32    -0.115784963409E+04   -0.53021E-05   -0.22228E-07   908   0.589E-04    0.472E-04
RMM:  33    -0.115784964009E+04   -0.60018E-05   -0.21479E-07   932   0.598E-04    0.665E-04
RMM:  34    -0.115784964537E+04   -0.52737E-05   -0.23155E-07   956   0.593E-04    0.756E-04
RMM:  35    -0.115784964857E+04   -0.32037E-05   -0.20653E-07   926   0.590E-04    0.303E-04
RMM:  36    -0.115784965073E+04   -0.21594E-05   -0.17889E-07   888   0.537E-04    0.622E-04
RMM:  37    -0.115784965175E+04   -0.10243E-05   -0.13471E-07   849   0.515E-04    0.408E-04
RMM:  38    -0.115784965251E+04   -0.75286E-06   -0.10662E-07   782   0.444E-04
 129 F= -.11658365E+04 E0= -.11658244E+04  d E =-.205003E-02  mag=    21.7452
 curvature: -18.87 expect dE=-0.121E+00 dE for cont linesearch -0.578E-07
 trial: gam= 1.42416 g(F)=  0.642E-02 g(S)=  0.000E+00 ort =-0.244E-04 (trialstep = 0.191E+00)
 search vector abs. value=  0.402E+00
 bond charge predicted
       N       E                     dE             d eps       ncg     rms          rms(c)
DAV:   1    -0.115784224884E+04    0.74029E-02   -0.33775E+00  1992   0.369E+00    0.414E-01
RMM:   2    -0.115784949320E+04   -0.72444E-02   -0.72492E-02  2248   0.506E-01    0.478E-01
RMM:   3    -0.115785373282E+04   -0.42396E-02   -0.10155E-02  2220   0.236E-01    0.128E+00
RMM:   4    -0.115785041242E+04    0.33204E-02   -0.42163E-03  2537   0.127E-01    0.744E-01
RMM:   5    -0.115784991508E+04    0.49733E-03   -0.12864E-03  2201   0.762E-02    0.258E-01
RMM:   6    -0.115785025619E+04   -0.34111E-03   -0.58509E-04  2346   0.444E-02    0.376E-01
RMM:   7    -0.115785001882E+04    0.23737E-03   -0.32485E-04  2322   0.358E-02    0.205E-01
RMM:   8    -0.115785018550E+04   -0.16668E-03   -0.34652E-04  2182   0.373E-02    0.273E-01
RMM:   9    -0.115785011572E+04    0.69777E-04   -0.29868E-04  2270   0.336E-02    0.152E-01
RMM:  10    -0.115785014426E+04   -0.28540E-04   -0.17340E-04  2140   0.280E-02    0.132E-01
RMM:  11    -0.115785010913E+04    0.35130E-04   -0.79436E-05  1962   0.192E-02    0.666E-02
RMM:  12    -0.115785012032E+04   -0.11186E-04   -0.29456E-05  1716   0.117E-02    0.386E-02
RMM:  13    -0.115785012462E+04   -0.43040E-05   -0.12594E-05  1512   0.795E-03    0.256E-02
RMM:  14    -0.115785013089E+04   -0.62741E-05   -0.49080E-06  1399   0.481E-03    0.207E-02
RMM:  15    -0.115785013697E+04   -0.60801E-05   -0.29404E-06  1304   0.389E-03    0.119E-02
RMM:  16    -0.115785014273E+04   -0.57560E-05   -0.13344E-06  1238   0.266E-03    0.100E-02
RMM:  17    -0.115785014884E+04   -0.61108E-05   -0.88021E-07  1212   0.214E-03    0.876E-03
RMM:  18    -0.115785015565E+04   -0.68056E-05   -0.56151E-07  1158   0.182E-03    0.353E-03
RMM:  19    -0.115785016177E+04   -0.61210E-05   -0.30926E-07  1092   0.118E-03    0.388E-03
RMM:  20    -0.115785016532E+04   -0.35541E-05   -0.22313E-07  1012   0.103E-03    0.295E-03
RMM:  21    -0.115785016985E+04   -0.45313E-05   -0.14058E-07   968   0.755E-04    0.156E-03
RMM:  22    -0.115785017356E+04   -0.37127E-05   -0.10089E-07   882   0.607E-04    0.131E-03
RMM:  23    -0.115785017581E+04   -0.22487E-05   -0.72260E-08   798   0.537E-04    0.100E-03
RMM:  24    -0.115785017949E+04   -0.36718E-05   -0.68355E-08   798   0.468E-04    0.831E-04
RMM:  25    -0.115785018376E+04   -0.42789E-05   -0.76981E-08   853   0.463E-04    0.737E-04
RMM:  26    -0.115785018687E+04   -0.31020E-05   -0.70407E-08   826   0.438E-04    0.876E-04
RMM:  27    -0.115785018867E+04   -0.18058E-05   -0.53121E-08   730   0.405E-04    0.526E-04
RMM:  28    -0.115785019194E+04   -0.32634E-05   -0.68740E-08   759   0.382E-04    0.342E-04
RMM:  29    -0.115785019468E+04   -0.27401E-05   -0.71145E-08   797   0.407E-04    0.327E-04
RMM:  30    -0.115785019707E+04   -0.23971E-05   -0.68782E-08   779   0.397E-04    0.243E-04
RMM:  31    -0.115785019924E+04   -0.21672E-05   -0.72348E-08   793   0.412E-04    0.241E-04
RMM:  32    -0.115785020068E+04   -0.14392E-05   -0.67335E-08   771   0.395E-04    0.211E-04
RMM:  33    -0.115785020182E+04   -0.11374E-05   -0.60717E-08   730   0.386E-04    0.136E-04
RMM:  34    -0.115785020286E+04   -0.10428E-05   -0.61558E-08   719   0.379E-04    0.130E-04
RMM:  35    -0.115785020340E+04   -0.54446E-06   -0.55818E-08   731   0.382E-04
 130 F= -.11658375E+04 E0= -.11658254E+04  d E =-.100319E-02  mag=    21.7445
 trial-energy change:   -0.001003  1 .order   -0.000997   -0.001220   -0.000774
 step:   0.4641(harm=  0.5221)  dis= 0.00899  next Energy= -1165.838105 (dE=-0.158E-02)
 bond charge predicted
       N       E                     dE             d eps       ncg     rms          rms(c)
DAV:   1    -0.115783388274E+04    0.16320E-01   -0.69152E+00  1992   0.528E+00    0.594E-01
RMM:   2    -0.115784895210E+04   -0.15069E-01   -0.14903E-01  2256   0.725E-01    0.681E-01
RMM:   3    -0.115785750879E+04   -0.85567E-02   -0.20807E-02  2217   0.337E-01    0.179E+00
RMM:   4    -0.115785058952E+04    0.69193E-02   -0.85149E-03  2536   0.182E-01    0.920E-01
RMM:   5    -0.115784988920E+04    0.70032E-03   -0.23715E-03  2221   0.103E-01    0.396E-01
RMM:   6    -0.115785039968E+04   -0.51048E-03   -0.11325E-03  2396   0.607E-02    0.556E-01
RMM:   7    -0.115784992143E+04    0.47825E-03   -0.66945E-04  2324   0.518E-02    0.296E-01
RMM:   8    -0.115785022514E+04   -0.30372E-03   -0.70800E-04  2215   0.531E-02    0.383E-01
RMM:   9    -0.115785009459E+04    0.13055E-03   -0.62651E-04  2288   0.486E-02    0.227E-01
RMM:  10    -0.115785011901E+04   -0.24418E-04   -0.36406E-04  2221   0.406E-02    0.184E-01
RMM:  11    -0.115785004967E+04    0.69331E-04   -0.16111E-04  2098   0.272E-02    0.883E-02
RMM:  12    -0.115785007148E+04   -0.21802E-04   -0.65617E-05  1898   0.171E-02    0.603E-02
RMM:  13    -0.115785007345E+04   -0.19736E-05   -0.25702E-05  1625   0.110E-02    0.403E-02
RMM:  14    -0.115785008206E+04   -0.86079E-05   -0.94928E-06  1501   0.641E-03    0.299E-02
RMM:  15    -0.115785009435E+04   -0.12287E-04   -0.58580E-06  1394   0.518E-03    0.177E-02
RMM:  16    -0.115785010616E+04   -0.11817E-04   -0.29706E-06  1346   0.388E-03    0.142E-02
RMM:  17    -0.115785011610E+04   -0.99414E-05   -0.16633E-06  1282   0.293E-03    0.124E-02
RMM:  18    -0.115785012804E+04   -0.11941E-04   -0.98310E-07  1210   0.239E-03    0.552E-03
RMM:  19    -0.115785013800E+04   -0.99518E-05   -0.52652E-07  1158   0.160E-03    0.579E-03
RMM:  20    -0.115785014438E+04   -0.63787E-05   -0.38765E-07  1087   0.136E-03    0.440E-03
RMM:  21    -0.115785015299E+04   -0.86133E-05   -0.26569E-07  1032   0.104E-03    0.228E-03
RMM:  22    -0.115785016040E+04   -0.74074E-05   -0.19672E-07   993   0.784E-04    0.183E-03
RMM:  23    -0.115785016457E+04   -0.41710E-05   -0.13852E-07   907   0.730E-04    0.138E-03
RMM:  24    -0.115785017138E+04   -0.68141E-05   -0.13279E-07   872   0.579E-04    0.114E-03
RMM:  25    -0.115785017874E+04   -0.73562E-05   -0.13603E-07   900   0.585E-04    0.921E-04
RMM:  26    -0.115785018540E+04   -0.66671E-05   -0.14640E-07   913   0.522E-04    0.900E-04
RMM:  27    -0.115785018917E+04   -0.37662E-05   -0.11384E-07   867   0.510E-04    0.983E-04
RMM:  28    -0.115785019256E+04   -0.33917E-05   -0.94085E-08   792   0.452E-04    0.565E-04
RMM:  29    -0.115785019808E+04   -0.55190E-05   -0.11992E-07   860   0.475E-04    0.497E-04
RMM:  30    -0.115785020231E+04   -0.42307E-05   -0.12015E-07   896   0.494E-04    0.339E-04
RMM:  31    -0.115785020615E+04   -0.38383E-05   -0.13400E-07   872   0.480E-04    0.338E-04
RMM:  32    -0.115785020848E+04   -0.23323E-05   -0.11590E-07   866   0.480E-04    0.196E-04
RMM:  33    -0.115785021083E+04   -0.23520E-05   -0.11993E-07   837   0.447E-04    0.267E-04
RMM:  34    -0.115785021232E+04   -0.14842E-05   -0.10247E-07   833   0.462E-04    0.206E-04
RMM:  35    -0.115785021309E+04   -0.77214E-06   -0.82830E-08   759   0.415E-04
 131 F= -.11658382E+04 E0= -.11658260E+04  d E =-.166221E-02  mag=    21.7434
 curvature: -15.93 expect dE=-0.706E-01 dE for cont linesearch -0.231E-04
 trial: gam= 0.54605 g(F)=  0.443E-02 g(S)=  0.000E+00 ort = 0.764E-03 (trialstep = 0.246E+00)
 search vector abs. value=  0.125E+00
 bond charge predicted
       N       E                     dE             d eps       ncg     rms          rms(c)
DAV:   1    -0.115784682059E+04    0.33917E-02   -0.17348E+00  2004   0.263E+00    0.302E-01
RMM:   2    -0.115785042286E+04   -0.36023E-02   -0.37603E-02  2284   0.363E-01    0.296E-01
RMM:   3    -0.115785240091E+04   -0.19780E-02   -0.49728E-03  2254   0.162E-01    0.819E-01
RMM:   4    -0.115785077244E+04    0.16285E-02   -0.19415E-03  2530   0.893E-02    0.392E-01
RMM:   5    -0.115785076354E+04    0.88915E-05   -0.47274E-04  2263   0.436E-02    0.219E-01
RMM:   6    -0.115785092331E+04   -0.15976E-03   -0.27374E-04  2257   0.318E-02    0.274E-01
RMM:   7    -0.115785079187E+04    0.13143E-03   -0.17670E-04  2228   0.274E-02    0.151E-01
RMM:   8    -0.115785089495E+04   -0.10308E-03   -0.17880E-04  2122   0.267E-02    0.206E-01
RMM:   9    -0.115785087267E+04    0.22279E-04   -0.15498E-04  2212   0.251E-02    0.127E-01
RMM:  10    -0.115785085628E+04    0.16393E-04   -0.77509E-05  1949   0.196E-02    0.664E-02
RMM:  11    -0.115785086279E+04   -0.65093E-05   -0.35231E-05  1786   0.128E-02    0.438E-02
RMM:  12    -0.115785086566E+04   -0.28687E-05   -0.11762E-05  1523   0.813E-03    0.244E-02
RMM:  13    -0.115785086884E+04   -0.31834E-05   -0.40308E-06  1397   0.487E-03    0.182E-02
RMM:  14    -0.115785087350E+04   -0.46588E-05   -0.16326E-06  1292   0.299E-03    0.128E-02
RMM:  15    -0.115785087753E+04   -0.40264E-05   -0.10118E-06  1221   0.248E-03    0.678E-03
RMM:  16    -0.115785088299E+04   -0.54655E-05   -0.60046E-07  1179   0.176E-03    0.812E-03
RMM:  17    -0.115785088612E+04   -0.31261E-05   -0.44674E-07  1142   0.149E-03    0.577E-03
RMM:  18    -0.115785088936E+04   -0.32406E-05   -0.24896E-07  1079   0.111E-03    0.346E-03
RMM:  19    -0.115785089315E+04   -0.37909E-05   -0.16286E-07  1011   0.869E-04    0.319E-03
RMM:  20    -0.115785089569E+04   -0.25387E-05   -0.12364E-07   942   0.765E-04    0.231E-03
RMM:  21    -0.115785089941E+04   -0.37177E-05   -0.89127E-08   867   0.597E-04    0.110E-03
RMM:  22    -0.115785090171E+04   -0.23025E-05   -0.60171E-08   817   0.470E-04    0.117E-03
RMM:  23    -0.115785090335E+04   -0.16415E-05   -0.44449E-08   741   0.433E-04    0.111E-03
RMM:  24    -0.115785090516E+04   -0.18067E-05   -0.36539E-08   688   0.399E-04    0.850E-04
RMM:  25    -0.115785090766E+04   -0.25022E-05   -0.44978E-08   753   0.393E-04    0.725E-04
RMM:  26    -0.115785090953E+04   -0.18689E-05   -0.40965E-08   751   0.399E-04    0.412E-04
RMM:  27    -0.115785091181E+04   -0.22775E-05   -0.40917E-08   678   0.356E-04    0.318E-04
RMM:  28    -0.115785091384E+04   -0.20351E-05   -0.43675E-08   698   0.368E-04    0.252E-04
RMM:  29    -0.115785091565E+04   -0.18060E-05   -0.49968E-08   717   0.363E-04    0.174E-04
RMM:  30    -0.115785091740E+04   -0.17578E-05   -0.51521E-08   722   0.376E-04    0.185E-04
RMM:  31    -0.115785091891E+04   -0.15018E-05   -0.57405E-08   724   0.373E-04    0.136E-04
RMM:  32    -0.115785091966E+04   -0.75707E-06   -0.43381E-08   681   0.371E-04
 132 F= -.11658392E+04 E0= -.11658270E+04  d E =-.999025E-03  mag=    21.7435
 trial-energy change:   -0.000999  1 .order   -0.001000   -0.001191   -0.000809
 step:   0.7665(harm=  0.7665)  dis= 0.00868  next Energy= -1165.840051 (dE=-0.186E-02)
 bond charge predicted
       N       E                     dE             d eps       ncg     rms          rms(c)
DAV:   1    -0.115783261711E+04    0.18302E-01   -0.78095E+00  1992   0.559E+00    0.644E-01
RMM:   2    -0.115784942296E+04   -0.16806E-01   -0.17036E-01  2295   0.772E-01    0.626E-01
RMM:   3    -0.115785804187E+04   -0.86189E-02   -0.22513E-02  2258   0.345E-01    0.172E+00
RMM:   4    -0.115785089313E+04    0.71487E-02   -0.86258E-03  2528   0.189E-01    0.761E-01
RMM:   5    -0.115785089258E+04    0.55022E-06   -0.20952E-03  2306   0.903E-02    0.485E-01
RMM:   6    -0.115785138152E+04   -0.48895E-03   -0.12147E-03  2328   0.661E-02    0.605E-01
RMM:   7    -0.115785080583E+04    0.57570E-03   -0.81672E-04  2309   0.581E-02    0.322E-01
RMM:   8    -0.115785116280E+04   -0.35698E-03   -0.80266E-04  2219   0.568E-02    0.416E-01
RMM:   9    -0.115785108159E+04    0.81216E-04   -0.71706E-04  2272   0.534E-02    0.284E-01
RMM:  10    -0.115785095388E+04    0.12771E-03   -0.35922E-04  2178   0.421E-02    0.156E-01
RMM:  11    -0.115785095593E+04   -0.20502E-05   -0.16548E-04  2137   0.274E-02    0.982E-02
RMM:  12    -0.115785096392E+04   -0.79878E-05   -0.56756E-05  1860   0.171E-02    0.560E-02
RMM:  13    -0.115785097720E+04   -0.13287E-04   -0.20305E-05  1601   0.100E-02    0.491E-02
RMM:  14    -0.115785098735E+04   -0.10148E-04   -0.70397E-06  1452   0.598E-03    0.319E-02
RMM:  15    -0.115785099942E+04   -0.12066E-04   -0.42218E-06  1390   0.474E-03    0.157E-02
RMM:  16    -0.115785102140E+04   -0.21980E-04   -0.24745E-06  1344   0.356E-03    0.141E-02
RMM:  17    -0.115785103564E+04   -0.14243E-04   -0.19304E-06  1293   0.313E-03    0.167E-02
RMM:  18    -0.115785104529E+04   -0.96502E-05   -0.11835E-06  1224   0.244E-03    0.116E-02
RMM:  19    -0.115785105663E+04   -0.11344E-04   -0.66430E-07  1174   0.175E-03    0.863E-03
RMM:  20    -0.115785106472E+04   -0.80916E-05   -0.45543E-07  1111   0.146E-03    0.556E-03
RMM:  21    -0.115785107680E+04   -0.12071E-04   -0.32034E-07  1052   0.111E-03    0.259E-03
RMM:  22    -0.115785108721E+04   -0.10411E-04   -0.23252E-07  1036   0.812E-04    0.206E-03
RMM:  23    -0.115785109417E+04   -0.69658E-05   -0.18470E-07   938   0.766E-04    0.265E-03
RMM:  24    -0.115785109978E+04   -0.56030E-05   -0.14446E-07   866   0.637E-04    0.211E-03
RMM:  25    -0.115785110820E+04   -0.84206E-05   -0.14667E-07   905   0.593E-04    0.140E-03
RMM:  26    -0.115785111492E+04   -0.67246E-05   -0.14385E-07   899   0.613E-04    0.980E-04
RMM:  27    -0.115785112296E+04   -0.80423E-05   -0.16409E-07   907   0.536E-04    0.954E-04
RMM:  28    -0.115785112800E+04   -0.50379E-05   -0.12823E-07   875   0.549E-04    0.785E-04
RMM:  29    -0.115785113547E+04   -0.74737E-05   -0.17314E-07   912   0.496E-04    0.515E-04
RMM:  30    -0.115785114187E+04   -0.63961E-05   -0.16452E-07   941   0.563E-04    0.317E-04
RMM:  31    -0.115785114639E+04   -0.45206E-05   -0.17233E-07   878   0.503E-04    0.314E-04
RMM:  32    -0.115785115082E+04   -0.44312E-05   -0.17025E-07   889   0.545E-04    0.211E-04
RMM:  33    -0.115785115388E+04   -0.30566E-05   -0.17184E-07   936   0.520E-04    0.260E-04
RMM:  34    -0.115785115554E+04   -0.16645E-05   -0.14093E-07   868   0.520E-04    0.155E-04
RMM:  35    -0.115785115653E+04   -0.98164E-06   -0.10965E-07   782   0.446E-04
 133 F= -.11658400E+04 E0= -.11658279E+04  d E =-.185807E-02  mag=    21.7437
 curvature:  -9.90 expect dE=-0.617E-01 dE for cont linesearch -0.601E-07
 trial: gam= 1.58901 g(F)=  0.624E-02 g(S)=  0.000E+00 ort =-0.276E-04 (trialstep = 0.136E+00)
 search vector abs. value=  0.322E+00
 bond charge predicted
       N       E                     dE             d eps       ncg     rms          rms(c)
DAV:   1    -0.115784840884E+04    0.27467E-02   -0.13801E+00  2016   0.234E+00    0.265E-01
RMM:   2    -0.115785125144E+04   -0.28426E-02   -0.29616E-02  2283   0.321E-01    0.273E-01
RMM:   3    -0.115785279808E+04   -0.15466E-02   -0.39247E-03  2259   0.144E-01    0.754E-01
RMM:   4    -0.115785158710E+04    0.12110E-02   -0.15520E-03  2532   0.774E-02    0.438E-01
RMM:   5    -0.115785146973E+04    0.11737E-03   -0.42702E-04  2181   0.409E-02    0.148E-01
RMM:   6    -0.115785164092E+04   -0.17120E-03   -0.22617E-04  2198   0.285E-02    0.198E-01
RMM:   7    -0.115785154815E+04    0.92772E-04   -0.13645E-04  2171   0.230E-02    0.863E-02
RMM:   8    -0.115785168529E+04   -0.13714E-03   -0.15414E-04  2224   0.248E-02    0.206E-01
RMM:   9    -0.115785159080E+04    0.94488E-04   -0.99158E-05  2109   0.208E-02    0.123E-01
RMM:  10    -0.115785159965E+04   -0.88449E-05   -0.55213E-05  1860   0.156E-02    0.742E-02
RMM:  11    -0.115785160351E+04   -0.38664E-05   -0.24580E-05  1664   0.111E-02    0.397E-02
RMM:  12    -0.115785160713E+04   -0.36148E-05   -0.10195E-05  1496   0.772E-03    0.225E-02
RMM:  13    -0.115785161119E+04   -0.40629E-05   -0.39322E-06  1380   0.458E-03    0.202E-02
RMM:  14    -0.115785161518E+04   -0.39877E-05   -0.21818E-06  1271   0.328E-03    0.129E-02
RMM:  15    -0.115785161832E+04   -0.31472E-05   -0.99686E-07  1207   0.233E-03    0.754E-03
RMM:  16    -0.115785162195E+04   -0.36218E-05   -0.51957E-07  1164   0.169E-03    0.715E-03
RMM:  17    -0.115785162496E+04   -0.30117E-05   -0.35109E-07  1116   0.145E-03    0.414E-03
RMM:  18    -0.115785162805E+04   -0.30913E-05   -0.19322E-07  1044   0.103E-03    0.318E-03
RMM:  19    -0.115785163154E+04   -0.34860E-05   -0.14882E-07  1020   0.848E-04    0.306E-03
RMM:  20    -0.115785163403E+04   -0.24970E-05   -0.12107E-07   939   0.748E-04    0.272E-03
RMM:  21    -0.115785163677E+04   -0.27413E-05   -0.80334E-08   864   0.611E-04    0.127E-03
RMM:  22    -0.115785163893E+04   -0.21513E-05   -0.53215E-08   791   0.448E-04    0.928E-04
RMM:  23    -0.115785164140E+04   -0.24770E-05   -0.48753E-08   798   0.421E-04    0.630E-04
RMM:  24    -0.115785164362E+04   -0.22209E-05   -0.43879E-08   735   0.398E-04    0.786E-04
RMM:  25    -0.115785164491E+04   -0.12868E-05   -0.33629E-08   675   0.374E-04    0.526E-04
RMM:  26    -0.115785164668E+04   -0.17656E-05   -0.32051E-08   648   0.349E-04    0.415E-04
RMM:  27    -0.115785164905E+04   -0.23730E-05   -0.43675E-08   707   0.364E-04    0.305E-04
RMM:  28    -0.115785165111E+04   -0.20580E-05   -0.49500E-08   733   0.375E-04    0.285E-04
RMM:  29    -0.115785165231E+04   -0.12074E-05   -0.39784E-08   685   0.368E-04    0.240E-04
RMM:  30    -0.115785165348E+04   -0.11630E-05   -0.37638E-08   651   0.347E-04    0.160E-04
RMM:  31    -0.115785165496E+04   -0.14877E-05   -0.48926E-08   705   0.359E-04    0.162E-04
RMM:  32    -0.115785165589E+04   -0.92682E-06   -0.44723E-08   690   0.364E-04
 134 F= -.11658408E+04 E0= -.11658286E+04  d E =-.730227E-03  mag=    21.7433
 trial-energy change:   -0.000730  1 .order   -0.000729   -0.000842   -0.000617
 step:   0.5083(harm=  0.5083)  dis= 0.00937  next Energy= -1165.841624 (dE=-0.157E-02)
 bond charge predicted
       N       E                     dE             d eps       ncg     rms          rms(c)
DAV:   1    -0.115782731589E+04    0.24339E-01   -0.10366E+01  1992   0.641E+00    0.729E-01
RMM:   2    -0.115784971688E+04   -0.22401E-01   -0.22435E-01  2294   0.881E-01    0.743E-01
RMM:   3    -0.115786071988E+04   -0.11003E-01   -0.29769E-02  2262   0.394E-01    0.198E+00
RMM:   4    -0.115785174191E+04    0.89780E-02   -0.11463E-02  2538   0.211E-01    0.104E+00
RMM:   5    -0.115785128572E+04    0.45619E-03   -0.27646E-03  2282   0.102E-01    0.451E-01
RMM:   6    -0.115785214188E+04   -0.85616E-03   -0.16427E-03  2277   0.769E-02    0.556E-01
RMM:   7    -0.115785139218E+04    0.74970E-03   -0.10243E-03  2315   0.630E-02    0.235E-01
RMM:   8    -0.115785257969E+04   -0.11875E-02   -0.12239E-03  2279   0.687E-02    0.655E-01
RMM:   9    -0.115785152591E+04    0.10538E-02   -0.84599E-04  2287   0.584E-02    0.280E-01
RMM:  10    -0.115785164790E+04   -0.12198E-03   -0.41580E-04  2165   0.444E-02    0.186E-01
RMM:  11    -0.115785162286E+04    0.25032E-04   -0.17849E-04  2129   0.294E-02    0.108E-01
RMM:  12    -0.115785162990E+04   -0.70346E-05   -0.68515E-05  1905   0.184E-02    0.832E-02
RMM:  13    -0.115785163786E+04   -0.79627E-05   -0.25220E-05  1642   0.105E-02    0.655E-02
RMM:  14    -0.115785165251E+04   -0.14646E-04   -0.13106E-05  1514   0.758E-03    0.297E-02
RMM:  15    -0.115785167636E+04   -0.23848E-04   -0.73681E-06  1444   0.580E-03    0.264E-02
RMM:  16    -0.115785169285E+04   -0.16497E-04   -0.40920E-06  1382   0.472E-03    0.165E-02
RMM:  17    -0.115785171105E+04   -0.18200E-04   -0.25936E-06  1336   0.365E-03    0.125E-02
RMM:  18    -0.115785172709E+04   -0.16034E-04   -0.15577E-06  1268   0.304E-03    0.865E-03
RMM:  19    -0.115785174506E+04   -0.17972E-04   -0.97126E-07  1223   0.215E-03    0.919E-03
RMM:  20    -0.115785175589E+04   -0.10826E-04   -0.63839E-07  1147   0.182E-03    0.642E-03
RMM:  21    -0.115785176759E+04   -0.11700E-04   -0.39572E-07  1094   0.133E-03    0.420E-03
RMM:  22    -0.115785177806E+04   -0.10471E-04   -0.25892E-07  1033   0.965E-04    0.305E-03
RMM:  23    -0.115785179077E+04   -0.12714E-04   -0.26206E-07  1023   0.826E-04    0.347E-03
RMM:  24    -0.115785179796E+04   -0.71918E-05   -0.19997E-07   949   0.828E-04    0.192E-03
RMM:  25    -0.115785180974E+04   -0.11773E-04   -0.20351E-07   937   0.636E-04    0.142E-03
RMM:  26    -0.115785181699E+04   -0.72500E-05   -0.15388E-07   902   0.671E-04    0.111E-03
RMM:  27    -0.115785182945E+04   -0.12467E-04   -0.23624E-07   939   0.587E-04    0.113E-03
RMM:  28    -0.115785183913E+04   -0.96794E-05   -0.20345E-07   956   0.686E-04    0.925E-04
RMM:  29    -0.115785185023E+04   -0.11098E-04   -0.26926E-07   971   0.589E-04    0.843E-04
RMM:  30    -0.115785185640E+04   -0.61714E-05   -0.19370E-07   909   0.647E-04    0.537E-04
RMM:  31    -0.115785186320E+04   -0.67993E-05   -0.24355E-07   910   0.529E-04    0.407E-04
RMM:  32    -0.115785186848E+04   -0.52834E-05   -0.20345E-07   940   0.624E-04    0.349E-04
RMM:  33    -0.115785187217E+04   -0.36849E-05   -0.19822E-07   890   0.517E-04    0.232E-04
RMM:  34    -0.115785187458E+04   -0.24135E-05   -0.16390E-07   887   0.567E-04    0.198E-04
RMM:  35    -0.115785187591E+04   -0.13244E-05   -0.13707E-07   818   0.457E-04    0.186E-04
RMM:  36    -0.115785187674E+04   -0.82944E-06   -0.99181E-08   792   0.474E-04
 135 F= -.11658416E+04 E0= -.11658294E+04  d E =-.158594E-02  mag=    21.7420
 curvature: -13.22 expect dE=-0.649E-01 dE for cont linesearch -0.275E-06
 trial: gam= 0.63131 g(F)=  0.491E-02 g(S)=  0.000E+00 ort = 0.818E-04 (trialstep = 0.210E+00)
 search vector abs. value=  0.133E+00
 bond charge predicted
       N       E                     dE             d eps       ncg     rms          rms(c)
DAV:   1    -0.115784931453E+04    0.25614E-02   -0.13747E+00  2016   0.232E+00    0.273E-01
RMM:   2    -0.115785221639E+04   -0.29019E-02   -0.29697E-02  2294   0.319E-01    0.295E-01
RMM:   3    -0.115785372198E+04   -0.15056E-02   -0.41686E-03  2246   0.147E-01    0.696E-01
RMM:   4    -0.115785242669E+04    0.12953E-02   -0.15563E-03  2518   0.791E-02    0.306E-01
RMM:   5    -0.115785244477E+04   -0.18083E-04   -0.35318E-04  2249   0.356E-02    0.215E-01
RMM:   6    -0.115785252167E+04   -0.76897E-04   -0.22053E-04  2171   0.284E-02    0.221E-01
RMM:   7    -0.115785245366E+04    0.68007E-04   -0.14539E-04  2184   0.242E-02    0.116E-01
RMM:   8    -0.115785258498E+04   -0.13132E-03   -0.17013E-04  2154   0.255E-02    0.248E-01
RMM:   9    -0.115785248699E+04    0.97995E-04   -0.14029E-04  2132   0.230E-02    0.110E-01
RMM:  10    -0.115785250617E+04   -0.19182E-04   -0.98642E-05  1955   0.210E-02    0.718E-02
RMM:  11    -0.115785249879E+04    0.73834E-05   -0.31673E-05  1743   0.119E-02    0.461E-02
RMM:  12    -0.115785249954E+04   -0.74952E-06   -0.13722E-05  1511   0.820E-03    0.242E-02
RMM:  13    -0.115785250552E+04   -0.59793E-05   -0.39568E-06  1393   0.483E-03    0.162E-02
RMM:  14    -0.115785250823E+04   -0.27107E-05   -0.16923E-06  1252   0.297E-03    0.146E-02
RMM:  15    -0.115785251221E+04   -0.39862E-05   -0.11331E-06  1210   0.232E-03    0.856E-03
RMM:  16    -0.115785251544E+04   -0.32228E-05   -0.54958E-07  1172   0.174E-03    0.568E-03
RMM:  17    -0.115785251825E+04   -0.28128E-05   -0.26178E-07  1118   0.115E-03    0.560E-03
RMM:  18    -0.115785252100E+04   -0.27519E-05   -0.18787E-07  1053   0.102E-03    0.237E-03
RMM:  19    -0.115785252628E+04   -0.52761E-05   -0.14076E-07  1050   0.726E-04    0.211E-03
RMM:  20    -0.115785252888E+04   -0.26014E-05   -0.12278E-07   976   0.795E-04    0.215E-03
RMM:  21    -0.115785253055E+04   -0.16679E-05   -0.75958E-08   830   0.600E-04    0.168E-03
RMM:  22    -0.115785253194E+04   -0.13905E-05   -0.46486E-08   756   0.458E-04    0.152E-03
RMM:  23    -0.115785253365E+04   -0.17131E-05   -0.38363E-08   717   0.424E-04    0.113E-03
RMM:  24    -0.115785253597E+04   -0.23200E-05   -0.36253E-08   703   0.391E-04    0.499E-04
RMM:  25    -0.115785253838E+04   -0.24125E-05   -0.40875E-08   718   0.371E-04    0.533E-04
RMM:  26    -0.115785254003E+04   -0.16503E-05   -0.34494E-08   685   0.369E-04    0.630E-04
RMM:  27    -0.115785254167E+04   -0.16397E-05   -0.33921E-08   661   0.352E-04    0.332E-04
RMM:  28    -0.115785254372E+04   -0.20467E-05   -0.38691E-08   664   0.352E-04    0.264E-04
RMM:  29    -0.115785254534E+04   -0.16181E-05   -0.43541E-08   694   0.359E-04    0.221E-04
RMM:  30    -0.115785254679E+04   -0.14551E-05   -0.44394E-08   693   0.363E-04    0.192E-04
RMM:  31    -0.115785254824E+04   -0.14520E-05   -0.51582E-08   725   0.366E-04    0.167E-04
RMM:  32    -0.115785254906E+04   -0.82100E-06   -0.43674E-08   681   0.361E-04
 136 F= -.11658425E+04 E0= -.11658302E+04  d E =-.868283E-03  mag=    21.7411
 trial-energy change:   -0.000868  1 .order   -0.000869   -0.001044   -0.000694
 step:   0.6285(harm=  0.6285)  dis= 0.00766  next Energy= -1165.843195 (dE=-0.156E-02)
 bond charge predicted
       N       E                     dE             d eps       ncg     rms          rms(c)
DAV:   1    -0.115783999958E+04    0.12549E-01   -0.54322E+00  1992   0.461E+00    0.544E-01
RMM:   2    -0.115785187799E+04   -0.11878E-01   -0.11803E-01  2299   0.635E-01    0.585E-01
RMM:   3    -0.115785769769E+04   -0.58197E-02   -0.16576E-02  2255   0.290E-01    0.137E+00
RMM:   4    -0.115785254761E+04    0.51501E-02   -0.61484E-03  2520   0.156E-01    0.526E-01
RMM:   5    -0.115785275352E+04   -0.20591E-03   -0.13371E-03  2323   0.688E-02    0.456E-01
RMM:   6    -0.115785287488E+04   -0.12136E-03   -0.83260E-04  2274   0.549E-02    0.454E-01
RMM:   7    -0.115785260178E+04    0.27310E-03   -0.58694E-04  2282   0.482E-02    0.235E-01
RMM:   8    -0.115785307139E+04   -0.46961E-03   -0.66923E-04  2229   0.508E-02    0.496E-01
RMM:   9    -0.115785268659E+04    0.38480E-03   -0.54943E-04  2267   0.455E-02    0.213E-01
RMM:  10    -0.115785274381E+04   -0.57215E-04   -0.38456E-04  2138   0.411E-02    0.157E-01
RMM:  11    -0.115785268657E+04    0.57235E-04   -0.12599E-04  2050   0.236E-02    0.933E-02
RMM:  12    -0.115785269001E+04   -0.34317E-05   -0.55585E-05  1840   0.158E-02    0.510E-02
RMM:  13    -0.115785270746E+04   -0.17451E-04   -0.16326E-05  1561   0.907E-03    0.377E-02
RMM:  14    -0.115785271639E+04   -0.89289E-05   -0.70627E-06  1421   0.574E-03    0.347E-02
RMM:  15    -0.115785272644E+04   -0.10055E-04   -0.41242E-06  1351   0.426E-03    0.175E-02
RMM:  16    -0.115785273647E+04   -0.10024E-04   -0.20435E-06  1284   0.320E-03    0.113E-02
RMM:  17    -0.115785274705E+04   -0.10580E-04   -0.11182E-06  1245   0.233E-03    0.118E-02
RMM:  18    -0.115785275508E+04   -0.80360E-05   -0.70980E-07  1177   0.200E-03    0.570E-03
RMM:  19    -0.115785277028E+04   -0.15194E-04   -0.49261E-07  1159   0.138E-03    0.378E-03
RMM:  20    -0.115785277888E+04   -0.86003E-05   -0.45575E-07  1111   0.153E-03    0.467E-03
RMM:  21    -0.115785278436E+04   -0.54860E-05   -0.26255E-07  1050   0.111E-03    0.314E-03
RMM:  22    -0.115785278815E+04   -0.37909E-05   -0.15378E-07   961   0.745E-04    0.325E-03
RMM:  23    -0.115785279320E+04   -0.50467E-05   -0.12114E-07   888   0.678E-04    0.312E-03
RMM:  24    -0.115785280109E+04   -0.78929E-05   -0.11924E-07   899   0.557E-04    0.151E-03
RMM:  25    -0.115785280696E+04   -0.58638E-05   -0.11374E-07   871   0.565E-04    0.155E-03
RMM:  26    -0.115785281208E+04   -0.51209E-05   -0.10738E-07   831   0.507E-04    0.114E-03
RMM:  27    -0.115785281894E+04   -0.68666E-05   -0.11817E-07   882   0.490E-04    0.956E-04
RMM:  28    -0.115785282492E+04   -0.59760E-05   -0.12857E-07   886   0.497E-04    0.668E-04
RMM:  29    -0.115785283058E+04   -0.56564E-05   -0.12724E-07   891   0.491E-04    0.398E-04
RMM:  30    -0.115785283528E+04   -0.47078E-05   -0.13774E-07   897   0.498E-04    0.314E-04
RMM:  31    -0.115785284002E+04   -0.47335E-05   -0.15171E-07   903   0.494E-04    0.317E-04
RMM:  32    -0.115785284286E+04   -0.28432E-05   -0.12922E-07   870   0.505E-04    0.264E-04
RMM:  33    -0.115785284490E+04   -0.20441E-05   -0.12151E-07   828   0.457E-04    0.171E-04
RMM:  34    -0.115785284671E+04   -0.18023E-05   -0.11164E-07   848   0.467E-04    0.141E-04
RMM:  35    -0.115785284774E+04   -0.10336E-05   -0.99206E-08   810   0.442E-04    0.130E-04
RMM:  36    -0.115785284810E+04   -0.35737E-06   -0.71144E-08   737   0.415E-04
 137 F= -.11658432E+04 E0= -.11658308E+04  d E =-.155826E-02  mag=    21.7392
 curvature:  -8.45 expect dE=-0.362E-01 dE for cont linesearch -0.131E-07
 trial: gam= 0.90944 g(F)=  0.428E-02 g(S)=  0.000E+00 ort = 0.144E-04 (trialstep = 0.294E+00)
 search vector abs. value=  0.115E+00
 bond charge predicted
       N       E                     dE             d eps       ncg     rms          rms(c)
DAV:   1    -0.115784810138E+04    0.47464E-02   -0.23256E+00  1992   0.300E+00    0.344E-01
RMM:   2    -0.115785313354E+04   -0.50322E-02   -0.50203E-02  2277   0.412E-01    0.409E-01
RMM:   3    -0.115785548812E+04   -0.23546E-02   -0.71674E-03  2245   0.190E-01    0.913E-01
RMM:   4    -0.115785356787E+04    0.19203E-02   -0.26453E-03  2532   0.101E-01    0.515E-01
RMM:   5    -0.115785333121E+04    0.23665E-03   -0.69909E-04  2199   0.546E-02    0.201E-01
RMM:   6    -0.115785364025E+04   -0.30903E-03   -0.36750E-04  2293   0.350E-02    0.363E-01
RMM:   7    -0.115785337399E+04    0.26625E-03   -0.24906E-04  2282   0.304E-02    0.180E-01
RMM:   8    -0.115785353083E+04   -0.15683E-03   -0.25219E-04  2154   0.321E-02    0.252E-01
RMM:   9    -0.115785345548E+04    0.75348E-04   -0.21896E-04  2221   0.288E-02    0.120E-01
RMM:  10    -0.115785348380E+04   -0.28323E-04   -0.11526E-04  2086   0.230E-02    0.105E-01
RMM:  11    -0.115785345926E+04    0.24541E-04   -0.49581E-05  1850   0.153E-02    0.453E-02
RMM:  12    -0.115785347046E+04   -0.11192E-04   -0.21146E-05  1633   0.986E-03    0.344E-02
RMM:  13    -0.115785347363E+04   -0.31769E-05   -0.79584E-06  1454   0.684E-03    0.167E-02
RMM:  14    -0.115785347948E+04   -0.58518E-05   -0.26670E-06  1353   0.377E-03    0.168E-02
RMM:  15    -0.115785348533E+04   -0.58445E-05   -0.15263E-06  1270   0.290E-03    0.122E-02
RMM:  16    -0.115785349059E+04   -0.52606E-05   -0.85960E-07  1206   0.212E-03    0.700E-03
RMM:  17    -0.115785349637E+04   -0.57776E-05   -0.61472E-07  1175   0.153E-03    0.853E-03
RMM:  18    -0.115785350052E+04   -0.41485E-05   -0.37967E-07  1118   0.142E-03    0.265E-03
RMM:  19    -0.115785350650E+04   -0.59852E-05   -0.19218E-07  1045   0.830E-04    0.249E-03
RMM:  20    -0.115785351064E+04   -0.41427E-05   -0.15753E-07  1001   0.832E-04    0.309E-03
RMM:  21    -0.115785351327E+04   -0.26276E-05   -0.11225E-07   873   0.671E-04    0.204E-03
RMM:  22    -0.115785351617E+04   -0.29022E-05   -0.79940E-08   844   0.535E-04    0.125E-03
RMM:  23    -0.115785351804E+04   -0.18632E-05   -0.59395E-08   764   0.485E-04    0.128E-03
RMM:  24    -0.115785352093E+04   -0.28899E-05   -0.57806E-08   775   0.438E-04    0.932E-04
RMM:  25    -0.115785352381E+04   -0.28815E-05   -0.61807E-08   814   0.450E-04    0.835E-04
RMM:  26    -0.115785352784E+04   -0.40358E-05   -0.86507E-08   859   0.448E-04    0.884E-04
RMM:  27    -0.115785353006E+04   -0.22145E-05   -0.63366E-08   786   0.427E-04    0.686E-04
RMM:  28    -0.115785353207E+04   -0.20095E-05   -0.56926E-08   712   0.381E-04    0.380E-04
RMM:  29    -0.115785353422E+04   -0.21516E-05   -0.64699E-08   767   0.403E-04    0.292E-04
RMM:  30    -0.115785353588E+04   -0.16564E-05   -0.63868E-08   777   0.394E-04    0.217E-04
RMM:  31    -0.115785353723E+04   -0.13551E-05   -0.58590E-08   739   0.388E-04    0.296E-04
RMM:  32    -0.115785353828E+04   -0.10514E-05   -0.53653E-08   718   0.371E-04    0.140E-04
RMM:  33    -0.115785353931E+04   -0.10230E-05   -0.62028E-08   752   0.379E-04    0.169E-04
RMM:  34    -0.115785353976E+04   -0.45241E-06   -0.48802E-08   701   0.371E-04
 138 F= -.11658442E+04 E0= -.11658318E+04  d E =-.100035E-02  mag=    21.7406
 trial-energy change:   -0.001000  1 .order   -0.000996   -0.001262   -0.000730
 step:   0.6580(harm=  0.6973)  dis= 0.00804  next Energy= -1165.844654 (dE=-0.146E-02)
 bond charge predicted
       N       E                     dE             d eps       ncg     rms          rms(c)
DAV:   1    -0.115784530336E+04    0.82359E-02   -0.35662E+00  1992   0.372E+00    0.427E-01
RMM:   2    -0.115785309953E+04   -0.77962E-02   -0.77134E-02  2277   0.511E-01    0.507E-01
RMM:   3    -0.115785670474E+04   -0.36052E-02   -0.11028E-02  2238   0.235E-01    0.114E+00
RMM:   4    -0.115785377822E+04    0.29265E-02   -0.40804E-03  2534   0.126E-01    0.636E-01
RMM:   5    -0.115785338445E+04    0.39377E-03   -0.10891E-03  2222   0.682E-02    0.248E-01
RMM:   6    -0.115785383912E+04   -0.45467E-03   -0.56402E-04  2326   0.432E-02    0.450E-01
RMM:   7    -0.115785343913E+04    0.39999E-03   -0.38089E-04  2308   0.375E-02    0.224E-01
RMM:   8    -0.115785366461E+04   -0.22548E-03   -0.38720E-04  2178   0.397E-02    0.312E-01
RMM:   9    -0.115785354152E+04    0.12308E-03   -0.33796E-04  2243   0.358E-02    0.147E-01
RMM:  10    -0.115785358330E+04   -0.41774E-04   -0.17730E-04  2155   0.286E-02    0.132E-01
RMM:  11    -0.115785354153E+04    0.41766E-04   -0.76909E-05  1961   0.189E-02    0.552E-02
RMM:  12    -0.115785355840E+04   -0.16872E-04   -0.32942E-05  1755   0.122E-02    0.434E-02
RMM:  13    -0.115785356172E+04   -0.33169E-05   -0.12232E-05  1503   0.817E-03    0.202E-02
RMM:  14    -0.115785357012E+04   -0.84057E-05   -0.40803E-06  1397   0.463E-03    0.205E-02
RMM:  15    -0.115785357852E+04   -0.83956E-05   -0.23282E-06  1309   0.352E-03    0.153E-02
RMM:  16    -0.115785358616E+04   -0.76400E-05   -0.13258E-06  1242   0.262E-03    0.918E-03
RMM:  17    -0.115785359443E+04   -0.82725E-05   -0.93551E-07  1201   0.189E-03    0.108E-02
RMM:  18    -0.115785360024E+04   -0.58096E-05   -0.55902E-07  1148   0.174E-03    0.346E-03
RMM:  19    -0.115785360835E+04   -0.81111E-05   -0.27498E-07  1084   0.100E-03    0.288E-03
RMM:  20    -0.115785361446E+04   -0.61035E-05   -0.22444E-07  1038   0.980E-04    0.357E-03
RMM:  21    -0.115785361835E+04   -0.38913E-05   -0.16861E-07   961   0.806E-04    0.255E-03
RMM:  22    -0.115785362274E+04   -0.43899E-05   -0.12283E-07   875   0.632E-04    0.153E-03
RMM:  23    -0.115785362541E+04   -0.26766E-05   -0.91625E-08   829   0.559E-04    0.157E-03
RMM:  24    -0.115785362940E+04   -0.39887E-05   -0.81747E-08   818   0.500E-04    0.114E-03
RMM:  25    -0.115785363361E+04   -0.42024E-05   -0.88901E-08   866   0.507E-04    0.102E-03
RMM:  26    -0.115785363948E+04   -0.58713E-05   -0.11762E-07   917   0.513E-04    0.982E-04
RMM:  27    -0.115785364295E+04   -0.34731E-05   -0.10096E-07   858   0.494E-04    0.889E-04
RMM:  28    -0.115785364546E+04   -0.25092E-05   -0.86438E-08   779   0.425E-04    0.506E-04
RMM:  29    -0.115785364847E+04   -0.30150E-05   -0.85134E-08   805   0.437E-04    0.362E-04
RMM:  30    -0.115785365105E+04   -0.25777E-05   -0.92695E-08   853   0.434E-04    0.289E-04
RMM:  31    -0.115785365305E+04   -0.20029E-05   -0.84357E-08   808   0.431E-04    0.317E-04
RMM:  32    -0.115785365460E+04   -0.15448E-05   -0.81385E-08   784   0.407E-04    0.210E-04
RMM:  33    -0.115785365608E+04   -0.14757E-05   -0.88327E-08   821   0.417E-04    0.193E-04
RMM:  34    -0.115785365683E+04   -0.75890E-06   -0.78492E-08   785   0.405E-04
 139 F= -.11658447E+04 E0= -.11658323E+04  d E =-.150076E-02  mag=    21.7423
 curvature:  -9.23 expect dE=-0.353E-01 dE for cont linesearch -0.508E-05
 trial: gam= 0.82191 g(F)=  0.383E-02 g(S)=  0.000E+00 ort = 0.251E-03 (trialstep = 0.367E+00)
 search vector abs. value=  0.817E-01
 bond charge predicted
       N       E                     dE             d eps       ncg     rms          rms(c)
DAV:   1    -0.115784837066E+04    0.52854E-02   -0.25943E+00  1992   0.318E+00    0.365E-01
RMM:   2    -0.115785396140E+04   -0.55907E-02   -0.56744E-02  2305   0.436E-01    0.419E-01
RMM:   3    -0.115785676531E+04   -0.28039E-02   -0.79719E-03  2276   0.199E-01    0.102E+00
RMM:   4    -0.115785452940E+04    0.22359E-02   -0.29499E-03  2535   0.104E-01    0.611E-01
RMM:   5    -0.115785419909E+04    0.33031E-03   -0.84072E-04  2198   0.581E-02    0.224E-01
RMM:   6    -0.115785453786E+04   -0.33877E-03   -0.45517E-04  2290   0.393E-02    0.343E-01
RMM:   7    -0.115785427896E+04    0.25891E-03   -0.26733E-04  2287   0.323E-02    0.169E-01
RMM:   8    -0.115785447841E+04   -0.19946E-03   -0.28065E-04  2197   0.332E-02    0.294E-01
RMM:   9    -0.115785436002E+04    0.11840E-03   -0.25577E-04  2250   0.318E-02    0.144E-01
RMM:  10    -0.115785437198E+04   -0.11966E-04   -0.13654E-04  2083   0.260E-02    0.958E-02
RMM:  11    -0.115785436390E+04    0.80825E-05   -0.55657E-05  1870   0.158E-02    0.584E-02
RMM:  12    -0.115785437059E+04   -0.66856E-05   -0.25871E-05  1654   0.109E-02    0.412E-02
RMM:  13    -0.115785437103E+04   -0.44778E-06   -0.92950E-06  1455   0.691E-03
 140 F= -.11658457E+04 E0= -.11658333E+04  d E =-.999780E-03  mag=    21.7425
 trial-energy change:   -0.001000  1 .order   -0.001048   -0.001479   -0.000617
 step:   0.6290(harm=  0.6290)  dis= 0.00701  next Energy= -1165.845963 (dE=-0.127E-02)
 bond charge predicted
       N       E                     dE             d eps       ncg     rms          rms(c)
DAV:   1    -0.115785130699E+04    0.30636E-02   -0.13260E+00  1992   0.227E+00    0.261E-01
RMM:   2    -0.115785415880E+04   -0.28518E-02   -0.29066E-02  2306   0.312E-01    0.300E-01
RMM:   3    -0.115785550072E+04   -0.13419E-02   -0.40345E-03  2259   0.143E-01    0.665E-01
RMM:   4    -0.115785432133E+04    0.11794E-02   -0.14482E-03  2527   0.746E-02    0.247E-01
RMM:   5    -0.115785434879E+04   -0.27463E-04   -0.32931E-04  2221   0.370E-02    0.169E-01
RMM:   6    -0.115785439372E+04   -0.44926E-04   -0.17761E-04  2262   0.244E-02    0.193E-01
RMM:   7    -0.115785434613E+04    0.47588E-04   -0.13208E-04  2153   0.226E-02    0.136E-01
RMM:   8    -0.115785451557E+04   -0.16944E-03   -0.15650E-04  2152   0.229E-02    0.332E-01
RMM:   9    -0.115785434356E+04    0.17201E-03   -0.15060E-04  2090   0.230E-02    0.151E-01
RMM:  10    -0.115785438563E+04   -0.42067E-04   -0.97058E-05  1949   0.218E-02    0.664E-02
RMM:  11    -0.115785438988E+04   -0.42483E-05   -0.28963E-05  1700   0.119E-02    0.352E-02
RMM:  12    -0.115785439962E+04   -0.97426E-05   -0.13730E-05  1542   0.815E-03    0.343E-02
RMM:  13    -0.115785440310E+04   -0.34773E-05   -0.48024E-06  1398   0.557E-03    0.176E-02
RMM:  14    -0.115785440901E+04   -0.59120E-05   -0.23943E-06  1332   0.337E-03    0.130E-02
RMM:  15    -0.115785441718E+04   -0.81727E-05   -0.94930E-07  1226   0.255E-03    0.886E-03
RMM:  16    -0.115785442122E+04   -0.40414E-05   -0.56525E-07  1176   0.164E-03    0.956E-03
RMM:  17    -0.115785442523E+04   -0.40043E-05   -0.34148E-07  1137   0.131E-03    0.484E-03
RMM:  18    -0.115785443108E+04   -0.58504E-05   -0.21476E-07  1064   0.988E-04    0.347E-03
RMM:  19    -0.115785443726E+04   -0.61789E-05   -0.22365E-07  1039   0.103E-03    0.499E-03
RMM:  20    -0.115785444160E+04   -0.43456E-05   -0.18288E-07  1027   0.907E-04    0.288E-03
RMM:  21    -0.115785444503E+04   -0.34279E-05   -0.11731E-07   894   0.653E-04    0.188E-03
RMM:  22    -0.115785444815E+04   -0.31204E-05   -0.84880E-08   837   0.569E-04    0.137E-03
RMM:  23    -0.115785445111E+04   -0.29578E-05   -0.71902E-08   817   0.497E-04    0.121E-03
RMM:  24    -0.115785445427E+04   -0.31627E-05   -0.67418E-08   812   0.477E-04    0.956E-04
RMM:  25    -0.115785445722E+04   -0.29486E-05   -0.64403E-08   796   0.432E-04    0.871E-04
RMM:  26    -0.115785446005E+04   -0.28245E-05   -0.61559E-08   788   0.427E-04    0.460E-04
RMM:  27    -0.115785446395E+04   -0.39043E-05   -0.83366E-08   806   0.412E-04    0.457E-04
RMM:  28    -0.115785446815E+04   -0.42050E-05   -0.10685E-07   890   0.452E-04    0.362E-04
RMM:  29    -0.115785447107E+04   -0.29181E-05   -0.10038E-07   862   0.451E-04    0.476E-04
RMM:  30    -0.115785447248E+04   -0.14028E-05   -0.76666E-08   763   0.422E-04    0.447E-04
RMM:  31    -0.115785447384E+04   -0.13623E-05   -0.67255E-08   700   0.390E-04    0.245E-04
RMM:  32    -0.115785447553E+04   -0.16872E-05   -0.83889E-08   797   0.409E-04    0.132E-04
RMM:  33    -0.115785447633E+04   -0.80519E-06   -0.69646E-08   785   0.409E-04
 141 F= -.11658460E+04 E0= -.11658336E+04  d E =-.130968E-02  mag=    21.7423
 curvature:  -6.37 expect dE=-0.203E-01 dE for cont linesearch -0.114E-05
 trial: gam= 0.88985 g(F)=  0.319E-02 g(S)=  0.000E+00 ort = 0.121E-03 (trialstep = 0.419E+00)
 search vector abs. value=  0.681E-01
 bond charge predicted
       N       E                     dE             d eps       ncg     rms          rms(c)
DAV:   1    -0.115784862498E+04    0.58505E-02   -0.28504E+00  1992   0.332E+00    0.383E-01
RMM:   2    -0.115785469774E+04   -0.60728E-02   -0.62290E-02  2293   0.450E-01    0.395E-01
RMM:   3    -0.115785782059E+04   -0.31229E-02   -0.86302E-03  2258   0.209E-01    0.989E-01
RMM:   4    -0.115785530829E+04    0.25123E-02   -0.30936E-03  2517   0.112E-01    0.493E-01
RMM:   5    -0.115785514280E+04    0.16549E-03   -0.80685E-04  2294   0.561E-02    0.287E-01
RMM:   6    -0.115785533364E+04   -0.19084E-03   -0.40908E-04  2271   0.372E-02    0.385E-01
RMM:   7    -0.115785512990E+04    0.20374E-03   -0.33046E-04  2269   0.362E-02    0.193E-01
RMM:   8    -0.115785528558E+04   -0.15568E-03   -0.30633E-04  2191   0.351E-02    0.263E-01
RMM:   9    -0.115785525535E+04    0.30227E-04   -0.28952E-04  2243   0.327E-02    0.164E-01
RMM:  10    -0.115785524173E+04    0.13622E-04   -0.16549E-04  2095   0.279E-02    0.112E-01
RMM:  11    -0.115785522116E+04    0.20575E-04   -0.68901E-05  1924   0.178E-02    0.563E-02
RMM:  12    -0.115785522726E+04   -0.60986E-05   -0.29243E-05  1678   0.117E-02    0.406E-02
RMM:  13    -0.115785523112E+04   -0.38683E-05   -0.10846E-05  1485   0.746E-03    0.259E-02
RMM:  14    -0.115785523550E+04   -0.43732E-05   -0.43785E-06  1348   0.429E-03    0.229E-02
RMM:  15    -0.115785524031E+04   -0.48155E-05   -0.20138E-06  1256   0.306E-03    0.124E-02
RMM:  16    -0.115785524661E+04   -0.63029E-05   -0.96886E-07  1210   0.236E-03    0.763E-03
RMM:  17    -0.115785525332E+04   -0.67075E-05   -0.78288E-07  1188   0.198E-03    0.978E-03
RMM:  18    -0.115785525847E+04   -0.51490E-05   -0.51468E-07  1154   0.175E-03    0.648E-03
RMM:  19    -0.115785526414E+04   -0.56712E-05   -0.27672E-07  1079   0.103E-03    0.370E-03
RMM:  20    -0.115785526673E+04   -0.25832E-05   -0.19329E-07  1004   0.965E-04    0.271E-03
RMM:  21    -0.115785527005E+04   -0.33196E-05   -0.11937E-07   870   0.642E-04    0.167E-03
RMM:  22    -0.115785527228E+04   -0.22307E-05   -0.86210E-08   860   0.588E-04    0.139E-03
RMM:  23    -0.115785527524E+04   -0.29600E-05   -0.67694E-08   770   0.476E-04    0.146E-03
RMM:  24    -0.115785527995E+04   -0.47112E-05   -0.87922E-08   838   0.467E-04    0.934E-04
RMM:  25    -0.115785528270E+04   -0.27508E-05   -0.74084E-08   834   0.458E-04    0.953E-04
RMM:  26    -0.115785528406E+04   -0.13617E-05   -0.50367E-08   716   0.406E-04    0.731E-04
RMM:  27    -0.115785528603E+04   -0.19705E-05   -0.47035E-08   674   0.371E-04    0.651E-04
RMM:  28    -0.115785528859E+04   -0.25572E-05   -0.58511E-08   763   0.391E-04    0.378E-04
RMM:  29    -0.115785529178E+04   -0.31942E-05   -0.85075E-08   823   0.409E-04    0.311E-04
RMM:  30    -0.115785529351E+04   -0.17296E-05   -0.65511E-08   791   0.410E-04    0.221E-04
RMM:  31    -0.115785529511E+04   -0.16011E-05   -0.64048E-08   738   0.375E-04    0.201E-04
RMM:  32    -0.115785529652E+04   -0.14125E-05   -0.63863E-08   751   0.392E-04    0.147E-04
RMM:  33    -0.115785529738E+04   -0.85338E-06   -0.54779E-08   702   0.370E-04
 142 F= -.11658469E+04 E0= -.11658345E+04  d E =-.943715E-03  mag=    21.7429
 trial-energy change:   -0.000944  1 .order   -0.000946   -0.001383   -0.000508
 step:   0.6627(harm=  0.6627)  dis= 0.00702  next Energy= -1165.847098 (dE=-0.109E-02)
 bond charge predicted
       N       E                     dE             d eps       ncg     rms          rms(c)
DAV:   1    -0.115785312769E+04    0.21688E-02   -0.96147E-01  1992   0.193E+00    0.222E-01
RMM:   2    -0.115785511997E+04   -0.19923E-02   -0.20980E-02  2292   0.261E-01    0.230E-01
RMM:   3    -0.115785618275E+04   -0.10628E-02   -0.28795E-03  2259   0.121E-01    0.569E-01
RMM:   4    -0.115785532019E+04    0.86256E-03   -0.10579E-03  2515   0.650E-02    0.281E-01
RMM:   5    -0.115785528543E+04    0.34756E-04   -0.26303E-04  2239   0.322E-02    0.166E-01
RMM:   6    -0.115785536415E+04   -0.78721E-04   -0.14026E-04  2132   0.219E-02    0.225E-01
RMM:   7    -0.115785529337E+04    0.70782E-04   -0.11121E-04  2137   0.211E-02    0.114E-01
RMM:   8    -0.115785535710E+04   -0.63731E-04   -0.10405E-04  2067   0.205E-02    0.156E-01
RMM:   9    -0.115785535006E+04    0.70385E-05   -0.98386E-05  2082   0.191E-02    0.962E-02
RMM:  10    -0.115785534801E+04    0.20484E-05   -0.56132E-05  1880   0.164E-02    0.633E-02
RMM:  11    -0.115785534383E+04    0.41867E-05   -0.23009E-05  1662   0.105E-02    0.324E-02
RMM:  12    -0.115785534624E+04   -0.24111E-05   -0.97751E-06  1493   0.715E-03    0.224E-02
RMM:  13    -0.115785534837E+04   -0.21307E-05   -0.35178E-06  1369   0.454E-03    0.134E-02
RMM:  14    -0.115785535040E+04   -0.20281E-05   -0.14038E-06  1235   0.260E-03    0.123E-02
RMM:  15    -0.115785535249E+04   -0.20930E-05   -0.72577E-07  1178   0.188E-03    0.716E-03
RMM:  16    -0.115785535507E+04   -0.25842E-05   -0.34960E-07  1153   0.140E-03    0.433E-03
RMM:  17    -0.115785535761E+04   -0.25355E-05   -0.26204E-07  1108   0.115E-03    0.516E-03
RMM:  18    -0.115785536004E+04   -0.24275E-05   -0.18367E-07  1050   0.103E-03    0.285E-03
RMM:  19    -0.115785536247E+04   -0.24300E-05   -0.99289E-08   948   0.628E-04    0.210E-03
RMM:  20    -0.115785536344E+04   -0.97525E-06   -0.68302E-08   831   0.602E-04
 143 F= -.11658471E+04 E0= -.11658346E+04  d E =-.108139E-02  mag=    21.7433
 curvature:  -6.84 expect dE=-0.207E-01 dE for cont linesearch -0.121E-06
 trial: gam= 0.95717 g(F)=  0.302E-02 g(S)=  0.000E+00 ort =-0.347E-04 (trialstep = 0.468E+00)
 search vector abs. value=  0.654E-01
 bond charge predicted
       N       E                     dE             d eps       ncg     rms          rms(c)
DAV:   1    -0.115784808832E+04    0.72741E-02   -0.34328E+00  1992   0.360E+00    0.406E-01
RMM:   2    -0.115785561452E+04   -0.75262E-02   -0.74970E-02  2283   0.491E-01    0.511E-01
RMM:   3    -0.115785881590E+04   -0.32014E-02   -0.10185E-02  2252   0.228E-01    0.116E+00
RMM:   4    -0.115785629408E+04    0.25218E-02   -0.38753E-03  2529   0.122E-01    0.631E-01
RMM:   5    -0.115785590803E+04    0.38605E-03   -0.11380E-03  2216   0.746E-02    0.234E-01
RMM:   6    -0.115785628527E+04   -0.37724E-03   -0.53925E-04  2346   0.409E-02    0.435E-01
RMM:   7    -0.115785598663E+04    0.29864E-03   -0.40321E-04  2306   0.366E-02    0.272E-01
RMM:   8    -0.115785605151E+04   -0.64879E-04   -0.36128E-04  2180   0.384E-02    0.243E-01
RMM:   9    -0.115785613841E+04   -0.86900E-04   -0.43236E-04  2246   0.390E-02    0.190E-01
RMM:  10    -0.115785604976E+04    0.88652E-04   -0.23146E-04  2075   0.318E-02    0.117E-01
RMM:  11    -0.115785603622E+04    0.13539E-04   -0.99796E-05  1983   0.202E-02    0.731E-02
RMM:  12    -0.115785603365E+04    0.25705E-05   -0.40832E-05  1718   0.132E-02    0.414E-02
RMM:  13    -0.115785604335E+04   -0.97028E-05   -0.11416E-05  1518   0.750E-03    0.276E-02
RMM:  14    -0.115785604923E+04   -0.58780E-05   -0.50857E-06  1368   0.458E-03    0.205E-02
RMM:  15    -0.115785605871E+04   -0.94779E-05   -0.25062E-06  1307   0.343E-03    0.119E-02
RMM:  16    -0.115785606726E+04   -0.85585E-05   -0.13103E-06  1258   0.277E-03    0.967E-03
RMM:  17    -0.115785607519E+04   -0.79227E-05   -0.93118E-07  1209   0.216E-03    0.961E-03
RMM:  18    -0.115785608374E+04   -0.85551E-05   -0.62076E-07  1181   0.186E-03    0.494E-03
RMM:  19    -0.115785609075E+04   -0.70077E-05   -0.32281E-07  1077   0.118E-03    0.427E-03
RMM:  20    -0.115785609384E+04   -0.30935E-05   -0.22903E-07  1006   0.107E-03    0.357E-03
RMM:  21    -0.115785609820E+04   -0.43531E-05   -0.16452E-07   977   0.769E-04    0.263E-03
RMM:  22    -0.115785610287E+04   -0.46695E-05   -0.13079E-07   931   0.731E-04    0.206E-03
RMM:  23    -0.115785610842E+04   -0.55538E-05   -0.12845E-07   876   0.642E-04    0.161E-03
RMM:  24    -0.115785611337E+04   -0.49500E-05   -0.11341E-07   874   0.575E-04    0.104E-03
RMM:  25    -0.115785611719E+04   -0.38202E-05   -0.10176E-07   840   0.485E-04    0.116E-03
RMM:  26    -0.115785611934E+04   -0.21542E-05   -0.69965E-08   780   0.463E-04    0.107E-03
RMM:  27    -0.115785612274E+04   -0.33938E-05   -0.75731E-08   795   0.415E-04    0.675E-04
RMM:  28    -0.115785612697E+04   -0.42318E-05   -0.84933E-08   841   0.438E-04    0.465E-04
RMM:  29    -0.115785613146E+04   -0.44867E-05   -0.11929E-07   873   0.448E-04    0.444E-04
RMM:  30    -0.115785613453E+04   -0.30775E-05   -0.10927E-07   861   0.465E-04    0.374E-04
RMM:  31    -0.115785613649E+04   -0.19571E-05   -0.89123E-08   792   0.431E-04    0.338E-04
RMM:  32    -0.115785613833E+04   -0.18423E-05   -0.86339E-08   772   0.421E-04    0.232E-04
RMM:  33    -0.115785614002E+04   -0.16855E-05   -0.85428E-08   807   0.413E-04    0.236E-04
RMM:  34    -0.115785614117E+04   -0.11489E-05   -0.78016E-08   790   0.417E-04    0.187E-04
RMM:  35    -0.115785614184E+04   -0.67698E-06   -0.63116E-08   708   0.385E-04
 144 F= -.11658480E+04 E0= -.11658355E+04  d E =-.902285E-03  mag=    21.7439
 trial-energy change:   -0.000902  1 .order   -0.000880   -0.001398   -0.000362
 step:   0.6084(harm=  0.6316)  dis= 0.00672  next Energy= -1165.848043 (dE=-0.957E-03)
 bond charge predicted
       N       E                     dE             d eps       ncg     rms          rms(c)
DAV:   1    -0.115785544250E+04    0.69867E-03   -0.30942E-01  2100   0.108E+00    0.122E-01
RMM:   2    -0.115785607607E+04   -0.63357E-03   -0.67378E-03  2278   0.147E-01    0.154E-01
RMM:   3    -0.115785637260E+04   -0.29653E-03   -0.91382E-04  2245   0.683E-02    0.339E-01
RMM:   4    -0.115785612819E+04    0.24441E-03   -0.34277E-04  2495   0.365E-02    0.183E-01
RMM:   5    -0.115785611721E+04    0.10974E-04   -0.96271E-05  1982   0.217E-02    0.738E-02
RMM:   6    -0.115785616162E+04   -0.44411E-04   -0.47739E-05  1930   0.126E-02    0.131E-01
RMM:   7    -0.115785612975E+04    0.31872E-04   -0.36358E-05  1877   0.114E-02    0.789E-02
RMM:   8    -0.115785614679E+04   -0.17042E-04   -0.32511E-05  1768   0.117E-02    0.747E-02
RMM:   9    -0.115785615961E+04   -0.12818E-04   -0.39516E-05  1856   0.119E-02    0.571E-02
RMM:  10    -0.115785615332E+04    0.62926E-05   -0.20863E-05  1601   0.972E-03    0.336E-02
RMM:  11    -0.115785615332E+04    0.25539E-08   -0.86807E-06  1477   0.640E-03
 145 F= -.11658480E+04 E0= -.11658356E+04  d E =-.951187E-03  mag=    21.7440
 curvature:  -6.77 expect dE=-0.258E-01 dE for cont linesearch -0.460E-05
 trial: gam= 1.18987 g(F)=  0.381E-02 g(S)=  0.000E+00 ort = 0.211E-03 (trialstep = 0.335E+00)
 search vector abs. value=  0.969E-01
 bond charge predicted
       N       E                     dE             d eps       ncg     rms          rms(c)
DAV:   1    -0.115785091188E+04    0.52414E-02   -0.25608E+00  1992   0.308E+00    0.362E-01
RMM:   2    -0.115785656399E+04   -0.56521E-02   -0.56617E-02  2304   0.428E-01    0.451E-01
RMM:   3    -0.115785901778E+04   -0.24538E-02   -0.77805E-03  2277   0.195E-01    0.964E-01
RMM:   4    -0.115785720436E+04    0.18134E-02   -0.28739E-03  2503   0.106E-01    0.649E-01
RMM:   5    -0.115785672455E+04    0.47981E-03   -0.80981E-04  2223   0.577E-02    0.250E-01
RMM:   6    -0.115785696288E+04   -0.23833E-03   -0.43004E-04  2253   0.397E-02    0.286E-01
RMM:   7    -0.115785689707E+04    0.65816E-04   -0.30132E-04  2274   0.336E-02    0.227E-01
RMM:   8    -0.115785691061E+04   -0.13539E-04   -0.26378E-04  2169   0.322E-02    0.220E-01
RMM:   9    -0.115785702092E+04   -0.11031E-03   -0.37962E-04  2209   0.358E-02    0.184E-01
RMM:  10    -0.115785689384E+04    0.12708E-03   -0.19317E-04  2052   0.286E-02    0.826E-02
RMM:  11    -0.115785690737E+04   -0.13522E-04   -0.69521E-05  1943   0.169E-02    0.768E-02
RMM:  12    -0.115785690429E+04    0.30730E-05   -0.27182E-05  1653   0.112E-02    0.371E-02
RMM:  13    -0.115785691156E+04   -0.72644E-05   -0.87149E-06  1483   0.692E-03    0.176E-02
RMM:  14    -0.115785691987E+04   -0.83160E-05   -0.36093E-06  1380   0.433E-03    0.188E-02
RMM:  15    -0.115785692607E+04   -0.61982E-05   -0.18780E-06  1284   0.321E-03    0.112E-02
RMM:  16    -0.115785693197E+04   -0.58940E-05   -0.10085E-06  1201   0.227E-03    0.869E-03
RMM:  17    -0.115785693829E+04   -0.63243E-05   -0.81115E-07  1191   0.178E-03    0.961E-03
RMM:  18    -0.115785694559E+04   -0.73033E-05   -0.59995E-07  1167   0.174E-03    0.334E-03
RMM:  19    -0.115785695308E+04   -0.74868E-05   -0.35888E-07  1094   0.119E-03    0.394E-03
RMM:  20    -0.115785695674E+04   -0.36566E-05   -0.23760E-07  1025   0.108E-03    0.286E-03
RMM:  21    -0.115785695955E+04   -0.28173E-05   -0.13740E-07   917   0.689E-04    0.209E-03
RMM:  22    -0.115785696218E+04   -0.26269E-05   -0.93482E-08   838   0.595E-04    0.156E-03
RMM:  23    -0.115785696567E+04   -0.34849E-05   -0.82458E-08   808   0.509E-04    0.131E-03
RMM:  24    -0.115785697105E+04   -0.53833E-05   -0.10305E-07   885   0.494E-04    0.763E-04
RMM:  25    -0.115785697469E+04   -0.36452E-05   -0.99399E-08   852   0.490E-04    0.127E-03
RMM:  26    -0.115785697659E+04   -0.18988E-05   -0.67373E-08   770   0.446E-04    0.741E-04
RMM:  27    -0.115785697946E+04   -0.28721E-05   -0.69087E-08   750   0.399E-04    0.487E-04
RMM:  28    -0.115785698381E+04   -0.43425E-05   -0.99133E-08   852   0.436E-04    0.424E-04
RMM:  29    -0.115785698762E+04   -0.38122E-05   -0.12540E-07   922   0.471E-04    0.305E-04
RMM:  30    -0.115785698934E+04   -0.17164E-05   -0.97661E-08   819   0.443E-04    0.263E-04
RMM:  31    -0.115785699112E+04   -0.17841E-05   -0.87148E-08   756   0.406E-04    0.172E-04
RMM:  32    -0.115785699254E+04   -0.14219E-05   -0.86253E-08   760   0.418E-04    0.163E-04
RMM:  33    -0.115785699323E+04   -0.68556E-06   -0.63778E-08   709   0.389E-04
 146 F= -.11658490E+04 E0= -.11658365E+04  d E =-.100170E-02  mag=    21.7434
 trial-energy change:   -0.001002  1 .order   -0.001010   -0.001360   -0.000661
 step:   0.7105(harm=  0.6515)  dis= 0.01001  next Energy= -1165.849397 (dE=-0.136E-02)
 bond charge predicted
       N       E                     dE             d eps       ncg     rms          rms(c)
DAV:   1    -0.115784949928E+04    0.74933E-02   -0.32267E+00  1992   0.346E+00    0.406E-01
RMM:   2    -0.115785668625E+04   -0.71870E-02   -0.71375E-02  2301   0.481E-01    0.515E-01
RMM:   3    -0.115785952827E+04   -0.28420E-02   -0.99755E-03  2281   0.219E-01    0.101E+00
RMM:   4    -0.115785708473E+04    0.24435E-02   -0.34193E-03  2515   0.115E-01    0.486E-01
RMM:   5    -0.115785698968E+04    0.95047E-04   -0.78379E-04  2270   0.555E-02    0.320E-01
RMM:   6    -0.115785713916E+04   -0.14948E-03   -0.48941E-04  2243   0.411E-02    0.341E-01
RMM:   7    -0.115785698947E+04    0.14969E-03   -0.38170E-04  2273   0.380E-02    0.192E-01
RMM:   8    -0.115785717808E+04   -0.18861E-03   -0.35780E-04  2209   0.373E-02    0.341E-01
RMM:   9    -0.115785715454E+04    0.23544E-04   -0.40818E-04  2227   0.387E-02    0.229E-01
RMM:  10    -0.115785704423E+04    0.11031E-03   -0.24844E-04  2085   0.341E-02    0.110E-01
RMM:  11    -0.115785704237E+04    0.18604E-05   -0.91750E-05  1985   0.197E-02    0.677E-02
RMM:  12    -0.115785704754E+04   -0.51731E-05   -0.36026E-05  1718   0.126E-02    0.379E-02
RMM:  13    -0.115785705489E+04   -0.73507E-05   -0.12203E-05  1523   0.784E-03    0.295E-02
RMM:  14    -0.115785705785E+04   -0.29565E-05   -0.49705E-06  1371   0.476E-03    0.264E-02
RMM:  15    -0.115785706266E+04   -0.48141E-05   -0.23461E-06  1267   0.321E-03    0.148E-02
RMM:  16    -0.115785707025E+04   -0.75850E-05   -0.12585E-06  1224   0.255E-03    0.100E-02
RMM:  17    -0.115785707693E+04   -0.66761E-05   -0.10134E-06  1221   0.226E-03    0.110E-02
RMM:  18    -0.115785708416E+04   -0.72317E-05   -0.64415E-07  1179   0.189E-03    0.717E-03
RMM:  19    -0.115785708934E+04   -0.51828E-05   -0.39797E-07  1092   0.138E-03    0.501E-03
RMM:  20    -0.115785709393E+04   -0.45936E-05   -0.27991E-07  1042   0.120E-03    0.319E-03
RMM:  21    -0.115785709694E+04   -0.30041E-05   -0.16519E-07   980   0.775E-04    0.282E-03
RMM:  22    -0.115785709998E+04   -0.30419E-05   -0.11461E-07   881   0.679E-04    0.176E-03
RMM:  23    -0.115785710378E+04   -0.37974E-05   -0.95354E-08   829   0.530E-04    0.197E-03
RMM:  24    -0.115785710825E+04   -0.44771E-05   -0.98008E-08   849   0.495E-04    0.125E-03
RMM:  25    -0.115785711089E+04   -0.26357E-05   -0.76846E-08   811   0.481E-04    0.127E-03
RMM:  26    -0.115785711342E+04   -0.25286E-05   -0.69541E-08   780   0.440E-04    0.841E-04
RMM:  27    -0.115785711629E+04   -0.28691E-05   -0.67886E-08   783   0.418E-04    0.743E-04
RMM:  28    -0.115785712016E+04   -0.38769E-05   -0.96618E-08   834   0.431E-04    0.559E-04
RMM:  29    -0.115785712356E+04   -0.33909E-05   -0.10575E-07   862   0.456E-04    0.373E-04
RMM:  30    -0.115785712583E+04   -0.22741E-05   -0.91119E-08   823   0.436E-04    0.283E-04
RMM:  31    -0.115785712756E+04   -0.17304E-05   -0.84229E-08   763   0.413E-04    0.230E-04
RMM:  32    -0.115785712960E+04   -0.20372E-05   -0.96761E-08   813   0.412E-04    0.137E-04
RMM:  33    -0.115785713062E+04   -0.10214E-05   -0.76932E-08   777   0.424E-04    0.147E-04
RMM:  34    -0.115785713123E+04   -0.61287E-06   -0.59183E-08   665   0.369E-04
 147 F= -.11658494E+04 E0= -.11658368E+04  d E =-.132262E-02  mag=    21.7427
 curvature:  -7.50 expect dE=-0.334E-01 dE for cont linesearch -0.667E-05
 trial: gam= 1.32852 g(F)=  0.445E-02 g(S)=  0.000E+00 ort =-0.294E-03 (trialstep = 0.227E+00)
 search vector abs. value=  0.175E+00
 bond charge predicted
       N       E                     dE             d eps       ncg     rms          rms(c)
DAV:   1    -0.115785271847E+04    0.44121E-02   -0.21588E+00  1992   0.282E+00    0.324E-01
RMM:   2    -0.115785738701E+04   -0.46685E-02   -0.46559E-02  2275   0.385E-01    0.415E-01
RMM:   3    -0.115785921497E+04   -0.18280E-02   -0.64431E-03  2258   0.177E-01    0.810E-01
RMM:   4    -0.115785768793E+04    0.15270E-02   -0.22616E-03  2531   0.910E-02    0.426E-01
RMM:   5    -0.115785758716E+04    0.10077E-03   -0.50929E-04  2231   0.440E-02    0.241E-01
RMM:   6    -0.115785773401E+04   -0.14685E-03   -0.31894E-04  2193   0.335E-02    0.260E-01
RMM:   7    -0.115785760533E+04    0.12867E-03   -0.23671E-04  2235   0.292E-02    0.104E-01
RMM:   8    -0.115785780709E+04   -0.20175E-03   -0.29294E-04  2236   0.339E-02    0.239E-01
RMM:   9    -0.115785770842E+04    0.98672E-04   -0.18069E-04  2186   0.280E-02    0.180E-01
RMM:  10    -0.115785766372E+04    0.44695E-04   -0.77973E-05  1935   0.184E-02    0.845E-02
RMM:  11    -0.115785768277E+04   -0.19054E-04   -0.51212E-05  1837   0.154E-02    0.450E-02
RMM:  12    -0.115785768792E+04   -0.51461E-05   -0.21990E-05  1590   0.998E-03    0.369E-02
RMM:  13    -0.115785768949E+04   -0.15644E-05   -0.78758E-06  1457   0.650E-03    0.289E-02
RMM:  14    -0.115785769151E+04   -0.20219E-05   -0.33784E-06  1335   0.407E-03    0.182E-02
RMM:  15    -0.115785769689E+04   -0.53834E-05   -0.16207E-06  1261   0.281E-03    0.120E-02
RMM:  16    -0.115785770136E+04   -0.44733E-05   -0.96489E-07  1214   0.233E-03    0.889E-03
RMM:  17    -0.115785770634E+04   -0.49802E-05   -0.62142E-07  1165   0.183E-03    0.798E-03
RMM:  18    -0.115785771106E+04   -0.47195E-05   -0.40382E-07  1111   0.155E-03    0.480E-03
RMM:  19    -0.115785771551E+04   -0.44428E-05   -0.26365E-07  1060   0.107E-03    0.435E-03
RMM:  20    -0.115785771769E+04   -0.21856E-05   -0.17813E-07   990   0.952E-04    0.221E-03
RMM:  21    -0.115785772010E+04   -0.24056E-05   -0.98951E-08   838   0.599E-04    0.210E-03
RMM:  22    -0.115785772217E+04   -0.20717E-05   -0.77643E-08   812   0.594E-04    0.179E-03
RMM:  23    -0.115785772538E+04   -0.32121E-05   -0.68263E-08   790   0.461E-04    0.160E-03
RMM:  24    -0.115785772834E+04   -0.29559E-05   -0.67177E-08   796   0.460E-04    0.792E-04
RMM:  25    -0.115785773087E+04   -0.25354E-05   -0.65574E-08   783   0.415E-04    0.769E-04
RMM:  26    -0.115785773223E+04   -0.13574E-05   -0.51671E-08   764   0.409E-04    0.890E-04
RMM:  27    -0.115785773464E+04   -0.24094E-05   -0.60136E-08   722   0.381E-04    0.450E-04
RMM:  28    -0.115785773757E+04   -0.29329E-05   -0.85285E-08   811   0.416E-04    0.391E-04
RMM:  29    -0.115785773974E+04   -0.21720E-05   -0.79203E-08   811   0.427E-04    0.273E-04
RMM:  30    -0.115785774089E+04   -0.11410E-05   -0.60213E-08   719   0.395E-04    0.241E-04
RMM:  31    -0.115785774181E+04   -0.92757E-06   -0.52069E-08   679   0.361E-04
 148 F= -.11658501E+04 E0= -.11658376E+04  d E =-.750997E-03  mag=    21.7427
 trial-energy change:   -0.000751  1 .order   -0.000752   -0.000924   -0.000580
 step:   0.6110(harm=  0.6110)  dis= 0.01178  next Energy= -1165.850601 (dE=-0.124E-02)
 bond charge predicted
       N       E                     dE             d eps       ncg     rms          rms(c)
DAV:   1    -0.115784360661E+04    0.14134E-01   -0.61454E+00  1992   0.476E+00    0.549E-01
RMM:   2    -0.115785721822E+04   -0.13612E-01   -0.13326E-01  2276   0.650E-01    0.700E-01
RMM:   3    -0.115786242362E+04   -0.52054E-02   -0.18534E-02  2260   0.300E-01    0.138E+00
RMM:   4    -0.115785804093E+04    0.43827E-02   -0.65158E-03  2532   0.154E-01    0.737E-01
RMM:   5    -0.115785770421E+04    0.33672E-03   -0.14485E-03  2274   0.743E-02    0.401E-01
RMM:   6    -0.115785807162E+04   -0.36741E-03   -0.90886E-04  2272   0.564E-02    0.436E-01
RMM:   7    -0.115785769437E+04    0.37725E-03   -0.66065E-04  2306   0.486E-02    0.183E-01
RMM:   8    -0.115785829071E+04   -0.59634E-03   -0.82441E-04  2255   0.572E-02    0.457E-01
RMM:   9    -0.115785797623E+04    0.31448E-03   -0.56468E-04  2270   0.471E-02    0.360E-01
RMM:  10    -0.115785778319E+04    0.19304E-03   -0.30056E-04  2132   0.378E-02    0.132E-01
RMM:  11    -0.115785783464E+04   -0.51450E-04   -0.15293E-04  2035   0.266E-02    0.778E-02
RMM:  12    -0.115785784641E+04   -0.11775E-04   -0.65004E-05  1852   0.173E-02    0.684E-02
RMM:  13    -0.115785784939E+04   -0.29742E-05   -0.25789E-05  1633   0.106E-02    0.576E-02
RMM:  14    -0.115785785113E+04   -0.17385E-05   -0.11061E-05  1467   0.695E-03    0.375E-02
RMM:  15    -0.115785786326E+04   -0.12129E-04   -0.49603E-06  1371   0.467E-03    0.214E-02
RMM:  16    -0.115785787415E+04   -0.10890E-04   -0.28421E-06  1349   0.393E-03    0.159E-02
RMM:  17    -0.115785788551E+04   -0.11369E-04   -0.18852E-06  1305   0.306E-03    0.156E-02
RMM:  18    -0.115785789603E+04   -0.10518E-04   -0.10888E-06  1239   0.260E-03    0.905E-03
RMM:  19    -0.115785790887E+04   -0.12833E-04   -0.78015E-07  1180   0.187E-03    0.878E-03
RMM:  20    -0.115785791482E+04   -0.59585E-05   -0.55440E-07  1132   0.179E-03    0.427E-03
RMM:  21    -0.115785792104E+04   -0.62122E-05   -0.28668E-07  1042   0.102E-03    0.413E-03
RMM:  22    -0.115785792518E+04   -0.41460E-05   -0.20765E-07   988   0.990E-04    0.404E-03
RMM:  23    -0.115785793179E+04   -0.66089E-05   -0.16237E-07   904   0.673E-04    0.355E-03
RMM:  24    -0.115785793950E+04   -0.77069E-05   -0.17022E-07   928   0.677E-04    0.178E-03
RMM:  25    -0.115785794634E+04   -0.68464E-05   -0.16997E-07   912   0.598E-04    0.135E-03
RMM:  26    -0.115785794933E+04   -0.29827E-05   -0.12007E-07   872   0.569E-04    0.155E-03
RMM:  27    -0.115785795516E+04   -0.58328E-05   -0.12954E-07   868   0.496E-04    0.796E-04
RMM:  28    -0.115785796470E+04   -0.95433E-05   -0.23459E-07   988   0.573E-04    0.694E-04
RMM:  29    -0.115785796910E+04   -0.43977E-05   -0.18020E-07   932   0.582E-04    0.495E-04
RMM:  30    -0.115785797225E+04   -0.31500E-05   -0.15042E-07   828   0.501E-04    0.472E-04
RMM:  31    -0.115785797460E+04   -0.23541E-05   -0.12439E-07   835   0.496E-04    0.380E-04
RMM:  32    -0.115785797748E+04   -0.28756E-05   -0.14481E-07   859   0.467E-04    0.212E-04
RMM:  33    -0.115785797951E+04   -0.20297E-05   -0.12910E-07   850   0.494E-04    0.175E-04
RMM:  34    -0.115785798044E+04   -0.93461E-06   -0.92899E-08   756   0.431E-04
 149 F= -.11658506E+04 E0= -.11658380E+04  d E =-.122916E-02  mag=    21.7429
 curvature: -13.13 expect dE=-0.575E-01 dE for cont linesearch -0.153E-07
 trial: gam= 0.75726 g(F)=  0.438E-02 g(S)=  0.000E+00 ort =-0.143E-04 (trialstep = 0.304E+00)
 search vector abs. value=  0.104E+00
 bond charge predicted
       N       E                     dE             d eps       ncg     rms          rms(c)
DAV:   1    -0.115785351892E+04    0.44606E-02   -0.23600E+00  1992   0.293E+00    0.337E-01
RMM:   2    -0.115785854621E+04   -0.50273E-02   -0.50190E-02  2263   0.394E-01    0.412E-01
RMM:   3    -0.115786064744E+04   -0.21012E-02   -0.70747E-03  2228   0.187E-01    0.841E-01
RMM:   4    -0.115785873168E+04    0.19158E-02   -0.24476E-03  2526   0.951E-02    0.282E-01
RMM:   5    -0.115785885661E+04   -0.12493E-03   -0.55142E-04  2242   0.476E-02    0.276E-01
RMM:   6    -0.115785896154E+04   -0.10494E-03   -0.33720E-04  2273   0.318E-02    0.340E-01
RMM:   7    -0.115785880040E+04    0.16114E-03   -0.27232E-04  2215   0.318E-02    0.191E-01
RMM:   8    -0.115785897935E+04   -0.17895E-03   -0.26454E-04  2170   0.316E-02    0.311E-01
RMM:   9    -0.115785886020E+04    0.11915E-03   -0.25014E-04  2211   0.310E-02    0.171E-01
RMM:  10    -0.115785886208E+04   -0.18798E-05   -0.15768E-04  2047   0.274E-02    0.915E-02
RMM:  11    -0.115785885679E+04    0.52899E-05   -0.59322E-05  1864   0.161E-02    0.527E-02
RMM:  12    -0.115785886027E+04   -0.34763E-05   -0.27551E-05  1635   0.105E-02    0.291E-02
RMM:  13    -0.115785886419E+04   -0.39186E-05   -0.81223E-06  1447   0.653E-03    0.217E-02
RMM:  14    -0.115785886789E+04   -0.37080E-05   -0.35918E-06  1357   0.401E-03    0.202E-02
RMM:  15    -0.115785887341E+04   -0.55140E-05   -0.17622E-06  1243   0.295E-03    0.105E-02
RMM:  16    -0.115785887957E+04   -0.61576E-05   -0.92233E-07  1194   0.222E-03    0.907E-03
RMM:  17    -0.115785888476E+04   -0.51892E-05   -0.67777E-07  1190   0.188E-03    0.729E-03
RMM:  18    -0.115785888992E+04   -0.51630E-05   -0.37168E-07  1118   0.145E-03    0.382E-03
RMM:  19    -0.115785889426E+04   -0.43440E-05   -0.22039E-07  1044   0.948E-04    0.428E-03
RMM:  20    -0.115785889722E+04   -0.29580E-05   -0.17676E-07   982   0.901E-04    0.232E-03
RMM:  21    -0.115785890178E+04   -0.45603E-05   -0.12031E-07   880   0.626E-04    0.212E-03
RMM:  22    -0.115785890400E+04   -0.22196E-05   -0.94383E-08   843   0.632E-04    0.135E-03
RMM:  23    -0.115785890691E+04   -0.29123E-05   -0.73635E-08   779   0.485E-04    0.112E-03
RMM:  24    -0.115785890978E+04   -0.28665E-05   -0.70183E-08   804   0.461E-04    0.923E-04
RMM:  25    -0.115785891210E+04   -0.23222E-05   -0.63135E-08   762   0.422E-04    0.955E-04
RMM:  26    -0.115785891470E+04   -0.25990E-05   -0.56412E-08   760   0.408E-04    0.542E-04
RMM:  27    -0.115785891752E+04   -0.28162E-05   -0.63238E-08   743   0.395E-04    0.560E-04
RMM:  28    -0.115785892067E+04   -0.31568E-05   -0.81240E-08   793   0.414E-04    0.338E-04
RMM:  29    -0.115785892329E+04   -0.26138E-05   -0.93836E-08   806   0.415E-04    0.215E-04
RMM:  30    -0.115785892492E+04   -0.16288E-05   -0.70542E-08   763   0.402E-04    0.196E-04
RMM:  31    -0.115785892639E+04   -0.14765E-05   -0.72192E-08   725   0.381E-04    0.215E-04
RMM:  32    -0.115785892755E+04   -0.11534E-05   -0.63153E-08   723   0.386E-04    0.151E-04
RMM:  33    -0.115785892839E+04   -0.84435E-06   -0.59451E-08   694   0.370E-04
 150 F= -.11658516E+04 E0= -.11658390E+04  d E =-.102539E-02  mag=    21.7432
 trial-energy change:   -0.001025  1 .order   -0.001028   -0.001328   -0.000728
 step:   0.6732(harm=  0.6732)  dis= 0.01027  next Energy= -1165.852058 (dE=-0.147E-02)
 bond charge predicted
       N       E                     dE             d eps       ncg     rms          rms(c)
DAV:   1    -0.115785131158E+04    0.76160E-02   -0.34785E+00  1992   0.356E+00    0.410E-01
RMM:   2    -0.115785877870E+04   -0.74671E-02   -0.73977E-02  2260   0.479E-01    0.500E-01
RMM:   3    -0.115786187329E+04   -0.30946E-02   -0.10477E-02  2226   0.228E-01    0.102E+00
RMM:   4    -0.115785905318E+04    0.28201E-02   -0.36472E-03  2531   0.116E-01    0.350E-01
RMM:   5    -0.115785921696E+04   -0.16378E-03   -0.81511E-04  2252   0.580E-02    0.345E-01
RMM:   6    -0.115785936207E+04   -0.14511E-03   -0.50155E-04  2314   0.386E-02    0.408E-01
RMM:   7    -0.115785913312E+04    0.22895E-03   -0.40387E-04  2237   0.388E-02    0.232E-01
RMM:   8    -0.115785937194E+04   -0.23882E-03   -0.38645E-04  2199   0.383E-02    0.372E-01
RMM:   9    -0.115785921409E+04    0.15786E-03   -0.36811E-04  2230   0.376E-02    0.208E-01
RMM:  10    -0.115785920323E+04    0.10854E-04   -0.23311E-04  2102   0.332E-02    0.112E-01
RMM:  11    -0.115785919213E+04    0.11102E-04   -0.88113E-05  1958   0.196E-02    0.637E-02
RMM:  12    -0.115785919683E+04   -0.46955E-05   -0.41616E-05  1730   0.128E-02    0.358E-02
RMM:  13    -0.115785920121E+04   -0.43822E-05   -0.12099E-05  1510   0.771E-03    0.252E-02
RMM:  14    -0.115785920653E+04   -0.53230E-05   -0.51844E-06  1397   0.476E-03    0.242E-02
RMM:  15    -0.115785921380E+04   -0.72650E-05   -0.26474E-06  1294   0.355E-03    0.131E-02
RMM:  16    -0.115785922234E+04   -0.85469E-05   -0.13833E-06  1238   0.266E-03    0.110E-02
RMM:  17    -0.115785922937E+04   -0.70294E-05   -0.99247E-07  1214   0.224E-03    0.906E-03
RMM:  18    -0.115785923669E+04   -0.73132E-05   -0.54519E-07  1148   0.175E-03    0.479E-03
RMM:  19    -0.115785924225E+04   -0.55686E-05   -0.30850E-07  1089   0.113E-03    0.518E-03
RMM:  20    -0.115785924618E+04   -0.39234E-05   -0.23011E-07  1007   0.105E-03    0.284E-03
RMM:  21    -0.115785925215E+04   -0.59754E-05   -0.17170E-07   959   0.738E-04    0.272E-03
RMM:  22    -0.115785925535E+04   -0.31979E-05   -0.13987E-07   881   0.749E-04    0.161E-03
RMM:  23    -0.115785925939E+04   -0.40374E-05   -0.10189E-07   852   0.550E-04    0.129E-03
RMM:  24    -0.115785926330E+04   -0.39129E-05   -0.92368E-08   844   0.513E-04    0.103E-03
RMM:  25    -0.115785926662E+04   -0.33165E-05   -0.80503E-08   793   0.467E-04    0.115E-03
RMM:  26    -0.115785927005E+04   -0.34307E-05   -0.79072E-08   812   0.455E-04    0.676E-04
RMM:  27    -0.115785927392E+04   -0.38758E-05   -0.98082E-08   818   0.434E-04    0.695E-04
RMM:  28    -0.115785927797E+04   -0.40432E-05   -0.11156E-07   839   0.453E-04    0.405E-04
RMM:  29    -0.115785928158E+04   -0.36140E-05   -0.11844E-07   844   0.446E-04    0.292E-04
RMM:  30    -0.115785928380E+04   -0.22153E-05   -0.10700E-07   806   0.435E-04    0.223E-04
RMM:  31    -0.115785928588E+04   -0.20830E-05   -0.85724E-08   784   0.411E-04    0.292E-04
RMM:  32    -0.115785928750E+04   -0.16210E-05   -0.82914E-08   778   0.420E-04    0.201E-04
RMM:  33    -0.115785928874E+04   -0.12357E-05   -0.78637E-08   761   0.403E-04    0.154E-04
RMM:  34    -0.115785928958E+04   -0.84018E-06   -0.72924E-08   749   0.403E-04
 151 F= -.11658521E+04 E0= -.11658395E+04  d E =-.148161E-02  mag=    21.7435
 curvature:  -8.06 expect dE=-0.285E-01 dE for cont linesearch -0.683E-06
 trial: gam= 0.82992 g(F)=  0.353E-02 g(S)=  0.000E+00 ort = 0.941E-04 (trialstep = 0.378E+00)
 search vector abs. value=  0.757E-01
 bond charge predicted
       N       E                     dE             d eps       ncg     rms          rms(c)
DAV:   1    -0.115785403855E+04    0.52502E-02   -0.26625E+00  1992   0.309E+00    0.351E-01
RMM:   2    -0.115785967457E+04   -0.56360E-02   -0.56310E-02  2281   0.416E-01    0.430E-01
RMM:   3    -0.115786216717E+04   -0.24926E-02   -0.79714E-03  2250   0.197E-01    0.935E-01
RMM:   4    -0.115786034256E+04    0.18246E-02   -0.28255E-03  2514   0.103E-01    0.626E-01
RMM:   5    -0.115785984080E+04    0.50175E-03   -0.78969E-04  2216   0.570E-02    0.251E-01
RMM:   6    -0.115786009527E+04   -0.25447E-03   -0.43481E-04  2254   0.390E-02    0.317E-01
RMM:   7    -0.115785996280E+04    0.13247E-03   -0.29654E-04  2295   0.328E-02    0.206E-01
RMM:   8    -0.115786004749E+04   -0.84693E-04   -0.28833E-04  2182   0.333E-02    0.249E-01
RMM:   9    -0.115786001129E+04    0.36200E-04   -0.28393E-04  2253   0.312E-02    0.144E-01
RMM:  10    -0.115786001020E+04    0.10938E-05   -0.16045E-04  2082   0.267E-02    0.104E-01
RMM:  11    -0.115785999355E+04    0.16645E-04   -0.64048E-05  1898   0.168E-02    0.571E-02
RMM:  12    -0.115786000075E+04   -0.71966E-05   -0.36592E-05  1697   0.120E-02    0.392E-02
RMM:  13    -0.115786000305E+04   -0.22978E-05   -0.11107E-05  1491   0.719E-03    0.234E-02
RMM:  14    -0.115786000842E+04   -0.53728E-05   -0.40897E-06  1377   0.447E-03    0.190E-02
RMM:  15    -0.115786001548E+04   -0.70587E-05   -0.24512E-06  1284   0.337E-03    0.134E-02
RMM:  16    -0.115786002079E+04   -0.53173E-05   -0.11777E-06  1207   0.251E-03    0.907E-03
RMM:  17    -0.115786002487E+04   -0.40743E-05   -0.60746E-07  1171   0.172E-03    0.870E-03
RMM:  18    -0.115786003143E+04   -0.65642E-05   -0.40454E-07  1123   0.151E-03    0.321E-03
RMM:  19    -0.115786003922E+04   -0.77834E-05   -0.35766E-07  1113   0.117E-03    0.575E-03
RMM:  20    -0.115786004250E+04   -0.32816E-05   -0.28133E-07  1029   0.121E-03    0.327E-03
RMM:  21    -0.115786004569E+04   -0.31901E-05   -0.14769E-07   969   0.711E-04    0.208E-03
RMM:  22    -0.115786004815E+04   -0.24609E-05   -0.10169E-07   865   0.645E-04    0.220E-03
RMM:  23    -0.115786005121E+04   -0.30601E-05   -0.81710E-08   807   0.543E-04    0.146E-03
RMM:  24    -0.115786005566E+04   -0.44476E-05   -0.89144E-08   834   0.491E-04    0.721E-04
RMM:  25    -0.115786006006E+04   -0.43980E-05   -0.96819E-08   840   0.459E-04    0.979E-04
RMM:  26    -0.115786006186E+04   -0.18075E-05   -0.64768E-08   774   0.446E-04    0.890E-04
RMM:  27    -0.115786006528E+04   -0.34221E-05   -0.78753E-08   753   0.397E-04    0.492E-04
RMM:  28    -0.115786006874E+04   -0.34584E-05   -0.82967E-08   820   0.439E-04    0.432E-04
RMM:  29    -0.115786007203E+04   -0.32864E-05   -0.10981E-07   827   0.427E-04    0.250E-04
RMM:  30    -0.115786007423E+04   -0.22055E-05   -0.94153E-08   802   0.436E-04    0.298E-04
RMM:  31    -0.115786007575E+04   -0.15122E-05   -0.73175E-08   739   0.393E-04    0.210E-04
RMM:  32    -0.115786007703E+04   -0.12815E-05   -0.65588E-08   718   0.396E-04    0.172E-04
RMM:  33    -0.115786007824E+04   -0.12160E-05   -0.68352E-08   745   0.381E-04    0.126E-04
RMM:  34    -0.115786007907E+04   -0.82193E-06   -0.60858E-08   726   0.390E-04
 152 F= -.11658530E+04 E0= -.11658404E+04  d E =-.975844E-03  mag=    21.7427
 trial-energy change:   -0.000976  1 .order   -0.000975   -0.001365   -0.000585
 step:   0.6615(harm=  0.6615)  dis= 0.00885  next Energy= -1165.853265 (dE=-0.119E-02)
 bond charge predicted
       N       E                     dE             d eps       ncg     rms          rms(c)
DAV:   1    -0.115785676330E+04    0.33149E-02   -0.14995E+00  1992   0.232E+00    0.263E-01
RMM:   2    -0.115785989208E+04   -0.31288E-02   -0.31660E-02  2275   0.312E-01    0.323E-01
RMM:   3    -0.115786130894E+04   -0.14169E-02   -0.44887E-03  2250   0.148E-01    0.704E-01
RMM:   4    -0.115786028496E+04    0.10240E-02   -0.15912E-03  2511   0.775E-02    0.485E-01
RMM:   5    -0.115785998246E+04    0.30251E-03   -0.45489E-04  2185   0.433E-02    0.182E-01
RMM:   6    -0.115786015396E+04   -0.17150E-03   -0.24674E-04  2199   0.296E-02    0.238E-01
RMM:   7    -0.115786007568E+04    0.78280E-04   -0.16540E-04  2237   0.246E-02    0.155E-01
RMM:   8    -0.115786013356E+04   -0.57884E-04   -0.16315E-04  2119   0.250E-02    0.192E-01
RMM:   9    -0.115786011134E+04    0.22221E-04   -0.15783E-04  2170   0.235E-02    0.107E-01
RMM:  10    -0.115786011608E+04   -0.47350E-05   -0.89660E-05  1980   0.201E-02    0.782E-02
RMM:  11    -0.115786010739E+04    0.86866E-05   -0.35953E-05  1758   0.127E-02    0.436E-02
RMM:  12    -0.115786011188E+04   -0.44938E-05   -0.20483E-05  1573   0.923E-03    0.297E-02
RMM:  13    -0.115786011367E+04   -0.17871E-05   -0.63395E-06  1409   0.565E-03    0.174E-02
RMM:  14    -0.115786011723E+04   -0.35639E-05   -0.23908E-06  1318   0.349E-03    0.143E-02
RMM:  15    -0.115786012164E+04   -0.44035E-05   -0.13945E-06  1217   0.260E-03    0.982E-03
RMM:  16    -0.115786012481E+04   -0.31773E-05   -0.66774E-07  1175   0.191E-03    0.686E-03
RMM:  17    -0.115786012733E+04   -0.25195E-05   -0.33829E-07  1132   0.131E-03    0.650E-03
RMM:  18    -0.115786013143E+04   -0.40998E-05   -0.24797E-07  1080   0.116E-03    0.249E-03
RMM:  19    -0.115786013656E+04   -0.51254E-05   -0.21676E-07  1064   0.899E-04    0.438E-03
RMM:  20    -0.115786013854E+04   -0.19792E-05   -0.17060E-07   989   0.938E-04    0.257E-03
RMM:  21    -0.115786014057E+04   -0.20366E-05   -0.84733E-08   826   0.563E-04    0.157E-03
RMM:  22    -0.115786014218E+04   -0.16059E-05   -0.62167E-08   818   0.521E-04    0.158E-03
RMM:  23    -0.115786014416E+04   -0.19818E-05   -0.51186E-08   735   0.459E-04    0.981E-04
RMM:  24    -0.115786014690E+04   -0.27377E-05   -0.51720E-08   739   0.421E-04    0.594E-04
RMM:  25    -0.115786014952E+04   -0.26165E-05   -0.59794E-08   772   0.402E-04    0.817E-04
RMM:  26    -0.115786015066E+04   -0.11427E-05   -0.38557E-08   683   0.385E-04    0.566E-04
RMM:  27    -0.115786015311E+04   -0.24529E-05   -0.48678E-08   672   0.358E-04    0.393E-04
RMM:  28    -0.115786015512E+04   -0.20072E-05   -0.54148E-08   719   0.389E-04    0.317E-04
RMM:  29    -0.115786015707E+04   -0.19551E-05   -0.66957E-08   735   0.376E-04    0.204E-04
RMM:  30    -0.115786015855E+04   -0.14752E-05   -0.64449E-08   737   0.388E-04    0.237E-04
RMM:  31    -0.115786015949E+04   -0.94310E-06   -0.48347E-08   669   0.359E-04
 153 F= -.11658533E+04 E0= -.11658405E+04  d E =-.119689E-02  mag=    21.7421
 curvature:  -6.93 expect dE=-0.251E-01 dE for cont linesearch -0.165E-07
 trial: gam= 1.06440 g(F)=  0.362E-02 g(S)=  0.000E+00 ort = 0.134E-04 (trialstep = 0.368E+00)
 search vector abs. value=  0.894E-01
 bond charge predicted
       N       E                     dE             d eps       ncg     rms          rms(c)
DAV:   1    -0.115785415475E+04    0.60038E-02   -0.29348E+00  1992   0.323E+00    0.359E-01
RMM:   2    -0.115786035308E+04   -0.61983E-02   -0.62593E-02  2299   0.436E-01    0.468E-01
RMM:   3    -0.115786324114E+04   -0.28881E-02   -0.83958E-03  2280   0.200E-01    0.131E+00
RMM:   4    -0.115786130073E+04    0.19404E-02   -0.36576E-03  2553   0.106E-01    0.787E-01
RMM:   5    -0.115786058395E+04    0.71678E-03   -0.13944E-03  2168   0.796E-02    0.217E-01
RMM:   6    -0.115786093642E+04   -0.35247E-03   -0.53211E-04  2308   0.415E-02    0.354E-01
RMM:   7    -0.115786073545E+04    0.20097E-03   -0.33154E-04  2323   0.340E-02    0.248E-01
RMM:   8    -0.115786075644E+04   -0.20992E-04   -0.30800E-04  2161   0.344E-02    0.216E-01
RMM:   9    -0.115786076874E+04   -0.12301E-04   -0.24413E-04  2254   0.302E-02    0.134E-01
RMM:  10    -0.115786077121E+04   -0.24636E-05   -0.12339E-04  2066   0.234E-02    0.113E-01
RMM:  11    -0.115786074847E+04    0.22735E-04   -0.59520E-05  1899   0.166E-02    0.445E-02
RMM:  12    -0.115786076210E+04   -0.13626E-04   -0.21760E-05  1631   0.102E-02    0.391E-02
RMM:  13    -0.115786076587E+04   -0.37730E-05   -0.10165E-05  1482   0.734E-03    0.310E-02
RMM:  14    -0.115786077058E+04   -0.47101E-05   -0.42978E-06  1375   0.450E-03    0.237E-02
RMM:  15    -0.115786077801E+04   -0.74338E-05   -0.22617E-06  1276   0.331E-03    0.119E-02
RMM:  16    -0.115786078539E+04   -0.73721E-05   -0.12455E-06  1239   0.253E-03    0.119E-02
RMM:  17    -0.115786079244E+04   -0.70493E-05   -0.88121E-07  1206   0.219E-03    0.107E-02
RMM:  18    -0.115786079634E+04   -0.39042E-05   -0.48796E-07  1130   0.166E-03    0.824E-03
RMM:  19    -0.115786080173E+04   -0.53922E-05   -0.26983E-07  1055   0.110E-03    0.469E-03
RMM:  20    -0.115786080543E+04   -0.37032E-05   -0.24300E-07  1000   0.106E-03    0.344E-03
RMM:  21    -0.115786081255E+04   -0.71103E-05   -0.19708E-07  1036   0.797E-04    0.195E-03
RMM:  22    -0.115786081664E+04   -0.40990E-05   -0.13757E-07   942   0.640E-04    0.216E-03
RMM:  23    -0.115786081897E+04   -0.23211E-05   -0.92720E-08   827   0.537E-04    0.217E-03
RMM:  24    -0.115786082084E+04   -0.18741E-05   -0.68036E-08   765   0.482E-04    0.167E-03
RMM:  25    -0.115786082491E+04   -0.40670E-05   -0.88619E-08   817   0.442E-04    0.928E-04
RMM:  26    -0.115786082869E+04   -0.37803E-05   -0.97348E-08   863   0.479E-04    0.676E-04
RMM:  27    -0.115786083203E+04   -0.33386E-05   -0.94702E-08   826   0.454E-04    0.583E-04
RMM:  28    -0.115786083470E+04   -0.26761E-05   -0.92929E-08   795   0.459E-04    0.556E-04
RMM:  29    -0.115786083713E+04   -0.24249E-05   -0.10349E-07   811   0.440E-04    0.516E-04
RMM:  30    -0.115786083906E+04   -0.19341E-05   -0.86913E-08   818   0.447E-04    0.346E-04
RMM:  31    -0.115786084068E+04   -0.16163E-05   -0.87147E-08   765   0.406E-04    0.241E-04
RMM:  32    -0.115786084177E+04   -0.10886E-05   -0.68832E-08   732   0.403E-04    0.153E-04
RMM:  33    -0.115786084280E+04   -0.10366E-05   -0.73193E-08   733   0.383E-04    0.237E-04
RMM:  34    -0.115786084348E+04   -0.67424E-06   -0.66068E-08   755   0.396E-04
 154 F= -.11658542E+04 E0= -.11658415E+04  d E =-.970202E-03  mag=    21.7433
 trial-energy change:   -0.000970  1 .order   -0.000964   -0.001338   -0.000591
 step:   0.6367(harm=  0.6588)  dis= 0.00945  next Energy= -1165.854455 (dE=-0.119E-02)
 bond charge predicted
       N       E                     dE             d eps       ncg     rms          rms(c)
DAV:   1    -0.115785729089E+04    0.35519E-02   -0.15653E+00  1992   0.235E+00    0.262E-01
RMM:   2    -0.115786056065E+04   -0.32698E-02   -0.33475E-02  2297   0.318E-01    0.342E-01
RMM:   3    -0.115786209464E+04   -0.15340E-02   -0.44645E-03  2283   0.146E-01    0.933E-01
RMM:   4    -0.115786104498E+04    0.10497E-02   -0.19232E-03  2544   0.772E-02    0.572E-01
RMM:   5    -0.115786069231E+04    0.35267E-03   -0.71492E-04  2137   0.572E-02    0.158E-01
RMM:   6    -0.115786089578E+04   -0.20347E-03   -0.27998E-04  2255   0.302E-02    0.257E-01
RMM:   7    -0.115786078650E+04    0.10928E-03   -0.17683E-04  2281   0.249E-02    0.178E-01
RMM:   8    -0.115786080982E+04   -0.23312E-04   -0.16405E-04  2096   0.252E-02    0.162E-01
RMM:   9    -0.115786082025E+04   -0.10433E-04   -0.13041E-04  2177   0.221E-02    0.959E-02
RMM:  10    -0.115786082533E+04   -0.50823E-05   -0.65386E-05  1924   0.172E-02    0.832E-02
RMM:  11    -0.115786081298E+04    0.12352E-04   -0.31543E-05  1750   0.122E-02    0.330E-02
RMM:  12    -0.115786082089E+04   -0.79126E-05   -0.11342E-05  1536   0.761E-03    0.276E-02
RMM:  13    -0.115786082355E+04   -0.26562E-05   -0.52518E-06  1415   0.547E-03    0.209E-02
RMM:  14    -0.115786082683E+04   -0.32847E-05   -0.22807E-06  1319   0.342E-03    0.166E-02
RMM:  15    -0.115786083082E+04   -0.39847E-05   -0.11965E-06  1217   0.250E-03    0.876E-03
RMM:  16    -0.115786083454E+04   -0.37220E-05   -0.62397E-07  1172   0.180E-03    0.803E-03
RMM:  17    -0.115786083854E+04   -0.40032E-05   -0.45524E-07  1152   0.156E-03    0.704E-03
RMM:  18    -0.115786084091E+04   -0.23711E-05   -0.26888E-07  1069   0.124E-03    0.544E-03
RMM:  19    -0.115786084428E+04   -0.33675E-05   -0.16339E-07  1005   0.834E-04    0.330E-03
RMM:  20    -0.115786084651E+04   -0.22269E-05   -0.13989E-07   964   0.831E-04    0.274E-03
RMM:  21    -0.115786085028E+04   -0.37767E-05   -0.11685E-07   895   0.629E-04    0.158E-03
RMM:  22    -0.115786085236E+04   -0.20789E-05   -0.82237E-08   880   0.536E-04    0.164E-03
RMM:  23    -0.115786085368E+04   -0.13145E-05   -0.53822E-08   756   0.473E-04    0.162E-03
RMM:  24    -0.115786085504E+04   -0.13596E-05   -0.40651E-08   698   0.409E-04    0.139E-03
RMM:  25    -0.115786085667E+04   -0.16306E-05   -0.39458E-08   693   0.391E-04    0.101E-03
RMM:  26    -0.115786085866E+04   -0.19903E-05   -0.48273E-08   738   0.395E-04    0.504E-04
RMM:  27    -0.115786086074E+04   -0.20780E-05   -0.54439E-08   761   0.384E-04    0.479E-04
RMM:  28    -0.115786086237E+04   -0.16388E-05   -0.55749E-08   724   0.386E-04    0.404E-04
RMM:  29    -0.115786086393E+04   -0.15574E-05   -0.59713E-08   717   0.374E-04    0.331E-04
RMM:  30    -0.115786086517E+04   -0.12391E-05   -0.50904E-08   703   0.378E-04    0.208E-04
RMM:  31    -0.115786086606E+04   -0.88799E-06   -0.48725E-08   671   0.360E-04
 155 F= -.11658545E+04 E0= -.11658417E+04  d E =-.120254E-02  mag=    21.7442
 curvature:  -8.05 expect dE=-0.307E-01 dE for cont linesearch -0.123E-05
 trial: gam= 0.98977 g(F)=  0.381E-02 g(S)=  0.000E+00 ort = 0.117E-03 (trialstep = 0.411E+00)
 search vector abs. value=  0.916E-01
 bond charge predicted
       N       E                     dE             d eps       ncg     rms          rms(c)
DAV:   1    -0.115785315531E+04    0.77099E-02   -0.36611E+00  1992   0.359E+00    0.416E-01
RMM:   2    -0.115786100375E+04   -0.78484E-02   -0.80623E-02  2316   0.489E-01    0.512E-01
RMM:   3    -0.115786553037E+04   -0.45266E-02   -0.10520E-02  2270   0.224E-01    0.171E+00
RMM:   4    -0.115786194526E+04    0.35851E-02   -0.49916E-03  2532   0.123E-01    0.917E-01
RMM:   5    -0.115786133941E+04    0.60585E-03   -0.19353E-03  2185   0.928E-02    0.224E-01
RMM:   6    -0.115786173932E+04   -0.39991E-03   -0.78747E-04  2309   0.496E-02    0.332E-01
RMM:   7    -0.115786148243E+04    0.25689E-03   -0.43286E-04  2301   0.386E-02    0.168E-01
RMM:   8    -0.115786190342E+04   -0.42099E-03   -0.52653E-04  2246   0.431E-02    0.411E-01
RMM:   9    -0.115786156411E+04    0.33931E-03   -0.37946E-04  2262   0.372E-02    0.207E-01
RMM:  10    -0.115786155654E+04    0.75713E-05   -0.25823E-04  2056   0.332E-02    0.119E-01
RMM:  11    -0.115786155161E+04    0.49221E-05   -0.92195E-05  1986   0.191E-02    0.777E-02
RMM:  12    -0.115786155521E+04   -0.35947E-05   -0.41328E-05  1748   0.138E-02    0.474E-02
RMM:  13    -0.115786156294E+04   -0.77298E-05   -0.12841E-05  1519   0.791E-03    0.397E-02
RMM:  14    -0.115786156871E+04   -0.57770E-05   -0.50032E-06  1417   0.524E-03    0.295E-02
RMM:  15    -0.115786157680E+04   -0.80870E-05   -0.34387E-06  1363   0.419E-03    0.156E-02
RMM:  16    -0.115786158692E+04   -0.10120E-04   -0.25127E-06  1299   0.343E-03    0.187E-02
RMM:  17    -0.115786159076E+04   -0.38357E-05   -0.12765E-06  1216   0.254E-03    0.159E-02
RMM:  18    -0.115786159341E+04   -0.26513E-05   -0.56459E-07  1140   0.181E-03    0.884E-03
RMM:  19    -0.115786160098E+04   -0.75659E-05   -0.38521E-07  1089   0.130E-03    0.525E-03
RMM:  20    -0.115786160623E+04   -0.52523E-05   -0.36747E-07  1079   0.135E-03    0.649E-03
RMM:  21    -0.115786161302E+04   -0.67917E-05   -0.27582E-07  1077   0.111E-03    0.302E-03
RMM:  22    -0.115786161774E+04   -0.47190E-05   -0.17495E-07  1004   0.789E-04    0.386E-03
RMM:  23    -0.115786162015E+04   -0.24109E-05   -0.11557E-07   894   0.685E-04    0.386E-03
RMM:  24    -0.115786162259E+04   -0.24446E-05   -0.81953E-08   816   0.545E-04    0.296E-03
RMM:  25    -0.115786162620E+04   -0.36098E-05   -0.83336E-08   819   0.499E-04    0.190E-03
RMM:  26    -0.115786162985E+04   -0.36457E-05   -0.86338E-08   809   0.503E-04    0.117E-03
RMM:  27    -0.115786163446E+04   -0.46060E-05   -0.95977E-08   842   0.467E-04    0.680E-04
RMM:  28    -0.115786163844E+04   -0.39808E-05   -0.11794E-07   846   0.474E-04    0.654E-04
RMM:  29    -0.115786164226E+04   -0.38252E-05   -0.12504E-07   856   0.460E-04    0.538E-04
RMM:  30    -0.115786164554E+04   -0.32837E-05   -0.11646E-07   873   0.466E-04    0.519E-04
RMM:  31    -0.115786164825E+04   -0.27004E-05   -0.12163E-07   845   0.451E-04    0.247E-04
RMM:  32    -0.115786164971E+04   -0.14614E-05   -0.10003E-07   804   0.442E-04    0.229E-04
RMM:  33    -0.115786165090E+04   -0.11953E-05   -0.81980E-08   742   0.407E-04    0.279E-04
RMM:  34    -0.115786165188E+04   -0.97747E-06   -0.85116E-08   776   0.411E-04
 156 F= -.11658555E+04 E0= -.11658428E+04  d E =-.107674E-02  mag=    21.7455
 trial-energy change:   -0.001077  1 .order   -0.001073   -0.001617   -0.000529
 step:   0.6115(harm=  0.6115)  dis= 0.00959  next Energy= -1165.855672 (dE=-0.120E-02)
 bond charge predicted
       N       E                     dE             d eps       ncg     rms          rms(c)
DAV:   1    -0.115785962569E+04    0.20252E-02   -0.86588E-01  2004   0.174E+00    0.202E-01
RMM:   2    -0.115786141949E+04   -0.17938E-02   -0.19027E-02  2315   0.238E-01    0.249E-01
RMM:   3    -0.115786247466E+04   -0.10552E-02   -0.24540E-03  2267   0.108E-01    0.788E-01
RMM:   4    -0.115786160481E+04    0.86985E-03   -0.11585E-03  2523   0.595E-02    0.436E-01
RMM:   5    -0.115786151055E+04    0.94262E-04   -0.42677E-04  2090   0.441E-02    0.108E-01
RMM:   6    -0.115786162633E+04   -0.11578E-03   -0.18153E-04  2146   0.242E-02    0.162E-01
RMM:   7    -0.115786156705E+04    0.59283E-04   -0.10466E-04  2080   0.190E-02    0.771E-02
RMM:   8    -0.115786166545E+04   -0.98403E-04   -0.13671E-04  2152   0.218E-02    0.176E-01
RMM:   9    -0.115786160493E+04    0.60524E-04   -0.74709E-05  1984   0.168E-02    0.118E-01
RMM:  10    -0.115786159484E+04    0.10095E-04   -0.59593E-05  1838   0.161E-02    0.595E-02
RMM:  11    -0.115786160070E+04   -0.58660E-05   -0.22446E-05  1621   0.965E-03    0.417E-02
RMM:  12    -0.115786160060E+04    0.10470E-06   -0.97859E-06  1477   0.705E-03
 157 F= -.11658556E+04 E0= -.11658429E+04  d E =-.116746E-02  mag=    21.7457
 curvature:  -7.13 expect dE=-0.268E-01 dE for cont linesearch -0.521E-06
 trial: gam= 1.07395 g(F)=  0.376E-02 g(S)=  0.000E+00 ort =-0.818E-04 (trialstep = 0.379E+00)
 search vector abs. value=  0.109E+00
 bond charge predicted
       N       E                     dE             d eps       ncg     rms          rms(c)
DAV:   1    -0.115785363360E+04    0.79671E-02   -0.37265E+00  1992   0.363E+00    0.391E-01
RMM:   2    -0.115786144695E+04   -0.78134E-02   -0.81873E-02  2259   0.488E-01    0.418E-01
RMM:   3    -0.115786491203E+04   -0.34651E-02   -0.99391E-03  2247   0.223E-01    0.116E+00
RMM:   4    -0.115786211835E+04    0.27937E-02   -0.38617E-03  2543   0.117E-01    0.550E-01
RMM:   5    -0.115786210834E+04    0.10014E-04   -0.96076E-04  2234   0.634E-02    0.326E-01
RMM:   6    -0.115786230976E+04   -0.20143E-03   -0.59341E-04  2264   0.443E-02    0.340E-01
RMM:   7    -0.115786210277E+04    0.20699E-03   -0.43089E-04  2275   0.396E-02    0.209E-01
RMM:   8    -0.115786235862E+04   -0.25585E-03   -0.43796E-04  2231   0.399E-02    0.379E-01
RMM:   9    -0.115786215851E+04    0.20011E-03   -0.43152E-04  2246   0.407E-02    0.181E-01
RMM:  10    -0.115786214881E+04    0.96961E-05   -0.23418E-04  2095   0.331E-02    0.116E-01
RMM:  11    -0.115786213491E+04    0.13903E-04   -0.80855E-05  1963   0.186E-02    0.757E-02
RMM:  12    -0.115786214322E+04   -0.83140E-05   -0.37770E-05  1747   0.133E-02    0.436E-02
RMM:  13    -0.115786215434E+04   -0.11118E-04   -0.15442E-05  1546   0.852E-03    0.341E-02
RMM:  14    -0.115786216298E+04   -0.86381E-05   -0.63319E-06  1429   0.592E-03    0.302E-02
RMM:  15    -0.115786217139E+04   -0.84094E-05   -0.36309E-06  1352   0.418E-03    0.197E-02
RMM:  16    -0.115786217748E+04   -0.60907E-05   -0.20366E-06  1278   0.334E-03    0.123E-02
RMM:  17    -0.115786218358E+04   -0.60997E-05   -0.99582E-07  1199   0.208E-03    0.132E-02
RMM:  18    -0.115786218818E+04   -0.46058E-05   -0.68290E-07  1160   0.199E-03    0.742E-03
RMM:  19    -0.115786220104E+04   -0.12857E-04   -0.54858E-07  1161   0.142E-03    0.774E-03
RMM:  20    -0.115786220804E+04   -0.70007E-05   -0.48148E-07  1109   0.161E-03    0.697E-03
RMM:  21    -0.115786221340E+04   -0.53549E-05   -0.31431E-07  1062   0.117E-03    0.404E-03
RMM:  22    -0.115786221845E+04   -0.50541E-05   -0.20775E-07  1038   0.902E-04    0.568E-03
RMM:  23    -0.115786222218E+04   -0.37326E-05   -0.16095E-07   978   0.818E-04    0.571E-03
RMM:  24    -0.115786222581E+04   -0.36255E-05   -0.11306E-07   857   0.612E-04    0.372E-03
RMM:  25    -0.115786222982E+04   -0.40081E-05   -0.10422E-07   801   0.553E-04    0.223E-03
RMM:  26    -0.115786223471E+04   -0.48911E-05   -0.10217E-07   851   0.544E-04    0.837E-04
RMM:  27    -0.115786224007E+04   -0.53578E-05   -0.12026E-07   878   0.493E-04    0.933E-04
RMM:  28    -0.115786224515E+04   -0.50813E-05   -0.12404E-07   853   0.496E-04    0.666E-04
RMM:  29    -0.115786225270E+04   -0.75508E-05   -0.21168E-07   947   0.522E-04    0.441E-04
RMM:  30    -0.115786225680E+04   -0.40988E-05   -0.17473E-07   935   0.553E-04    0.384E-04
RMM:  31    -0.115786225960E+04   -0.28033E-05   -0.15175E-07   832   0.466E-04    0.313E-04
RMM:  32    -0.115786226230E+04   -0.26977E-05   -0.13691E-07   854   0.494E-04    0.230E-04
RMM:  33    -0.115786226407E+04   -0.17677E-05   -0.12051E-07   834   0.458E-04    0.181E-04
RMM:  34    -0.115786226508E+04   -0.10138E-05   -0.99169E-08   794   0.451E-04    0.136E-04
RMM:  35    -0.115786226581E+04   -0.73143E-06   -0.81534E-08   707   0.396E-04
 158 F= -.11658566E+04 E0= -.11658438E+04  d E =-.953311E-03  mag=    21.7463
 trial-energy change:   -0.000953  1 .order   -0.000921   -0.001389   -0.000453
 step:   0.5209(harm=  0.5617)  dis= 0.00928  next Energy= -1165.856677 (dE=-0.104E-02)
 bond charge predicted
       N       E                     dE             d eps       ncg     rms          rms(c)
DAV:   1    -0.115786105718E+04    0.12079E-02   -0.52663E-01  2088   0.137E+00    0.146E-01
RMM:   2    -0.115786211415E+04   -0.10570E-02   -0.11475E-02  2265   0.183E-01    0.173E-01
RMM:   3    -0.115786255457E+04   -0.44043E-03   -0.13956E-03  2251   0.830E-02    0.424E-01
RMM:   4    -0.115786218555E+04    0.36902E-03   -0.53609E-04  2532   0.420E-02    0.167E-01
RMM:   5    -0.115786220927E+04   -0.23718E-04   -0.11511E-04  2006   0.233E-02    0.108E-01
RMM:   6    -0.115786226035E+04   -0.51074E-04   -0.79914E-05  2034   0.159E-02    0.170E-01
RMM:   7    -0.115786222106E+04    0.39289E-04   -0.63818E-05  1939   0.151E-02    0.117E-01
RMM:   8    -0.115786223461E+04   -0.13557E-04   -0.60332E-05  1903   0.154E-02    0.106E-01
RMM:   9    -0.115786225082E+04   -0.16203E-04   -0.68537E-05  1960   0.159E-02    0.687E-02
RMM:  10    -0.115786224062E+04    0.10199E-04   -0.32837E-05  1691   0.120E-02    0.371E-02
RMM:  11    -0.115786224134E+04   -0.72391E-06   -0.11718E-05  1529   0.733E-03    0.277E-02
RMM:  12    -0.115786224160E+04   -0.25932E-06   -0.54174E-06  1407   0.544E-03
 159 F= -.11658567E+04 E0= -.11658439E+04  d E =-.103788E-02  mag=    21.7463
 curvature:  -7.95 expect dE=-0.242E-01 dE for cont linesearch -0.520E-05
 trial: gam= 0.66909 g(F)=  0.304E-02 g(S)=  0.000E+00 ort = 0.267E-03 (trialstep = 0.407E+00)
 search vector abs. value=  0.523E-01
 bond charge predicted
       N       E                     dE             d eps       ncg     rms          rms(c)
DAV:   1    -0.115785831718E+04    0.39242E-02   -0.20543E+00  2016   0.270E+00    0.289E-01
RMM:   2    -0.115786253189E+04   -0.42147E-02   -0.45013E-02  2306   0.365E-01    0.309E-01
RMM:   3    -0.115786460132E+04   -0.20694E-02   -0.53770E-03  2259   0.162E-01    0.942E-01
RMM:   4    -0.115786285709E+04    0.17442E-02   -0.21638E-03  2544   0.841E-02    0.482E-01
RMM:   5    -0.115786280605E+04    0.51041E-04   -0.62908E-04  2162   0.529E-02    0.190E-01
RMM:   6    -0.115786297702E+04   -0.17098E-03   -0.34933E-04  2277   0.339E-02    0.245E-01
RMM:   7    -0.115786283804E+04    0.13898E-03   -0.26940E-04  2254   0.310E-02    0.124E-01
RMM:   8    -0.115786293438E+04   -0.96341E-04   -0.25117E-04  2264   0.302E-02    0.156E-01
RMM:   9    -0.115786289309E+04    0.41294E-04   -0.14286E-04  2122   0.246E-02    0.999E-02
RMM:  10    -0.115786288406E+04    0.90302E-05   -0.59476E-05  1897   0.165E-02    0.722E-02
RMM:  11    -0.115786290702E+04   -0.22964E-04   -0.32412E-05  1694   0.109E-02    0.112E-01
RMM:  12    -0.115786287759E+04    0.29424E-04   -0.20057E-05  1552   0.935E-03    0.334E-02
RMM:  13    -0.115786289556E+04   -0.17961E-04   -0.10177E-05  1476   0.704E-03    0.238E-02
RMM:  14    -0.115786290168E+04   -0.61280E-05   -0.39704E-06  1335   0.422E-03    0.192E-02
RMM:  15    -0.115786290741E+04   -0.57269E-05   -0.23420E-06  1249   0.319E-03    0.117E-02
RMM:  16    -0.115786291178E+04   -0.43717E-05   -0.99336E-07  1197   0.224E-03    0.889E-03
RMM:  17    -0.115786291521E+04   -0.34324E-05   -0.44384E-07  1135   0.154E-03    0.820E-03
RMM:  18    -0.115786291840E+04   -0.31832E-05   -0.33012E-07  1078   0.135E-03    0.479E-03
RMM:  19    -0.115786292609E+04   -0.76956E-05   -0.30004E-07  1090   0.999E-04    0.395E-03
RMM:  20    -0.115786292936E+04   -0.32626E-05   -0.25777E-07  1036   0.113E-03    0.446E-03
RMM:  21    -0.115786293304E+04   -0.36867E-05   -0.17402E-07  1031   0.834E-04    0.218E-03
RMM:  22    -0.115786293659E+04   -0.35478E-05   -0.12906E-07   944   0.691E-04    0.192E-03
RMM:  23    -0.115786293975E+04   -0.31575E-05   -0.10919E-07   864   0.604E-04    0.153E-03
RMM:  24    -0.115786294195E+04   -0.21985E-05   -0.80508E-08   778   0.500E-04    0.145E-03
RMM:  25    -0.115786294427E+04   -0.23239E-05   -0.63364E-08   723   0.440E-04    0.759E-04
RMM:  26    -0.115786294705E+04   -0.27808E-05   -0.72021E-08   787   0.427E-04    0.712E-04
RMM:  27    -0.115786295064E+04   -0.35889E-05   -0.87876E-08   814   0.445E-04    0.712E-04
RMM:  28    -0.115786295364E+04   -0.30001E-05   -0.10031E-07   849   0.457E-04    0.469E-04
RMM:  29    -0.115786295608E+04   -0.24432E-05   -0.10127E-07   808   0.421E-04    0.298E-04
RMM:  30    -0.115786295814E+04   -0.20523E-05   -0.82400E-08   780   0.419E-04    0.234E-04
RMM:  31    -0.115786295993E+04   -0.17926E-05   -0.97392E-08   775   0.409E-04    0.257E-04
RMM:  32    -0.115786296102E+04   -0.10962E-05   -0.76185E-08   772   0.415E-04    0.136E-04
RMM:  33    -0.115786296169E+04   -0.66874E-06   -0.61838E-08   704   0.378E-04
 160 F= -.11658576E+04 E0= -.11658448E+04  d E =-.922670E-03  mag=    21.7480
 trial-energy change:   -0.000923  1 .order   -0.000903   -0.001310   -0.000496
 step:   0.6104(harm=  0.6547)  dis= 0.00751  next Energy= -1165.857724 (dE=-0.105E-02)
 bond charge predicted
       N       E                     dE             d eps       ncg     rms          rms(c)
DAV:   1    -0.115786185746E+04    0.11036E-02   -0.51249E-01  2088   0.135E+00    0.144E-01
RMM:   2    -0.115786287331E+04   -0.10159E-02   -0.11165E-02  2303   0.183E-01    0.165E-01
RMM:   3    -0.115786340002E+04   -0.52671E-03   -0.13406E-03  2261   0.810E-02    0.494E-01
RMM:   4    -0.115786295271E+04    0.44731E-03   -0.57020E-04  2521   0.421E-02    0.272E-01
RMM:   5    -0.115786293180E+04    0.20909E-04   -0.18008E-04  2027   0.288E-02    0.890E-02
RMM:   6    -0.115786299561E+04   -0.63804E-04   -0.90392E-05  2079   0.174E-02    0.123E-01
RMM:   7    -0.115786296298E+04    0.32626E-04   -0.66658E-05  2000   0.153E-02    0.613E-02
RMM:   8    -0.115786301218E+04   -0.49201E-04   -0.67274E-05  2053   0.160E-02    0.122E-01
RMM:   9    -0.115786298624E+04    0.25939E-04   -0.40835E-05  1829   0.129E-02    0.100E-01
RMM:  10    -0.115786297969E+04    0.65562E-05   -0.25995E-05  1674   0.111E-02    0.456E-02
RMM:  11    -0.115786298433E+04   -0.46451E-05   -0.12079E-05  1513   0.789E-03    0.320E-02
RMM:  12    -0.115786298477E+04   -0.43666E-06   -0.54248E-06  1397   0.539E-03
 161 F= -.11658577E+04 E0= -.11658449E+04  d E =-.104724E-02  mag=    21.7484
 curvature:  -5.15 expect dE=-0.130E-01 dE for cont linesearch -0.299E-05
 trial: gam= 0.88269 g(F)=  0.253E-02 g(S)=  0.000E+00 ort = 0.174E-03 (trialstep = 0.448E+00)
 search vector abs. value=  0.436E-01
 bond charge predicted
       N       E                     dE             d eps       ncg     rms          rms(c)
DAV:   1    -0.115785888805E+04    0.40963E-02   -0.20621E+00  1992   0.270E+00    0.301E-01
RMM:   2    -0.115786323093E+04   -0.43429E-02   -0.45317E-02  2344   0.365E-01    0.337E-01
RMM:   3    -0.115786551976E+04   -0.22888E-02   -0.56281E-03  2273   0.169E-01    0.985E-01
RMM:   4    -0.115786359679E+04    0.19230E-02   -0.23349E-03  2519   0.888E-02    0.536E-01
RMM:   5    -0.115786344328E+04    0.15351E-03   -0.70521E-04  2177   0.564E-02    0.211E-01
RMM:   6    -0.115786365642E+04   -0.21315E-03   -0.37664E-04  2277   0.359E-02    0.284E-01
RMM:   7    -0.115786353628E+04    0.12014E-03   -0.25502E-04  2295   0.305E-02    0.217E-01
RMM:   8    -0.115786358103E+04   -0.44747E-04   -0.24480E-04  2154   0.312E-02    0.219E-01
RMM:   9    -0.115786356121E+04    0.19819E-04   -0.22757E-04  2220   0.289E-02    0.123E-01
RMM:  10    -0.115786354196E+04    0.19253E-04   -0.12015E-04  2010   0.235E-02    0.827E-02
RMM:  11    -0.115786353858E+04    0.33824E-05   -0.46157E-05  1839   0.144E-02    0.643E-02
RMM:  12    -0.115786354034E+04   -0.17614E-05   -0.23242E-05  1595   0.104E-02    0.308E-02
RMM:  13    -0.115786354794E+04   -0.75987E-05   -0.97893E-06  1461   0.662E-03    0.224E-02
RMM:  14    -0.115786355503E+04   -0.70912E-05   -0.41652E-06  1353   0.450E-03    0.194E-02
RMM:  15    -0.115786356157E+04   -0.65406E-05   -0.24751E-06  1271   0.344E-03    0.114E-02
RMM:  16    -0.115786356867E+04   -0.70980E-05   -0.98524E-07  1206   0.229E-03    0.856E-03
RMM:  17    -0.115786357301E+04   -0.43451E-05   -0.49133E-07  1151   0.161E-03    0.863E-03
RMM:  18    -0.115786357635E+04   -0.33432E-05   -0.29787E-07  1074   0.130E-03    0.485E-03
RMM:  19    -0.115786358474E+04   -0.83900E-05   -0.29767E-07  1091   0.992E-04    0.459E-03
RMM:  20    -0.115786358922E+04   -0.44784E-05   -0.28091E-07  1026   0.117E-03    0.428E-03
RMM:  21    -0.115786359500E+04   -0.57741E-05   -0.20629E-07  1042   0.819E-04    0.199E-03
RMM:  22    -0.115786359930E+04   -0.43051E-05   -0.15175E-07   976   0.677E-04    0.165E-03
RMM:  23    -0.115786360250E+04   -0.31966E-05   -0.11004E-07   851   0.579E-04    0.111E-03
RMM:  24    -0.115786360586E+04   -0.33575E-05   -0.98251E-08   819   0.497E-04    0.133E-03
RMM:  25    -0.115786360785E+04   -0.19977E-05   -0.67533E-08   751   0.460E-04    0.684E-04
RMM:  26    -0.115786361141E+04   -0.35574E-05   -0.81458E-08   760   0.405E-04    0.465E-04
RMM:  27    -0.115786361612E+04   -0.47091E-05   -0.11020E-07   875   0.450E-04    0.455E-04
RMM:  28    -0.115786361947E+04   -0.33500E-05   -0.12608E-07   876   0.461E-04    0.395E-04
RMM:  29    -0.115786362162E+04   -0.21504E-05   -0.97188E-08   793   0.439E-04    0.474E-04
RMM:  30    -0.115786362323E+04   -0.16131E-05   -0.85170E-08   743   0.420E-04    0.373E-04
RMM:  31    -0.115786362550E+04   -0.22653E-05   -0.10232E-07   832   0.426E-04    0.201E-04
RMM:  32    -0.115786362650E+04   -0.99966E-06   -0.79632E-08   779   0.429E-04
 162 F= -.11658586E+04 E0= -.11658457E+04  d E =-.828188E-03  mag=    21.7509
 trial-energy change:   -0.000828  1 .order   -0.000814   -0.001201   -0.000427
 step:   0.6606(harm=  0.6950)  dis= 0.00739  next Energy= -1165.858654 (dE=-0.931E-03)
 bond charge predicted
       N       E                     dE             d eps       ncg     rms          rms(c)
DAV:   1    -0.115786258658E+04    0.10389E-02   -0.46636E-01  2040   0.128E+00    0.143E-01
RMM:   2    -0.115786353743E+04   -0.95085E-03   -0.10285E-02  2347   0.174E-01    0.160E-01
RMM:   3    -0.115786401794E+04   -0.48052E-03   -0.12670E-03  2277   0.790E-02    0.440E-01
RMM:   4    -0.115786362170E+04    0.39624E-03   -0.50439E-04  2496   0.420E-02    0.267E-01
RMM:   5    -0.115786357920E+04    0.42500E-04   -0.14994E-04  2046   0.256E-02    0.100E-01
RMM:   6    -0.115786364936E+04   -0.70164E-04   -0.85796E-05  2008   0.178E-02    0.130E-01
RMM:   7    -0.115786362243E+04    0.26930E-04   -0.56456E-05  1969   0.145E-02    0.993E-02
RMM:   8    -0.115786363861E+04   -0.16174E-04   -0.53878E-05  1890   0.148E-02    0.109E-01
RMM:   9    -0.115786363703E+04    0.15817E-05   -0.50406E-05  1902   0.134E-02    0.646E-02
RMM:  10    -0.115786363594E+04    0.10854E-05   -0.27243E-05  1694   0.114E-02    0.413E-02
RMM:  11    -0.115786363487E+04    0.10745E-05   -0.11285E-05  1505   0.738E-03    0.262E-02
RMM:  12    -0.115786363576E+04   -0.88943E-06   -0.56731E-06  1382   0.527E-03
 163 F= -.11658586E+04 E0= -.11658458E+04  d E =-.926565E-03  mag=    21.7515
 curvature:  -5.54 expect dE=-0.119E-01 dE for cont linesearch -0.311E-05
 trial: gam= 0.86677 g(F)=  0.215E-02 g(S)=  0.000E+00 ort = 0.157E-03 (trialstep = 0.490E+00)
 search vector abs. value=  0.352E-01
 bond charge predicted
       N       E                     dE             d eps       ncg     rms          rms(c)
DAV:   1    -0.115785955452E+04    0.40804E-02   -0.19846E+00  1992   0.262E+00    0.296E-01
RMM:   2    -0.115786376435E+04   -0.42098E-02   -0.43762E-02  2311   0.358E-01    0.346E-01
RMM:   3    -0.115786585476E+04   -0.20904E-02   -0.54327E-03  2261   0.165E-01    0.966E-01
RMM:   4    -0.115786414208E+04    0.17127E-02   -0.23169E-03  2541   0.868E-02    0.542E-01
RMM:   5    -0.115786397202E+04    0.17006E-03   -0.67087E-04  2148   0.550E-02    0.189E-01
RMM:   6    -0.115786416068E+04   -0.18866E-03   -0.36139E-04  2250   0.356E-02    0.225E-01
RMM:   7    -0.115786405114E+04    0.10954E-03   -0.23254E-04  2246   0.292E-02    0.141E-01
RMM:   8    -0.115786414740E+04   -0.96259E-04   -0.26234E-04  2210   0.304E-02    0.208E-01
RMM:   9    -0.115786415798E+04   -0.10584E-04   -0.17606E-04  2186   0.258E-02    0.230E-01
RMM:  10    -0.115786406379E+04    0.94194E-04   -0.13430E-04  2025   0.243E-02    0.108E-01
RMM:  11    -0.115786407878E+04   -0.14995E-04   -0.60603E-05  1857   0.172E-02    0.674E-02
RMM:  12    -0.115786407832E+04    0.46725E-06   -0.25331E-05  1629   0.104E-02    0.342E-02
RMM:  13    -0.115786408583E+04   -0.75146E-05   -0.90810E-06  1451   0.677E-03    0.170E-02
RMM:  14    -0.115786409475E+04   -0.89201E-05   -0.34107E-06  1355   0.421E-03    0.158E-02
RMM:  15    -0.115786410099E+04   -0.62430E-05   -0.16267E-06  1274   0.298E-03    0.125E-02
RMM:  16    -0.115786410556E+04   -0.45688E-05   -0.81150E-07  1190   0.214E-03    0.783E-03
RMM:  17    -0.115786411145E+04   -0.58929E-05   -0.49554E-07  1166   0.150E-03    0.804E-03
RMM:  18    -0.115786411431E+04   -0.28555E-05   -0.36638E-07  1105   0.137E-03    0.495E-03
RMM:  19    -0.115786412076E+04   -0.64458E-05   -0.31145E-07  1071   0.108E-03    0.518E-03
RMM:  20    -0.115786412532E+04   -0.45595E-05   -0.27777E-07  1030   0.120E-03    0.319E-03
RMM:  21    -0.115786412986E+04   -0.45459E-05   -0.17611E-07   991   0.781E-04    0.302E-03
RMM:  22    -0.115786413202E+04   -0.21558E-05   -0.11674E-07   906   0.734E-04    0.187E-03
RMM:  23    -0.115786413537E+04   -0.33483E-05   -0.89343E-08   818   0.494E-04    0.157E-03
RMM:  24    -0.115786413885E+04   -0.34833E-05   -0.83636E-08   825   0.484E-04    0.104E-03
RMM:  25    -0.115786414255E+04   -0.37007E-05   -0.80365E-08   806   0.432E-04    0.799E-04
RMM:  26    -0.115786414441E+04   -0.18573E-05   -0.62989E-08   746   0.431E-04    0.807E-04
RMM:  27    -0.115786414779E+04   -0.33817E-05   -0.76750E-08   732   0.389E-04    0.589E-04
RMM:  28    -0.115786415113E+04   -0.33393E-05   -0.85188E-08   793   0.432E-04    0.381E-04
RMM:  29    -0.115786415442E+04   -0.32883E-05   -0.11289E-07   820   0.417E-04    0.338E-04
RMM:  30    -0.115786415634E+04   -0.19222E-05   -0.79453E-08   764   0.420E-04    0.241E-04
RMM:  31    -0.115786415862E+04   -0.22768E-05   -0.95797E-08   755   0.392E-04    0.284E-04
RMM:  32    -0.115786416027E+04   -0.16511E-05   -0.83339E-08   788   0.432E-04    0.173E-04
RMM:  33    -0.115786416112E+04   -0.85199E-06   -0.66709E-08   706   0.380E-04
 164 F= -.11658594E+04 E0= -.11658465E+04  d E =-.705462E-03  mag=    21.7528
 trial-energy change:   -0.000705  1 .order   -0.000694   -0.001123   -0.000265
 step:   0.6275(harm=  0.6418)  dis= 0.00659  next Energy= -1165.859392 (dE=-0.743E-03)
 bond charge predicted
       N       E                     dE             d eps       ncg     rms          rms(c)
DAV:   1    -0.115786379805E+04    0.36222E-03   -0.15542E-01  2142   0.732E-01    0.824E-02
RMM:   2    -0.115786410469E+04   -0.30665E-03   -0.34111E-03  2309   0.100E-01    0.996E-02
RMM:   3    -0.115786426673E+04   -0.16204E-03   -0.42652E-04  2247   0.461E-02    0.271E-01
RMM:   4    -0.115786413378E+04    0.13295E-03   -0.18114E-04  2417   0.242E-02    0.173E-01
RMM:   5    -0.115786411595E+04    0.17827E-04   -0.58222E-05  1862   0.165E-02    0.492E-02
RMM:   6    -0.115786414688E+04   -0.30930E-04   -0.29979E-05  1738   0.106E-02    0.629E-02
RMM:   7    -0.115786413987E+04    0.70144E-05   -0.18035E-05  1601   0.845E-03    0.387E-02
RMM:   8    -0.115786415131E+04   -0.11444E-04   -0.21682E-05  1691   0.917E-03    0.583E-02
RMM:   9    -0.115786415256E+04   -0.12489E-05   -0.14256E-05  1535   0.784E-03    0.704E-02
RMM:  10    -0.115786414242E+04    0.10141E-04   -0.99283E-06  1464   0.714E-03    0.262E-02
RMM:  11    -0.115786414754E+04   -0.51189E-05   -0.48068E-06  1397   0.517E-03    0.196E-02
RMM:  12    -0.115786414767E+04   -0.13160E-06   -0.21892E-06  1278   0.344E-03
 165 F= -.11658594E+04 E0= -.11658465E+04  d E =-.742605E-03  mag=    21.7529
 curvature:  -4.88 expect dE=-0.109E-01 dE for cont linesearch -0.149E-05
 trial: gam= 1.03347 g(F)=  0.223E-02 g(S)=  0.000E+00 ort = 0.104E-03 (trialstep = 0.455E+00)
 search vector abs. value=  0.400E-01
 bond charge predicted
       N       E                     dE             d eps       ncg     rms          rms(c)
DAV:   1    -0.115786031339E+04    0.38342E-02   -0.19289E+00  2016   0.256E+00    0.301E-01
RMM:   2    -0.115786430838E+04   -0.39950E-02   -0.42224E-02  2332   0.353E-01    0.355E-01
RMM:   3    -0.115786678259E+04   -0.24742E-02   -0.52643E-03  2292   0.158E-01    0.109E+00
RMM:   4    -0.115786441231E+04    0.23703E-02   -0.23525E-03  2537   0.851E-02    0.365E-01
RMM:   5    -0.115786462812E+04   -0.21581E-03   -0.64825E-04  2177   0.552E-02    0.222E-01
RMM:   6    -0.115786474347E+04   -0.11535E-03   -0.31960E-04  2326   0.309E-02    0.273E-01
RMM:   7    -0.115786463394E+04    0.10952E-03   -0.24188E-04  2223   0.305E-02    0.178E-01
RMM:   8    -0.115786476916E+04   -0.13522E-03   -0.26393E-04  2211   0.300E-02    0.272E-01
RMM:   9    -0.115786465690E+04    0.11226E-03   -0.21886E-04  2177   0.291E-02    0.138E-01
RMM:  10    -0.115786465692E+04   -0.14217E-07   -0.12799E-04  2015   0.243E-02    0.884E-02
RMM:  11    -0.115786465753E+04   -0.60710E-06   -0.47685E-05  1830   0.149E-02    0.711E-02
RMM:  12    -0.115786465386E+04    0.36687E-05   -0.21373E-05  1580   0.977E-03    0.412E-02
RMM:  13    -0.115786466215E+04   -0.82905E-05   -0.10104E-05  1458   0.665E-03    0.280E-02
RMM:  14    -0.115786466687E+04   -0.47231E-05   -0.46525E-06  1344   0.463E-03    0.191E-02
RMM:  15    -0.115786467207E+04   -0.51994E-05   -0.30016E-06  1257   0.332E-03    0.140E-02
RMM:  16    -0.115786467616E+04   -0.40872E-05   -0.11634E-06  1207   0.248E-03    0.917E-03
RMM:  17    -0.115786467889E+04   -0.27358E-05   -0.42862E-07  1145   0.152E-03    0.893E-03
RMM:  18    -0.115786468098E+04   -0.20831E-05   -0.31423E-07  1073   0.136E-03    0.504E-03
RMM:  19    -0.115786468625E+04   -0.52758E-05   -0.28874E-07  1068   0.108E-03    0.405E-03
RMM:  20    -0.115786468977E+04   -0.35163E-05   -0.30200E-07  1045   0.125E-03    0.410E-03
RMM:  21    -0.115786469285E+04   -0.30796E-05   -0.17827E-07  1003   0.842E-04    0.310E-03
RMM:  22    -0.115786469488E+04   -0.20334E-05   -0.11920E-07   930   0.698E-04    0.224E-03
RMM:  23    -0.115786469708E+04   -0.21958E-05   -0.88079E-08   825   0.579E-04    0.135E-03
RMM:  24    -0.115786470004E+04   -0.29612E-05   -0.75928E-08   821   0.480E-04    0.959E-04
RMM:  25    -0.115786470205E+04   -0.20137E-05   -0.67535E-08   762   0.445E-04    0.119E-03
RMM:  26    -0.115786470374E+04   -0.16857E-05   -0.56517E-08   707   0.416E-04    0.588E-04
RMM:  27    -0.115786470609E+04   -0.23478E-05   -0.58471E-08   731   0.387E-04    0.536E-04
RMM:  28    -0.115786470806E+04   -0.19745E-05   -0.59866E-08   735   0.399E-04    0.525E-04
RMM:  29    -0.115786471058E+04   -0.25187E-05   -0.84676E-08   770   0.395E-04    0.395E-04
RMM:  30    -0.115786471248E+04   -0.19028E-05   -0.85792E-08   777   0.412E-04    0.231E-04
RMM:  31    -0.115786471402E+04   -0.15356E-05   -0.81491E-08   755   0.395E-04    0.209E-04
RMM:  32    -0.115786471518E+04   -0.11670E-05   -0.78845E-08   733   0.399E-04    0.147E-04
RMM:  33    -0.115786471595E+04   -0.76458E-06   -0.60440E-08   686   0.372E-04
 166 F= -.11658601E+04 E0= -.11658473E+04  d E =-.711767E-03  mag=    21.7546
 trial-energy change:   -0.000712  1 .order   -0.000707   -0.001063   -0.000350
 step:   0.6660(harm=  0.6788)  dis= 0.00774  next Energy= -1165.860185 (dE=-0.793E-03)
 bond charge predicted
       N       E                     dE             d eps       ncg     rms          rms(c)
DAV:   1    -0.115786379974E+04    0.91545E-03   -0.41409E-01  2064   0.119E+00    0.139E-01
RMM:   2    -0.115786461546E+04   -0.81573E-03   -0.89943E-03  2331   0.163E-01    0.165E-01
RMM:   3    -0.115786518282E+04   -0.56736E-03   -0.11137E-03  2281   0.722E-02    0.556E-01
RMM:   4    -0.115786461033E+04    0.57249E-03   -0.53743E-04  2493   0.403E-02    0.200E-01
RMM:   5    -0.115786468995E+04   -0.79622E-04   -0.16206E-04  2002   0.274E-02    0.954E-02
RMM:   6    -0.115786472922E+04   -0.39276E-04   -0.73602E-05  2033   0.154E-02    0.127E-01
RMM:   7    -0.115786470701E+04    0.22215E-04   -0.50858E-05  1906   0.140E-02    0.860E-02
RMM:   8    -0.115786473398E+04   -0.26971E-04   -0.55578E-05  1915   0.142E-02    0.118E-01
RMM:   9    -0.115786471862E+04    0.15365E-04   -0.48056E-05  1872   0.137E-02    0.610E-02
RMM:  10    -0.115786472282E+04   -0.42080E-05   -0.27628E-05  1674   0.115E-02    0.429E-02
RMM:  11    -0.115786472174E+04    0.10800E-05   -0.10276E-05  1489   0.732E-03    0.295E-02
RMM:  12    -0.115786472166E+04    0.82277E-07   -0.46270E-06  1392   0.501E-03
 167 F= -.11658602E+04 E0= -.11658473E+04  d E =-.784240E-03  mag=    21.7551
 curvature:  -5.79 expect dE=-0.125E-01 dE for cont linesearch -0.550E-06
 trial: gam= 0.97089 g(F)=  0.216E-02 g(S)=  0.000E+00 ort = 0.617E-04 (trialstep = 0.497E+00)
 search vector abs. value=  0.400E-01
 bond charge predicted
       N       E                     dE             d eps       ncg     rms          rms(c)
DAV:   1    -0.115785990151E+04    0.48202E-02   -0.23053E+00  2004   0.282E+00    0.316E-01
RMM:   2    -0.115786462671E+04   -0.47252E-02   -0.50326E-02  2321   0.383E-01    0.363E-01
RMM:   3    -0.115786773446E+04   -0.31077E-02   -0.61141E-03  2284   0.171E-01    0.116E+00
RMM:   4    -0.115786466997E+04    0.30645E-02   -0.28010E-03  2558   0.919E-02    0.291E-01
RMM:   5    -0.115786511932E+04   -0.44935E-03   -0.61757E-04  2206   0.535E-02    0.253E-01
RMM:   6    -0.115786518650E+04   -0.67179E-04   -0.35800E-04  2328   0.340E-02    0.268E-01
RMM:   7    -0.115786510423E+04    0.82272E-04   -0.28720E-04  2252   0.333E-02    0.196E-01
RMM:   8    -0.115786523164E+04   -0.12741E-03   -0.31917E-04  2191   0.345E-02    0.283E-01
RMM:   9    -0.115786517413E+04    0.57504E-04   -0.27282E-04  2231   0.319E-02    0.171E-01
RMM:  10    -0.115786510917E+04    0.64964E-04   -0.18179E-04  2011   0.271E-02    0.777E-02
RMM:  11    -0.115786512694E+04   -0.17773E-04   -0.56433E-05  1871   0.147E-02    0.905E-02
RMM:  12    -0.115786511467E+04    0.12268E-04   -0.25675E-05  1610   0.109E-02    0.343E-02
RMM:  13    -0.115786512781E+04   -0.13134E-04   -0.96741E-06  1486   0.649E-03    0.325E-02
RMM:  14    -0.115786513450E+04   -0.66965E-05   -0.60004E-06  1391   0.526E-03    0.267E-02
RMM:  15    -0.115786513860E+04   -0.40967E-05   -0.33120E-06  1302   0.407E-03    0.128E-02
RMM:  16    -0.115786514409E+04   -0.54852E-05   -0.10867E-06  1227   0.250E-03    0.996E-03
RMM:  17    -0.115786514708E+04   -0.29977E-05   -0.49710E-07  1153   0.171E-03    0.791E-03
RMM:  18    -0.115786514989E+04   -0.28052E-05   -0.38277E-07  1116   0.136E-03    0.699E-03
RMM:  19    -0.115786515538E+04   -0.54910E-05   -0.31816E-07  1077   0.117E-03    0.379E-03
RMM:  20    -0.115786516030E+04   -0.49219E-05   -0.32201E-07  1092   0.115E-03    0.533E-03
RMM:  21    -0.115786516353E+04   -0.32253E-05   -0.24625E-07  1028   0.111E-03    0.350E-03
RMM:  22    -0.115786516604E+04   -0.25103E-05   -0.14646E-07   953   0.701E-04    0.343E-03
RMM:  23    -0.115786516811E+04   -0.20695E-05   -0.11192E-07   877   0.682E-04    0.205E-03
RMM:  24    -0.115786517177E+04   -0.36638E-05   -0.11407E-07   877   0.494E-04    0.109E-03
RMM:  25    -0.115786517447E+04   -0.26992E-05   -0.94157E-08   825   0.500E-04    0.109E-03
RMM:  26    -0.115786517619E+04   -0.17208E-05   -0.69894E-08   741   0.434E-04    0.103E-03
RMM:  27    -0.115786517816E+04   -0.19748E-05   -0.70714E-08   744   0.419E-04    0.526E-04
RMM:  28    -0.115786518115E+04   -0.29812E-05   -0.91168E-08   801   0.414E-04    0.566E-04
RMM:  29    -0.115786518339E+04   -0.22412E-05   -0.98822E-08   830   0.452E-04    0.483E-04
RMM:  30    -0.115786518523E+04   -0.18400E-05   -0.10347E-07   786   0.413E-04    0.455E-04
RMM:  31    -0.115786518687E+04   -0.16408E-05   -0.84478E-08   776   0.424E-04    0.223E-04
RMM:  32    -0.115786518825E+04   -0.13850E-05   -0.10395E-07   802   0.410E-04    0.291E-04
RMM:  33    -0.115786518893E+04   -0.68106E-06   -0.72131E-08   737   0.412E-04
 168 F= -.11658608E+04 E0= -.11658480E+04  d E =-.623669E-03  mag=    21.7582
 trial-energy change:   -0.000624  1 .order   -0.000614   -0.001104   -0.000125
 step:   0.5571(harm=  0.5609)  dis= 0.00637  next Energy= -1165.860807 (dE=-0.631E-03)
 bond charge predicted
       N       E                     dE             d eps       ncg     rms          rms(c)
DAV:   1    -0.115786510293E+04    0.85322E-04   -0.33286E-02  2172   0.339E-01    0.379E-02
RMM:   2    -0.115786516142E+04   -0.58486E-04   -0.72447E-04  2328   0.460E-02    0.416E-02
RMM:   3    -0.115786520952E+04   -0.48104E-04   -0.85653E-05  2191   0.203E-02    0.162E-01
RMM:   4    -0.115786515089E+04    0.58633E-04   -0.41938E-05  1970   0.113E-02    0.508E-02
RMM:   5    -0.115786517118E+04   -0.20290E-04   -0.11727E-05  1499   0.815E-03    0.262E-02
RMM:   6    -0.115786517585E+04   -0.46710E-05   -0.59531E-06  1415   0.508E-03    0.331E-02
RMM:   7    -0.115786517528E+04    0.57350E-06   -0.44438E-06  1382   0.489E-03
 169 F= -.11658608E+04 E0= -.11658479E+04  d E =-.628892E-03  mag=    21.7584
 curvature:  -5.03 expect dE=-0.114E-01 dE for cont linesearch -0.244E-05
 trial: gam= 1.01799 g(F)=  0.226E-02 g(S)=  0.000E+00 ort = 0.139E-03 (trialstep = 0.463E+00)
 search vector abs. value=  0.440E-01
 bond charge predicted
       N       E                     dE             d eps       ncg     rms          rms(c)
DAV:   1    -0.115786073884E+04    0.44370E-02   -0.21949E+00  2016   0.275E+00    0.316E-01
RMM:   2    -0.115786514031E+04   -0.44015E-02   -0.47530E-02  2321   0.372E-01    0.292E-01
RMM:   3    -0.115786721349E+04   -0.20732E-02   -0.55100E-03  2272   0.166E-01    0.816E-01
RMM:   4    -0.115786556699E+04    0.16465E-02   -0.22487E-03  2544   0.887E-02    0.403E-01
RMM:   5    -0.115786559550E+04   -0.28514E-04   -0.55186E-04  2237   0.485E-02    0.274E-01
RMM:   6    -0.115786574660E+04   -0.15109E-03   -0.35712E-04  2268   0.344E-02    0.334E-01
RMM:   7    -0.115786556274E+04    0.18385E-03   -0.31732E-04  2241   0.349E-02    0.135E-01
RMM:   8    -0.115786579018E+04   -0.22744E-03   -0.37654E-04  2185   0.379E-02    0.246E-01
RMM:   9    -0.115786567916E+04    0.11102E-03   -0.21093E-04  2217   0.293E-02    0.163E-01
RMM:  10    -0.115786564143E+04    0.37733E-04   -0.10803E-04  1952   0.215E-02    0.951E-02
RMM:  11    -0.115786564496E+04   -0.35358E-05   -0.50278E-05  1806   0.140E-02    0.558E-02
RMM:  12    -0.115786564770E+04   -0.27382E-05   -0.27594E-05  1617   0.103E-02    0.277E-02
RMM:  13    -0.115786565228E+04   -0.45816E-05   -0.76203E-06  1455   0.633E-03    0.204E-02
RMM:  14    -0.115786565606E+04   -0.37782E-05   -0.28082E-06  1330   0.358E-03    0.200E-02
RMM:  15    -0.115786565891E+04   -0.28532E-05   -0.13836E-06  1260   0.294E-03    0.689E-03
RMM:  16    -0.115786566360E+04   -0.46904E-05   -0.78891E-07  1187   0.194E-03    0.894E-03
RMM:  17    -0.115786566657E+04   -0.29696E-05   -0.61618E-07  1171   0.182E-03    0.941E-03
RMM:  18    -0.115786566858E+04   -0.20061E-05   -0.41313E-07  1128   0.141E-03    0.615E-03
RMM:  19    -0.115786567162E+04   -0.30355E-05   -0.23326E-07  1050   0.106E-03    0.298E-03
RMM:  20    -0.115786567311E+04   -0.14995E-05   -0.14493E-07   973   0.788E-04    0.328E-03
RMM:  21    -0.115786567452E+04   -0.14013E-05   -0.92135E-08   856   0.633E-04    0.189E-03
RMM:  22    -0.115786567611E+04   -0.15987E-05   -0.68163E-08   782   0.504E-04    0.167E-03
RMM:  23    -0.115786567804E+04   -0.19278E-05   -0.73367E-08   779   0.512E-04    0.197E-03
RMM:  24    -0.115786567976E+04   -0.17137E-05   -0.63804E-08   740   0.446E-04    0.102E-03
RMM:  25    -0.115786568143E+04   -0.16737E-05   -0.53214E-08   718   0.395E-04    0.770E-04
RMM:  26    -0.115786568293E+04   -0.14981E-05   -0.52741E-08   728   0.397E-04    0.952E-04
RMM:  27    -0.115786568432E+04   -0.13904E-05   -0.49400E-08   706   0.390E-04    0.756E-04
RMM:  28    -0.115786568596E+04   -0.16390E-05   -0.58785E-08   733   0.394E-04    0.527E-04
RMM:  29    -0.115786568766E+04   -0.17026E-05   -0.69755E-08   778   0.404E-04    0.590E-04
RMM:  30    -0.115786568849E+04   -0.82566E-06   -0.55365E-08   685   0.377E-04
 170 F= -.11658615E+04 E0= -.11658487E+04  d E =-.683147E-03  mag=    21.7601
 trial-energy change:   -0.000683  1 .order   -0.000708   -0.001112   -0.000304
 step:   0.7057(harm=  0.6375)  dis= 0.00848  next Energy= -1165.861564 (dE=-0.759E-03)
 bond charge predicted
       N       E                     dE             d eps       ncg     rms          rms(c)
DAV:   1    -0.115786427625E+04    0.14114E-02   -0.60335E-01  2004   0.144E+00    0.165E-01
RMM:   2    -0.115786545453E+04   -0.11783E-02   -0.13156E-02  2325   0.195E-01    0.146E-01
RMM:   3    -0.115786604793E+04   -0.59341E-03   -0.14755E-03  2267   0.854E-02    0.469E-01
RMM:   4    -0.115786553487E+04    0.51307E-03   -0.62406E-04  2534   0.462E-02    0.186E-01
RMM:   5    -0.115786561425E+04   -0.79387E-04   -0.14289E-04  2086   0.254E-02    0.145E-01
RMM:   6    -0.115786565011E+04   -0.35860E-04   -0.92749E-05  2024   0.178E-02    0.182E-01
RMM:   7    -0.115786561502E+04    0.35097E-04   -0.81158E-05  1992   0.173E-02    0.118E-01
RMM:   8    -0.115786563573E+04   -0.20715E-04   -0.75206E-05  1953   0.174E-02    0.101E-01
RMM:   9    -0.115786565329E+04   -0.17558E-04   -0.62096E-05  1963   0.155E-02    0.687E-02
RMM:  10    -0.115786564155E+04    0.11742E-04   -0.29696E-05  1668   0.116E-02    0.385E-02
RMM:  11    -0.115786564376E+04   -0.22076E-05   -0.11761E-05  1509   0.706E-03    0.296E-02
RMM:  12    -0.115786564419E+04   -0.43761E-06   -0.61317E-06  1401   0.565E-03
 171 F= -.11658615E+04 E0= -.11658487E+04  d E =-.728495E-03  mag=    21.7606
 curvature:  -4.95 expect dE=-0.119E-01 dE for cont linesearch -0.409E-05
 trial: gam= 1.16651 g(F)=  0.241E-02 g(S)=  0.000E+00 ort =-0.191E-03 (trialstep = 0.364E+00)
 search vector abs. value=  0.618E-01
 bond charge predicted
       N       E                     dE             d eps       ncg     rms          rms(c)
DAV:   1    -0.115786164852E+04    0.39952E-02   -0.19275E+00  2016   0.257E+00    0.285E-01
RMM:   2    -0.115786551571E+04   -0.38672E-02   -0.41423E-02  2305   0.345E-01    0.280E-01
RMM:   3    -0.115786755181E+04   -0.20361E-02   -0.47497E-03  2271   0.150E-01    0.113E+00
RMM:   4    -0.115786568110E+04    0.18707E-02   -0.22133E-03  2559   0.814E-02    0.457E-01
RMM:   5    -0.115786588025E+04   -0.19914E-03   -0.72565E-04  2146   0.565E-02    0.179E-01
RMM:   6    -0.115786607839E+04   -0.19815E-03   -0.34543E-04  2314   0.335E-02    0.272E-01
RMM:   7    -0.115786594977E+04    0.12862E-03   -0.22489E-04  2252   0.290E-02    0.211E-01
RMM:   8    -0.115786598961E+04   -0.39840E-04   -0.23072E-04  2157   0.286E-02    0.197E-01
RMM:   9    -0.115786604264E+04   -0.53029E-04   -0.22889E-04  2198   0.297E-02    0.169E-01
RMM:  10    -0.115786595178E+04    0.90866E-04   -0.11283E-04  2026   0.232E-02    0.624E-02
RMM:  11    -0.115786597755E+04   -0.25770E-04   -0.41351E-05  1820   0.134E-02    0.614E-02
RMM:  12    -0.115786597684E+04    0.70787E-06   -0.19978E-05  1575   0.951E-03    0.353E-02
RMM:  13    -0.115786598003E+04   -0.31863E-05   -0.62486E-06  1441   0.600E-03    0.213E-02
RMM:  14    -0.115786598501E+04   -0.49875E-05   -0.27169E-06  1316   0.357E-03    0.186E-02
RMM:  15    -0.115786598918E+04   -0.41677E-05   -0.18907E-06  1246   0.306E-03    0.123E-02
RMM:  16    -0.115786599402E+04   -0.48412E-05   -0.92834E-07  1194   0.216E-03    0.117E-02
RMM:  17    -0.115786599742E+04   -0.33930E-05   -0.45432E-07  1154   0.165E-03    0.808E-03
RMM:  18    -0.115786599940E+04   -0.19860E-05   -0.30547E-07  1074   0.128E-03    0.566E-03
RMM:  19    -0.115786600316E+04   -0.37567E-05   -0.21402E-07  1039   0.963E-04    0.279E-03
RMM:  20    -0.115786600585E+04   -0.26926E-05   -0.19991E-07  1001   0.899E-04    0.254E-03
RMM:  21    -0.115786600933E+04   -0.34760E-05   -0.15522E-07   958   0.723E-04    0.213E-03
RMM:  22    -0.115786601147E+04   -0.21445E-05   -0.10571E-07   852   0.567E-04    0.159E-03
RMM:  23    -0.115786601278E+04   -0.13119E-05   -0.63242E-08   741   0.460E-04    0.147E-03
RMM:  24    -0.115786601396E+04   -0.11780E-05   -0.48160E-08   693   0.420E-04    0.103E-03
RMM:  25    -0.115786601677E+04   -0.28049E-05   -0.72321E-08   771   0.399E-04    0.853E-04
RMM:  26    -0.115786601925E+04   -0.24809E-05   -0.78369E-08   835   0.443E-04    0.816E-04
RMM:  27    -0.115786602104E+04   -0.17967E-05   -0.71402E-08   775   0.419E-04    0.748E-04
RMM:  28    -0.115786602222E+04   -0.11727E-05   -0.61163E-08   697   0.395E-04    0.615E-04
RMM:  29    -0.115786602385E+04   -0.16356E-05   -0.71567E-08   708   0.379E-04    0.516E-04
RMM:  30    -0.115786602511E+04   -0.12577E-05   -0.61734E-08   711   0.391E-04    0.283E-04
RMM:  31    -0.115786602635E+04   -0.12379E-05   -0.72337E-08   711   0.375E-04    0.215E-04
RMM:  32    -0.115786602731E+04   -0.95868E-06   -0.63876E-08   732   0.392E-04
 172 F= -.11658621E+04 E0= -.11658493E+04  d E =-.536690E-03  mag=    21.7620
 trial-energy change:   -0.000537  1 .order   -0.000521   -0.000795   -0.000248
 step:   0.4985(harm=  0.5293)  dis= 0.00752  next Energy= -1165.862116 (dE=-0.583E-03)
 bond charge predicted
       N       E                     dE             d eps       ncg     rms          rms(c)
DAV:   1    -0.115786543172E+04    0.59462E-03   -0.26295E-01  2088   0.948E-01    0.105E-01
RMM:   2    -0.115786592840E+04   -0.49668E-03   -0.56353E-03  2301   0.127E-01    0.105E-01
RMM:   3    -0.115786618346E+04   -0.25506E-03   -0.65473E-04  2265   0.559E-02    0.342E-01
RMM:   4    -0.115786596932E+04    0.21414E-03   -0.28535E-04  2470   0.294E-02    0.174E-01
RMM:   5    -0.115786598313E+04   -0.13814E-04   -0.83236E-05  1908   0.191E-02    0.666E-02
RMM:   6    -0.115786601993E+04   -0.36796E-04   -0.44983E-05  1889   0.125E-02    0.926E-02
RMM:   7    -0.115786600595E+04    0.13981E-04   -0.32195E-05  1797   0.111E-02    0.757E-02
RMM:   8    -0.115786601564E+04   -0.96900E-05   -0.29354E-05  1739   0.104E-02    0.818E-02
RMM:   9    -0.115786602243E+04   -0.67982E-05   -0.29931E-05  1777   0.109E-02    0.569E-02
RMM:  10    -0.115786601516E+04    0.72731E-05   -0.14418E-05  1519   0.870E-03    0.262E-02
RMM:  11    -0.115786601860E+04   -0.34409E-05   -0.57510E-06  1428   0.546E-03    0.205E-02
RMM:  12    -0.115786601940E+04   -0.79712E-06   -0.27818E-06  1325   0.396E-03
 173 F= -.11658621E+04 E0= -.11658494E+04  d E =-.585766E-03  mag=    21.7621
 curvature:  -7.23 expect dE=-0.135E-01 dE for cont linesearch -0.287E-05
 trial: gam= 0.52845 g(F)=  0.187E-02 g(S)=  0.000E+00 ort = 0.157E-03 (trialstep = 0.391E+00)
 search vector abs. value=  0.193E-01
 bond charge predicted
       N       E                     dE             d eps       ncg     rms          rms(c)
DAV:   1    -0.115786496430E+04    0.10543E-02   -0.67585E-01  2016   0.151E+00    0.187E-01
RMM:   2    -0.115786636235E+04   -0.13981E-02   -0.14944E-02  2361   0.212E-01    0.222E-01
RMM:   3    -0.115786725681E+04   -0.89445E-03   -0.19312E-03  2292   0.960E-02    0.707E-01
RMM:   4    -0.115786645764E+04    0.79917E-03   -0.90417E-04  2524   0.539E-02    0.381E-01
RMM:   5    -0.115786642306E+04    0.34580E-04   -0.32782E-04  2097   0.377E-02    0.111E-01
RMM:   6    -0.115786652657E+04   -0.10351E-03   -0.15609E-04  2117   0.230E-02    0.145E-01
RMM:   7    -0.115786648888E+04    0.37686E-04   -0.89180E-05  2039   0.183E-02    0.110E-01
RMM:   8    -0.115786654391E+04   -0.55029E-04   -0.93226E-05  2060   0.177E-02    0.174E-01
RMM:   9    -0.115786649337E+04    0.50546E-04   -0.79549E-05  1957   0.180E-02    0.881E-02
RMM:  10    -0.115786650266E+04   -0.92965E-05   -0.42321E-05  1840   0.145E-02    0.523E-02
RMM:  11    -0.115786650408E+04   -0.14147E-05   -0.16540E-05  1557   0.898E-03    0.328E-02
RMM:  12    -0.115786650741E+04   -0.33373E-05   -0.75472E-06  1451   0.639E-03    0.204E-02
RMM:  13    -0.115786650941E+04   -0.19909E-05   -0.34274E-06  1351   0.434E-03    0.163E-02
RMM:  14    -0.115786651060E+04   -0.11914E-05   -0.11367E-06  1209   0.255E-03    0.116E-02
RMM:  15    -0.115786651255E+04   -0.19543E-05   -0.67275E-07  1181   0.188E-03    0.921E-03
RMM:  16    -0.115786651414E+04   -0.15896E-05   -0.46713E-07  1165   0.153E-03    0.575E-03
RMM:  17    -0.115786651587E+04   -0.17307E-05   -0.21326E-07  1113   0.104E-03    0.601E-03
RMM:  18    -0.115786651658E+04   -0.70839E-06   -0.13466E-07   985   0.892E-04
 174 F= -.11658626E+04 E0= -.11658499E+04  d E =-.526185E-03  mag=    21.7625
 trial-energy change:   -0.000526  1 .order   -0.000528   -0.000762   -0.000295
 step:   0.6381(harm=  0.6381)  dis= 0.00556  next Energy= -1165.862741 (dE=-0.622E-03)
 bond charge predicted
       N       E                     dE             d eps       ncg     rms          rms(c)
DAV:   1    -0.115786597708E+04    0.53879E-03   -0.27022E-01  2016   0.955E-01    0.119E-01
RMM:   2    -0.115786652826E+04   -0.55118E-03   -0.59643E-03  2355   0.134E-01    0.149E-01
RMM:   3    -0.115786685620E+04   -0.32794E-03   -0.78202E-04  2281   0.617E-02    0.406E-01
RMM:   4    -0.115786657360E+04    0.28261E-03   -0.35836E-04  2503   0.343E-02    0.246E-01
RMM:   5    -0.115786654541E+04    0.28186E-04   -0.12206E-04  1964   0.232E-02    0.773E-02
RMM:   6    -0.115786659622E+04   -0.50810E-04   -0.61530E-05  1899   0.146E-02    0.964E-02
RMM:   7    -0.115786658455E+04    0.11668E-04   -0.34956E-05  1841   0.117E-02    0.787E-02
RMM:   8    -0.115786659593E+04   -0.11380E-04   -0.37405E-05  1816   0.120E-02    0.939E-02
RMM:   9    -0.115786659096E+04    0.49747E-05   -0.32210E-05  1761   0.112E-02    0.549E-02
RMM:  10    -0.115786659219E+04   -0.12342E-05   -0.17905E-05  1582   0.950E-03    0.330E-02
RMM:  11    -0.115786659359E+04   -0.14008E-05   -0.70213E-06  1449   0.622E-03    0.222E-02
RMM:  12    -0.115786659519E+04   -0.15937E-05   -0.32550E-06  1365   0.434E-03    0.124E-02
RMM:  13    -0.115786659695E+04   -0.17631E-05   -0.13628E-06  1225   0.278E-03    0.854E-03
RMM:  14    -0.115786659815E+04   -0.11979E-05   -0.55630E-07  1167   0.173E-03    0.710E-03
RMM:  15    -0.115786659926E+04   -0.11062E-05   -0.32710E-07  1142   0.127E-03    0.563E-03
RMM:  16    -0.115786660029E+04   -0.10362E-05   -0.15548E-07  1095   0.891E-04    0.320E-03
RMM:  17    -0.115786660167E+04   -0.13806E-05   -0.98881E-08   984   0.736E-04    0.343E-03
RMM:  18    -0.115786660300E+04   -0.13304E-05   -0.77275E-08   917   0.657E-04    0.277E-03
RMM:  19    -0.115786660412E+04   -0.11214E-05   -0.50627E-08   824   0.498E-04    0.172E-03
RMM:  20    -0.115786660505E+04   -0.92758E-06   -0.42669E-08   730   0.493E-04
 175 F= -.11658628E+04 E0= -.11658500E+04  d E =-.633170E-03  mag=    21.7629
 curvature:  -3.16 expect dE=-0.426E-02 dE for cont linesearch -0.863E-07
 trial: gam= 0.80270 g(F)=  0.135E-02 g(S)=  0.000E+00 ort = 0.230E-04 (trialstep = 0.440E+00)
 search vector abs. value=  0.138E-01
 bond charge predicted
       N       E                     dE             d eps       ncg     rms          rms(c)
DAV:   1    -0.115786556225E+04    0.10419E-02   -0.60208E-01  1992   0.144E+00    0.187E-01
RMM:   2    -0.115786687371E+04   -0.13115E-02   -0.13748E-02  2403   0.205E-01    0.230E-01
RMM:   3    -0.115786751810E+04   -0.64439E-03   -0.18303E-03  2335   0.919E-02    0.541E-01
RMM:   4    -0.115786690796E+04    0.61015E-03   -0.71905E-04  2508   0.502E-02    0.207E-01
RMM:   5    -0.115786697807E+04   -0.70116E-04   -0.16693E-04  2131   0.267E-02    0.181E-01
RMM:   6    -0.115786700316E+04   -0.25091E-04   -0.11745E-04  2084   0.209E-02    0.142E-01
RMM:   7    -0.115786698343E+04    0.19738E-04   -0.84225E-05  1981   0.186E-02    0.101E-01
RMM:   8    -0.115786702780E+04   -0.44372E-04   -0.69514E-05  1982   0.158E-02    0.162E-01
RMM:   9    -0.115786699701E+04    0.30784E-04   -0.72629E-05  1948   0.170E-02    0.900E-02
RMM:  10    -0.115786700304E+04   -0.60278E-05   -0.43411E-05  1797   0.146E-02    0.513E-02
RMM:  11    -0.115786700129E+04    0.17465E-05   -0.14978E-05  1536   0.853E-03    0.283E-02
RMM:  12    -0.115786700305E+04   -0.17527E-05   -0.79133E-06  1448   0.634E-03    0.240E-02
RMM:  13    -0.115786700430E+04   -0.12527E-05   -0.28981E-06  1341   0.411E-03    0.163E-02
RMM:  14    -0.115786700534E+04   -0.10448E-05   -0.10877E-06  1199   0.232E-03    0.922E-03
RMM:  15    -0.115786700828E+04   -0.29346E-05   -0.39144E-07  1165   0.142E-03    0.663E-03
RMM:  16    -0.115786700980E+04   -0.15196E-05   -0.27759E-07  1141   0.132E-03    0.473E-03
RMM:  17    -0.115786701252E+04   -0.27184E-05   -0.19121E-07  1109   0.984E-04    0.403E-03
RMM:  18    -0.115786701391E+04   -0.13969E-05   -0.12889E-07  1011   0.843E-04    0.338E-03
RMM:  19    -0.115786701519E+04   -0.12744E-05   -0.73968E-08   838   0.604E-04    0.233E-03
RMM:  20    -0.115786701634E+04   -0.11547E-05   -0.54073E-08   775   0.531E-04    0.119E-03
RMM:  21    -0.115786701783E+04   -0.14853E-05   -0.45320E-08   729   0.446E-04    0.980E-04
RMM:  22    -0.115786701868E+04   -0.85180E-06   -0.33905E-08   697   0.420E-04
 176 F= -.11658631E+04 E0= -.11658504E+04  d E =-.395821E-03  mag=    21.7626
 trial-energy change:   -0.000396  1 .order   -0.000392   -0.000602   -0.000183
 step:   0.6325(harm=  0.6325)  dis= 0.00440  next Energy= -1165.863184 (dE=-0.432E-03)
 bond charge predicted
       N       E                     dE             d eps       ncg     rms          rms(c)
DAV:   1    -0.115786679366E+04    0.22417E-03   -0.11474E-01  1992   0.629E-01    0.816E-02
RMM:   2    -0.115786703050E+04   -0.23683E-03   -0.26117E-03  2401   0.893E-02    0.993E-02
RMM:   3    -0.115786715704E+04   -0.12655E-03   -0.34643E-04  2320   0.401E-02    0.234E-01
RMM:   4    -0.115786703358E+04    0.12347E-03   -0.13634E-04  2296   0.218E-02    0.750E-02
RMM:   5    -0.115786706008E+04   -0.26509E-04   -0.30684E-05  1773   0.120E-02    0.866E-02
RMM:   6    -0.115786706071E+04   -0.62934E-06   -0.21758E-05  1664   0.896E-03    0.648E-02
RMM:   7    -0.115786706064E+04    0.70082E-07   -0.16977E-05  1574   0.889E-03    0.419E-02
RMM:   8    -0.115786707126E+04   -0.10620E-04   -0.13454E-05  1513   0.742E-03    0.725E-02
RMM:   9    -0.115786706413E+04    0.71302E-05   -0.14021E-05  1521   0.789E-03    0.418E-02
RMM:  10    -0.115786706717E+04   -0.30393E-05   -0.86344E-06  1460   0.689E-03    0.212E-02
RMM:  11    -0.115786706821E+04   -0.10393E-05   -0.29632E-06  1325   0.421E-03    0.126E-02
RMM:  12    -0.115786706878E+04   -0.56704E-06   -0.15806E-06  1273   0.300E-03
 177 F= -.11658632E+04 E0= -.11658504E+04  d E =-.438205E-03  mag=    21.7623
 curvature:  -3.20 expect dE=-0.438E-02 dE for cont linesearch -0.230E-06
 trial: gam= 1.01093 g(F)=  0.137E-02 g(S)=  0.000E+00 ort = 0.316E-04 (trialstep = 0.425E+00)
 search vector abs. value=  0.156E-01
 bond charge predicted
       N       E                     dE             d eps       ncg     rms          rms(c)
DAV:   1    -0.115786594100E+04    0.11272E-02   -0.64600E-01  2016   0.153E+00    0.178E-01
RMM:   2    -0.115786727837E+04   -0.13374E-02   -0.14373E-02  2368   0.211E-01    0.198E-01
RMM:   3    -0.115786792452E+04   -0.64615E-03   -0.17478E-03  2314   0.923E-02    0.529E-01
RMM:   4    -0.115786733372E+04    0.59080E-03   -0.71567E-04  2530   0.499E-02    0.201E-01
RMM:   5    -0.115786740518E+04   -0.71463E-04   -0.15397E-04  2136   0.258E-02    0.156E-01
RMM:   6    -0.115786744856E+04   -0.43378E-04   -0.11592E-04  2136   0.202E-02    0.153E-01
RMM:   7    -0.115786742376E+04    0.24796E-04   -0.87300E-05  2058   0.187E-02    0.133E-01
RMM:   8    -0.115786742937E+04   -0.56022E-05   -0.72394E-05  1969   0.163E-02    0.121E-01
RMM:   9    -0.115786745854E+04   -0.29174E-04   -0.91615E-05  2030   0.190E-02    0.970E-02
RMM:  10    -0.115786742362E+04    0.34916E-04   -0.45363E-05  1812   0.146E-02    0.312E-02
RMM:  11    -0.115786743479E+04   -0.11162E-04   -0.14572E-05  1569   0.808E-03    0.397E-02
RMM:  12    -0.115786743328E+04    0.15087E-05   -0.72254E-06  1441   0.637E-03    0.197E-02
RMM:  13    -0.115786743658E+04   -0.33004E-05   -0.24747E-06  1334   0.389E-03    0.125E-02
RMM:  14    -0.115786743827E+04   -0.16888E-05   -0.11246E-06  1215   0.252E-03    0.955E-03
RMM:  15    -0.115786744125E+04   -0.29799E-05   -0.51923E-07  1170   0.177E-03    0.639E-03
RMM:  16    -0.115786744307E+04   -0.18283E-05   -0.28641E-07  1130   0.133E-03    0.549E-03
RMM:  17    -0.115786744493E+04   -0.18558E-05   -0.16487E-07  1075   0.954E-04    0.380E-03
RMM:  18    -0.115786744672E+04   -0.17948E-05   -0.14118E-07   996   0.884E-04    0.279E-03
RMM:  19    -0.115786744978E+04   -0.30551E-05   -0.13889E-07  1006   0.783E-04    0.228E-03
RMM:  20    -0.115786745126E+04   -0.14765E-05   -0.92937E-08   901   0.675E-04    0.212E-03
RMM:  21    -0.115786745225E+04   -0.98926E-06   -0.55303E-08   768   0.505E-04
 178 F= -.11658635E+04 E0= -.11658507E+04  d E =-.357287E-03  mag=    21.7631
 trial-energy change:   -0.000357  1 .order   -0.000360   -0.000596   -0.000123
 step:   0.5359(harm=  0.5359)  dis= 0.00391  next Energy= -1165.863566 (dE=-0.376E-03)
 bond charge predicted
       N       E                     dE             d eps       ncg     rms          rms(c)
DAV:   1    -0.115786737615E+04    0.75108E-04   -0.43726E-02  2076   0.399E-01    0.464E-02
RMM:   2    -0.115786746031E+04   -0.84160E-04   -0.97262E-04  2372   0.548E-02    0.505E-02
RMM:   3    -0.115786750576E+04   -0.45450E-04   -0.11536E-04  2271   0.234E-02    0.138E-01
RMM:   4    -0.115786746337E+04    0.42392E-04   -0.46528E-05  2022   0.125E-02    0.440E-02
RMM:   5    -0.115786747376E+04   -0.10394E-04   -0.10725E-05  1512   0.758E-03    0.445E-02
RMM:   6    -0.115786747605E+04   -0.22923E-05   -0.77988E-06  1456   0.574E-03    0.407E-02
RMM:   7    -0.115786747696E+04   -0.90856E-06   -0.63718E-06  1415   0.564E-03
 179 F= -.11658636E+04 E0= -.11658507E+04  d E =-.375218E-03  mag=    21.7632
 curvature:  -2.97 expect dE=-0.336E-02 dE for cont linesearch -0.198E-05
 trial: gam= 0.81559 g(F)=  0.113E-02 g(S)=  0.000E+00 ort = 0.102E-03 (trialstep = 0.447E+00)
 search vector abs. value=  0.116E-01
 bond charge predicted
       N       E                     dE             d eps       ncg     rms          rms(c)
DAV:   1    -0.115786659640E+04    0.87966E-03   -0.53347E-01  2016   0.141E+00    0.173E-01
RMM:   2    -0.115786781443E+04   -0.12180E-02   -0.12169E-02  2374   0.194E-01    0.305E-01
RMM:   3    -0.115786827931E+04   -0.46488E-03   -0.15055E-03  2307   0.865E-02    0.497E-01
RMM:   4    -0.115786785808E+04    0.42123E-03   -0.71959E-04  2506   0.510E-02    0.343E-01
RMM:   5    -0.115786774092E+04    0.11716E-03   -0.21338E-04  2141   0.299E-02    0.165E-01
RMM:   6    -0.115786780462E+04   -0.63704E-04   -0.12355E-04  2034   0.227E-02    0.120E-01
RMM:   7    -0.115786782068E+04   -0.16059E-04   -0.94479E-05  2069   0.186E-02    0.107E-01
RMM:   8    -0.115786782141E+04   -0.72236E-06   -0.87870E-05  2057   0.184E-02    0.112E-01
RMM:   9    -0.115786783773E+04   -0.16329E-04   -0.76517E-05  1993   0.167E-02    0.950E-02
RMM:  10    -0.115786782355E+04    0.14185E-04   -0.49643E-05  1795   0.143E-02    0.651E-02
RMM:  11    -0.115786781699E+04    0.65598E-05   -0.16627E-05  1566   0.891E-03    0.319E-02
RMM:  12    -0.115786782122E+04   -0.42274E-05   -0.87792E-06  1481   0.655E-03    0.181E-02
RMM:  13    -0.115786782494E+04   -0.37195E-05   -0.32070E-06  1358   0.429E-03    0.167E-02
RMM:  14    -0.115786782589E+04   -0.95403E-06   -0.12642E-06  1252   0.270E-03
 180 F= -.11658639E+04 E0= -.11658511E+04  d E =-.306325E-03  mag=    21.7639
 trial-energy change:   -0.000306  1 .order   -0.000327   -0.000543   -0.000111
 step:   0.6467(harm=  0.5628)  dis= 0.00422  next Energy= -1165.863895 (dE=-0.329E-03)
 bond charge predicted
       N       E                     dE             d eps       ncg     rms          rms(c)
DAV:   1    -0.115786760960E+04    0.21534E-03   -0.10598E-01  2028   0.630E-01    0.765E-02
RMM:   2    -0.115786784237E+04   -0.23277E-03   -0.24136E-03  2367   0.864E-02    0.130E-01
RMM:   3    -0.115786796769E+04   -0.12532E-03   -0.30613E-04  2299   0.386E-02    0.274E-01
RMM:   4    -0.115786783218E+04    0.13551E-03   -0.15430E-04  2377   0.230E-02    0.172E-01
RMM:   5    -0.115786782704E+04    0.51307E-05   -0.49966E-05  1822   0.146E-02    0.526E-02
RMM:   6    -0.115786785504E+04   -0.27994E-04   -0.24511E-05  1663   0.104E-02    0.497E-02
RMM:   7    -0.115786785927E+04   -0.42285E-05   -0.16800E-05  1612   0.827E-03    0.556E-02
RMM:   8    -0.115786785756E+04    0.17053E-05   -0.17526E-05  1626   0.856E-03    0.405E-02
RMM:   9    -0.115786786721E+04   -0.96488E-05   -0.16092E-05  1594   0.812E-03    0.437E-02
RMM:  10    -0.115786786172E+04    0.54903E-05   -0.89977E-06  1422   0.664E-03    0.132E-02
RMM:  11    -0.115786786446E+04   -0.27453E-05   -0.24323E-06  1314   0.381E-03    0.140E-02
RMM:  12    -0.115786786556E+04   -0.10906E-05   -0.13260E-06  1245   0.280E-03    0.975E-03
RMM:  13    -0.115786786701E+04   -0.14593E-05   -0.55441E-07  1159   0.194E-03    0.458E-03
RMM:  14    -0.115786786806E+04   -0.10495E-05   -0.28339E-07  1131   0.120E-03    0.590E-03
RMM:  15    -0.115786786882E+04   -0.75078E-06   -0.16523E-07  1094   0.102E-03
 181 F= -.11658639E+04 E0= -.11658511E+04  d E =-.330302E-03  mag=    21.7645
 curvature:  -1.28 expect dE=-0.185E-02 dE for cont linesearch -0.207E-05
 trial: gam= 1.40343 g(F)=  0.145E-02 g(S)=  0.000E+00 ort =-0.137E-03 (trialstep = 0.236E+00)
 search vector abs. value=  0.240E-01
 bond charge predicted
       N       E                     dE             d eps       ncg     rms          rms(c)
DAV:   1    -0.115786740941E+04    0.45865E-03   -0.29946E-01  1992   0.106E+00    0.121E-01
RMM:   2    -0.115786801646E+04   -0.60705E-03   -0.68080E-03  2362   0.143E-01    0.110E-01
RMM:   3    -0.115786835696E+04   -0.34049E-03   -0.74695E-04  2297   0.611E-02    0.378E-01
RMM:   4    -0.115786803931E+04    0.31765E-03   -0.33505E-04  2514   0.335E-02    0.150E-01
RMM:   5    -0.115786810255E+04   -0.63245E-04   -0.80601E-05  1955   0.188E-02    0.108E-01
RMM:   6    -0.115786811282E+04   -0.10266E-04   -0.48375E-05  1845   0.133E-02    0.831E-02
RMM:   7    -0.115786812162E+04   -0.87991E-05   -0.34086E-05  1826   0.117E-02    0.949E-02
RMM:   8    -0.115786811428E+04    0.73384E-05   -0.36589E-05  1852   0.121E-02    0.655E-02
RMM:   9    -0.115786814521E+04   -0.30928E-04   -0.42592E-05  1872   0.128E-02    0.730E-02
RMM:  10    -0.115786812550E+04    0.19711E-04   -0.25334E-05  1590   0.101E-02    0.218E-02
RMM:  11    -0.115786813035E+04   -0.48574E-05   -0.68732E-06  1464   0.591E-03    0.276E-02
RMM:  12    -0.115786813024E+04    0.10777E-06   -0.35913E-06  1361   0.444E-03
 182 F= -.11658641E+04 E0= -.11658513E+04  d E =-.240282E-03  mag=    21.7644
 trial-energy change:   -0.000240  1 .order   -0.000243   -0.000297   -0.000190
 step:   0.6546(harm=  0.6546)  dis= 0.00613  next Energy= -1165.864307 (dE=-0.411E-03)
 bond charge predicted
       N       E                     dE             d eps       ncg     rms          rms(c)
DAV:   1    -0.115786604004E+04    0.20903E-02   -0.93652E-01  1992   0.188E+00    0.215E-01
RMM:   2    -0.115786803577E+04   -0.19957E-02   -0.21391E-02  2365   0.253E-01    0.228E-01
RMM:   3    -0.115786954117E+04   -0.15054E-02   -0.24916E-03  2291   0.111E-01    0.873E-01
RMM:   4    -0.115786802978E+04    0.15114E-02   -0.12423E-03  2530   0.629E-02    0.377E-01
RMM:   5    -0.115786816327E+04   -0.13349E-03   -0.35945E-04  2164   0.391E-02    0.141E-01
RMM:   6    -0.115786826702E+04   -0.10374E-03   -0.16471E-04  2155   0.256E-02    0.122E-01
RMM:   7    -0.115786828741E+04   -0.20392E-04   -0.11686E-04  2175   0.211E-02    0.149E-01
RMM:   8    -0.115786828290E+04    0.45087E-05   -0.11360E-04  2103   0.207E-02    0.133E-01
RMM:   9    -0.115786832337E+04   -0.40474E-04   -0.10608E-04  2129   0.204E-02    0.128E-01
RMM:  10    -0.115786828312E+04    0.40251E-04   -0.73222E-05  1892   0.180E-02    0.464E-02
RMM:  11    -0.115786829583E+04   -0.12709E-04   -0.26196E-05  1667   0.106E-02    0.491E-02
RMM:  12    -0.115786829591E+04   -0.77322E-07   -0.12039E-05  1515   0.790E-03    0.376E-02
RMM:  13    -0.115786829454E+04    0.13718E-05   -0.50305E-06  1395   0.540E-03    0.230E-02
RMM:  14    -0.115786829670E+04   -0.21693E-05   -0.15305E-06  1290   0.302E-03    0.126E-02
RMM:  15    -0.115786829991E+04   -0.32055E-05   -0.86168E-07  1205   0.230E-03    0.104E-02
RMM:  16    -0.115786830145E+04   -0.15427E-05   -0.56040E-07  1169   0.187E-03    0.951E-03
RMM:  17    -0.115786830230E+04   -0.84884E-06   -0.27728E-07  1115   0.126E-03
 183 F= -.11658643E+04 E0= -.11658514E+04  d E =-.374990E-03  mag=    21.7638
 curvature:  -6.25 expect dE=-0.102E-01 dE for cont linesearch -0.437E-05
 trial: gam= 0.85226 g(F)=  0.164E-02 g(S)=  0.000E+00 ort =-0.129E-03 (trialstep = 0.320E+00)
 search vector abs. value=  0.188E-01
 bond charge predicted
       N       E                     dE             d eps       ncg     rms          rms(c)
DAV:   1    -0.115786763660E+04    0.66485E-03   -0.41418E-01  1992   0.125E+00    0.157E-01
RMM:   2    -0.115786853804E+04   -0.90144E-03   -0.97448E-03  2383   0.174E-01    0.190E-01
RMM:   3    -0.115786921161E+04   -0.67356E-03   -0.12796E-03  2309   0.799E-02    0.666E-01
RMM:   4    -0.115786852456E+04    0.68705E-03   -0.65303E-04  2494   0.476E-02    0.295E-01
RMM:   5    -0.115786858545E+04   -0.60892E-04   -0.22384E-04  2085   0.324E-02    0.108E-01
RMM:   6    -0.115786866458E+04   -0.79127E-04   -0.88999E-05  2018   0.183E-02    0.148E-01
RMM:   7    -0.115786864204E+04    0.22538E-04   -0.64452E-05  1981   0.151E-02    0.107E-01
RMM:   8    -0.115786864119E+04    0.84686E-06   -0.55903E-05  1894   0.151E-02    0.762E-02
RMM:   9    -0.115786866875E+04   -0.27554E-04   -0.56463E-05  1926   0.148E-02    0.749E-02
RMM:  10    -0.115786864917E+04    0.19578E-04   -0.27839E-05  1701   0.116E-02    0.252E-02
RMM:  11    -0.115786865837E+04   -0.92014E-05   -0.88404E-06  1486   0.679E-03    0.298E-02
RMM:  12    -0.115786865837E+04   -0.26193E-08   -0.42746E-06  1377   0.492E-03
 184 F= -.11658646E+04 E0= -.11658518E+04  d E =-.359339E-03  mag=    21.7636
 trial-energy change:   -0.000359  1 .order   -0.000366   -0.000489   -0.000242
 step:   0.8427(harm=  0.6336)  dis= 0.00694  next Energy= -1165.864801 (dE=-0.530E-03)
 bond charge predicted
       N       E                     dE             d eps       ncg     rms          rms(c)
DAV:   1    -0.115786594477E+04    0.27136E-02   -0.11042E+00  1992   0.204E+00    0.256E-01
RMM:   2    -0.115786845401E+04   -0.25092E-02   -0.25958E-02  2380   0.285E-01    0.368E-01
RMM:   3    -0.115787041295E+04   -0.19589E-02   -0.34425E-03  2318   0.128E-01    0.133E+00
RMM:   4    -0.115786820465E+04    0.22083E-02   -0.19937E-03  2489   0.840E-02    0.487E-01
RMM:   5    -0.115786847204E+04   -0.26739E-03   -0.63892E-04  2164   0.546E-02    0.198E-01
RMM:   6    -0.115786867601E+04   -0.20398E-03   -0.24688E-04  2185   0.316E-02    0.225E-01
RMM:   7    -0.115786864741E+04    0.28600E-04   -0.17403E-04  2263   0.250E-02    0.163E-01
RMM:   8    -0.115786864762E+04   -0.20806E-06   -0.14554E-04  2084   0.238E-02    0.145E-01
RMM:   9    -0.115786868302E+04   -0.35394E-04   -0.13972E-04  2142   0.233E-02    0.112E-01
RMM:  10    -0.115786864917E+04    0.33851E-04   -0.72360E-05  1911   0.181E-02    0.432E-02
RMM:  11    -0.115786866444E+04   -0.15279E-04   -0.26720E-05  1735   0.112E-02    0.541E-02
RMM:  12    -0.115786866394E+04    0.50325E-06   -0.12455E-05  1511   0.789E-03    0.410E-02
RMM:  13    -0.115786866405E+04   -0.11149E-06   -0.57696E-06  1392   0.560E-03
 185 F= -.11658646E+04 E0= -.11658517E+04  d E =-.370259E-03  mag=    21.7636
 curvature:  -2.17 expect dE=-0.572E-02 dE for cont linesearch -0.419E-04
 ZBRENT: interpolating
 opt :   0.6108  next Energy= -1165.864711 (dE=-0.440E-03)
 bond charge predicted
       N       E                     dE             d eps       ncg     rms          rms(c)
DAV:   1    -0.115786821307E+04    0.45087E-03   -0.21746E-01  2004   0.906E-01    0.113E-01
RMM:   2    -0.115786867586E+04   -0.46280E-03   -0.50696E-03  2382   0.126E-01    0.107E-01
RMM:   3    -0.115786895666E+04   -0.28080E-03   -0.65354E-04  2299   0.587E-02    0.299E-01
RMM:   4    -0.115786872172E+04    0.23495E-03   -0.26338E-04  2479   0.320E-02    0.151E-01
RMM:   5    -0.115786873151E+04   -0.97885E-05   -0.66754E-05  1956   0.170E-02    0.869E-02
RMM:   6    -0.115786876266E+04   -0.31152E-04   -0.38836E-05  1830   0.117E-02    0.117E-01
RMM:   7    -0.115786874865E+04    0.14004E-04   -0.30643E-05  1798   0.111E-02    0.662E-02
RMM:   8    -0.115786876304E+04   -0.14389E-04   -0.25003E-05  1688   0.103E-02    0.694E-02
RMM:   9    -0.115786877880E+04   -0.15754E-04   -0.29371E-05  1807   0.110E-02    0.638E-02
RMM:  10    -0.115786877147E+04    0.73303E-05   -0.16074E-05  1558   0.923E-03    0.273E-02
RMM:  11    -0.115786877481E+04   -0.33441E-05   -0.63297E-06  1438   0.578E-03    0.167E-02
RMM:  12    -0.115786877695E+04   -0.21434E-05   -0.22590E-06  1325   0.369E-03    0.129E-02
RMM:  13    -0.115786877677E+04    0.18557E-06   -0.96528E-07  1220   0.248E-03
 186 F= -.11658648E+04 E0= -.11658519E+04  d E =-.480683E-03  mag=    21.7639
 curvature:  -3.62 expect dE=-0.462E-02 dE for cont linesearch -0.117E-06
 trial: gam= 0.76670 g(F)=  0.128E-02 g(S)=  0.000E+00 ort =-0.247E-04 (trialstep = 0.378E+00)
 search vector abs. value=  0.123E-01
 bond charge predicted
       N       E                     dE             d eps       ncg     rms          rms(c)
DAV:   1    -0.115786818724E+04    0.58972E-03   -0.36685E-01  2040   0.117E+00    0.153E-01
RMM:   2    -0.115786895444E+04   -0.76720E-03   -0.86086E-03  2407   0.167E-01    0.173E-01
RMM:   3    -0.115786966160E+04   -0.70717E-03   -0.11773E-03  2317   0.759E-02    0.711E-01
RMM:   4    -0.115786887735E+04    0.78425E-03   -0.64012E-04  2468   0.465E-02    0.247E-01
RMM:   5    -0.115786902082E+04   -0.14346E-03   -0.22313E-04  2072   0.328E-02    0.112E-01
RMM:   6    -0.115786907487E+04   -0.54051E-04   -0.85103E-05  2064   0.179E-02    0.137E-01
RMM:   7    -0.115786905005E+04    0.24819E-04   -0.57422E-05  1957   0.149E-02    0.914E-02
RMM:   8    -0.115786906617E+04   -0.16119E-04   -0.50594E-05  1863   0.143E-02    0.963E-02
RMM:   9    -0.115786907229E+04   -0.61195E-05   -0.54903E-05  1907   0.144E-02    0.577E-02
RMM:  10    -0.115786907069E+04    0.15917E-05   -0.30749E-05  1696   0.116E-02    0.435E-02
RMM:  11    -0.115786906780E+04    0.28970E-05   -0.11078E-05  1498   0.756E-03    0.273E-02
RMM:  12    -0.115786906843E+04   -0.63133E-06   -0.56004E-06  1413   0.559E-03
 187 F= -.11658650E+04 E0= -.11658522E+04  d E =-.289324E-03  mag=    21.7640
 trial-energy change:   -0.000289  1 .order   -0.000301   -0.000475   -0.000127
 step:   0.5760(harm=  0.5158)  dis= 0.00373  next Energy= -1165.865072 (dE=-0.321E-03)
 bond charge predicted
       N       E                     dE             d eps       ncg     rms          rms(c)
DAV:   1    -0.115786883654E+04    0.23126E-03   -0.10031E-01  2088   0.610E-01    0.813E-02
RMM:   2    -0.115786905709E+04   -0.22055E-03   -0.23743E-03  2411   0.880E-02    0.141E-01
RMM:   3    -0.115786918041E+04   -0.12332E-03   -0.32471E-04  2333   0.395E-02    0.323E-01
RMM:   4    -0.115786903960E+04    0.14082E-03   -0.17064E-04  2339   0.252E-02    0.150E-01
RMM:   5    -0.115786905245E+04   -0.12856E-04   -0.55509E-05  1864   0.163E-02    0.679E-02
RMM:   6    -0.115786907538E+04   -0.22928E-04   -0.24696E-05  1708   0.102E-02    0.566E-02
RMM:   7    -0.115786907684E+04   -0.14542E-05   -0.16573E-05  1584   0.839E-03    0.490E-02
RMM:   8    -0.115786908117E+04   -0.43334E-05   -0.14352E-05  1545   0.770E-03    0.523E-02
RMM:   9    -0.115786908247E+04   -0.13048E-05   -0.14084E-05  1524   0.775E-03    0.324E-02
RMM:  10    -0.115786908359E+04   -0.11136E-05   -0.72428E-06  1435   0.634E-03    0.249E-02
RMM:  11    -0.115786908324E+04    0.35076E-06   -0.31217E-06  1334   0.431E-03
 188 F= -.11658651E+04 E0= -.11658522E+04  d E =-.302878E-03  mag=    21.7641
 curvature:  -2.04 expect dE=-0.298E-02 dE for cont linesearch -0.309E-05
 trial: gam= 1.30547 g(F)=  0.146E-02 g(S)=  0.000E+00 ort =-0.136E-03 (trialstep = 0.233E+00)
 search vector abs. value=  0.221E-01
 bond charge predicted
       N       E                     dE             d eps       ncg     rms          rms(c)
DAV:   1    -0.115786868999E+04    0.39360E-03   -0.25216E-01  2016   0.976E-01    0.115E-01
RMM:   2    -0.115786920581E+04   -0.51582E-03   -0.57266E-03  2381   0.136E-01    0.156E-01
RMM:   3    -0.115786960668E+04   -0.40088E-03   -0.76833E-04  2315   0.606E-02    0.550E-01
RMM:   4    -0.115786917396E+04    0.43272E-03   -0.41934E-04  2460   0.365E-02    0.184E-01
RMM:   5    -0.115786925623E+04   -0.82270E-04   -0.13578E-04  1979   0.255E-02    0.850E-02
RMM:   6    -0.115786928830E+04   -0.32066E-04   -0.54272E-05  1955   0.134E-02    0.100E-01
RMM:   7    -0.115786927183E+04    0.16471E-04   -0.33134E-05  1841   0.110E-02    0.519E-02
RMM:   8    -0.115786929559E+04   -0.23764E-04   -0.33404E-05  1815   0.112E-02    0.884E-02
RMM:   9    -0.115786929446E+04    0.11356E-05   -0.28428E-05  1764   0.101E-02    0.643E-02
RMM:  10    -0.115786928859E+04    0.58678E-05   -0.17542E-05  1578   0.948E-03    0.266E-02
RMM:  11    -0.115786929377E+04   -0.51824E-05   -0.73670E-06  1464   0.619E-03    0.265E-02
RMM:  12    -0.115786929351E+04    0.25498E-06   -0.32131E-06  1361   0.445E-03
 189 F= -.11658653E+04 E0= -.11658524E+04  d E =-.216834E-03  mag=    21.7643
 trial-energy change:   -0.000217  1 .order   -0.000229   -0.000298   -0.000161
 step:   0.5055(harm=  0.5055)  dis= 0.00440  next Energy= -1165.865378 (dE=-0.323E-03)
 bond charge predicted
       N       E                     dE             d eps       ncg     rms          rms(c)
DAV:   1    -0.115786854214E+04    0.75163E-03   -0.34562E-01  2016   0.114E+00    0.135E-01
RMM:   2    -0.115786926312E+04   -0.72098E-03   -0.78538E-03  2387   0.159E-01    0.192E-01
RMM:   3    -0.115786984370E+04   -0.58058E-03   -0.10392E-03  2325   0.693E-02    0.692E-01
RMM:   4    -0.115786915491E+04    0.68879E-03   -0.57631E-04  2453   0.440E-02    0.184E-01
RMM:   5    -0.115786931289E+04   -0.15798E-03   -0.17082E-04  2052   0.289E-02    0.998E-02
RMM:   6    -0.115786936577E+04   -0.52883E-04   -0.65629E-05  2049   0.154E-02    0.125E-01
RMM:   7    -0.115786933943E+04    0.26342E-04   -0.46929E-05  1927   0.137E-02    0.668E-02
RMM:   8    -0.115786937318E+04   -0.33757E-04   -0.43150E-05  1858   0.128E-02    0.112E-01
RMM:   9    -0.115786935975E+04    0.13433E-04   -0.35290E-05  1857   0.121E-02    0.536E-02
RMM:  10    -0.115786936774E+04   -0.79898E-05   -0.21488E-05  1656   0.105E-02    0.424E-02
RMM:  11    -0.115786936607E+04    0.16747E-05   -0.95085E-06  1500   0.731E-03    0.229E-02
RMM:  12    -0.115786936839E+04   -0.23200E-05   -0.38490E-06  1387   0.489E-03    0.191E-02
RMM:  13    -0.115786936941E+04   -0.10247E-05   -0.15255E-06  1242   0.310E-03    0.123E-02
RMM:  14    -0.115786937150E+04   -0.20932E-05   -0.94187E-07  1200   0.239E-03    0.956E-03
RMM:  15    -0.115786937344E+04   -0.19358E-05   -0.51743E-07  1161   0.176E-03    0.592E-03
RMM:  16    -0.115786937466E+04   -0.12158E-05   -0.22092E-07  1123   0.117E-03    0.447E-03
RMM:  17    -0.115786937632E+04   -0.16694E-05   -0.15306E-07  1066   0.894E-04    0.342E-03
RMM:  18    -0.115786937797E+04   -0.16434E-05   -0.12096E-07   984   0.836E-04    0.183E-03
RMM:  19    -0.115786938044E+04   -0.24702E-05   -0.95770E-08   944   0.575E-04    0.191E-03
RMM:  20    -0.115786938120E+04   -0.75719E-06   -0.61579E-08   820   0.551E-04
 190 F= -.11658654E+04 E0= -.11658525E+04  d E =-.312065E-03  mag=    21.7649
 curvature:  -4.36 expect dE=-0.625E-02 dE for cont linesearch -0.293E-06
 trial: gam= 0.67770 g(F)=  0.143E-02 g(S)=  0.000E+00 ort =-0.385E-04 (trialstep = 0.287E+00)
 search vector abs. value=  0.115E-01
 bond charge predicted
       N       E                     dE             d eps       ncg     rms          rms(c)
DAV:   1    -0.115786919344E+04    0.18700E-03   -0.19633E-01  1992   0.888E-01    0.115E-01
RMM:   2    -0.115786959950E+04   -0.40606E-03   -0.46901E-03  2398   0.125E-01    0.129E-01
RMM:   3    -0.115787015301E+04   -0.55352E-03   -0.66461E-04  2311   0.543E-02    0.656E-01
RMM:   4    -0.115786939869E+04    0.75432E-03   -0.39980E-04  2415   0.376E-02    0.120E-01
RMM:   5    -0.115786960621E+04   -0.20752E-03   -0.11087E-04  1976   0.233E-02    0.743E-02
RMM:   6    -0.115786966563E+04   -0.59423E-04   -0.42952E-05  1974   0.127E-02    0.855E-02
RMM:   7    -0.115786966916E+04   -0.35284E-05   -0.32014E-05  1832   0.120E-02    0.872E-02
RMM:   8    -0.115786966476E+04    0.43996E-05   -0.23842E-05  1690   0.993E-03    0.808E-02
RMM:   9    -0.115786967308E+04   -0.83213E-05   -0.20281E-05  1629   0.963E-03    0.619E-02
RMM:  10    -0.115786967169E+04    0.13986E-05   -0.15431E-05  1528   0.882E-03    0.292E-02
RMM:  11    -0.115786967643E+04   -0.47430E-05   -0.83447E-06  1454   0.673E-03    0.290E-02
RMM:  12    -0.115786967568E+04    0.74804E-06   -0.37792E-06  1368   0.488E-03
 191 F= -.11658657E+04 E0= -.11658528E+04  d E =-.293082E-03  mag=    21.7652
 trial-energy change:   -0.000293  1 .order   -0.000298   -0.000404   -0.000192
 step:   0.6715(harm=  0.5472)  dis= 0.00384  next Energy= -1165.865776 (dE=-0.410E-03)
 bond charge predicted
       N       E                     dE             d eps       ncg     rms          rms(c)
DAV:   1    -0.115786884632E+04    0.83011E-03   -0.35031E-01  1992   0.119E+00    0.156E-01
RMM:   2    -0.115786976474E+04   -0.91843E-03   -0.84623E-03  2395   0.168E-01    0.369E-01
RMM:   3    -0.115786998147E+04   -0.21673E-03   -0.11677E-03  2335   0.727E-02    0.591E-01
RMM:   4    -0.115786960984E+04    0.37163E-03   -0.59226E-04  2466   0.480E-02    0.225E-01
RMM:   5    -0.115786961646E+04   -0.66229E-05   -0.15884E-04  2123   0.277E-02    0.102E-01
RMM:   6    -0.115786970502E+04   -0.88551E-04   -0.81463E-05  2062   0.176E-02    0.125E-01
RMM:   7    -0.115786969160E+04    0.13416E-04   -0.56686E-05  1943   0.156E-02    0.102E-01
RMM:   8    -0.115786969805E+04   -0.64496E-05   -0.50526E-05  1928   0.141E-02    0.106E-01
RMM:   9    -0.115786970048E+04   -0.24272E-05   -0.40459E-05  1860   0.131E-02    0.733E-02
RMM:  10    -0.115786970411E+04   -0.36361E-05   -0.23888E-05  1685   0.107E-02    0.392E-02
RMM:  11    -0.115786970630E+04   -0.21826E-05   -0.12722E-05  1507   0.798E-03    0.305E-02
RMM:  12    -0.115786970755E+04   -0.12534E-05   -0.52168E-06  1406   0.553E-03    0.303E-02
RMM:  13    -0.115786970616E+04    0.13937E-05   -0.23732E-06  1285   0.377E-03    0.242E-02
RMM:  14    -0.115786970630E+04   -0.14590E-06   -0.80170E-07  1192   0.232E-03
 192 F= -.11658657E+04 E0= -.11658528E+04  d E =-.321706E-03  mag=    21.7658
 curvature:  -1.73 expect dE=-0.287E-02 dE for cont linesearch -0.301E-04
 ZBRENT: interpolating
 opt :   0.5172  next Energy= -1165.865723 (dE=-0.356E-03)
 bond charge predicted
       N       E                     dE             d eps       ncg     rms          rms(c)
DAV:   1    -0.115786960560E+04    0.10055E-03   -0.56527E-02  2088   0.476E-01    0.616E-02
RMM:   2    -0.115786972108E+04   -0.11547E-03   -0.13525E-03  2382   0.670E-02    0.695E-02
RMM:   3    -0.115786984777E+04   -0.12669E-03   -0.19079E-04  2265   0.313E-02    0.267E-01
RMM:   4    -0.115786969834E+04    0.14943E-03   -0.10117E-04  2263   0.185E-02    0.882E-02
RMM:   5    -0.115786973680E+04   -0.38462E-04   -0.36522E-05  1770   0.141E-02    0.289E-02
RMM:   6    -0.115786974935E+04   -0.12544E-04   -0.11531E-05  1568   0.694E-03    0.520E-02
RMM:   7    -0.115786974549E+04    0.38578E-05   -0.79602E-06  1458   0.619E-03    0.375E-02
RMM:   8    -0.115786975181E+04   -0.63174E-05   -0.85363E-06  1472   0.626E-03    0.418E-02
RMM:   9    -0.115786975333E+04   -0.15224E-05   -0.68825E-06  1423   0.586E-03    0.332E-02
RMM:  10    -0.115786975430E+04   -0.97077E-06   -0.41840E-06  1351   0.465E-03
 193 F= -.11658657E+04 E0= -.11658529E+04  d E =-.370511E-03  mag=    21.7661
 curvature:  -1.98 expect dE=-0.175E-02 dE for cont linesearch -0.109E-05
 trial: gam= 0.68268 g(F)=  0.881E-03 g(S)=  0.000E+00 ort =-0.796E-04 (trialstep = 0.333E+00)
 search vector abs. value=  0.614E-02
 bond charge predicted
       N       E                     dE             d eps       ncg     rms          rms(c)
DAV:   1    -0.115786962736E+04    0.12597E-03   -0.13878E-01  2040   0.755E-01    0.972E-02
RMM:   2    -0.115786992827E+04   -0.30090E-03   -0.33955E-03  2438   0.107E-01    0.129E-01
RMM:   3    -0.115787026023E+04   -0.33197E-03   -0.48218E-04  2338   0.477E-02    0.529E-01
RMM:   4    -0.115786980568E+04    0.45456E-03   -0.27492E-04  2376   0.320E-02    0.122E-01
RMM:   5    -0.115786992491E+04   -0.11923E-03   -0.78666E-05  1920   0.201E-02    0.881E-02
RMM:   6    -0.115786995632E+04   -0.31411E-04   -0.30436E-05  1850   0.112E-02    0.773E-02
RMM:   7    -0.115786995739E+04   -0.10737E-05   -0.21331E-05  1685   0.101E-02    0.480E-02
RMM:   8    -0.115786997022E+04   -0.12824E-04   -0.20245E-05  1699   0.923E-03    0.651E-02
RMM:   9    -0.115786996668E+04    0.35355E-05   -0.13884E-05  1549   0.777E-03    0.439E-02
RMM:  10    -0.115786997069E+04   -0.40067E-05   -0.10953E-05  1474   0.709E-03    0.308E-02
RMM:  11    -0.115786997115E+04   -0.46417E-06   -0.59238E-06  1423   0.590E-03
 194 F= -.11658659E+04 E0= -.11658531E+04  d E =-.189662E-03  mag=    21.7658
 trial-energy change:   -0.000190  1 .order   -0.000192   -0.000276   -0.000109
 step:   0.5506(harm=  0.5506)  dis= 0.00231  next Energy= -1165.865965 (dE=-0.228E-03)
 bond charge predicted
       N       E                     dE             d eps       ncg     rms          rms(c)
DAV:   1    -0.115786985797E+04    0.11272E-03   -0.58702E-02  2064   0.492E-01    0.672E-02
RMM:   2    -0.115787005721E+04   -0.19924E-03   -0.14919E-03  2419   0.720E-02    0.239E-01
RMM:   3    -0.115786997273E+04    0.84480E-04   -0.21838E-04  2346   0.315E-02    0.172E-01
RMM:   4    -0.115787002378E+04   -0.51056E-04   -0.12132E-04  2241   0.231E-02    0.124E-01
RMM:   5    -0.115786998743E+04    0.36350E-04   -0.35176E-05  1769   0.136E-02    0.723E-02
RMM:   6    -0.115786999174E+04   -0.43104E-05   -0.15948E-05  1576   0.851E-03    0.428E-02
RMM:   7    -0.115787000160E+04   -0.98599E-05   -0.12062E-05  1507   0.728E-03    0.433E-02
RMM:   8    -0.115787000087E+04    0.73817E-06   -0.94419E-06  1499   0.682E-03
 195 F= -.11658659E+04 E0= -.11658531E+04  d E =-.201597E-03  mag=    21.7655
 curvature:  -2.05 expect dE=-0.175E-02 dE for cont linesearch -0.382E-06
 trial: gam= 1.04771 g(F)=  0.858E-03 g(S)=  0.000E+00 ort =-0.339E-04 (trialstep = 0.307E+00)
 search vector abs. value=  0.753E-02
 bond charge predicted
       N       E                     dE             d eps       ncg     rms          rms(c)
DAV:   1    -0.115786981657E+04    0.18504E-03   -0.14743E-01  2016   0.785E-01    0.100E-01
RMM:   2    -0.115787036233E+04   -0.54576E-03   -0.37323E-03  2391   0.118E-01    0.356E-01
RMM:   3    -0.115787012331E+04    0.23901E-03   -0.55566E-04  2350   0.532E-02    0.206E-01
RMM:   4    -0.115787030081E+04   -0.17749E-03   -0.27868E-04  2412   0.301E-02    0.335E-01
RMM:   5    -0.115787009070E+04    0.21011E-03   -0.12213E-04  2017   0.226E-02    0.829E-02
RMM:   6    -0.115787015408E+04   -0.63381E-04   -0.45265E-05  1817   0.144E-02    0.679E-02
RMM:   7    -0.115787017636E+04   -0.22285E-04   -0.30609E-05  1763   0.105E-02    0.911E-02
RMM:   8    -0.115787017100E+04    0.53584E-05   -0.29902E-05  1829   0.112E-02    0.559E-02
RMM:   9    -0.115787017753E+04   -0.65260E-05   -0.26049E-05  1706   0.105E-02    0.393E-02
RMM:  10    -0.115787017974E+04   -0.22059E-05   -0.11574E-05  1513   0.733E-03    0.302E-02
RMM:  11    -0.115787018047E+04   -0.73635E-06   -0.60505E-06  1423   0.583E-03
 196 F= -.11658661E+04 E0= -.11658532E+04  d E =-.167467E-03  mag=    21.7654
 trial-energy change:   -0.000167  1 .order   -0.000180   -0.000253   -0.000107
 step:   0.5345(harm=  0.5345)  dis= 0.00257  next Energy= -1165.866158 (dE=-0.220E-03)
 bond charge predicted
       N       E                     dE             d eps       ncg     rms          rms(c)
DAV:   1    -0.115787001558E+04    0.16416E-03   -0.80455E-02  2100   0.580E-01    0.704E-02
RMM:   2    -0.115787025231E+04   -0.23673E-03   -0.19865E-03  2425   0.831E-02    0.231E-01
RMM:   3    -0.115787019297E+04    0.59345E-04   -0.26977E-04  2376   0.350E-02    0.189E-01
RMM:   4    -0.115787023281E+04   -0.39841E-04   -0.12696E-04  2322   0.229E-02    0.144E-01
RMM:   5    -0.115787019173E+04    0.41074E-04   -0.38584E-05  1799   0.140E-02    0.599E-02
RMM:   6    -0.115787020876E+04   -0.17026E-04   -0.16403E-05  1562   0.857E-03    0.548E-02
RMM:   7    -0.115787021440E+04   -0.56364E-05   -0.12924E-05  1543   0.743E-03    0.540E-02
RMM:   8    -0.115787021308E+04    0.13126E-05   -0.11332E-05  1515   0.730E-03    0.343E-02
RMM:   9    -0.115787022045E+04   -0.73705E-05   -0.10670E-05  1557   0.708E-03    0.320E-02
RMM:  10    -0.115787022063E+04   -0.17525E-06   -0.61428E-06  1403   0.592E-03
 197 F= -.11658661E+04 E0= -.11658533E+04  d E =-.198638E-03  mag=    21.7654
 curvature:  -2.45 expect dE=-0.224E-02 dE for cont linesearch -0.227E-06
 trial: gam= 0.89605 g(F)=  0.915E-03 g(S)=  0.000E+00 ort = 0.264E-04 (trialstep = 0.353E+00)
 search vector abs. value=  0.701E-02
 bond charge predicted
       N       E                     dE             d eps       ncg     rms          rms(c)
DAV:   1    -0.115786997512E+04    0.24533E-03   -0.17257E-01  1992   0.858E-01    0.110E-01
RMM:   2    -0.115787036017E+04   -0.38505E-03   -0.43713E-03  2400   0.123E-01    0.134E-01
RMM:   3    -0.115787061601E+04   -0.25584E-03   -0.58312E-04  2302   0.564E-02    0.414E-01
RMM:   4    -0.115787037280E+04    0.24321E-03   -0.30044E-04  2488   0.322E-02    0.236E-01
RMM:   5    -0.115787036370E+04    0.90956E-05   -0.12029E-04  2007   0.243E-02    0.748E-02
RMM:   6    -0.115787040827E+04   -0.44568E-04   -0.41326E-05  1900   0.130E-02    0.904E-02
RMM:   7    -0.115787040827E+04   -0.21537E-08   -0.27077E-05  1804   0.103E-02    0.952E-02
RMM:   8    -0.115787039758E+04    0.10688E-04   -0.22775E-05  1660   0.972E-03    0.448E-02
RMM:   9    -0.115787042065E+04   -0.23070E-04   -0.20812E-05  1786   0.973E-03    0.514E-02
RMM:  10    -0.115787041433E+04    0.63189E-05   -0.13343E-05  1506   0.835E-03    0.291E-02
RMM:  11    -0.115787041648E+04   -0.21473E-05   -0.59561E-06  1420   0.575E-03    0.225E-02
RMM:  12    -0.115787041690E+04   -0.41784E-06   -0.25524E-06  1331   0.404E-03
 198 F= -.11658663E+04 E0= -.11658535E+04  d E =-.203079E-03  mag=    21.7659
 trial-energy change:   -0.000203  1 .order   -0.000217   -0.000331   -0.000103
 step:   0.5130(harm=  0.5130)  dis= 0.00239  next Energy= -1165.866378 (dE=-0.241E-03)
 bond charge predicted
       N       E                     dE             d eps       ncg     rms          rms(c)
DAV:   1    -0.115787034355E+04    0.72930E-04   -0.35552E-02  2100   0.389E-01    0.506E-02
RMM:   2    -0.115787042808E+04   -0.84526E-04   -0.90483E-04  2393   0.566E-02    0.960E-02
RMM:   3    -0.115787046229E+04   -0.34218E-04   -0.12417E-04  2298   0.251E-02    0.193E-01
RMM:   4    -0.115787042074E+04    0.41553E-04   -0.70983E-05  2169   0.162E-02    0.104E-01
RMM:   5    -0.115787042428E+04   -0.35347E-05   -0.26152E-05  1672   0.119E-02    0.500E-02
RMM:   6    -0.115787042907E+04   -0.47959E-05   -0.85362E-06  1469   0.643E-03    0.311E-02
RMM:   7    -0.115787043527E+04   -0.61982E-05   -0.67439E-06  1446   0.564E-03    0.428E-02
RMM:   8    -0.115787043297E+04    0.23025E-05   -0.51613E-06  1365   0.509E-03    0.198E-02
RMM:   9    -0.115787043936E+04   -0.63902E-05   -0.49216E-06  1399   0.480E-03    0.296E-02
RMM:  10    -0.115787043745E+04    0.19107E-05   -0.30144E-06  1297   0.439E-03    0.113E-02
RMM:  11    -0.115787043875E+04   -0.13012E-05   -0.11970E-06  1207   0.267E-03    0.986E-03
RMM:  12    -0.115787043945E+04   -0.69961E-06   -0.61922E-07  1169   0.203E-03
 199 F= -.11658664E+04 E0= -.11658535E+04  d E =-.228686E-03  mag=    21.7665
 curvature:  -1.92 expect dE=-0.127E-02 dE for cont linesearch -0.930E-08
 trial: gam= 0.73401 g(F)=  0.662E-03 g(S)=  0.000E+00 ort = 0.583E-05 (trialstep = 0.385E+00)
 search vector abs. value=  0.445E-02
 bond charge predicted
       N       E                     dE             d eps       ncg     rms          rms(c)
DAV:   1    -0.115787027791E+04    0.16084E-03   -0.12879E-01  1992   0.744E-01    0.946E-02
RMM:   2    -0.115787054791E+04   -0.27000E-03   -0.32247E-03  2403   0.107E-01    0.848E-02
RMM:   3    -0.115787076736E+04   -0.21945E-03   -0.40593E-04  2327   0.465E-02    0.301E-01
RMM:   4    -0.115787054114E+04    0.22622E-03   -0.18486E-04  2465   0.264E-02    0.114E-01
RMM:   5    -0.115787059023E+04   -0.49092E-04   -0.49105E-05  1883   0.156E-02    0.949E-02
RMM:   6    -0.115787059393E+04   -0.36967E-05   -0.26655E-05  1695   0.995E-03    0.697E-02
RMM:   7    -0.115787059660E+04   -0.26709E-05   -0.17800E-05  1616   0.910E-03    0.528E-02
RMM:   8    -0.115787060066E+04   -0.40559E-05   -0.14792E-05  1534   0.766E-03    0.517E-02
RMM:   9    -0.115787060881E+04   -0.81580E-05   -0.15118E-05  1631   0.815E-03    0.479E-02
RMM:  10    -0.115787060602E+04    0.27895E-05   -0.99093E-06  1470   0.741E-03    0.188E-02
RMM:  11    -0.115787060992E+04   -0.38968E-05   -0.45275E-06  1371   0.514E-03    0.175E-02
RMM:  12    -0.115787061058E+04   -0.65767E-06   -0.25680E-06  1284   0.377E-03
 200 F= -.11658665E+04 E0= -.11658537E+04  d E =-.165900E-03  mag=    21.7667
 trial-energy change:   -0.000166  1 .order   -0.000173   -0.000256   -0.000090
 step:   0.5941(harm=  0.5941)  dis= 0.00220  next Energy= -1165.866564 (dE=-0.198E-03)
 bond charge predicted
       N       E                     dE             d eps       ncg     rms          rms(c)
DAV:   1    -0.115787053339E+04    0.76534E-04   -0.38029E-02  2076   0.405E-01    0.523E-02
RMM:   2    -0.115787062347E+04   -0.90079E-04   -0.96312E-04  2412   0.589E-02    0.939E-02
RMM:   3    -0.115787067477E+04   -0.51307E-04   -0.13460E-04  2336   0.262E-02    0.183E-01
RMM:   4    -0.115787061227E+04    0.62502E-04   -0.68993E-05  2164   0.164E-02    0.120E-01
RMM:   5    -0.115787060955E+04    0.27187E-05   -0.22838E-05  1622   0.103E-02    0.433E-02
RMM:   6    -0.115787062609E+04   -0.16540E-04   -0.10821E-05  1505   0.761E-03    0.289E-02
RMM:   7    -0.115787062888E+04   -0.27865E-05   -0.62452E-06  1467   0.540E-03    0.229E-02
RMM:   8    -0.115787063118E+04   -0.23061E-05   -0.56076E-06  1422   0.540E-03    0.228E-02
RMM:   9    -0.115787063421E+04   -0.30240E-05   -0.45396E-06  1352   0.462E-03    0.328E-02
RMM:  10    -0.115787063295E+04    0.12556E-05   -0.27331E-06  1290   0.398E-03    0.117E-02
RMM:  11    -0.115787063441E+04   -0.14561E-05   -0.14538E-06  1212   0.282E-03    0.101E-02
RMM:  12    -0.115787063512E+04   -0.70840E-06   -0.82839E-07  1185   0.209E-03
 201 F= -.11658666E+04 E0= -.11658537E+04  d E =-.187587E-03  mag=    21.7668
 curvature:  -1.98 expect dE=-0.149E-02 dE for cont linesearch -0.105E-06
 trial: gam= 1.18824 g(F)=  0.753E-03 g(S)=  0.000E+00 ort =-0.153E-04 (trialstep = 0.271E+00)
 search vector abs. value=  0.699E-02
 bond charge predicted
       N       E                     dE             d eps       ncg     rms          rms(c)
DAV:   1    -0.115787051060E+04    0.12381E-03   -0.10597E-01  1992   0.678E-01    0.798E-02
RMM:   2    -0.115787072056E+04   -0.20996E-03   -0.25340E-03  2391   0.944E-02    0.835E-02
RMM:   3    -0.115787094432E+04   -0.22375E-03   -0.33410E-04  2337   0.405E-02    0.369E-01
RMM:   4    -0.115787066733E+04    0.27699E-03   -0.16850E-04  2375   0.242E-02    0.699E-02
RMM:   5    -0.115787075159E+04   -0.84256E-04   -0.39244E-05  1797   0.142E-02    0.724E-02
RMM:   6    -0.115787075976E+04   -0.81727E-05   -0.17718E-05  1658   0.871E-03    0.543E-02
RMM:   7    -0.115787076415E+04   -0.43944E-05   -0.12656E-05  1566   0.790E-03    0.344E-02
RMM:   8    -0.115787077401E+04   -0.98551E-05   -0.12382E-05  1599   0.754E-03    0.470E-02
RMM:   9    -0.115787077421E+04   -0.20161E-06   -0.89977E-06  1441   0.644E-03
 202 F= -.11658667E+04 E0= -.11658538E+04  d E =-.150544E-03  mag=    21.7669
 trial-energy change:   -0.000151  1 .order   -0.000168   -0.000199   -0.000136
 step:   0.8542(harm=  0.8542)  dis= 0.00397  next Energy= -1165.866867 (dE=-0.314E-03)
 bond charge predicted
       N       E                     dE             d eps       ncg     rms          rms(c)
DAV:   1    -0.115786956952E+04    0.12045E-02   -0.48894E-01  1992   0.146E+00    0.173E-01
RMM:   2    -0.115787064659E+04   -0.10771E-02   -0.11695E-02  2368   0.204E-01    0.250E-01
RMM:   3    -0.115787162165E+04   -0.97506E-03   -0.16742E-03  2341   0.893E-02    0.722E-01
RMM:   4    -0.115787052057E+04    0.11011E-02   -0.80737E-04  2483   0.530E-02    0.177E-01
RMM:   5    -0.115787072096E+04   -0.20039E-03   -0.19408E-04  2165   0.313E-02    0.106E-01
RMM:   6    -0.115787078756E+04   -0.66597E-04   -0.89175E-05  2149   0.180E-02    0.154E-01
RMM:   7    -0.115787074944E+04    0.38116E-04   -0.56373E-05  1979   0.150E-02    0.833E-02
RMM:   8    -0.115787079922E+04   -0.49772E-04   -0.63260E-05  1930   0.153E-02    0.136E-01
RMM:   9    -0.115787079109E+04    0.81261E-05   -0.59770E-05  2000   0.152E-02    0.728E-02
RMM:  10    -0.115787078998E+04    0.11081E-05   -0.38107E-05  1773   0.133E-02    0.426E-02
RMM:  11    -0.115787079530E+04   -0.53219E-05   -0.13695E-05  1550   0.809E-03    0.402E-02
RMM:  12    -0.115787079540E+04   -0.98255E-07   -0.79253E-06  1408   0.621E-03
 203 F= -.11658667E+04 E0= -.11658539E+04  d E =-.196165E-03  mag=    21.7674
 curvature:  -4.07 expect dE=-0.678E-02 dE for cont linesearch -0.235E-04
 ZBRENT: interpolating
 opt :   0.6873  next Energy= -1165.866766 (dE=-0.213E-03)
 bond charge predicted
       N       E                     dE             d eps       ncg     rms          rms(c)
DAV:   1    -0.115787072771E+04    0.67599E-04   -0.40232E-02  2136   0.418E-01    0.504E-02
RMM:   2    -0.115787083877E+04   -0.11106E-03   -0.97591E-04  2384   0.595E-02    0.138E-01
RMM:   3    -0.115787083525E+04    0.35202E-05   -0.13786E-04  2329   0.257E-02    0.161E-01
RMM:   4    -0.115787083650E+04   -0.12553E-05   -0.82032E-05  2168   0.178E-02    0.941E-02
RMM:   5    -0.115787082378E+04    0.12721E-04   -0.26739E-05  1667   0.117E-02    0.250E-02
RMM:   6    -0.115787083236E+04   -0.85826E-05   -0.74288E-06  1503   0.582E-03    0.263E-02
RMM:   7    -0.115787083594E+04   -0.35746E-05   -0.61888E-06  1456   0.541E-03    0.239E-02
RMM:   8    -0.115787084080E+04   -0.48683E-05   -0.53098E-06  1413   0.512E-03    0.413E-02
RMM:   9    -0.115787083891E+04    0.18912E-05   -0.41885E-06  1354   0.450E-03    0.250E-02
RMM:  10    -0.115787084164E+04   -0.27220E-05   -0.28217E-06  1317   0.412E-03    0.213E-02
RMM:  11    -0.115787084128E+04    0.35450E-06   -0.13366E-06  1231   0.271E-03
 204 F= -.11658668E+04 E0= -.11658539E+04  d E =-.235063E-03  mag=    21.7675
 curvature:  -2.90 expect dE=-0.313E-02 dE for cont linesearch -0.197E-05
 trial: gam= 1.39607 g(F)=  0.108E-02 g(S)=  0.000E+00 ort =-0.689E-04 (trialstep = 0.171E+00)
 search vector abs. value=  0.145E-01
 bond charge predicted
       N       E                     dE             d eps       ncg     rms          rms(c)
DAV:   1    -0.115787072878E+04    0.11286E-03   -0.85182E-02  2052   0.608E-01    0.764E-02
RMM:   2    -0.115787089464E+04   -0.16586E-03   -0.20743E-03  2393   0.850E-02    0.508E-02
RMM:   3    -0.115787098216E+04   -0.87521E-04   -0.21686E-04  2310   0.343E-02    0.163E-01
RMM:   4    -0.115787091174E+04    0.70424E-04   -0.89243E-05  2281   0.181E-02    0.636E-02
RMM:   5    -0.115787093605E+04   -0.24310E-04   -0.23485E-05  1710   0.108E-02    0.791E-02
RMM:   6    -0.115787092960E+04    0.64467E-05   -0.14481E-05  1555   0.741E-03    0.451E-02
RMM:   7    -0.115787093792E+04   -0.83154E-05   -0.11452E-05  1505   0.757E-03    0.547E-02
RMM:   8    -0.115787093625E+04    0.16697E-05   -0.88217E-06  1450   0.606E-03    0.406E-02
RMM:   9    -0.115787094399E+04   -0.77443E-05   -0.10178E-05  1504   0.681E-03    0.361E-02
RMM:  10    -0.115787094280E+04    0.11926E-05   -0.68013E-06  1428   0.611E-03    0.202E-02
RMM:  11    -0.115787094366E+04   -0.86225E-06   -0.26551E-06  1307   0.400E-03
 205 F= -.11658669E+04 E0= -.11658541E+04  d E =-.137953E-03  mag=    21.7677
 trial-energy change:   -0.000138  1 .order   -0.000143   -0.000168   -0.000117
 step:   0.5693(harm=  0.5693)  dis= 0.00386  next Energy= -1165.867068 (dE=-0.280E-03)
 bond charge predicted
       N       E                     dE             d eps       ncg     rms          rms(c)
DAV:   1    -0.115786973299E+04    0.12098E-02   -0.46329E-01  1992   0.142E+00    0.180E-01
RMM:   2    -0.115787074524E+04   -0.10122E-02   -0.11321E-02  2363   0.199E-01    0.187E-01
RMM:   3    -0.115787197995E+04   -0.12347E-02   -0.15844E-03  2287   0.906E-02    0.779E-01
RMM:   4    -0.115787056097E+04    0.14190E-02   -0.80720E-04  2522   0.540E-02    0.167E-01
RMM:   5    -0.115787083327E+04   -0.27231E-03   -0.21068E-04  2137   0.329E-02    0.114E-01
RMM:   6    -0.115787088211E+04   -0.48839E-04   -0.78174E-05  2099   0.163E-02    0.112E-01
RMM:   7    -0.115787088307E+04   -0.95892E-06   -0.53007E-05  1925   0.148E-02    0.896E-02
RMM:   8    -0.115787092558E+04   -0.42506E-04   -0.62592E-05  1952   0.154E-02    0.139E-01
RMM:   9    -0.115787089973E+04    0.25849E-04   -0.49617E-05  1898   0.141E-02    0.107E-01
RMM:  10    -0.115787090185E+04   -0.21180E-05   -0.41274E-05  1793   0.135E-02    0.514E-02
RMM:  11    -0.115787090988E+04   -0.80371E-05   -0.17990E-05  1595   0.957E-03    0.426E-02
RMM:  12    -0.115787091088E+04   -0.99705E-06   -0.80981E-06  1452   0.683E-03
 206 F= -.11658670E+04 E0= -.11658541E+04  d E =-.188077E-03  mag=    21.7684
 curvature:  -4.21 expect dE=-0.554E-02 dE for cont linesearch -0.158E-04
 ZBRENT: interpolating
 opt :   0.4683  next Energy= -1165.866988 (dE=-0.200E-03)
 bond charge predicted
       N       E                     dE             d eps       ncg     rms          rms(c)
DAV:   1    -0.115787087453E+04    0.35358E-04   -0.29838E-02  2172   0.361E-01    0.484E-02
RMM:   2    -0.115787102537E+04   -0.15084E-03   -0.77221E-04  2373   0.535E-02    0.220E-01
RMM:   3    -0.115787090904E+04    0.11632E-03   -0.12141E-04  2287   0.243E-02    0.927E-02
RMM:   4    -0.115787098276E+04   -0.73720E-04   -0.72410E-05  2137   0.161E-02    0.128E-01
RMM:   5    -0.115787094302E+04    0.39738E-04   -0.23220E-05  1623   0.107E-02    0.535E-02
RMM:   6    -0.115787095515E+04   -0.12122E-04   -0.11236E-05  1467   0.747E-03    0.222E-02
RMM:   7    -0.115787096105E+04   -0.59059E-05   -0.56140E-06  1365   0.484E-03    0.236E-02
RMM:   8    -0.115787096250E+04   -0.14527E-05   -0.42429E-06  1314   0.454E-03    0.150E-02
RMM:   9    -0.115787096694E+04   -0.44375E-05   -0.32914E-06  1368   0.423E-03    0.180E-02
RMM:  10    -0.115787096792E+04   -0.97766E-06   -0.19612E-06  1268   0.351E-03
 207 F= -.11658670E+04 E0= -.11658542E+04  d E =-.224108E-03  mag=    21.7687
 curvature:  -3.14 expect dE=-0.278E-02 dE for cont linesearch -0.377E-05
 trial: gam= 0.80680 g(F)=  0.886E-03 g(S)=  0.000E+00 ort =-0.132E-03 (trialstep = 0.230E+00)
 search vector abs. value=  0.101E-01
 bond charge predicted
       N       E                     dE             d eps       ncg     rms          rms(c)
DAV:   1    -0.115787079024E+04    0.17670E-03   -0.10748E-01  2070   0.686E-01    0.834E-02
RMM:   2    -0.115787102458E+04   -0.23434E-03   -0.25746E-03  2378   0.964E-02    0.133E-01
RMM:   3    -0.115787122185E+04   -0.19726E-03   -0.36492E-04  2315   0.421E-02    0.385E-01
RMM:   4    -0.115787098908E+04    0.23276E-03   -0.20791E-04  2393   0.272E-02    0.169E-01
RMM:   5    -0.115787102819E+04   -0.39102E-04   -0.67561E-05  1869   0.176E-02    0.425E-02
RMM:   6    -0.115787105359E+04   -0.25405E-04   -0.21951E-05  1737   0.991E-03    0.438E-02
RMM:   7    -0.115787105818E+04   -0.45841E-05   -0.12091E-05  1528   0.757E-03    0.533E-02
RMM:   8    -0.115787105817E+04    0.11059E-08   -0.10501E-05  1489   0.677E-03    0.494E-02
RMM:   9    -0.115787106526E+04   -0.70802E-05   -0.11884E-05  1542   0.756E-03    0.412E-02
RMM:  10    -0.115787106406E+04    0.11903E-05   -0.76114E-06  1458   0.663E-03    0.186E-02
RMM:  11    -0.115787106702E+04   -0.29565E-05   -0.37852E-06  1340   0.447E-03    0.188E-02
RMM:  12    -0.115787106725E+04   -0.22737E-06   -0.21068E-06  1232   0.349E-03
 208 F= -.11658672E+04 E0= -.11658543E+04  d E =-.158132E-03  mag=    21.7687
 ZBRENT: can't locate minimum, use default step
 trial-energy change:   -0.000158  1 .order   -0.000157   -0.000179   -0.000135
 step:   0.9211(harm=  0.9297)  dis= 0.00529  next Energy= -1165.867375 (dE=-0.362E-03)
 bond charge predicted
       N       E                     dE             d eps       ncg     rms          rms(c)
DAV:   1    -0.115786845188E+04    0.26151E-02   -0.96554E-01  1992   0.206E+00    0.249E-01
RMM:   2    -0.115787057755E+04   -0.21257E-02   -0.23131E-02  2374   0.288E-01    0.226E-01
RMM:   3    -0.115787253282E+04   -0.19553E-02   -0.29959E-03  2310   0.125E-01    0.118E+00
RMM:   4    -0.115787034849E+04    0.21843E-02   -0.16140E-03  2507   0.741E-02    0.363E-01
RMM:   5    -0.115787079282E+04   -0.44433E-03   -0.51353E-04  2163   0.483E-02    0.146E-01
RMM:   6    -0.115787089462E+04   -0.10180E-03   -0.19024E-04  2246   0.272E-02    0.128E-01
RMM:   7    -0.115787090983E+04   -0.15208E-04   -0.11101E-04  2189   0.218E-02    0.145E-01
RMM:   8    -0.115787094800E+04   -0.38169E-04   -0.10581E-04  2070   0.199E-02    0.183E-01
RMM:   9    -0.115787094602E+04    0.19796E-05   -0.10995E-04  2135   0.214E-02    0.137E-01
RMM:  10    -0.115787092497E+04    0.21046E-04   -0.77865E-05  1933   0.192E-02    0.454E-02
RMM:  11    -0.115787094530E+04   -0.20328E-04   -0.31388E-05  1773   0.120E-02    0.641E-02
RMM:  12    -0.115787094097E+04    0.43296E-05   -0.16347E-05  1556   0.911E-03    0.424E-02
RMM:  13    -0.115787093972E+04    0.12463E-05   -0.54474E-06  1401   0.561E-03    0.260E-02
RMM:  14    -0.115787094322E+04   -0.35004E-05   -0.22125E-06  1297   0.348E-03    0.159E-02
RMM:  15    -0.115787094736E+04   -0.41396E-05   -0.17199E-06  1254   0.307E-03    0.145E-02
RMM:  16    -0.115787094937E+04   -0.20063E-05   -0.70911E-07  1188   0.210E-03    0.777E-03
RMM:  17    -0.115787095143E+04   -0.20624E-05   -0.26535E-07  1136   0.127E-03    0.557E-03
RMM:  18    -0.115787095282E+04   -0.13861E-05   -0.19848E-07  1048   0.108E-03    0.464E-03
RMM:  19    -0.115787095577E+04   -0.29563E-05   -0.12164E-07  1053   0.801E-04    0.232E-03
RMM:  20    -0.115787095938E+04   -0.36060E-05   -0.13498E-07  1049   0.755E-04    0.310E-03
RMM:  21    -0.115787096087E+04   -0.14946E-05   -0.10569E-07   964   0.772E-04    0.252E-03
RMM:  22    -0.115787096185E+04   -0.97946E-06   -0.52803E-08   776   0.497E-04
 209 F= -.11658672E+04 E0= -.11658544E+04  d E =-.228793E-03  mag=    21.7689
 curvature:  -6.04 expect dE=-0.118E-01 dE for cont linesearch -0.667E-04
 ZBRENT: interpolating
 opt :   0.6701  next Energy= -1165.867283 (dE=-0.271E-03)
 bond charge predicted
       N       E                     dE             d eps       ncg     rms          rms(c)
DAV:   1    -0.115787073709E+04    0.22379E-03   -0.12746E-01  1992   0.747E-01    0.905E-02
RMM:   2    -0.115787100019E+04   -0.26311E-03   -0.30548E-03  2373   0.105E-01    0.793E-02
RMM:   3    -0.115787118125E+04   -0.18106E-03   -0.38484E-04  2306   0.454E-02    0.265E-01
RMM:   4    -0.115787101581E+04    0.16544E-03   -0.16313E-04  2408   0.243E-02    0.708E-02
RMM:   5    -0.115787106032E+04   -0.44504E-04   -0.33537E-05  1824   0.128E-02    0.938E-02
RMM:   6    -0.115787105482E+04    0.54997E-05   -0.21583E-05  1667   0.907E-03    0.448E-02
RMM:   7    -0.115787106628E+04   -0.11462E-04   -0.15934E-05  1611   0.901E-03    0.379E-02
RMM:   8    -0.115787107582E+04   -0.95370E-05   -0.16904E-05  1667   0.846E-03    0.426E-02
RMM:   9    -0.115787107966E+04   -0.38390E-05   -0.11592E-05  1570   0.745E-03    0.484E-02
RMM:  10    -0.115787107497E+04    0.46858E-05   -0.53900E-06  1392   0.535E-03    0.296E-02
RMM:  11    -0.115787107807E+04   -0.31003E-05   -0.41344E-06  1384   0.479E-03    0.205E-02
RMM:  12    -0.115787107896E+04   -0.88969E-06   -0.23554E-06  1311   0.386E-03
 210 F= -.11658673E+04 E0= -.11658545E+04  d E =-.281977E-03  mag=    21.7690
 curvature:  -3.80 expect dE=-0.375E-02 dE for cont linesearch -0.491E-06
 trial: gam= 1.07932 g(F)=  0.989E-03 g(S)=  0.000E+00 ort =-0.362E-04 (trialstep = 0.254E+00)
 search vector abs. value=  0.127E-01
 bond charge predicted
       N       E                     dE             d eps       ncg     rms          rms(c)
DAV:   1    -0.115787079823E+04    0.27984E-03   -0.16575E-01  2100   0.851E-01    0.104E-01
RMM:   2    -0.115787114628E+04   -0.34805E-03   -0.39617E-03  2366   0.120E-01    0.114E-01
RMM:   3    -0.115787141369E+04   -0.26741E-03   -0.55950E-04  2309   0.545E-02    0.351E-01
RMM:   4    -0.115787117291E+04    0.24078E-03   -0.25006E-04  2469   0.303E-02    0.183E-01
RMM:   5    -0.115787117642E+04   -0.35113E-05   -0.72419E-05  1916   0.176E-02    0.670E-02
RMM:   6    -0.115787120828E+04   -0.31860E-04   -0.40170E-05  1802   0.124E-02    0.507E-02
RMM:   7    -0.115787121059E+04   -0.23076E-05   -0.20916E-05  1688   0.934E-03    0.515E-02
RMM:   8    -0.115787121549E+04   -0.49041E-05   -0.21104E-05  1676   0.893E-03    0.529E-02
RMM:   9    -0.115787123344E+04   -0.17943E-04   -0.17413E-05  1651   0.829E-03    0.994E-02
RMM:  10    -0.115787120734E+04    0.26100E-04   -0.15171E-05  1534   0.877E-03    0.186E-02
RMM:  11    -0.115787122129E+04   -0.13956E-04   -0.58649E-06  1416   0.584E-03    0.218E-02
RMM:  12    -0.115787122118E+04    0.11095E-06   -0.26667E-06  1323   0.406E-03
 211 F= -.11658675E+04 E0= -.11658546E+04  d E =-.184908E-03  mag=    21.7691
 trial-energy change:   -0.000185  1 .order   -0.000189   -0.000241   -0.000137
 step:   0.5895(harm=  0.5895)  dis= 0.00379  next Energy= -1165.867574 (dE=-0.280E-03)
 bond charge predicted
       N       E                     dE             d eps       ncg     rms          rms(c)
DAV:   1    -0.115787047588E+04    0.74541E-03   -0.29051E-01  1992   0.113E+00    0.138E-01
RMM:   2    -0.115787109662E+04   -0.62074E-03   -0.69607E-03  2364   0.159E-01    0.132E-01
RMM:   3    -0.115787153128E+04   -0.43467E-03   -0.95149E-04  2314   0.723E-02    0.421E-01
RMM:   4    -0.115787112612E+04    0.40516E-03   -0.39637E-04  2524   0.382E-02    0.124E-01
RMM:   5    -0.115787118650E+04   -0.60382E-04   -0.97094E-05  2030   0.218E-02    0.100E-01
RMM:   6    -0.115787119663E+04   -0.10126E-04   -0.51756E-05  1935   0.138E-02    0.821E-02
RMM:   7    -0.115787120564E+04   -0.90119E-05   -0.35954E-05  1857   0.122E-02    0.968E-02
RMM:   8    -0.115787121369E+04   -0.80503E-05   -0.35076E-05  1812   0.111E-02    0.117E-01
RMM:   9    -0.115787121107E+04    0.26242E-05   -0.37416E-05  1828   0.123E-02    0.746E-02
RMM:  10    -0.115787121526E+04   -0.41893E-05   -0.26035E-05  1742   0.111E-02    0.283E-02
RMM:  11    -0.115787122082E+04   -0.55609E-05   -0.97691E-06  1489   0.699E-03    0.299E-02
RMM:  12    -0.115787122135E+04   -0.53731E-06   -0.52472E-06  1405   0.561E-03
 212 F= -.11658675E+04 E0= -.11658547E+04  d E =-.241563E-03  mag=    21.7693
 curvature:  -3.94 expect dE=-0.348E-02 dE for cont linesearch -0.250E-05
 trial: gam= 1.05909 g(F)=  0.884E-03 g(S)=  0.000E+00 ort =-0.897E-04 (trialstep = 0.273E+00)
 search vector abs. value=  0.149E-01
 bond charge predicted
       N       E                     dE             d eps       ncg     rms          rms(c)
DAV:   1    -0.115787076906E+04    0.45176E-03   -0.21848E-01  2016   0.968E-01    0.122E-01
RMM:   2    -0.115787122967E+04   -0.46061E-03   -0.53522E-03  2373   0.137E-01    0.997E-02
RMM:   3    -0.115787158186E+04   -0.35220E-03   -0.66564E-04  2285   0.607E-02    0.409E-01
RMM:   4    -0.115787123442E+04    0.34745E-03   -0.31260E-04  2492   0.336E-02    0.172E-01
RMM:   5    -0.115787129680E+04   -0.62386E-04   -0.91108E-05  1971   0.206E-02    0.802E-02
RMM:   6    -0.115787132247E+04   -0.25665E-04   -0.41832E-05  1901   0.133E-02    0.710E-02
RMM:   7    -0.115787131945E+04    0.30227E-05   -0.25386E-05  1761   0.104E-02    0.523E-02
RMM:   8    -0.115787134359E+04   -0.24144E-04   -0.29424E-05  1806   0.112E-02    0.973E-02
RMM:   9    -0.115787133391E+04    0.96775E-05   -0.23477E-05  1714   0.965E-03    0.667E-02
RMM:  10    -0.115787133582E+04   -0.19071E-05   -0.19838E-05  1619   0.988E-03    0.270E-02
RMM:  11    -0.115787134036E+04   -0.45440E-05   -0.76357E-06  1434   0.597E-03    0.240E-02
RMM:  12    -0.115787134205E+04   -0.16862E-05   -0.36039E-06  1366   0.465E-03    0.149E-02
RMM:  13    -0.115787134310E+04   -0.10481E-05   -0.13048E-06  1236   0.304E-03    0.882E-03
RMM:  14    -0.115787134411E+04   -0.10080E-05   -0.48373E-07  1168   0.180E-03    0.726E-03
RMM:  15    -0.115787134490E+04   -0.79553E-06   -0.27466E-07  1139   0.133E-03
 213 F= -.11658677E+04 E0= -.11658548E+04  d E =-.142958E-03  mag=    21.7695
 trial-energy change:   -0.000143  1 .order   -0.000147   -0.000215   -0.000080
 step:   0.5382(harm=  0.4338)  dis= 0.00377  next Energy= -1165.867714 (dE=-0.178E-03)
 bond charge predicted
       N       E                     dE             d eps       ncg     rms          rms(c)
DAV:   1    -0.115787080075E+04    0.54335E-03   -0.20718E-01  1992   0.942E-01    0.119E-01
RMM:   2    -0.115787124230E+04   -0.44155E-03   -0.50878E-03  2372   0.133E-01    0.114E-01
RMM:   3    -0.115787155421E+04   -0.31191E-03   -0.66591E-04  2281   0.593E-02    0.362E-01
RMM:   4    -0.115787125453E+04    0.29968E-03   -0.28704E-04  2485   0.330E-02    0.112E-01
RMM:   5    -0.115787131130E+04   -0.56769E-04   -0.59765E-05  1949   0.165E-02    0.111E-01
RMM:   6    -0.115787131576E+04   -0.44566E-05   -0.42489E-05  1879   0.128E-02    0.618E-02
RMM:   7    -0.115787132294E+04   -0.71864E-05   -0.27182E-05  1755   0.111E-02    0.527E-02
RMM:   8    -0.115787133798E+04   -0.15036E-04   -0.26137E-05  1720   0.104E-02    0.789E-02
RMM:   9    -0.115787134388E+04   -0.59034E-05   -0.21329E-05  1721   0.908E-03    0.853E-02
RMM:  10    -0.115787133155E+04    0.12333E-04   -0.17359E-05  1547   0.938E-03    0.241E-02
RMM:  11    -0.115787134087E+04   -0.93213E-05   -0.73314E-06  1455   0.628E-03    0.260E-02
RMM:  12    -0.115787134191E+04   -0.10389E-05   -0.37156E-06  1373   0.472E-03    0.139E-02
RMM:  13    -0.115787134296E+04   -0.10471E-05   -0.12189E-06  1232   0.291E-03    0.726E-03
RMM:  14    -0.115787134396E+04   -0.10044E-05   -0.41619E-07  1148   0.164E-03    0.581E-03
RMM:  15    -0.115787134465E+04   -0.68452E-06   -0.23514E-07  1129   0.125E-03
 214 F= -.11658677E+04 E0= -.11658548E+04  d E =-.161514E-03  mag=    21.7697
 curvature:  -2.38 expect dE=-0.287E-02 dE for cont linesearch -0.381E-05
 trial: gam= 1.24171 g(F)=  0.121E-02 g(S)=  0.000E+00 ort =-0.155E-03 (trialstep = 0.204E+00)
 search vector abs. value=  0.239E-01
 bond charge predicted
       N       E                     dE             d eps       ncg     rms          rms(c)
DAV:   1    -0.115787098834E+04    0.35562E-03   -0.19429E-01  1992   0.914E-01    0.110E-01
RMM:   2    -0.115787140042E+04   -0.41208E-03   -0.47221E-03  2332   0.129E-01    0.119E-01
RMM:   3    -0.115787168788E+04   -0.28747E-03   -0.62801E-04  2273   0.581E-02    0.359E-01
RMM:   4    -0.115787139689E+04    0.29100E-03   -0.26970E-04  2483   0.324E-02    0.112E-01
RMM:   5    -0.115787146043E+04   -0.63541E-04   -0.57640E-05  1940   0.171E-02    0.820E-02
RMM:   6    -0.115787147546E+04   -0.15034E-04   -0.28943E-05  1839   0.108E-02    0.815E-02
RMM:   7    -0.115787147594E+04   -0.47825E-06   -0.19459E-05  1597   0.861E-03    0.810E-02
RMM:   8    -0.115787147773E+04   -0.17823E-05   -0.21702E-05  1655   0.955E-03    0.630E-02
RMM:   9    -0.115787148998E+04   -0.12255E-04   -0.20269E-05  1801   0.960E-03    0.351E-02
RMM:  10    -0.115787149369E+04   -0.37104E-05   -0.13109E-05  1515   0.756E-03    0.291E-02
RMM:  11    -0.115787149423E+04   -0.53975E-06   -0.61688E-06  1374   0.529E-03
 215 F= -.11658679E+04 E0= -.11658550E+04  d E =-.166653E-03  mag=    21.7697
 trial-energy change:   -0.000167  1 .order   -0.000176   -0.000207   -0.000146
 step:   0.6915(harm=  0.6915)  dis= 0.00615  next Energy= -1165.868048 (dE=-0.351E-03)
 bond charge predicted
       N       E                     dE             d eps       ncg     rms          rms(c)
DAV:   1    -0.115786864835E+04    0.28453E-02   -0.11084E+00  1992   0.218E+00    0.263E-01
RMM:   2    -0.115787116138E+04   -0.25130E-02   -0.26924E-02  2335   0.308E-01    0.284E-01
RMM:   3    -0.115787326148E+04   -0.21001E-02   -0.36550E-03  2273   0.141E-01    0.108E+00
RMM:   4    -0.115787101433E+04    0.22472E-02   -0.16910E-03  2510   0.835E-02    0.343E-01
RMM:   5    -0.115787135493E+04   -0.34060E-03   -0.43863E-04  2195   0.464E-02    0.161E-01
RMM:   6    -0.115787154587E+04   -0.19094E-03   -0.21099E-04  2265   0.284E-02    0.292E-01
RMM:   7    -0.115787142487E+04    0.12100E-03   -0.12504E-04  2133   0.194E-02    0.154E-01
RMM:   8    -0.115787147835E+04   -0.53483E-04   -0.14259E-04  2124   0.236E-02    0.106E-01
RMM:   9    -0.115787156973E+04   -0.91380E-04   -0.14028E-04  2191   0.223E-02    0.138E-01
RMM:  10    -0.115787150757E+04    0.62169E-04   -0.87950E-05  1985   0.188E-02    0.645E-02
RMM:  11    -0.115787152906E+04   -0.21497E-04   -0.29960E-05  1821   0.119E-02    0.641E-02
RMM:  12    -0.115787153043E+04   -0.13639E-05   -0.15182E-05  1559   0.864E-03    0.448E-02
RMM:  13    -0.115787153032E+04    0.10705E-06   -0.53861E-06  1425   0.582E-03
 216 F= -.11658679E+04 E0= -.11658550E+04  d E =-.243238E-03  mag=    21.7692
 curvature:  -8.14 expect dE=-0.130E-01 dE for cont linesearch -0.184E-04
 trial: gam= 1.34704 g(F)=  0.160E-02 g(S)=  0.000E+00 ort =-0.233E-03 (trialstep = 0.163E+00)
 search vector abs. value=  0.443E-01
 bond charge predicted
       N       E                     dE             d eps       ncg     rms          rms(c)
DAV:   1    -0.115787108480E+04    0.44563E-03   -0.23068E-01  2040   0.994E-01    0.120E-01
RMM:   2    -0.115787166332E+04   -0.57852E-03   -0.56438E-03  2347   0.141E-01    0.271E-01
RMM:   3    -0.115787182600E+04   -0.16268E-03   -0.77315E-04  2298   0.620E-02    0.469E-01
RMM:   4    -0.115787167207E+04    0.15392E-03   -0.41792E-04  2470   0.401E-02    0.265E-01
RMM:   5    -0.115787160960E+04    0.62476E-04   -0.13266E-04  2048   0.253E-02    0.100E-01
RMM:   6    -0.115787165752E+04   -0.47924E-04   -0.51546E-05  1921   0.149E-02    0.832E-02
RMM:   7    -0.115787166976E+04   -0.12235E-04   -0.31880E-05  1840   0.110E-02    0.754E-02
RMM:   8    -0.115787166893E+04    0.82297E-06   -0.24731E-05  1744   0.102E-02    0.507E-02
RMM:   9    -0.115787169300E+04   -0.24068E-04   -0.30406E-05  1810   0.111E-02    0.594E-02
RMM:  10    -0.115787168699E+04    0.60077E-05   -0.16357E-05  1607   0.908E-03    0.259E-02
RMM:  11    -0.115787169265E+04   -0.56583E-05   -0.67571E-06  1454   0.610E-03    0.251E-02
RMM:  12    -0.115787169515E+04   -0.25017E-05   -0.29753E-06  1345   0.429E-03    0.164E-02
RMM:  13    -0.115787169601E+04   -0.85423E-06   -0.10318E-06  1212   0.266E-03
 217 F= -.11658681E+04 E0= -.11658552E+04  d E =-.182673E-03  mag=    21.7689
 trial-energy change:   -0.000183  1 .order   -0.000177   -0.000209   -0.000145
 step:   0.3367(harm=  0.5269)  dis= 0.00410  next Energy= -1165.868208 (dE=-0.267E-03)
 bond charge predicted
       N       E                     dE             d eps       ncg     rms          rms(c)
DAV:   1    -0.115787110019E+04    0.59496E-03   -0.26498E-01  1992   0.107E+00    0.127E-01
RMM:   2    -0.115787169444E+04   -0.59425E-03   -0.64214E-03  2341   0.150E-01    0.203E-01
RMM:   3    -0.115787210092E+04   -0.40648E-03   -0.88331E-04  2293   0.672E-02    0.577E-01
RMM:   4    -0.115787164623E+04    0.45469E-03   -0.46280E-04  2488   0.415E-02    0.247E-01
RMM:   5    -0.115787169720E+04   -0.50968E-04   -0.13894E-04  2050   0.252E-02    0.936E-02
RMM:   6    -0.115787176168E+04   -0.64479E-04   -0.49376E-05  1907   0.146E-02    0.107E-01
RMM:   7    -0.115787175681E+04    0.48659E-05   -0.32456E-05  1864   0.111E-02    0.634E-02
RMM:   8    -0.115787176748E+04   -0.10670E-04   -0.26950E-05  1791   0.107E-02    0.538E-02
RMM:   9    -0.115787178668E+04   -0.19199E-04   -0.23890E-05  1859   0.989E-03    0.486E-02
RMM:  10    -0.115787178299E+04    0.36831E-05   -0.15175E-05  1539   0.813E-03    0.269E-02
RMM:  11    -0.115787179060E+04   -0.76041E-05   -0.84092E-06  1420   0.591E-03    0.320E-02
RMM:  12    -0.115787178931E+04    0.12872E-05   -0.39496E-06  1340   0.477E-03    0.181E-02
RMM:  13    -0.115787179016E+04   -0.85297E-06   -0.10863E-06  1231   0.261E-03
 218 F= -.11658682E+04 E0= -.11658553E+04  d E =-.294918E-03  mag=    21.7687
 curvature:  -6.59 expect dE=-0.605E-02 dE for cont linesearch -0.311E-04
 ZBRENT: increasing intervall
 opt :   0.6851  next Energy= -1165.868244 (dE=-0.303E-03)
 bond charge predicted
       N       E                     dE             d eps       ncg     rms          rms(c)
DAV:   1    -0.115786900485E+04    0.27845E-02   -0.10602E+00  1992   0.213E+00    0.253E-01
RMM:   2    -0.115787143371E+04   -0.24289E-02   -0.25654E-02  2343   0.300E-01    0.348E-01
RMM:   3    -0.115787324127E+04   -0.18076E-02   -0.35041E-03  2292   0.135E-01    0.119E+00
RMM:   4    -0.115787131175E+04    0.19295E-02   -0.18179E-03  2508   0.840E-02    0.489E-01
RMM:   5    -0.115787149759E+04   -0.18584E-03   -0.57493E-04  2178   0.510E-02    0.183E-01
RMM:   6    -0.115787171601E+04   -0.21841E-03   -0.19880E-04  2211   0.283E-02    0.238E-01
RMM:   7    -0.115787164852E+04    0.67489E-04   -0.12976E-04  2232   0.221E-02    0.114E-01
RMM:   8    -0.115787170300E+04   -0.54479E-04   -0.11467E-04  2111   0.216E-02    0.119E-01
RMM:   9    -0.115787174659E+04   -0.43595E-04   -0.10870E-04  2205   0.202E-02    0.106E-01
RMM:  10    -0.115787172414E+04    0.22450E-04   -0.66382E-05  1915   0.167E-02    0.555E-02
RMM:  11    -0.115787174174E+04   -0.17599E-04   -0.32136E-05  1790   0.116E-02    0.575E-02
RMM:  12    -0.115787173954E+04    0.22027E-05   -0.13798E-05  1538   0.853E-03    0.385E-02
RMM:  13    -0.115787173888E+04    0.65652E-06   -0.43153E-06  1380   0.513E-03
 219 F= -.11658682E+04 E0= -.11658552E+04  d E =-.279535E-03  mag=    21.7682
 curvature:  -1.71 expect dE=-0.339E-02 dE for cont linesearch -0.631E-05
 ZBRENT: bracketing found
 ZBRENT: interpolating
 opt :   0.5214  next Energy= -1165.868254 (dE=-0.313E-03)
 bond charge predicted
       N       E                     dE             d eps       ncg     rms          rms(c)
DAV:   1    -0.115787119776E+04    0.54177E-03   -0.23407E-01  2004   0.100E+00    0.119E-01
RMM:   2    -0.115787169096E+04   -0.49320E-03   -0.56430E-03  2344   0.141E-01    0.108E-01
RMM:   3    -0.115787201506E+04   -0.32410E-03   -0.70821E-04  2284   0.623E-02    0.338E-01
RMM:   4    -0.115787174213E+04    0.27292E-03   -0.30300E-04  2514   0.339E-02    0.167E-01
RMM:   5    -0.115787176690E+04   -0.24765E-04   -0.76658E-05  1998   0.190E-02    0.956E-02
RMM:   6    -0.115787178650E+04   -0.19603E-04   -0.35094E-05  1809   0.116E-02    0.874E-02
RMM:   7    -0.115787179142E+04   -0.49195E-05   -0.25917E-05  1785   0.999E-03    0.739E-02
RMM:   8    -0.115787179372E+04   -0.22936E-05   -0.19781E-05  1592   0.894E-03    0.617E-02
RMM:   9    -0.115787181439E+04   -0.20677E-04   -0.27431E-05  1852   0.101E-02    0.576E-02
RMM:  10    -0.115787180483E+04    0.95664E-05   -0.14653E-05  1581   0.855E-03    0.195E-02
RMM:  11    -0.115787181410E+04   -0.92776E-05   -0.66822E-06  1450   0.572E-03    0.278E-02
RMM:  12    -0.115787181296E+04    0.11393E-05   -0.33182E-06  1346   0.460E-03    0.119E-02
RMM:  13    -0.115787181375E+04   -0.78871E-06   -0.11387E-06  1202   0.271E-03
 220 F= -.11658683E+04 E0= -.11658553E+04  d E =-.337590E-03  mag=    21.7684
 curvature:  -8.95 expect dE=-0.113E-01 dE for cont linesearch -0.167E-05
 trial: gam= 0.53040 g(F)=  0.126E-02 g(S)=  0.000E+00 ort =-0.909E-04 (trialstep = 0.234E+00)
 search vector abs. value=  0.136E-01
 bond charge predicted
       N       E                     dE             d eps       ncg     rms          rms(c)
DAV:   1    -0.115787161462E+04    0.19835E-03   -0.14786E-01  2040   0.802E-01    0.105E-01
RMM:   2    -0.115787194681E+04   -0.33219E-03   -0.37389E-03  2362   0.115E-01    0.170E-01
RMM:   3    -0.115787225905E+04   -0.31225E-03   -0.54762E-04  2268   0.518E-02    0.528E-01
RMM:   4    -0.115787185594E+04    0.40311E-03   -0.32819E-04  2428   0.354E-02    0.169E-01
RMM:   5    -0.115787194144E+04   -0.85498E-04   -0.93479E-05  1960   0.219E-02    0.859E-02
RMM:   6    -0.115787197630E+04   -0.34866E-04   -0.33067E-05  1861   0.124E-02    0.764E-02
RMM:   7    -0.115787198587E+04   -0.95708E-05   -0.24387E-05  1732   0.101E-02    0.718E-02
RMM:   8    -0.115787198256E+04    0.33146E-05   -0.19176E-05  1666   0.929E-03    0.491E-02
RMM:   9    -0.115787199746E+04   -0.14903E-04   -0.22615E-05  1763   0.974E-03    0.462E-02
RMM:  10    -0.115787199357E+04    0.38943E-05   -0.12947E-05  1532   0.807E-03    0.213E-02
RMM:  11    -0.115787199813E+04   -0.45659E-05   -0.65151E-06  1411   0.582E-03    0.303E-02
RMM:  12    -0.115787199601E+04    0.21211E-05   -0.30353E-06  1341   0.430E-03    0.169E-02
RMM:  13    -0.115787199635E+04   -0.33242E-06   -0.80417E-07  1180   0.239E-03
 221 F= -.11658685E+04 E0= -.11658555E+04  d E =-.196609E-03  mag=    21.7682
 trial-energy change:   -0.000197  1 .order   -0.000200   -0.000284   -0.000116
 step:   0.3958(harm=  0.3958)  dis= 0.00264  next Energy= -1165.868519 (dE=-0.240E-03)
 reached required accuracy - stopping structural energy minimisation
