O  C  H  Co Li                          
   1.00000000000000     
    23.4576439250702649    2.1314061863072173   -0.2359803430171620
    13.4662035629855605   22.1878920127700923   -0.2890350430516416
    -0.0556726825499663   -0.0555646341434657    6.8432453460865714
   O    C    H    Co   Li
    52    66    16    18     2
Direct
  0.0079330886869254  0.2915689542702506  0.3010711007641316
 -0.0177862438315816  0.3357134283032356  0.9252453768616670
  0.0668716398808312  0.2789868066309418  0.7058623169508583
  0.6617111201769845  0.0808995604024074  0.3174608713368620
  0.6428464514865622  0.0526641537061343  0.9621801500691383
  0.5959746969796766  0.1245093882230160  0.7233990236012429
  0.0020381602228668  0.4208115037392111  0.6409032656016360
  0.3891750126901581  0.5952904898776429  0.3222846036510300
  0.4465032913426848  0.5628989063760976  0.9769156576389297
  0.4113783647203882  0.5198396779671005  0.7671207212899579
  0.5800056767623657  0.0170720847778078  0.6358950933427878
  0.2722328576315995  0.0244527408168217  0.3401809974024573
  0.1906974807735387  0.0751741112261478  0.5727752180383392
  0.2437125432071637  0.0693945970743188  0.9833403734699349
  0.6054080645924534  0.3373727880444741  0.3548354908790217
  0.6461813750769784  0.2629418812971403  0.5854958637802524
  0.0631070376168054  0.6129516888975994  0.6905474380476682
  0.0781500028974289  0.5475804004449992  0.9244423271977503
  0.5439289279807236  0.3228977521651585  0.0313587465477242
  0.1153270971598219  0.6313757413138776  0.3606910934559216
  0.1695357155605694  0.6471259138048334  0.5986184840848073
  0.3555285372789954  0.9789551675345268  0.6768162569373875
  0.3951719838325823  0.0110056287409846  0.9119864252914003
  0.1721170898957342  0.5953442622853821 -0.0020377673135529
  0.7129612832221327  0.9774854378470154  0.6262072525057047
  0.7911313498080428  0.9356781202172123  0.3836985143836556
  0.7467117776367460  0.9292554867374898  0.9751276297750120
  0.4438257084479598  0.6523517131025982  0.4798966350048778
  0.3501339972271966  0.7280206443627862  0.3153599430058808
  0.9727586161533744  0.4053269944590752  0.2702451456827020
  0.9512953759634212  0.4749814261635424  0.0437815833256486
  0.4060799783985836  0.6799961702549751  0.8992769886488947
  0.9054800974184253  0.4045353315688587  0.5923148293677806
  0.8474671136548031  0.3879617994479670  0.3697626822861501
  0.6334409314385911 -0.0044081586605776  0.2882201559799362
  0.5967157805608703  0.9652050470324751  0.0379256925074200
  0.8495051446020774  0.4349059230395451  0.9672424488025765
  0.0071300824745875  0.7357786078663051  0.6679752773434802
  0.0372594338374446  0.6883063692314884  0.0335479015666538
  0.9548285854438163  0.7399283963310248  0.2617968168706247
  0.2921234791575065  0.9250078476554210  0.6390503898937053
  0.3156408511748224  0.9489210245652709  0.0039048118112950
  0.3598925089212619  0.8740711740509219  0.2318009580253639
  0.0308641135366103  0.5992973851953187  0.3277559129220283
  0.7096446228235396  0.3338059843752784  0.6980134696112860
  0.6127523792324674  0.4179957256181153  0.0424365559909562
  0.6964381239595082  0.3858722185905135  0.2729148467902222
  0.4101980145017353  0.9544356609936916  0.3154686352640378
  0.5788333103434998  0.4660602434551642  0.5948350878793213
  0.5635122566318049  0.5497443281250096  0.7440126550247360
  0.6520030207550853  0.4936813950809412  0.5272646200771367
  0.7501665781922643  0.2354943378670867  0.1737363794314664
  0.0639776646872422  0.2377809473115526  0.2183739124228611
  0.1077212793288962  0.1841087179656919  0.3361840939970372
  0.0426922513466248  0.2844744022670502  0.8753054177562830
  0.0825460959810674  0.2321669666554007  0.0167896319659831
  0.6327086780368698  0.1392949182408617  0.2415685956158219
  0.6317539492886727  0.1843436226502386  0.3592060668421009
  0.6143834037548618  0.1096198512910727  0.9004902983545190
  0.6057175109665623  0.1568865737370195  0.0462422557090986
  0.0083803750763193  0.4638059782653066  0.5597121063726112
  0.0298276981110307  0.4938675672592204  0.6794337234813680
  0.3374624451662040  0.5923126335217723  0.2459645768509353
  0.2795928689216691  0.6113920167927652  0.3594043344085866
  0.4021519994869399  0.5498207539028791  0.9294321693923091
  0.3419767635110021  0.5699186734230711  0.0520077013224546
  0.5404072692795857  0.0009007269083735  0.5530937780819293
  0.4929631576487806  0.0008511703487529  0.6716251796198738
  0.2119306410317535  0.0730261430252954  0.4012653644223019
  0.1682362454467806  0.1269737082182124  0.2648960627344479
  0.1865052994811462  0.1220865433829344  0.0637462993311724
  0.1428414000032462  0.1750949215082077  0.9456749344049770
  0.6183283011019804  0.2841142989761565  0.4183999868050964
  0.6044639178099008  0.2458033790713161  0.2935393954293377
  0.0612488151960714  0.5673583109937532  0.7502510064191318
  0.0378201902370576  0.5392835987428564  0.6094186287541661
  0.5715668518899425  0.2655671204420627  0.1047386094092528
  0.5736952917823327  0.2194631685986635  0.9859032322191312
  0.1669016023570765  0.6312620918278907  0.4234276623812588
  0.2244343999509231  0.6108985077787084  0.2851142632380576
  0.3975294377528102  0.9920325107995026  0.7371185379986032
  0.4484962803975770  0.9860233476096816  0.5991835585064615
  0.2254476275328930  0.5922283180336243  0.0852034490185294
  0.2861088904910390  0.5700589034250643  0.9756452871049451
  0.7750970801458786  0.9348007897526279  0.5586071079583667
  0.8270301008637806  0.8841975826672164  0.6960287912411374
  0.8100921233094918  0.8851308737953137  0.8960645017339537
  0.8617894295828733  0.8365388468370156  0.0165955415634016
  0.3854218490791675  0.7101523212319691  0.4735269105778934
  0.3640889773213680  0.7561073198856021  0.6367183862894374
  0.9712362488503641  0.4531953339637804  0.2154534214292432
  0.9946601090469098  0.4809887839861397  0.3573796141180808
  0.3807190105390207  0.7393697825556692  0.8368785772953055
  0.3696049668831981  0.7864204169459819  0.9683142877893960
  0.8621810871881566  0.3917153537622924  0.5490618542438439
  0.8247637743237328  0.3850222129224289  0.7036968310092959
  0.5934915108765303  0.9814753603657667  0.2157238606603166
  0.5431906620084447  0.9845608813097989  0.3510237709245924
  0.8139619037337300  0.4137846914916987  0.8919563201738185
  0.7609247281707775  0.4197356431080487  0.0050365082049493
  0.9451437655855792  0.7840083763125594  0.7466871891940826
  0.8937906509872441  0.8343083942327020  0.6269530675822694
  0.9753938172867327  0.7361675703696938  0.0886138894829559
  0.9280945061166278  0.7864634304508179  0.9474177217839814
  0.3197278006044266  0.8667110631096678  0.7119952839939191
  0.3313719481316525  0.8192078390167503  0.5809657466520108
  0.3383378711011862  0.8928312758547512  0.0577787265863183
  0.3408307245742144  0.8488980011162950  0.9106273527255629
  0.0242479770415373  0.5562609888174973  0.4073884623494515
  0.0026588649177820  0.5264659714823303  0.2875116161128333
  0.7416511117592413  0.3596010899133273  0.7710170851511589
  0.7921531782900806  0.3553724654476821  0.6544740040521666
  0.6749427269656072  0.3995959512106677  0.0959327912201648
  0.7252397622810631  0.3936372825380162  0.9521452202820511
  0.4510254366647213  0.9696239615430562  0.3972250240372587
  0.4989245647507220  0.9694909058702075  0.2783022985956700
  0.6003119512548493  0.5035511041720629  0.6150563951786194
  0.7088324811733787  0.2669587025538875  0.0496113835913802
  0.0942001114249832  0.1876858023757108  0.4898117704440382
  0.6556808895364665  0.1699666976890172  0.5041606981398303
  0.0407096687446950  0.4810105718365469  0.8332113040716270
  0.2764494016400504  0.6277927286501974  0.5098925227894410
  0.4907789296100294  0.0130966813609071  0.8259902992845506
  0.1569030591012394  0.1714940915322497  0.7925823166140620
  0.5533401883491430  0.2323933847621031  0.8366034367635287
  0.2883878236096789  0.5544182022668149  0.8247682653503646
  0.8491009852709047  0.8372853504292904  0.1692274416947731
  0.3845050770972342  0.7742618343280036  0.1209296581873323
  0.7466118764247172  0.4495107490701343  0.1360849635831631
  0.9059835167796667  0.8336216963414866  0.4737499012888801
  0.3182420124262019  0.8312142216478727  0.4272539724590179
  0.9920174738190178  0.5391904429671354  0.1335699231421106
  0.8052190664197947  0.3289774568277865  0.5155174818127664
  0.5010757323280722  0.9577068678665854  0.1233052086164374
  0.4242337597685217  0.5558372048545834  0.5586261094333179
  0.0098003782728221  0.3473728873913595  0.5072969603421053
  0.6250981043166935  0.0552833476127417  0.5167565198198556
  0.0999400551968848  0.6604412477785441  0.7981808115703308
  0.3391186855744032  0.0083195583454642  0.1151319289541197
  0.2579549502351479  0.0106648864299495  0.7697814458137110
  0.6078712250422933  0.3430758292527117  0.0458799899887222
  0.6766170123023884  0.2869915226894128  0.8001498387734670
  0.0925299994927742  0.5967038156932952  0.1241563719014033
  0.6512216468757142  0.9780767272248271  0.8443292636477390
  0.9229970295310739  0.3685541900698491  0.1648360643308952
  0.4599315676679873  0.6047933767187387  0.7218960121115696
  0.7128962374204839  0.9935429786511278  0.1859189929819387
  0.9344746737931133  0.4276339400506906  0.8419543908412317
  0.4067362948121115  0.6466440113478954  0.1566271683249165
  0.6411368209845187  0.3810917732421433  0.4867924459999285
  0.0178123292703342  0.6756120864559133  0.4633037487821450
  0.3460357925563927  0.9346404214383913  0.4420197918461562
  0.7359219658358750  0.4279087914414196  0.4119071872354114
  0.5478910464654185  0.4885667131863938  0.8780283555472616
 
  0.00000000E+00  0.00000000E+00  0.00000000E+00
  0.00000000E+00  0.00000000E+00  0.00000000E+00
  0.00000000E+00  0.00000000E+00  0.00000000E+00
  0.00000000E+00  0.00000000E+00  0.00000000E+00
  0.00000000E+00  0.00000000E+00  0.00000000E+00
  0.00000000E+00  0.00000000E+00  0.00000000E+00
  0.00000000E+00  0.00000000E+00  0.00000000E+00
  0.00000000E+00  0.00000000E+00  0.00000000E+00
  0.00000000E+00  0.00000000E+00  0.00000000E+00
  0.00000000E+00  0.00000000E+00  0.00000000E+00
  0.00000000E+00  0.00000000E+00  0.00000000E+00
  0.00000000E+00  0.00000000E+00  0.00000000E+00
  0.00000000E+00  0.00000000E+00  0.00000000E+00
  0.00000000E+00  0.00000000E+00  0.00000000E+00
  0.00000000E+00  0.00000000E+00  0.00000000E+00
  0.00000000E+00  0.00000000E+00  0.00000000E+00
  0.00000000E+00  0.00000000E+00  0.00000000E+00
  0.00000000E+00  0.00000000E+00  0.00000000E+00
  0.00000000E+00  0.00000000E+00  0.00000000E+00
  0.00000000E+00  0.00000000E+00  0.00000000E+00
  0.00000000E+00  0.00000000E+00  0.00000000E+00
  0.00000000E+00  0.00000000E+00  0.00000000E+00
  0.00000000E+00  0.00000000E+00  0.00000000E+00
  0.00000000E+00  0.00000000E+00  0.00000000E+00
  0.00000000E+00  0.00000000E+00  0.00000000E+00
  0.00000000E+00  0.00000000E+00  0.00000000E+00
  0.00000000E+00  0.00000000E+00  0.00000000E+00
  0.00000000E+00  0.00000000E+00  0.00000000E+00
  0.00000000E+00  0.00000000E+00  0.00000000E+00
  0.00000000E+00  0.00000000E+00  0.00000000E+00
  0.00000000E+00  0.00000000E+00  0.00000000E+00
  0.00000000E+00  0.00000000E+00  0.00000000E+00
  0.00000000E+00  0.00000000E+00  0.00000000E+00
  0.00000000E+00  0.00000000E+00  0.00000000E+00
  0.00000000E+00  0.00000000E+00  0.00000000E+00
  0.00000000E+00  0.00000000E+00  0.00000000E+00
  0.00000000E+00  0.00000000E+00  0.00000000E+00
  0.00000000E+00  0.00000000E+00  0.00000000E+00
  0.00000000E+00  0.00000000E+00  0.00000000E+00
  0.00000000E+00  0.00000000E+00  0.00000000E+00
  0.00000000E+00  0.00000000E+00  0.00000000E+00
  0.00000000E+00  0.00000000E+00  0.00000000E+00
  0.00000000E+00  0.00000000E+00  0.00000000E+00
  0.00000000E+00  0.00000000E+00  0.00000000E+00
  0.00000000E+00  0.00000000E+00  0.00000000E+00
  0.00000000E+00  0.00000000E+00  0.00000000E+00
  0.00000000E+00  0.00000000E+00  0.00000000E+00
  0.00000000E+00  0.00000000E+00  0.00000000E+00
  0.00000000E+00  0.00000000E+00  0.00000000E+00
  0.00000000E+00  0.00000000E+00  0.00000000E+00
  0.00000000E+00  0.00000000E+00  0.00000000E+00
  0.00000000E+00  0.00000000E+00  0.00000000E+00
  0.00000000E+00  0.00000000E+00  0.00000000E+00
  0.00000000E+00  0.00000000E+00  0.00000000E+00
  0.00000000E+00  0.00000000E+00  0.00000000E+00
  0.00000000E+00  0.00000000E+00  0.00000000E+00
  0.00000000E+00  0.00000000E+00  0.00000000E+00
  0.00000000E+00  0.00000000E+00  0.00000000E+00
  0.00000000E+00  0.00000000E+00  0.00000000E+00
  0.00000000E+00  0.00000000E+00  0.00000000E+00
  0.00000000E+00  0.00000000E+00  0.00000000E+00
  0.00000000E+00  0.00000000E+00  0.00000000E+00
  0.00000000E+00  0.00000000E+00  0.00000000E+00
  0.00000000E+00  0.00000000E+00  0.00000000E+00
  0.00000000E+00  0.00000000E+00  0.00000000E+00
  0.00000000E+00  0.00000000E+00  0.00000000E+00
  0.00000000E+00  0.00000000E+00  0.00000000E+00
  0.00000000E+00  0.00000000E+00  0.00000000E+00
  0.00000000E+00  0.00000000E+00  0.00000000E+00
  0.00000000E+00  0.00000000E+00  0.00000000E+00
  0.00000000E+00  0.00000000E+00  0.00000000E+00
  0.00000000E+00  0.00000000E+00  0.00000000E+00
  0.00000000E+00  0.00000000E+00  0.00000000E+00
  0.00000000E+00  0.00000000E+00  0.00000000E+00
  0.00000000E+00  0.00000000E+00  0.00000000E+00
  0.00000000E+00  0.00000000E+00  0.00000000E+00
  0.00000000E+00  0.00000000E+00  0.00000000E+00
  0.00000000E+00  0.00000000E+00  0.00000000E+00
  0.00000000E+00  0.00000000E+00  0.00000000E+00
  0.00000000E+00  0.00000000E+00  0.00000000E+00
  0.00000000E+00  0.00000000E+00  0.00000000E+00
  0.00000000E+00  0.00000000E+00  0.00000000E+00
  0.00000000E+00  0.00000000E+00  0.00000000E+00
  0.00000000E+00  0.00000000E+00  0.00000000E+00
  0.00000000E+00  0.00000000E+00  0.00000000E+00
  0.00000000E+00  0.00000000E+00  0.00000000E+00
  0.00000000E+00  0.00000000E+00  0.00000000E+00
  0.00000000E+00  0.00000000E+00  0.00000000E+00
  0.00000000E+00  0.00000000E+00  0.00000000E+00
  0.00000000E+00  0.00000000E+00  0.00000000E+00
  0.00000000E+00  0.00000000E+00  0.00000000E+00
  0.00000000E+00  0.00000000E+00  0.00000000E+00
  0.00000000E+00  0.00000000E+00  0.00000000E+00
  0.00000000E+00  0.00000000E+00  0.00000000E+00
  0.00000000E+00  0.00000000E+00  0.00000000E+00
  0.00000000E+00  0.00000000E+00  0.00000000E+00
  0.00000000E+00  0.00000000E+00  0.00000000E+00
  0.00000000E+00  0.00000000E+00  0.00000000E+00
  0.00000000E+00  0.00000000E+00  0.00000000E+00
  0.00000000E+00  0.00000000E+00  0.00000000E+00
  0.00000000E+00  0.00000000E+00  0.00000000E+00
  0.00000000E+00  0.00000000E+00  0.00000000E+00
  0.00000000E+00  0.00000000E+00  0.00000000E+00
  0.00000000E+00  0.00000000E+00  0.00000000E+00
  0.00000000E+00  0.00000000E+00  0.00000000E+00
  0.00000000E+00  0.00000000E+00  0.00000000E+00
  0.00000000E+00  0.00000000E+00  0.00000000E+00
  0.00000000E+00  0.00000000E+00  0.00000000E+00
  0.00000000E+00  0.00000000E+00  0.00000000E+00
  0.00000000E+00  0.00000000E+00  0.00000000E+00
  0.00000000E+00  0.00000000E+00  0.00000000E+00
  0.00000000E+00  0.00000000E+00  0.00000000E+00
  0.00000000E+00  0.00000000E+00  0.00000000E+00
  0.00000000E+00  0.00000000E+00  0.00000000E+00
  0.00000000E+00  0.00000000E+00  0.00000000E+00
  0.00000000E+00  0.00000000E+00  0.00000000E+00
  0.00000000E+00  0.00000000E+00  0.00000000E+00
  0.00000000E+00  0.00000000E+00  0.00000000E+00
  0.00000000E+00  0.00000000E+00  0.00000000E+00
  0.00000000E+00  0.00000000E+00  0.00000000E+00
  0.00000000E+00  0.00000000E+00  0.00000000E+00
  0.00000000E+00  0.00000000E+00  0.00000000E+00
  0.00000000E+00  0.00000000E+00  0.00000000E+00
  0.00000000E+00  0.00000000E+00  0.00000000E+00
  0.00000000E+00  0.00000000E+00  0.00000000E+00
  0.00000000E+00  0.00000000E+00  0.00000000E+00
  0.00000000E+00  0.00000000E+00  0.00000000E+00
  0.00000000E+00  0.00000000E+00  0.00000000E+00
  0.00000000E+00  0.00000000E+00  0.00000000E+00
  0.00000000E+00  0.00000000E+00  0.00000000E+00
  0.00000000E+00  0.00000000E+00  0.00000000E+00
  0.00000000E+00  0.00000000E+00  0.00000000E+00
  0.00000000E+00  0.00000000E+00  0.00000000E+00
  0.00000000E+00  0.00000000E+00  0.00000000E+00
  0.00000000E+00  0.00000000E+00  0.00000000E+00
  0.00000000E+00  0.00000000E+00  0.00000000E+00
  0.00000000E+00  0.00000000E+00  0.00000000E+00
  0.00000000E+00  0.00000000E+00  0.00000000E+00
  0.00000000E+00  0.00000000E+00  0.00000000E+00
  0.00000000E+00  0.00000000E+00  0.00000000E+00
  0.00000000E+00  0.00000000E+00  0.00000000E+00
  0.00000000E+00  0.00000000E+00  0.00000000E+00
  0.00000000E+00  0.00000000E+00  0.00000000E+00
  0.00000000E+00  0.00000000E+00  0.00000000E+00
  0.00000000E+00  0.00000000E+00  0.00000000E+00
  0.00000000E+00  0.00000000E+00  0.00000000E+00
  0.00000000E+00  0.00000000E+00  0.00000000E+00
  0.00000000E+00  0.00000000E+00  0.00000000E+00
  0.00000000E+00  0.00000000E+00  0.00000000E+00
  0.00000000E+00  0.00000000E+00  0.00000000E+00
  0.00000000E+00  0.00000000E+00  0.00000000E+00
  0.00000000E+00  0.00000000E+00  0.00000000E+00
  0.00000000E+00  0.00000000E+00  0.00000000E+00
  0.00000000E+00  0.00000000E+00  0.00000000E+00
