O  C  H  Co Li                          
   1.00000000000000     
    23.6831805857147728    1.8507229035997845   -0.2248144767183866
    13.3291419257590622   22.2037604723941797   -0.2002587471844374
    -0.0551768884686851   -0.0283866948599625    6.8309497089400892
   O    C    H    Co   Li
    52    66    16    18     2
Direct
  0.0242650446608622  0.2804411113714296  0.2998743359637793
  0.0008696554706868  0.3264654214855827  0.9343699356946668
  0.0797842209439115  0.2710327662914366  0.7050394669942207
  0.6672665445168093  0.0817212670927989  0.3107175963253583
  0.6468406279754106  0.0532509812700882  0.9541286173380094
  0.6015978645524646  0.1246892141925745  0.7143113125567038
  0.0088674557047066  0.4133214736671564  0.6391942605539559
  0.3772351203592205  0.5973401572012015  0.3333258977133746
  0.4336445800846119  0.5649792248771500  0.9890532088569864
  0.3982867295229929  0.5215684017205664  0.7811461583731466
  0.5815966018609507  0.0195111194719382  0.6329792705641392
  0.2835053744867124  0.0185104574690163  0.3465129392400720
  0.2035751077306436  0.0685437397714290  0.5781458685510934
  0.2563091000425694  0.0635056930604236  0.9879348099734433
  0.6099357963677390  0.3394223867053738  0.3358592429575324
  0.6545272910902635  0.2643828775634202  0.5670474697977209
  0.0543937764302400  0.6164872786239389  0.6930648969739216
  0.0709191515284082  0.5503836356709115  0.9287640888537421
  0.5537360536622928  0.3210013042159540  0.0121863373223284
  0.1028506701747998  0.6400197625636674  0.3621770969127328
  0.1576769255547552  0.6534685191641774  0.6038471722294659
  0.3644026311395200  0.9739616412115750  0.6832883479067837
  0.4051605780826677  0.0048266411020810  0.9186102415420558
  0.1596083654719847  0.6025798841502934  0.0036320792660769
  0.7124817332505780  0.9789157745296401  0.6199224729953560
  0.7893931644816790  0.9373117509479791  0.3788103170760534
  0.7448415262245907  0.9315455719862163  0.9717842664414991
  0.4301070362823112  0.6555994455766747  0.4918567532271413
  0.3377201355874717  0.7307296989597604  0.3299612431944592
  0.9774994630779604  0.3991460108390356  0.2738110884101371
  0.9578143358396114  0.4670654056772643  0.0411750741025425
  0.3931110762039284  0.6826575248225479  0.9139262311693984
  0.9221813083454308  0.3836124107972863  0.6002945258075324
  0.8677895975924635  0.3676791738282754  0.3638245713546994
  0.6322206349890443  0.0008147456074398  0.2810423405413423
  0.5991363457149335  0.9653135971081380  0.0371299834673227
  0.8665785355963146  0.4160254057859099  0.9658527457221872
  0.9981969561749905  0.7394457161464131  0.6683107373408318
  0.0257913700846273  0.6914556130941821  0.0322443730945102
  0.9457168915339833  0.7423562678984366  0.2616251572299836
  0.2987948721538388  0.9216068086108178  0.6475445945614663
  0.3252326540925131  0.9435273445200063  0.0098835448102739
  0.3617340788642063  0.8710911030477080  0.2429909263239817
  0.0227612311849290  0.6022430480768511  0.3310292664436056
  0.6950105659714227  0.3521032369295803  0.6749410952382602
  0.6110665069287259  0.4241496158861349  0.0154904132842016
  0.6840827834446058  0.4052444217186072  0.2625983493818216
  0.4195338731418572  0.9475855120794116  0.3228417630226854
  0.5621238582103321  0.4783464061843276  0.5830274661599064
  0.5443276808215212  0.5579463694752462  0.7642524915934122
  0.6303551196598184  0.5129602341087400  0.5463883015410378
  0.7567210631865372  0.2449951520794932  0.1526733838666285
  0.0799381406308066  0.2280997303328693  0.2194663757881206
  0.1228147059108364  0.1753544472414435  0.3390268546471643
  0.0582102022135648  0.2758993495324625  0.8776356984106144
  0.0981020284969076  0.2233896576889929  0.0181707491577205
  0.6404489321507582  0.1391468508373027  0.2312570852660321
  0.6407871338172983  0.1841392649941737  0.3453941424280996
  0.6202478225746840  0.1095329225442668  0.8916255090762165
  0.6136573569685111  0.1561664282119640  0.0354125382704409
  0.0116458436870022  0.4588890753678330  0.5592881143218310
  0.0297268811051438  0.4912480126820371  0.6806711081221000
  0.3250081085406900  0.5960360099082537  0.2553551584895770
  0.2671284071643973  0.6168051019222806  0.3667791298459053
  0.3892665558360278  0.5522700388584387  0.9415731011863380
  0.3292116278646891  0.5735326666552535  0.0619762288443930
  0.5442376640979911  0.0007154735923082  0.5529042090984401
  0.4984646556553098  0.9991186801279273  0.6734053753401195
  0.2246690271589542  0.0664311153040282  0.4063088863083357
  0.1823050706953455  0.1195757698128559  0.2687194836384391
  0.2002971997921028  0.1152023453007445  0.0672577214848745
  0.1573947620346286  0.1676522252612863  0.9479674843553524
  0.6262916483282563  0.2849074630981595  0.4002006068956078
  0.6143114829045080  0.2450327215489008  0.2767084183195487
  0.0543854377176430  0.5697094748468945  0.7535668553455599
  0.0339265888264831  0.5393643200715499  0.6119250281543752
  0.5814080506461530  0.2641204899838522  0.0880220400412265
  0.5828570173026156  0.2180156706981643  0.9719653172580752
  0.1545036705926333  0.6385811950333301  0.4278295704587562
  0.2118366413329473  0.6175137940396960  0.2914240883548280
  0.4064523871894246  0.9867872735481801  0.7431754254208104
  0.4560305567986296  0.9818643520218195  0.6039547188663666
  0.2127892489252634  0.5986179536479602  0.0917955026990231
  0.2731361079670627  0.5750585279434195  0.9841483535826321
  0.7731162833081533  0.9365808877277479  0.5539153466585029
  0.8232166613469989  0.8863994665700370  0.6928188640300567
  0.8064006765449330  0.8874429939426811  0.8933915436785314
  0.8562875447122400  0.8391627750171368  0.0152261290260586
  0.3733904359911930  0.7127672009843903  0.4865845460941683
  0.3552698617426952  0.7577385216617780  0.6498510333441100
  0.9762304080113104  0.4466902860849476  0.2150851113124113
  0.9972882336829677  0.4764364732628104  0.3570293826837718
  0.3712532241555404  0.7409847213296292  0.8509339258199698
  0.3638191109990234  0.7864378113751083  0.9817335313935576
  0.8745085343998836  0.3779237569129813  0.5429120792646236
  0.8259610844678756  0.3842020321225285  0.6887638432433796
  0.5953635442584055  0.9826991498158401  0.2138861749058766
  0.5478461811707870  0.9829599622804136  0.3520795977538958
  0.8229020043085751  0.4047258297872067  0.8856464731144332
  0.7702683795608748  0.4123330905762789  0.0023312314245989
  0.9378157818958859  0.7871181402209483  0.7459230150283479
  0.8882815474853035  0.8370042541875375  0.6248276139630018
  0.9660406683263455  0.7389791168019831  0.0883012361922961
  0.9206953161496439  0.7894031144703142  0.9467888030538114
  0.3208446314689998  0.8650459855473729  0.7226155204131324
  0.3274837079880736  0.8195424012073327  0.5926543386419125
  0.3421366435945387  0.8894415317803165  0.0673379702251797
  0.3404249789363467  0.8473235346787105  0.9221786259592389
  0.0197816824725194  0.5566910778583194  0.4098362840462400
  0.0015672903156225  0.5245118731772399  0.2883378224382415
  0.7319619032280793  0.3727005089361933  0.7479835409680857
  0.7827486925484224  0.3662962343437175  0.6289427165346165
  0.6703139924619048  0.4096625631166040  0.0780053227134742
  0.7237912878417885  0.3986439007260444  0.9398704584947574
  0.4591711650503495  0.9641785860342591  0.4029464390110161
  0.5062491518943041  0.9646008817251915  0.2829787836705331
  0.5807604478212347  0.5170712156365697  0.6251176015092222
  0.7147410326731495  0.2740013908487567  0.0290486004971521
  0.1093891908240573  0.1785349960691862  0.4927538822269150
  0.6642379542560924  0.1704042161224668  0.4910756966702314
  0.0408060820057173  0.4781203776788255  0.8347385812797103
  0.2642961364637957  0.6336652133088396  0.5163112495018335
  0.4954859247199611  0.0125793133764777  0.8267341169528124
  0.1711725840720755  0.1646563674520328  0.7948005086835499
  0.5622056827120446  0.2307046588020958  0.8228987595091533
  0.2751179585399016  0.5593303033663909  0.8336319840614738
  0.8435605712174150  0.8400418474738275  0.1683080372370628
  0.3777742040888089  0.7741732087526374  0.1350574344497432
  0.7682456437292392  0.4289781040335796  0.1511674352134116
  0.9006442787931813  0.8364344655400083  0.4714007717926336
  0.3143864837572722  0.8321092410679086  0.4388881247882639
  0.9904738451997933  0.5376389213279132  0.1342756188564966
  0.7908401553689083  0.3441287153418159  0.4847778090115458
  0.5099112733511012  0.9507520095177321  0.1296304750150054
  0.4096037448208589  0.5583905030533343  0.5711857441358360
  0.0199921136109045  0.3379042016851942  0.5044888098639849
  0.6278698311985594  0.0571494993764467  0.5092476708606585
  0.0889894738251343  0.6657362230460766  0.8014605037208656
  0.3495823703925990  0.0020772386394658  0.1223179777153983
  0.2684282305409904  0.0053155948123221  0.7770020395614839
  0.6139016180656528  0.3452578377474685  0.0288490014512028
  0.6801841163137250  0.2923608913710683  0.7821802587140017
  0.0824409019136318  0.6015900900936721  0.1287555866047733
  0.6517173363598168  0.9797617475889187  0.8404621500766545
  0.9378710223289027  0.3541929086341680  0.1658620507625340
  0.4431984770220814  0.6089029889187719  0.7353128866004958
  0.7136082212001217  0.9954867068121792  0.1808454268019720
  0.9458231655128747  0.4164022065582990  0.8394591747494574
  0.3942304708524558  0.6496707056089892  0.1717020715399353
  0.6279748351721615  0.3971035373424546  0.4642254839593805
  0.0082841847339183  0.6794366156977449  0.4656760540429529
  0.3537704152899838  0.9297291929435301  0.4505211237016767
  0.7081219617393263  0.4519989474592845  0.4247880669042460
  0.5339779988124616  0.4929897176251911  0.8792940918835147
 
  0.00000000E+00  0.00000000E+00  0.00000000E+00
  0.00000000E+00  0.00000000E+00  0.00000000E+00
  0.00000000E+00  0.00000000E+00  0.00000000E+00
  0.00000000E+00  0.00000000E+00  0.00000000E+00
  0.00000000E+00  0.00000000E+00  0.00000000E+00
  0.00000000E+00  0.00000000E+00  0.00000000E+00
  0.00000000E+00  0.00000000E+00  0.00000000E+00
  0.00000000E+00  0.00000000E+00  0.00000000E+00
  0.00000000E+00  0.00000000E+00  0.00000000E+00
  0.00000000E+00  0.00000000E+00  0.00000000E+00
  0.00000000E+00  0.00000000E+00  0.00000000E+00
  0.00000000E+00  0.00000000E+00  0.00000000E+00
  0.00000000E+00  0.00000000E+00  0.00000000E+00
  0.00000000E+00  0.00000000E+00  0.00000000E+00
  0.00000000E+00  0.00000000E+00  0.00000000E+00
  0.00000000E+00  0.00000000E+00  0.00000000E+00
  0.00000000E+00  0.00000000E+00  0.00000000E+00
  0.00000000E+00  0.00000000E+00  0.00000000E+00
  0.00000000E+00  0.00000000E+00  0.00000000E+00
  0.00000000E+00  0.00000000E+00  0.00000000E+00
  0.00000000E+00  0.00000000E+00  0.00000000E+00
  0.00000000E+00  0.00000000E+00  0.00000000E+00
  0.00000000E+00  0.00000000E+00  0.00000000E+00
  0.00000000E+00  0.00000000E+00  0.00000000E+00
  0.00000000E+00  0.00000000E+00  0.00000000E+00
  0.00000000E+00  0.00000000E+00  0.00000000E+00
  0.00000000E+00  0.00000000E+00  0.00000000E+00
  0.00000000E+00  0.00000000E+00  0.00000000E+00
  0.00000000E+00  0.00000000E+00  0.00000000E+00
  0.00000000E+00  0.00000000E+00  0.00000000E+00
  0.00000000E+00  0.00000000E+00  0.00000000E+00
  0.00000000E+00  0.00000000E+00  0.00000000E+00
  0.00000000E+00  0.00000000E+00  0.00000000E+00
  0.00000000E+00  0.00000000E+00  0.00000000E+00
  0.00000000E+00  0.00000000E+00  0.00000000E+00
  0.00000000E+00  0.00000000E+00  0.00000000E+00
  0.00000000E+00  0.00000000E+00  0.00000000E+00
  0.00000000E+00  0.00000000E+00  0.00000000E+00
  0.00000000E+00  0.00000000E+00  0.00000000E+00
  0.00000000E+00  0.00000000E+00  0.00000000E+00
  0.00000000E+00  0.00000000E+00  0.00000000E+00
  0.00000000E+00  0.00000000E+00  0.00000000E+00
  0.00000000E+00  0.00000000E+00  0.00000000E+00
  0.00000000E+00  0.00000000E+00  0.00000000E+00
  0.00000000E+00  0.00000000E+00  0.00000000E+00
  0.00000000E+00  0.00000000E+00  0.00000000E+00
  0.00000000E+00  0.00000000E+00  0.00000000E+00
  0.00000000E+00  0.00000000E+00  0.00000000E+00
  0.00000000E+00  0.00000000E+00  0.00000000E+00
  0.00000000E+00  0.00000000E+00  0.00000000E+00
  0.00000000E+00  0.00000000E+00  0.00000000E+00
  0.00000000E+00  0.00000000E+00  0.00000000E+00
  0.00000000E+00  0.00000000E+00  0.00000000E+00
  0.00000000E+00  0.00000000E+00  0.00000000E+00
  0.00000000E+00  0.00000000E+00  0.00000000E+00
  0.00000000E+00  0.00000000E+00  0.00000000E+00
  0.00000000E+00  0.00000000E+00  0.00000000E+00
  0.00000000E+00  0.00000000E+00  0.00000000E+00
  0.00000000E+00  0.00000000E+00  0.00000000E+00
  0.00000000E+00  0.00000000E+00  0.00000000E+00
  0.00000000E+00  0.00000000E+00  0.00000000E+00
  0.00000000E+00  0.00000000E+00  0.00000000E+00
  0.00000000E+00  0.00000000E+00  0.00000000E+00
  0.00000000E+00  0.00000000E+00  0.00000000E+00
  0.00000000E+00  0.00000000E+00  0.00000000E+00
  0.00000000E+00  0.00000000E+00  0.00000000E+00
  0.00000000E+00  0.00000000E+00  0.00000000E+00
  0.00000000E+00  0.00000000E+00  0.00000000E+00
  0.00000000E+00  0.00000000E+00  0.00000000E+00
  0.00000000E+00  0.00000000E+00  0.00000000E+00
  0.00000000E+00  0.00000000E+00  0.00000000E+00
  0.00000000E+00  0.00000000E+00  0.00000000E+00
  0.00000000E+00  0.00000000E+00  0.00000000E+00
  0.00000000E+00  0.00000000E+00  0.00000000E+00
  0.00000000E+00  0.00000000E+00  0.00000000E+00
  0.00000000E+00  0.00000000E+00  0.00000000E+00
  0.00000000E+00  0.00000000E+00  0.00000000E+00
  0.00000000E+00  0.00000000E+00  0.00000000E+00
  0.00000000E+00  0.00000000E+00  0.00000000E+00
  0.00000000E+00  0.00000000E+00  0.00000000E+00
  0.00000000E+00  0.00000000E+00  0.00000000E+00
  0.00000000E+00  0.00000000E+00  0.00000000E+00
  0.00000000E+00  0.00000000E+00  0.00000000E+00
  0.00000000E+00  0.00000000E+00  0.00000000E+00
  0.00000000E+00  0.00000000E+00  0.00000000E+00
  0.00000000E+00  0.00000000E+00  0.00000000E+00
  0.00000000E+00  0.00000000E+00  0.00000000E+00
  0.00000000E+00  0.00000000E+00  0.00000000E+00
  0.00000000E+00  0.00000000E+00  0.00000000E+00
  0.00000000E+00  0.00000000E+00  0.00000000E+00
  0.00000000E+00  0.00000000E+00  0.00000000E+00
  0.00000000E+00  0.00000000E+00  0.00000000E+00
  0.00000000E+00  0.00000000E+00  0.00000000E+00
  0.00000000E+00  0.00000000E+00  0.00000000E+00
  0.00000000E+00  0.00000000E+00  0.00000000E+00
  0.00000000E+00  0.00000000E+00  0.00000000E+00
  0.00000000E+00  0.00000000E+00  0.00000000E+00
  0.00000000E+00  0.00000000E+00  0.00000000E+00
  0.00000000E+00  0.00000000E+00  0.00000000E+00
  0.00000000E+00  0.00000000E+00  0.00000000E+00
  0.00000000E+00  0.00000000E+00  0.00000000E+00
  0.00000000E+00  0.00000000E+00  0.00000000E+00
  0.00000000E+00  0.00000000E+00  0.00000000E+00
  0.00000000E+00  0.00000000E+00  0.00000000E+00
  0.00000000E+00  0.00000000E+00  0.00000000E+00
  0.00000000E+00  0.00000000E+00  0.00000000E+00
  0.00000000E+00  0.00000000E+00  0.00000000E+00
  0.00000000E+00  0.00000000E+00  0.00000000E+00
  0.00000000E+00  0.00000000E+00  0.00000000E+00
  0.00000000E+00  0.00000000E+00  0.00000000E+00
  0.00000000E+00  0.00000000E+00  0.00000000E+00
  0.00000000E+00  0.00000000E+00  0.00000000E+00
  0.00000000E+00  0.00000000E+00  0.00000000E+00
  0.00000000E+00  0.00000000E+00  0.00000000E+00
  0.00000000E+00  0.00000000E+00  0.00000000E+00
  0.00000000E+00  0.00000000E+00  0.00000000E+00
  0.00000000E+00  0.00000000E+00  0.00000000E+00
  0.00000000E+00  0.00000000E+00  0.00000000E+00
  0.00000000E+00  0.00000000E+00  0.00000000E+00
  0.00000000E+00  0.00000000E+00  0.00000000E+00
  0.00000000E+00  0.00000000E+00  0.00000000E+00
  0.00000000E+00  0.00000000E+00  0.00000000E+00
  0.00000000E+00  0.00000000E+00  0.00000000E+00
  0.00000000E+00  0.00000000E+00  0.00000000E+00
  0.00000000E+00  0.00000000E+00  0.00000000E+00
  0.00000000E+00  0.00000000E+00  0.00000000E+00
  0.00000000E+00  0.00000000E+00  0.00000000E+00
  0.00000000E+00  0.00000000E+00  0.00000000E+00
  0.00000000E+00  0.00000000E+00  0.00000000E+00
  0.00000000E+00  0.00000000E+00  0.00000000E+00
  0.00000000E+00  0.00000000E+00  0.00000000E+00
  0.00000000E+00  0.00000000E+00  0.00000000E+00
  0.00000000E+00  0.00000000E+00  0.00000000E+00
  0.00000000E+00  0.00000000E+00  0.00000000E+00
  0.00000000E+00  0.00000000E+00  0.00000000E+00
  0.00000000E+00  0.00000000E+00  0.00000000E+00
  0.00000000E+00  0.00000000E+00  0.00000000E+00
  0.00000000E+00  0.00000000E+00  0.00000000E+00
  0.00000000E+00  0.00000000E+00  0.00000000E+00
  0.00000000E+00  0.00000000E+00  0.00000000E+00
  0.00000000E+00  0.00000000E+00  0.00000000E+00
  0.00000000E+00  0.00000000E+00  0.00000000E+00
  0.00000000E+00  0.00000000E+00  0.00000000E+00
  0.00000000E+00  0.00000000E+00  0.00000000E+00
  0.00000000E+00  0.00000000E+00  0.00000000E+00
  0.00000000E+00  0.00000000E+00  0.00000000E+00
  0.00000000E+00  0.00000000E+00  0.00000000E+00
  0.00000000E+00  0.00000000E+00  0.00000000E+00
  0.00000000E+00  0.00000000E+00  0.00000000E+00
  0.00000000E+00  0.00000000E+00  0.00000000E+00
  0.00000000E+00  0.00000000E+00  0.00000000E+00
  0.00000000E+00  0.00000000E+00  0.00000000E+00
  0.00000000E+00  0.00000000E+00  0.00000000E+00
  0.00000000E+00  0.00000000E+00  0.00000000E+00
