O  C  H  Co Li                          
   1.00000000000000     
    23.6041732470111718    2.0266499422413147   -0.2434121483457433
    13.4443662180762189   22.2739330639933364   -0.2129635033030070
    -0.0604383722275153   -0.0294818047021655    6.8342482182590665
   O    C    H    Co   Li
    52    66    16    18     2
Direct
  0.0217590858440376  0.2831580260745323  0.2995014468835517
 -0.0014047709710444  0.3293692796747614  0.9343669591693085
  0.0781183518176867  0.2728209142303067  0.7051354015795638
  0.6653145028355308  0.0829791345813648  0.3121351227831370
  0.6454495538421756  0.0548019431995316  0.9548760268054977
  0.5985530482308591  0.1267470942427882  0.7161122905354478
  0.0072291511315012  0.4151769275989688  0.6391996271218539
  0.3797932693423262  0.5971184499349642  0.3319269500280306
  0.4367092561134158  0.5650313219703837  0.9879827292006005
  0.4023590757725192  0.5212584241205249  0.7794099279366382
  0.5790833183930892  0.0220607962646843  0.6334784163939186
  0.2821436565773580  0.0186291358251258  0.3449897204359387
  0.2015432229348467  0.0694335076821682  0.5765697368493127
  0.2545573384783333  0.0636768952795640  0.9866800293375032
  0.6084009048809514  0.3394713734723142  0.3396202168804424
  0.6524474668498129  0.2644571650093760  0.5708125748747594
  0.0559497909479324  0.6149584915197243  0.6932619779853954
  0.0728393092594336  0.5486989637756662  0.9279447138678099
  0.5502016151353081  0.3227640945934823  0.0162100542653263
  0.1060827061238916  0.6361234817220236  0.3629370145894142
  0.1611126847242942  0.6494993887981069  0.6042241653505410
  0.3645656835002607  0.9727402073744579  0.6828029996766829
  0.4039145158713428  0.0050428081096894  0.9173330725683987
  0.1633170642073908  0.5988757463218725  0.0036445527673630
  0.7117965607225257  0.9801355508368138  0.6209588798077570
  0.7893632926229488  0.9377921789567921  0.3797313343993284
  0.7446657073069284  0.9325207824475593  0.9721848552066740
  0.4324039633249805  0.6555155376622438  0.4882285470397331
  0.3382106808311671  0.7307066121288449  0.3276918711168422
  0.9755269930512155  0.4015321389691580  0.2734715789221996
  0.9551034159047631  0.4697717622640423  0.0416078649784373
  0.3949683514386986  0.6824728016643945  0.9111219178934079
  0.9193757060658375  0.3873610745655406  0.5989240206220658
  0.8643996626295480  0.3714717616457834  0.3639648289330470
  0.6309631782993500  0.0023887185814775  0.2821733543732189
  0.5978585055541913  0.9673863239898406  0.0373617185486055
  0.8628567585978012  0.4202169473817985  0.9649577867081665
  0.9998932582287586  0.7374626462035234  0.6683392210510608
  0.0282690864663504  0.6896984913268654  0.0328354960792874
  0.9470865124296264  0.7411821156690592  0.2611211760557621
  0.2979107153493273  0.9219333598298052  0.6447757489898429
  0.3239253209820990  0.9436766412908972  0.0083999017147322
  0.3630366869177923  0.8703498907894168  0.2397858541472700
  0.0241087516885493  0.6011825291826506  0.3302455691963917
  0.6986066102360768  0.3473567886159080  0.6798963685317804
  0.6114019915568667  0.4226078146287995  0.0212578970214218
  0.6873809431819334  0.3999890917049663  0.2652288791594337
  0.4195210715645429  0.9475632162375928  0.3218060462106909
  0.5666441719363138  0.4758774672986827  0.5864062762950428
  0.5489074206401739  0.5566460971020639  0.7590975839270832
  0.6352240272455738  0.5094496023357502  0.5393390927223048
  0.7552961249863734  0.2426048148179820  0.1586794676932671
  0.0774471178759741  0.2301814773537339  0.2187658966607904
  0.1204197668891054  0.1770347783645051  0.3379894827387889
  0.0561113926362034  0.2780540230681312  0.8773582500078339
  0.0957626348246142  0.2251947796742282  0.0174010617738403
  0.6378147859760085  0.1405943089284345  0.2332780817740374
  0.6379395311665566  0.1853315376395755  0.3483247700910980
  0.6177395613980748  0.1113826528227432  0.8931690922936164
  0.6106817650832619  0.1579643023607469  0.0374681267914074
  0.0105519717076595  0.4601384609842413  0.5590978181298499
  0.0294627069558420  0.4916781257879248  0.6803242192771755
  0.3281436835268548  0.5946085490495463  0.2544702286432374
  0.2704219224984710  0.6141204507051861  0.3665837698150566
  0.3928015935127123  0.5518139513434757  0.9403033820182740
  0.3326901615053512  0.5721817603580797  0.0608810685833088
  0.5421373230842411  0.0029328791680868  0.5526930424666522
  0.4967807263030148  0.0005281226150439  0.6728904234566446
  0.2228188356398968  0.0670479409809182  0.4049298898726871
  0.1801130749705138  0.1205896269223446  0.2675486065425545
  0.1981626554937926  0.1159503799454273  0.0661487974580638
  0.1551173114704635  0.1687264993621300  0.9469142998016054
  0.6240076441433589  0.2853623681177372  0.4039689314718681
  0.6112480910151949  0.2462748140093667  0.2802766288778481
  0.0558286102492400  0.5684362058484920  0.7531494298016272
  0.0345052426890780  0.5389959032294918  0.6114736243759377
  0.5779909512298891  0.2658038482500000  0.0915527799859117
  0.5793682589175484  0.2200027089071197  0.9748600837907317
  0.1579527287351725  0.6346638646637398  0.4282060939625973
  0.2154302183376710  0.6140088764411697  0.2915651791854608
  0.4057704266394273  0.9866407731278656  0.7420952041386550
  0.4550597353772705  0.9825406046295404  0.6029948656023529
  0.2165082541295645  0.5953740906305104  0.0916268568149536
  0.2769517836339667  0.5727552657585454  0.9834846792211714
  0.7729450815242280  0.9371622592387402  0.5546298912609980
  0.8235293229118192  0.8863372839340063  0.6930155615590202
  0.8067102401942779  0.8876677886078468  0.8937107045402253
  0.8570577950416444  0.8388722015774662  0.0153314703203444
  0.3746167085056301  0.7126659110750968  0.4837240735731344
  0.3561328267544426  0.7577302538990250  0.6470188479441583
  0.9741454643633958  0.4489271651345485  0.2150172889402571
  0.9960120922761924  0.4778336123314202  0.3568631933773918
  0.3723380331022983  0.7409173016589858  0.8478894900309609
  0.3644534467733722  0.7863966736024599  0.9788560123567476
  0.8724707979752735  0.3803581335698537  0.5434561231457100
  0.8258864361052104  0.3839663387854013  0.6910426856963245
  0.5938331645919815  0.9847878488362811  0.2140919687545858
  0.5459784766036037  0.9852307950539785  0.3517705352359235
  0.8211341815211612  0.4063988305333761  0.8859585119504806
  0.7687840392361028  0.4131564257172295  0.0025126364276027
  0.9390316374494186  0.7857703759982040  0.7458405566185023
  0.8890213511123505  0.8361008419682028  0.6248855084741192
  0.9677591945833555  0.7375927216226988  0.0881739171806098
  0.9219180656156413  0.7883392694155147  0.9467961558760837
  0.3205320289959965  0.8652563146312428  0.7199401707312465
  0.3276426318024098  0.8197108829910558  0.5898986291466902
  0.3421673720480041  0.8892196144786184  0.0648231590538947
  0.3405068163616994  0.8473551180906488  0.9194307517935262
  0.0202987554922317  0.5564022002461336  0.4093422848473772
  0.0010672186308291  0.5251574378150980  0.2881126042980253
  0.7344477636928760  0.3690465499849716  0.7527300656636696
  0.7851833504011644  0.3631368249238826  0.6340018031374391
  0.6716745627946920  0.4067492574204215  0.0819898624304476
  0.7245722278643110  0.3966838701297912  0.9424188607891050
  0.4583898049279810  0.9650236383844605  0.4020331687902870
  0.5048242034554389  0.9664973351858345  0.2821228458513603
  0.5855057337430989  0.5146027678991367  0.6218742240474489
  0.7133293803690962  0.2722329362653912  0.0345011005378347
  0.1069376466607296  0.1804183968651154  0.4916585053880057
  0.6616006879994530  0.1712176268845016  0.4940101617155792
  0.0405487503774299  0.4785146172365258  0.8343884250376529
  0.2673457107227747  0.6307655686822264  0.5164847728921859
  0.4937069988662491  0.0136899498440223  0.8266022976877865
  0.1689785415067074  0.1653377804148092  0.7935956706646639
  0.5584129786080063  0.2330151454869754  0.8258740966238370
  0.2792446248191310  0.5570852994719427  0.8328772181319009
  0.8443091296041790  0.8400492373561408  0.1685073787258416
  0.3787369912366160  0.7739931143087522  0.1320929775566149
  0.7646807636791548  0.4323331824384667  0.1485199702959298
  0.9014195064446562  0.8352277361487087  0.4714276943182594
  0.3145991632785134  0.8322676375617283  0.4360211521550076
  0.9897709750993293  0.5384276034173774  0.1341508291336725
  0.7945806365629892  0.3399325252404415  0.4911944990952843
  0.5083184075112261  0.9531924687783713  0.1283032724466968
  0.4131272250853642  0.5582820727373716  0.5697747370367670
  0.0186212180608175  0.3400236618477512  0.5042616246333336
  0.6259182654194926  0.0588951257380482  0.5107178052515751
  0.0917578343136563  0.6628284672951258  0.8018715950165044
  0.3488384361421201  0.0015436462314859  0.1211268188675906
  0.2670896571105756  0.0057159339429664  0.7752734843873615
  0.6118874785489221  0.3451739537612677  0.0321823456378509
  0.6792720370831461  0.2910250786718632  0.7866916241686960
  0.0849320591302586  0.5992098545702544  0.1280694306128403
  0.6503775844717679  0.9815762329417658  0.8405069753779315
  0.9349066687748859  0.3578166623744031  0.1648439389736111
  0.4467643927390117  0.6086716411980096  0.7326792174437403
  0.7128317517910140  0.9965774214778352  0.1814869974715421
  0.9432329325161084  0.4194538906520079  0.8392380989989883
  0.3961005515121544  0.6494842963217328  0.1690005340911819
  0.6307379030361455  0.3935222361987107  0.4693879483206970
  0.0099465804016453  0.6778365178032959  0.4652004915562365
  0.3535513339169900  0.9293773876107024  0.4481213454824026
  0.7139096593436499  0.4461124469201151  0.4215719427143559
  0.5373401521865467  0.4925358538996391  0.8772611023990003
 
  0.00000000E+00  0.00000000E+00  0.00000000E+00
  0.00000000E+00  0.00000000E+00  0.00000000E+00
  0.00000000E+00  0.00000000E+00  0.00000000E+00
  0.00000000E+00  0.00000000E+00  0.00000000E+00
  0.00000000E+00  0.00000000E+00  0.00000000E+00
  0.00000000E+00  0.00000000E+00  0.00000000E+00
  0.00000000E+00  0.00000000E+00  0.00000000E+00
  0.00000000E+00  0.00000000E+00  0.00000000E+00
  0.00000000E+00  0.00000000E+00  0.00000000E+00
  0.00000000E+00  0.00000000E+00  0.00000000E+00
  0.00000000E+00  0.00000000E+00  0.00000000E+00
  0.00000000E+00  0.00000000E+00  0.00000000E+00
  0.00000000E+00  0.00000000E+00  0.00000000E+00
  0.00000000E+00  0.00000000E+00  0.00000000E+00
  0.00000000E+00  0.00000000E+00  0.00000000E+00
  0.00000000E+00  0.00000000E+00  0.00000000E+00
  0.00000000E+00  0.00000000E+00  0.00000000E+00
  0.00000000E+00  0.00000000E+00  0.00000000E+00
  0.00000000E+00  0.00000000E+00  0.00000000E+00
  0.00000000E+00  0.00000000E+00  0.00000000E+00
  0.00000000E+00  0.00000000E+00  0.00000000E+00
  0.00000000E+00  0.00000000E+00  0.00000000E+00
  0.00000000E+00  0.00000000E+00  0.00000000E+00
  0.00000000E+00  0.00000000E+00  0.00000000E+00
  0.00000000E+00  0.00000000E+00  0.00000000E+00
  0.00000000E+00  0.00000000E+00  0.00000000E+00
  0.00000000E+00  0.00000000E+00  0.00000000E+00
  0.00000000E+00  0.00000000E+00  0.00000000E+00
  0.00000000E+00  0.00000000E+00  0.00000000E+00
  0.00000000E+00  0.00000000E+00  0.00000000E+00
  0.00000000E+00  0.00000000E+00  0.00000000E+00
  0.00000000E+00  0.00000000E+00  0.00000000E+00
  0.00000000E+00  0.00000000E+00  0.00000000E+00
  0.00000000E+00  0.00000000E+00  0.00000000E+00
  0.00000000E+00  0.00000000E+00  0.00000000E+00
  0.00000000E+00  0.00000000E+00  0.00000000E+00
  0.00000000E+00  0.00000000E+00  0.00000000E+00
  0.00000000E+00  0.00000000E+00  0.00000000E+00
  0.00000000E+00  0.00000000E+00  0.00000000E+00
  0.00000000E+00  0.00000000E+00  0.00000000E+00
  0.00000000E+00  0.00000000E+00  0.00000000E+00
  0.00000000E+00  0.00000000E+00  0.00000000E+00
  0.00000000E+00  0.00000000E+00  0.00000000E+00
  0.00000000E+00  0.00000000E+00  0.00000000E+00
  0.00000000E+00  0.00000000E+00  0.00000000E+00
  0.00000000E+00  0.00000000E+00  0.00000000E+00
  0.00000000E+00  0.00000000E+00  0.00000000E+00
  0.00000000E+00  0.00000000E+00  0.00000000E+00
  0.00000000E+00  0.00000000E+00  0.00000000E+00
  0.00000000E+00  0.00000000E+00  0.00000000E+00
  0.00000000E+00  0.00000000E+00  0.00000000E+00
  0.00000000E+00  0.00000000E+00  0.00000000E+00
  0.00000000E+00  0.00000000E+00  0.00000000E+00
  0.00000000E+00  0.00000000E+00  0.00000000E+00
  0.00000000E+00  0.00000000E+00  0.00000000E+00
  0.00000000E+00  0.00000000E+00  0.00000000E+00
  0.00000000E+00  0.00000000E+00  0.00000000E+00
  0.00000000E+00  0.00000000E+00  0.00000000E+00
  0.00000000E+00  0.00000000E+00  0.00000000E+00
  0.00000000E+00  0.00000000E+00  0.00000000E+00
  0.00000000E+00  0.00000000E+00  0.00000000E+00
  0.00000000E+00  0.00000000E+00  0.00000000E+00
  0.00000000E+00  0.00000000E+00  0.00000000E+00
  0.00000000E+00  0.00000000E+00  0.00000000E+00
  0.00000000E+00  0.00000000E+00  0.00000000E+00
  0.00000000E+00  0.00000000E+00  0.00000000E+00
  0.00000000E+00  0.00000000E+00  0.00000000E+00
  0.00000000E+00  0.00000000E+00  0.00000000E+00
  0.00000000E+00  0.00000000E+00  0.00000000E+00
  0.00000000E+00  0.00000000E+00  0.00000000E+00
  0.00000000E+00  0.00000000E+00  0.00000000E+00
  0.00000000E+00  0.00000000E+00  0.00000000E+00
  0.00000000E+00  0.00000000E+00  0.00000000E+00
  0.00000000E+00  0.00000000E+00  0.00000000E+00
  0.00000000E+00  0.00000000E+00  0.00000000E+00
  0.00000000E+00  0.00000000E+00  0.00000000E+00
  0.00000000E+00  0.00000000E+00  0.00000000E+00
  0.00000000E+00  0.00000000E+00  0.00000000E+00
  0.00000000E+00  0.00000000E+00  0.00000000E+00
  0.00000000E+00  0.00000000E+00  0.00000000E+00
  0.00000000E+00  0.00000000E+00  0.00000000E+00
  0.00000000E+00  0.00000000E+00  0.00000000E+00
  0.00000000E+00  0.00000000E+00  0.00000000E+00
  0.00000000E+00  0.00000000E+00  0.00000000E+00
  0.00000000E+00  0.00000000E+00  0.00000000E+00
  0.00000000E+00  0.00000000E+00  0.00000000E+00
  0.00000000E+00  0.00000000E+00  0.00000000E+00
  0.00000000E+00  0.00000000E+00  0.00000000E+00
  0.00000000E+00  0.00000000E+00  0.00000000E+00
  0.00000000E+00  0.00000000E+00  0.00000000E+00
  0.00000000E+00  0.00000000E+00  0.00000000E+00
  0.00000000E+00  0.00000000E+00  0.00000000E+00
  0.00000000E+00  0.00000000E+00  0.00000000E+00
  0.00000000E+00  0.00000000E+00  0.00000000E+00
  0.00000000E+00  0.00000000E+00  0.00000000E+00
  0.00000000E+00  0.00000000E+00  0.00000000E+00
  0.00000000E+00  0.00000000E+00  0.00000000E+00
  0.00000000E+00  0.00000000E+00  0.00000000E+00
  0.00000000E+00  0.00000000E+00  0.00000000E+00
  0.00000000E+00  0.00000000E+00  0.00000000E+00
  0.00000000E+00  0.00000000E+00  0.00000000E+00
  0.00000000E+00  0.00000000E+00  0.00000000E+00
  0.00000000E+00  0.00000000E+00  0.00000000E+00
  0.00000000E+00  0.00000000E+00  0.00000000E+00
  0.00000000E+00  0.00000000E+00  0.00000000E+00
  0.00000000E+00  0.00000000E+00  0.00000000E+00
  0.00000000E+00  0.00000000E+00  0.00000000E+00
  0.00000000E+00  0.00000000E+00  0.00000000E+00
  0.00000000E+00  0.00000000E+00  0.00000000E+00
  0.00000000E+00  0.00000000E+00  0.00000000E+00
  0.00000000E+00  0.00000000E+00  0.00000000E+00
  0.00000000E+00  0.00000000E+00  0.00000000E+00
  0.00000000E+00  0.00000000E+00  0.00000000E+00
  0.00000000E+00  0.00000000E+00  0.00000000E+00
  0.00000000E+00  0.00000000E+00  0.00000000E+00
  0.00000000E+00  0.00000000E+00  0.00000000E+00
  0.00000000E+00  0.00000000E+00  0.00000000E+00
  0.00000000E+00  0.00000000E+00  0.00000000E+00
  0.00000000E+00  0.00000000E+00  0.00000000E+00
  0.00000000E+00  0.00000000E+00  0.00000000E+00
  0.00000000E+00  0.00000000E+00  0.00000000E+00
  0.00000000E+00  0.00000000E+00  0.00000000E+00
  0.00000000E+00  0.00000000E+00  0.00000000E+00
  0.00000000E+00  0.00000000E+00  0.00000000E+00
  0.00000000E+00  0.00000000E+00  0.00000000E+00
  0.00000000E+00  0.00000000E+00  0.00000000E+00
  0.00000000E+00  0.00000000E+00  0.00000000E+00
  0.00000000E+00  0.00000000E+00  0.00000000E+00
  0.00000000E+00  0.00000000E+00  0.00000000E+00
  0.00000000E+00  0.00000000E+00  0.00000000E+00
  0.00000000E+00  0.00000000E+00  0.00000000E+00
  0.00000000E+00  0.00000000E+00  0.00000000E+00
  0.00000000E+00  0.00000000E+00  0.00000000E+00
  0.00000000E+00  0.00000000E+00  0.00000000E+00
  0.00000000E+00  0.00000000E+00  0.00000000E+00
  0.00000000E+00  0.00000000E+00  0.00000000E+00
  0.00000000E+00  0.00000000E+00  0.00000000E+00
  0.00000000E+00  0.00000000E+00  0.00000000E+00
  0.00000000E+00  0.00000000E+00  0.00000000E+00
  0.00000000E+00  0.00000000E+00  0.00000000E+00
  0.00000000E+00  0.00000000E+00  0.00000000E+00
  0.00000000E+00  0.00000000E+00  0.00000000E+00
  0.00000000E+00  0.00000000E+00  0.00000000E+00
  0.00000000E+00  0.00000000E+00  0.00000000E+00
  0.00000000E+00  0.00000000E+00  0.00000000E+00
  0.00000000E+00  0.00000000E+00  0.00000000E+00
  0.00000000E+00  0.00000000E+00  0.00000000E+00
  0.00000000E+00  0.00000000E+00  0.00000000E+00
  0.00000000E+00  0.00000000E+00  0.00000000E+00
  0.00000000E+00  0.00000000E+00  0.00000000E+00
  0.00000000E+00  0.00000000E+00  0.00000000E+00
  0.00000000E+00  0.00000000E+00  0.00000000E+00
  0.00000000E+00  0.00000000E+00  0.00000000E+00
  0.00000000E+00  0.00000000E+00  0.00000000E+00
