O  C  H  Co Li                          
   1.00000000000000     
    23.5938615693152443    2.0522904563190729   -0.2453098759701571
    13.4627269950513870   22.2728770514762324   -0.2198245259538734
    -0.0608214695166105   -0.0313973827115244    6.8349421865106779
   O    C    H    Co   Li
    52    66    16    18     2
Direct
  0.0208066524386517  0.2840550592160307  0.2993961809998693
 -0.0026617442241804  0.3300807565694395  0.9333984764462505
  0.0772166814836431  0.2734078165247956  0.7048031720959341
  0.6648329684645234  0.0830507990734261  0.3127493598728197
  0.6455671768008699  0.0547776014983885  0.9550700552061967
  0.5980041879758938  0.1269145219761033  0.7168945518750343
  0.0066546694189418  0.4158416923319907  0.6390595896559673
  0.3806714690601727  0.5969128638488447  0.3304837280473513
  0.4375309480340779  0.5648388119896143  0.9863866091746644
  0.4032184356294496  0.5210851278442729  0.7776216861751748
  0.5789766997370867  0.0219352462379456  0.6339864659647754
  0.2813617453224637  0.0188172763039340  0.3440664276344351
  0.2008466847299490  0.0700021646162058  0.5760875898036955
  0.2537683370983518  0.0640649949572455  0.9861999808028367
  0.6077291513333134  0.3394959598621592  0.3413009890780388
  0.6514137539011796  0.2645545170076672  0.5725395438367857
  0.0568403691790543  0.6145606708436206  0.6929316938319479
  0.0733023661079465  0.5485477825544779  0.9277654374406433
  0.5491021400718432  0.3231513902893808  0.0179904266377515
  0.1070265890369158  0.6355489106957518  0.3629862619624074
  0.1621653595805260  0.6488835425052524  0.6040596443111615
  0.3639686889904687  0.9731804833820352  0.6822037623970925
  0.4034953578577840  0.0051850148739574  0.9171097816410335
  0.1642621471636183  0.5982273823049711  0.0033903482582300
  0.7116886958010435  0.9799701441001656  0.6213234252254870
  0.7893888882013994  0.9377004461242411  0.3802521710650766
  0.7447511898006337  0.9323682859008263  0.9726970411567966
  0.4334323265605090  0.6551255089700815  0.4878407745014086
  0.3392037253226778  0.7305108692473709  0.3268155734538832
  0.9749830482654702  0.4022286609018500  0.2731303529293724
  0.9546621007569794  0.4704154951672958  0.0413901160164546
  0.3957780553772371  0.6822773242824909  0.9101684176709286
  0.9180700055134197  0.3890480098323596  0.5978542049346726
  0.8633005005425768  0.3725541811353177  0.3639452392709907
  0.6306282695349429  0.0025891057673784  0.2823482169441622
  0.5973868060763884  0.9677441912764435  0.0374309720589701
  0.8616099347724876  0.4215902326231336  0.9646963243959131
  0.0005894932504494  0.7372506427585310  0.6686589387705237
  0.0290525153028433  0.6893973873896794  0.0329379409372594
  0.9478830813192807  0.7411632563490134  0.2615336779671613
  0.2976992316805518  0.9220527766305691  0.6443415566657557
  0.3235077713885980  0.9439826478034034  0.0079361187119190
  0.3629552023540910  0.8705393182644526  0.2391780432419008
  0.0246391974524291  0.6010920358098087  0.3301801251435554
  0.6998630788684436  0.3457626791322023  0.6814171318013849
  0.6116832102851858  0.4219617171034060  0.0226859803658095
  0.6883371081457519  0.3984113402669890  0.2658684665401412
  0.4189432400783122  0.9480850079266302  0.3215132932871261
  0.5676813932794387  0.4748862838111498  0.5870269070988169
  0.5502179570051040  0.5558491813222991  0.7579601136861458
  0.6367201036692067  0.5078702579462332  0.5381735844169340
  0.7545941243813855  0.2416167878746346  0.1606647884909510
  0.0765404202984259  0.2309041502156615  0.2183757511580086
  0.1195225264246735  0.1776600700278590  0.3374584872990332
  0.0551123748642280  0.2787041471382415  0.8769271317241536
  0.0948177467064795  0.2258241475024156  0.0170185283894951
  0.6370293800275031  0.1407777437346592  0.2342657929116360
  0.6368644209283918  0.1855837626941076  0.3497319262628196
  0.6173309592971044  0.1115270079896208  0.8938653033459083
  0.6098946852150250  0.1582017433864004  0.0384940563841315
  0.0102629531000402  0.4606012237614335  0.5588521141249078
  0.0294439622738959  0.4919253449130215  0.6800762563939122
  0.3290887318182969  0.5942129275240097  0.2533806291156353
  0.2714477007270888  0.6135698552788876  0.3659018118967874
  0.3936466288193380  0.5515576263986672  0.9387694745460826
  0.3336117130349275  0.5717894331332996  0.0598002706111099
  0.5418531398244413  0.0030413664105423  0.5530210520258519
  0.4963071664546045  0.0008186399155545  0.6729083403576140
  0.2220528062860018  0.0674754018978427  0.4042046356990984
  0.1792821911012120  0.1210798626237402  0.2669554404479652
  0.1973316348529683  0.1164013010782614  0.0655517251478309
  0.1542255885870890  0.1692208430325522  0.9464228235998577
  0.6229991436209900  0.2855097637462864  0.4056810154136586
  0.6100602987496330  0.2465770539074827  0.2819828584912702
  0.0563784069202231  0.5682597161370491  0.7529521380458624
  0.0347957636977553  0.5390429280902356  0.6112983229830777
  0.5768417483488288  0.2661644594513298  0.0932057561685450
  0.5783289378541864  0.2203489126595865  0.9762585195636038
  0.1589782399168868  0.6340449656236473  0.4280767830588192
  0.2164626969825035  0.6133714593513682  0.2911376321210441
  0.4052357760235146  0.9869599190414069  0.7417859036530273
  0.4545228058098801  0.9829253783958112  0.6028942562137954
  0.2174783535377874  0.5947630214380398  0.0911825673140060
  0.2778874515116195  0.5722517417297104  0.9827030569474419
  0.7729923422211292  0.9370100005198424  0.5550952197939306
  0.8237365440737012  0.8861849699251956  0.6934285148021571
  0.8069118192445628  0.8875153007957078  0.8940792607214540
  0.8574277653859783  0.8387177746122138  0.0156422411841870
  0.3755376436049372  0.7124392560914098  0.4830138557621194
  0.3568082537868857  0.7575934193892950  0.6462537100966065
  0.9737192640346670  0.4495436197392180  0.2147551190180001
  0.9957903947552692  0.4782809793793068  0.3566289142495973
  0.3730250307630071  0.7407797443704254  0.8471703596023745
  0.3648945111965980  0.7863409436569424  0.9781908739916699
  0.8716767184592941  0.3812558226975817  0.5434485771495421
  0.8258377241685865  0.3839292089859751  0.6917683805197701
  0.5934602781977804  0.9850164895384890  0.2142972636189843
  0.5455912587300260  0.9854954615454689  0.3518882873747264
  0.8205664441428332  0.4069528015508527  0.8860837935825848
  0.7683140175574672  0.4134412457152991  0.0025649616297570
  0.9395650610382970  0.7856149104742308  0.7461641374787291
  0.8893854481378097  0.8359334263051978  0.6251918778710182
  0.9684739331561575  0.7374596618838795  0.0884106234255927
  0.9224566754889768  0.7881969903685868  0.9470594036620602
  0.3206853073730440  0.8652928134769884  0.7193555138793754
  0.3281282254098277  0.8196073455540215  0.5891829010891021
  0.3420770027897028  0.8894197385824965  0.0642858616834427
  0.3406866946320982  0.8473797911972003  0.9188723250423617
  0.0206110353379853  0.5564625336057517  0.4092460405447294
  0.0011614416122286  0.5254050338528992  0.2879618428013212
  0.7352925702510116  0.3678862964769611  0.7541247698035810
  0.7859838332714039  0.3621463687413772  0.6355482608298229
  0.6721326964725302  0.4058217949907016  0.0829773729583905
  0.7248619430469390  0.3960801208378704  0.9431051227697855
  0.4578310000252671  0.9654534631971375  0.4017736559445919
  0.5043221054861244  0.9669216566406308  0.2820141792857151
  0.5867856577500733  0.5134695848429262  0.6213293268903241
  0.7126494748347204  0.2716019764866215  0.0362663916323873
  0.1060240535597717  0.1810569254165326  0.4911046202865473
  0.6605389948464886  0.1714519594884615  0.4954014349602202
  0.0405152072532881  0.4787506731319816  0.8341058575639951
  0.2683790710842450  0.6302477987682039  0.5157363288431995
  0.4931598675789997  0.0140575738559971  0.8265530368638558
  0.1680131404801945  0.1658318062539590  0.7931276166503293
  0.5573750015573725  0.2334065188167644  0.8272899979068147
  0.2801221216419352  0.5566140386942671  0.8320621726148909
  0.8446667773697397  0.8398625807630826  0.1687222596905412
  0.3791539473004301  0.7739502239148115  0.1314391045061651
  0.7634897320487454  0.4334388989223489  0.1476298184821680
  0.9017531474113506  0.8350235740983458  0.4717032951194499
  0.3150097194233599  0.8321693753788404  0.4354295501144841
  0.9899653868906227  0.5386584744175859  0.1340212607910215
  0.7958463212323827  0.3385379850691806  0.4932116523803026
  0.5078044975470235  0.9536721263707131  0.1281559748686438
  0.4142427220203789  0.5580412437389282  0.5683042840596305
  0.0178084617266872  0.3408731944497095  0.5043646131347959
  0.6256236243773453  0.0589048433249318  0.5114378528556437
  0.0926379786498986  0.6623829316782894  0.8017233494025324
  0.3481768255643474  0.0019662032360767  0.1205895313630535
  0.2665224319240656  0.0059958987740500  0.7746242985830398
  0.6112670714329171  0.3450192921911646  0.0336444008135865
  0.6788533460979392  0.2906263539296314  0.7881746168440196
  0.0856469167704442  0.5988467249301395  0.1280386563363578
  0.6502809404737658  0.9815973466526542  0.8411605240076078
  0.9339523004835805  0.3588677647889353  0.1644697295118894
  0.4478600474906932  0.6082840950606089  0.7318319659386365
  0.7126964318942999  0.9965572043201432  0.1821297943917478
  0.9423703894620601  0.4203367570521627  0.8390418771139000
  0.3968346256799983  0.6493313643143009  0.1677014547312873
  0.6317857340916349  0.3922484467135756  0.4711179441157037
  0.0107674782017898  0.6776152863536481  0.4653025516900211
  0.3532605519369201  0.9296335749690340  0.4476933963982980
  0.7157093265994389  0.4443086932302399  0.4205274500878966
  0.5382394282662123  0.4919989335379960  0.8769823403219289
 
  0.00000000E+00  0.00000000E+00  0.00000000E+00
  0.00000000E+00  0.00000000E+00  0.00000000E+00
  0.00000000E+00  0.00000000E+00  0.00000000E+00
  0.00000000E+00  0.00000000E+00  0.00000000E+00
  0.00000000E+00  0.00000000E+00  0.00000000E+00
  0.00000000E+00  0.00000000E+00  0.00000000E+00
  0.00000000E+00  0.00000000E+00  0.00000000E+00
  0.00000000E+00  0.00000000E+00  0.00000000E+00
  0.00000000E+00  0.00000000E+00  0.00000000E+00
  0.00000000E+00  0.00000000E+00  0.00000000E+00
  0.00000000E+00  0.00000000E+00  0.00000000E+00
  0.00000000E+00  0.00000000E+00  0.00000000E+00
  0.00000000E+00  0.00000000E+00  0.00000000E+00
  0.00000000E+00  0.00000000E+00  0.00000000E+00
  0.00000000E+00  0.00000000E+00  0.00000000E+00
  0.00000000E+00  0.00000000E+00  0.00000000E+00
  0.00000000E+00  0.00000000E+00  0.00000000E+00
  0.00000000E+00  0.00000000E+00  0.00000000E+00
  0.00000000E+00  0.00000000E+00  0.00000000E+00
  0.00000000E+00  0.00000000E+00  0.00000000E+00
  0.00000000E+00  0.00000000E+00  0.00000000E+00
  0.00000000E+00  0.00000000E+00  0.00000000E+00
  0.00000000E+00  0.00000000E+00  0.00000000E+00
  0.00000000E+00  0.00000000E+00  0.00000000E+00
  0.00000000E+00  0.00000000E+00  0.00000000E+00
  0.00000000E+00  0.00000000E+00  0.00000000E+00
  0.00000000E+00  0.00000000E+00  0.00000000E+00
  0.00000000E+00  0.00000000E+00  0.00000000E+00
  0.00000000E+00  0.00000000E+00  0.00000000E+00
  0.00000000E+00  0.00000000E+00  0.00000000E+00
  0.00000000E+00  0.00000000E+00  0.00000000E+00
  0.00000000E+00  0.00000000E+00  0.00000000E+00
  0.00000000E+00  0.00000000E+00  0.00000000E+00
  0.00000000E+00  0.00000000E+00  0.00000000E+00
  0.00000000E+00  0.00000000E+00  0.00000000E+00
  0.00000000E+00  0.00000000E+00  0.00000000E+00
  0.00000000E+00  0.00000000E+00  0.00000000E+00
  0.00000000E+00  0.00000000E+00  0.00000000E+00
  0.00000000E+00  0.00000000E+00  0.00000000E+00
  0.00000000E+00  0.00000000E+00  0.00000000E+00
  0.00000000E+00  0.00000000E+00  0.00000000E+00
  0.00000000E+00  0.00000000E+00  0.00000000E+00
  0.00000000E+00  0.00000000E+00  0.00000000E+00
  0.00000000E+00  0.00000000E+00  0.00000000E+00
  0.00000000E+00  0.00000000E+00  0.00000000E+00
  0.00000000E+00  0.00000000E+00  0.00000000E+00
  0.00000000E+00  0.00000000E+00  0.00000000E+00
  0.00000000E+00  0.00000000E+00  0.00000000E+00
  0.00000000E+00  0.00000000E+00  0.00000000E+00
  0.00000000E+00  0.00000000E+00  0.00000000E+00
  0.00000000E+00  0.00000000E+00  0.00000000E+00
  0.00000000E+00  0.00000000E+00  0.00000000E+00
  0.00000000E+00  0.00000000E+00  0.00000000E+00
  0.00000000E+00  0.00000000E+00  0.00000000E+00
  0.00000000E+00  0.00000000E+00  0.00000000E+00
  0.00000000E+00  0.00000000E+00  0.00000000E+00
  0.00000000E+00  0.00000000E+00  0.00000000E+00
  0.00000000E+00  0.00000000E+00  0.00000000E+00
  0.00000000E+00  0.00000000E+00  0.00000000E+00
  0.00000000E+00  0.00000000E+00  0.00000000E+00
  0.00000000E+00  0.00000000E+00  0.00000000E+00
  0.00000000E+00  0.00000000E+00  0.00000000E+00
  0.00000000E+00  0.00000000E+00  0.00000000E+00
  0.00000000E+00  0.00000000E+00  0.00000000E+00
  0.00000000E+00  0.00000000E+00  0.00000000E+00
  0.00000000E+00  0.00000000E+00  0.00000000E+00
  0.00000000E+00  0.00000000E+00  0.00000000E+00
  0.00000000E+00  0.00000000E+00  0.00000000E+00
  0.00000000E+00  0.00000000E+00  0.00000000E+00
  0.00000000E+00  0.00000000E+00  0.00000000E+00
  0.00000000E+00  0.00000000E+00  0.00000000E+00
  0.00000000E+00  0.00000000E+00  0.00000000E+00
  0.00000000E+00  0.00000000E+00  0.00000000E+00
  0.00000000E+00  0.00000000E+00  0.00000000E+00
  0.00000000E+00  0.00000000E+00  0.00000000E+00
  0.00000000E+00  0.00000000E+00  0.00000000E+00
  0.00000000E+00  0.00000000E+00  0.00000000E+00
  0.00000000E+00  0.00000000E+00  0.00000000E+00
  0.00000000E+00  0.00000000E+00  0.00000000E+00
  0.00000000E+00  0.00000000E+00  0.00000000E+00
  0.00000000E+00  0.00000000E+00  0.00000000E+00
  0.00000000E+00  0.00000000E+00  0.00000000E+00
  0.00000000E+00  0.00000000E+00  0.00000000E+00
  0.00000000E+00  0.00000000E+00  0.00000000E+00
  0.00000000E+00  0.00000000E+00  0.00000000E+00
  0.00000000E+00  0.00000000E+00  0.00000000E+00
  0.00000000E+00  0.00000000E+00  0.00000000E+00
  0.00000000E+00  0.00000000E+00  0.00000000E+00
  0.00000000E+00  0.00000000E+00  0.00000000E+00
  0.00000000E+00  0.00000000E+00  0.00000000E+00
  0.00000000E+00  0.00000000E+00  0.00000000E+00
  0.00000000E+00  0.00000000E+00  0.00000000E+00
  0.00000000E+00  0.00000000E+00  0.00000000E+00
  0.00000000E+00  0.00000000E+00  0.00000000E+00
  0.00000000E+00  0.00000000E+00  0.00000000E+00
  0.00000000E+00  0.00000000E+00  0.00000000E+00
  0.00000000E+00  0.00000000E+00  0.00000000E+00
  0.00000000E+00  0.00000000E+00  0.00000000E+00
  0.00000000E+00  0.00000000E+00  0.00000000E+00
  0.00000000E+00  0.00000000E+00  0.00000000E+00
  0.00000000E+00  0.00000000E+00  0.00000000E+00
  0.00000000E+00  0.00000000E+00  0.00000000E+00
  0.00000000E+00  0.00000000E+00  0.00000000E+00
  0.00000000E+00  0.00000000E+00  0.00000000E+00
  0.00000000E+00  0.00000000E+00  0.00000000E+00
  0.00000000E+00  0.00000000E+00  0.00000000E+00
  0.00000000E+00  0.00000000E+00  0.00000000E+00
  0.00000000E+00  0.00000000E+00  0.00000000E+00
  0.00000000E+00  0.00000000E+00  0.00000000E+00
  0.00000000E+00  0.00000000E+00  0.00000000E+00
  0.00000000E+00  0.00000000E+00  0.00000000E+00
  0.00000000E+00  0.00000000E+00  0.00000000E+00
  0.00000000E+00  0.00000000E+00  0.00000000E+00
  0.00000000E+00  0.00000000E+00  0.00000000E+00
  0.00000000E+00  0.00000000E+00  0.00000000E+00
  0.00000000E+00  0.00000000E+00  0.00000000E+00
  0.00000000E+00  0.00000000E+00  0.00000000E+00
  0.00000000E+00  0.00000000E+00  0.00000000E+00
  0.00000000E+00  0.00000000E+00  0.00000000E+00
  0.00000000E+00  0.00000000E+00  0.00000000E+00
  0.00000000E+00  0.00000000E+00  0.00000000E+00
  0.00000000E+00  0.00000000E+00  0.00000000E+00
  0.00000000E+00  0.00000000E+00  0.00000000E+00
  0.00000000E+00  0.00000000E+00  0.00000000E+00
  0.00000000E+00  0.00000000E+00  0.00000000E+00
  0.00000000E+00  0.00000000E+00  0.00000000E+00
  0.00000000E+00  0.00000000E+00  0.00000000E+00
  0.00000000E+00  0.00000000E+00  0.00000000E+00
  0.00000000E+00  0.00000000E+00  0.00000000E+00
  0.00000000E+00  0.00000000E+00  0.00000000E+00
  0.00000000E+00  0.00000000E+00  0.00000000E+00
  0.00000000E+00  0.00000000E+00  0.00000000E+00
  0.00000000E+00  0.00000000E+00  0.00000000E+00
  0.00000000E+00  0.00000000E+00  0.00000000E+00
  0.00000000E+00  0.00000000E+00  0.00000000E+00
  0.00000000E+00  0.00000000E+00  0.00000000E+00
  0.00000000E+00  0.00000000E+00  0.00000000E+00
  0.00000000E+00  0.00000000E+00  0.00000000E+00
  0.00000000E+00  0.00000000E+00  0.00000000E+00
  0.00000000E+00  0.00000000E+00  0.00000000E+00
  0.00000000E+00  0.00000000E+00  0.00000000E+00
  0.00000000E+00  0.00000000E+00  0.00000000E+00
  0.00000000E+00  0.00000000E+00  0.00000000E+00
  0.00000000E+00  0.00000000E+00  0.00000000E+00
  0.00000000E+00  0.00000000E+00  0.00000000E+00
  0.00000000E+00  0.00000000E+00  0.00000000E+00
  0.00000000E+00  0.00000000E+00  0.00000000E+00
  0.00000000E+00  0.00000000E+00  0.00000000E+00
  0.00000000E+00  0.00000000E+00  0.00000000E+00
  0.00000000E+00  0.00000000E+00  0.00000000E+00
  0.00000000E+00  0.00000000E+00  0.00000000E+00
  0.00000000E+00  0.00000000E+00  0.00000000E+00
  0.00000000E+00  0.00000000E+00  0.00000000E+00
  0.00000000E+00  0.00000000E+00  0.00000000E+00
