O  C  H  Co Li                          
   1.00000000000000     
    23.8425328052967060    1.6526135822522456   -0.1851473823989592
    13.2409021461353351   22.1014199472099939   -0.1635070847510427
    -0.0442446720951493   -0.0232704596986386    6.8285506126894573
   O    C    H    Co   Li
    52    66    16    18     2
Direct
  0.0246685925654200  0.2785648839526605  0.3006633566658057
  0.0017104549455093  0.3251283991085440  0.9355214332714614
  0.0794584529528476  0.2704735588014059  0.7053184009757117
  0.6682554385952388  0.0808129235339776  0.3104461582643893
  0.6487609220297116  0.0516748425863765  0.9548319718579490
  0.6035833599621994  0.1229240427673748  0.7145324057142453
  0.0087597139424078  0.4128054815469754  0.6389036125063677
  0.3747765395487963  0.5977472139298221  0.3358593890011494
  0.4319443971035118  0.5641982876498094 -0.0077887565524018
  0.3953008928619040  0.5219851678742513  0.7837546217577265
  0.5836375408362388  0.0176409760210409  0.6357439074934170
  0.2827698246524434  0.0194277160920893  0.3484468305360257
  0.2058518817293430  0.0695616601032468  0.5838864732233715
  0.2567554925353377  0.0656830107551649 -0.0120757960606787
  0.6104386187674665  0.3398884606294483  0.3329347066934644
  0.6553108389484411  0.2647207911990743  0.5637027188903738
  0.0536627386949634  0.6176049205678207  0.6923674783991481
  0.0706622556634913  0.5509406124523935  0.9280240095687313
  0.5554610780880216  0.3202534260360734  0.0099681753949206
  0.1011936641716977  0.6426968684945031  0.3601329499459282
  0.1556475291011105  0.6556689337654047  0.6029874489259055
  0.3675726637053069  0.9707620712684227  0.6881331650810555
  0.4068743732444636  0.0030195973082248  0.9215621182231726
  0.1581305256963067  0.6046307273557360  0.0026846265268319
  0.7137394941455412  0.9776005368196115  0.6211052258966770
  0.7895242165774289  0.9372706782164703  0.3791344510162122
  0.7460333122224212  0.9299292670765873  0.9727150532017939
  0.4290955255643248  0.6554424993688587  0.4902565846069114
  0.3377371693749838  0.7301088536441309  0.3297093406011916
  0.9786164072904123  0.3979253502414362  0.2738015099515428
  0.9586216576558197  0.4663578163221929  0.0411437200728444
  0.3929444213464602  0.6817836352540694  0.9131744261717084
  0.9240385730812807  0.3808400101993055  0.6022776111742482
  0.8696187457824802  0.3661176279694411  0.3637739242749256
  0.6346410183829232 -0.0019129712946802  0.2842616479783164
  0.6004173174409176  0.9640116883170338  0.0394791815331506
  0.8684102261434955  0.4138262304836723  0.9662622226936113
  0.9970705395623649  0.7410553497123959  0.6677618270613168
  0.0249491619005657  0.6929440716860267  0.0313292237702580
  0.9458673021647183  0.7427049018452949  0.2614356926291672
  0.2991288953132865  0.9216735922909366  0.6465933827191552
  0.3190639399788002  0.9454209591121744  0.0167937570099947
  0.3631875313162035  0.8701185337680098  0.2420281489915593
  0.0230613712246123  0.6027530562009076  0.3305254453062687
  0.6945094649087077  0.3539132798319052  0.6713495220837388
  0.6122425946934139  0.4247762225883345  0.0111223751390206
  0.6833375447860697  0.4072958901691356  0.2599052056970511
  0.4165606836662116  0.9522892500052542  0.3220818615852954
  0.5602706801651928  0.4782184919350532  0.5806595436246960
  0.5419541088575963  0.5582089937541928  0.7626230297793702
  0.6287424355809035  0.5127147988188487  0.5503566328251052
  0.7555921824631194  0.2464413823145750  0.1489068092072891
  0.0800922036054190  0.2270152320032607  0.2202608619527126
  0.1232020007570380  0.1746204153186095  0.3400267329225284
  0.0583357432357458  0.2749887225765844  0.8783174046072819
  0.0980637455899384  0.2227028785740470  0.0188399609261893
  0.6415580422294739  0.1383258350752387  0.2308906165803120
  0.6416967500009989  0.1837250424572871  0.3443453111764762
  0.6220084664757659  0.1080573288334684  0.8918822148873976
  0.6150837878405612  0.1550653199852691  0.0350459714407898
  0.0117193162959723  0.4585848770330079  0.5590070468271949
  0.0296809678713975  0.4911547597100869  0.6803167848561037
  0.3227425075529143  0.5968055965834849  0.2573037701763668
  0.2650217097474097  0.6180013592604834  0.3677489735394194
  0.3870283176448942  0.5524613784168256  0.9442010039263945
  0.3268964383446016  0.5744504347040106  0.0636602978523943
  0.5452319624263452  0.0000645647432655  0.5550321113844618
  0.4994581053632947 -0.0014231617713707  0.6752947499014524
  0.2251723263395533  0.0672081650773004  0.4099164316209963
  0.1827144688949506  0.1197560267920532  0.2704472747088678
  0.2005380551590468  0.1159286837835934  0.0689728331019852
  0.1572258313031322  0.1677743804081568  0.9490967032331824
  0.6270780058511676  0.2850719389656332  0.3973508716949368
  0.6154125565043655  0.2446626549553109  0.2748623823279659
  0.0540514280630582  0.5703180919882231  0.7529820731949316
  0.0338984537837799  0.5395807935005064  0.6116039048859206
  0.5829038133787267  0.2633715429486258  0.0862706177959598
  0.5845052660160801  0.2168946272189816  0.9709172877642808
  0.1526007259052714  0.6408230585797652  0.4268311674843188
  0.2098683157473413  0.6193251800947818  0.2912930733941351
  0.4081773508894579  0.9856332230560404  0.7460399655820197
  0.4562823898488999  0.9823468372360911  0.6049780685909905
  0.2108852992209975  0.6005187392808082  0.0914443685994722
  0.2709725837353020  0.5765847945489287 -0.0152038853680240
  0.7736802426935582  0.9360147300772100  0.5544783377809804
  0.8235107252867098  0.8861031734739009  0.6929576050357035
  0.8070183526558874  0.8866939285629060  0.8938426411201977
  0.8566792096539142  0.8388301999434871  0.0153862730502751
  0.3731176469566761  0.7123466100775959  0.4857986543169810
  0.3554266485322634  0.7572497293022576  0.6490438085687407
  0.9769657009221627  0.4459656985171631  0.2149575071315000
  0.9975855398256054  0.4761639935958424  0.3566635160358660
  0.3713386152877076  0.7402854947455476  0.8498861654293099
  0.3639338780402510  0.7857970981137807  0.9806105111412483
  0.8758951353084572  0.3764811886784413  0.5428918535636539
  0.8264950326309141  0.3840969433567022  0.6874894695618405
  0.5965846522309791 -0.0185312776342737  0.2160976057798301
  0.5480319614438913  0.9832551921938607  0.3534429212866856
  0.8242037326920275  0.4035594646183515  0.8855073721433948
  0.7717090450190476  0.4113288580315193  0.0021208116288469
  0.9372241109838781  0.7879878360043822  0.7454793319313129
  0.8879032875310546  0.8374646411993691  0.6246142215528722
  0.9657623186196270  0.7397531274404140  0.0877924508267402
  0.9204795577106161  0.7898860940943688  0.9466154296382764
  0.3208341300775961  0.8650873463693539  0.7219846672414214
  0.3278742680875614  0.8192068446596512  0.5920840497350186
  0.3409631059071696  0.8890910910419704  0.0691326975556438
  0.3402947300965333  0.8469867751429412  0.9216115818623875
  0.0199573733587597  0.5569490117566014  0.4094007369722689
  0.0019176533591535  0.5245305062745603  0.2879379292889564
  0.7317547703191725  0.3740812990485183  0.7447491045669345
  0.7823139367219738  0.3676430390556562  0.6257872469896042
  0.6706134312514245  0.4107216180262045  0.0747633572687252
  0.7243689956166087  0.3990901170980296  0.9378347631464512
  0.4579402031714594  0.9665935141720433  0.4028421367196712
  0.5049745937194074  0.9668013804510386  0.2829938940805879
  0.5787189907578850  0.5170808173384547  0.6252622617297933
  0.7141450936852897  0.2751869630638272  0.0253512455523484
  0.1100048530761523  0.1773524724165443  0.4937876264662854
  0.6647765420753400  0.1703623699923322  0.4900856536211387
  0.0405567249617971  0.4779888751854112  0.8343366256655003
  0.2622266281109407  0.6347266797463190  0.5174553288409544
  0.4973012186259465  0.0109694039541078  0.8294502545761157
  0.1708523665297499  0.1649430564779380  0.7958260764880435
  0.5642554298952309  0.2292286246929852  0.8217516131710848
  0.2730028924403777  0.5607989234938230  0.8344821284107532
  0.8442254605890251  0.8394184565072413  0.1686092414086377
  0.3778240969504020  0.7735261766707086  0.1338643120060891
  0.7706071792143709  0.4264767306628009  0.1525159599366029
  0.8999972002294699  0.8370850801063879  0.4710488822590854
  0.3153015552796585  0.8316730732044137  0.4382600218804684
  0.9911439313344519  0.5376370403425589  0.1338599024003374
  0.7898474748536004  0.3460902815747296  0.4808765564441027
  0.5072602247716566  0.9544005711269080  0.1287416744413583
  0.4067239357660244  0.5588198185011181  0.5732624686827298
  0.0201977174669414  0.3367406789134020  0.5044886608355321
  0.6300115728137105  0.0551050357414506  0.5102812650635005
  0.0875055646094355  0.6676353984048196  0.8006706964158395
  0.3461633729346809  0.0019218687198287  0.1186618408666837
  0.2724564388693833  0.0038206274187342  0.7800991135397769
  0.6146165085536426  0.3455593584100526  0.0257198416548928
  0.6800531070030668  0.2933983862272385  0.7784438462849450
  0.0816429899355846  0.6030421916400611  0.1273913235477993
  0.6535511176438142 -0.0221165615835046  0.8424491641004012
  0.9393042631334969  0.3524702303516936  0.1664775849399556
  0.4421566722384783  0.6084583450585683  0.7344576484931264
  0.7143234580202479 -0.0056558153354138  0.1811254039240672
  0.9469300441871652  0.4149628913952114  0.8403203829775233
  0.3934671849623095  0.6490995429965160  0.1718915368597504
  0.6280876684832195  0.3981537116147656  0.4618301071369466
  0.0080039558996053  0.6804878282551068  0.4654889517516440
  0.3535396426499419  0.9321429961776205  0.4476137736856305
  0.7058650411800095  0.4547119011151571  0.4255559473248934
  0.5324492276027137  0.4928141234315166  0.8816458845373883
 
  0.00000000E+00  0.00000000E+00  0.00000000E+00
  0.00000000E+00  0.00000000E+00  0.00000000E+00
  0.00000000E+00  0.00000000E+00  0.00000000E+00
  0.00000000E+00  0.00000000E+00  0.00000000E+00
  0.00000000E+00  0.00000000E+00  0.00000000E+00
  0.00000000E+00  0.00000000E+00  0.00000000E+00
  0.00000000E+00  0.00000000E+00  0.00000000E+00
  0.00000000E+00  0.00000000E+00  0.00000000E+00
  0.00000000E+00  0.00000000E+00  0.00000000E+00
  0.00000000E+00  0.00000000E+00  0.00000000E+00
  0.00000000E+00  0.00000000E+00  0.00000000E+00
  0.00000000E+00  0.00000000E+00  0.00000000E+00
  0.00000000E+00  0.00000000E+00  0.00000000E+00
  0.00000000E+00  0.00000000E+00  0.00000000E+00
  0.00000000E+00  0.00000000E+00  0.00000000E+00
  0.00000000E+00  0.00000000E+00  0.00000000E+00
  0.00000000E+00  0.00000000E+00  0.00000000E+00
  0.00000000E+00  0.00000000E+00  0.00000000E+00
  0.00000000E+00  0.00000000E+00  0.00000000E+00
  0.00000000E+00  0.00000000E+00  0.00000000E+00
  0.00000000E+00  0.00000000E+00  0.00000000E+00
  0.00000000E+00  0.00000000E+00  0.00000000E+00
  0.00000000E+00  0.00000000E+00  0.00000000E+00
  0.00000000E+00  0.00000000E+00  0.00000000E+00
  0.00000000E+00  0.00000000E+00  0.00000000E+00
  0.00000000E+00  0.00000000E+00  0.00000000E+00
  0.00000000E+00  0.00000000E+00  0.00000000E+00
  0.00000000E+00  0.00000000E+00  0.00000000E+00
  0.00000000E+00  0.00000000E+00  0.00000000E+00
  0.00000000E+00  0.00000000E+00  0.00000000E+00
  0.00000000E+00  0.00000000E+00  0.00000000E+00
  0.00000000E+00  0.00000000E+00  0.00000000E+00
  0.00000000E+00  0.00000000E+00  0.00000000E+00
  0.00000000E+00  0.00000000E+00  0.00000000E+00
  0.00000000E+00  0.00000000E+00  0.00000000E+00
  0.00000000E+00  0.00000000E+00  0.00000000E+00
  0.00000000E+00  0.00000000E+00  0.00000000E+00
  0.00000000E+00  0.00000000E+00  0.00000000E+00
  0.00000000E+00  0.00000000E+00  0.00000000E+00
  0.00000000E+00  0.00000000E+00  0.00000000E+00
  0.00000000E+00  0.00000000E+00  0.00000000E+00
  0.00000000E+00  0.00000000E+00  0.00000000E+00
  0.00000000E+00  0.00000000E+00  0.00000000E+00
  0.00000000E+00  0.00000000E+00  0.00000000E+00
  0.00000000E+00  0.00000000E+00  0.00000000E+00
  0.00000000E+00  0.00000000E+00  0.00000000E+00
  0.00000000E+00  0.00000000E+00  0.00000000E+00
  0.00000000E+00  0.00000000E+00  0.00000000E+00
  0.00000000E+00  0.00000000E+00  0.00000000E+00
  0.00000000E+00  0.00000000E+00  0.00000000E+00
  0.00000000E+00  0.00000000E+00  0.00000000E+00
  0.00000000E+00  0.00000000E+00  0.00000000E+00
  0.00000000E+00  0.00000000E+00  0.00000000E+00
  0.00000000E+00  0.00000000E+00  0.00000000E+00
  0.00000000E+00  0.00000000E+00  0.00000000E+00
  0.00000000E+00  0.00000000E+00  0.00000000E+00
  0.00000000E+00  0.00000000E+00  0.00000000E+00
  0.00000000E+00  0.00000000E+00  0.00000000E+00
  0.00000000E+00  0.00000000E+00  0.00000000E+00
  0.00000000E+00  0.00000000E+00  0.00000000E+00
  0.00000000E+00  0.00000000E+00  0.00000000E+00
  0.00000000E+00  0.00000000E+00  0.00000000E+00
  0.00000000E+00  0.00000000E+00  0.00000000E+00
  0.00000000E+00  0.00000000E+00  0.00000000E+00
  0.00000000E+00  0.00000000E+00  0.00000000E+00
  0.00000000E+00  0.00000000E+00  0.00000000E+00
  0.00000000E+00  0.00000000E+00  0.00000000E+00
  0.00000000E+00  0.00000000E+00  0.00000000E+00
  0.00000000E+00  0.00000000E+00  0.00000000E+00
  0.00000000E+00  0.00000000E+00  0.00000000E+00
  0.00000000E+00  0.00000000E+00  0.00000000E+00
  0.00000000E+00  0.00000000E+00  0.00000000E+00
  0.00000000E+00  0.00000000E+00  0.00000000E+00
  0.00000000E+00  0.00000000E+00  0.00000000E+00
  0.00000000E+00  0.00000000E+00  0.00000000E+00
  0.00000000E+00  0.00000000E+00  0.00000000E+00
  0.00000000E+00  0.00000000E+00  0.00000000E+00
  0.00000000E+00  0.00000000E+00  0.00000000E+00
  0.00000000E+00  0.00000000E+00  0.00000000E+00
  0.00000000E+00  0.00000000E+00  0.00000000E+00
  0.00000000E+00  0.00000000E+00  0.00000000E+00
  0.00000000E+00  0.00000000E+00  0.00000000E+00
  0.00000000E+00  0.00000000E+00  0.00000000E+00
  0.00000000E+00  0.00000000E+00  0.00000000E+00
  0.00000000E+00  0.00000000E+00  0.00000000E+00
  0.00000000E+00  0.00000000E+00  0.00000000E+00
  0.00000000E+00  0.00000000E+00  0.00000000E+00
  0.00000000E+00  0.00000000E+00  0.00000000E+00
  0.00000000E+00  0.00000000E+00  0.00000000E+00
  0.00000000E+00  0.00000000E+00  0.00000000E+00
  0.00000000E+00  0.00000000E+00  0.00000000E+00
  0.00000000E+00  0.00000000E+00  0.00000000E+00
  0.00000000E+00  0.00000000E+00  0.00000000E+00
  0.00000000E+00  0.00000000E+00  0.00000000E+00
  0.00000000E+00  0.00000000E+00  0.00000000E+00
  0.00000000E+00  0.00000000E+00  0.00000000E+00
  0.00000000E+00  0.00000000E+00  0.00000000E+00
  0.00000000E+00  0.00000000E+00  0.00000000E+00
  0.00000000E+00  0.00000000E+00  0.00000000E+00
  0.00000000E+00  0.00000000E+00  0.00000000E+00
  0.00000000E+00  0.00000000E+00  0.00000000E+00
  0.00000000E+00  0.00000000E+00  0.00000000E+00
  0.00000000E+00  0.00000000E+00  0.00000000E+00
  0.00000000E+00  0.00000000E+00  0.00000000E+00
  0.00000000E+00  0.00000000E+00  0.00000000E+00
  0.00000000E+00  0.00000000E+00  0.00000000E+00
  0.00000000E+00  0.00000000E+00  0.00000000E+00
  0.00000000E+00  0.00000000E+00  0.00000000E+00
  0.00000000E+00  0.00000000E+00  0.00000000E+00
  0.00000000E+00  0.00000000E+00  0.00000000E+00
  0.00000000E+00  0.00000000E+00  0.00000000E+00
  0.00000000E+00  0.00000000E+00  0.00000000E+00
  0.00000000E+00  0.00000000E+00  0.00000000E+00
  0.00000000E+00  0.00000000E+00  0.00000000E+00
  0.00000000E+00  0.00000000E+00  0.00000000E+00
  0.00000000E+00  0.00000000E+00  0.00000000E+00
  0.00000000E+00  0.00000000E+00  0.00000000E+00
  0.00000000E+00  0.00000000E+00  0.00000000E+00
  0.00000000E+00  0.00000000E+00  0.00000000E+00
  0.00000000E+00  0.00000000E+00  0.00000000E+00
  0.00000000E+00  0.00000000E+00  0.00000000E+00
  0.00000000E+00  0.00000000E+00  0.00000000E+00
  0.00000000E+00  0.00000000E+00  0.00000000E+00
  0.00000000E+00  0.00000000E+00  0.00000000E+00
  0.00000000E+00  0.00000000E+00  0.00000000E+00
  0.00000000E+00  0.00000000E+00  0.00000000E+00
  0.00000000E+00  0.00000000E+00  0.00000000E+00
  0.00000000E+00  0.00000000E+00  0.00000000E+00
  0.00000000E+00  0.00000000E+00  0.00000000E+00
  0.00000000E+00  0.00000000E+00  0.00000000E+00
  0.00000000E+00  0.00000000E+00  0.00000000E+00
  0.00000000E+00  0.00000000E+00  0.00000000E+00
  0.00000000E+00  0.00000000E+00  0.00000000E+00
  0.00000000E+00  0.00000000E+00  0.00000000E+00
  0.00000000E+00  0.00000000E+00  0.00000000E+00
  0.00000000E+00  0.00000000E+00  0.00000000E+00
  0.00000000E+00  0.00000000E+00  0.00000000E+00
  0.00000000E+00  0.00000000E+00  0.00000000E+00
  0.00000000E+00  0.00000000E+00  0.00000000E+00
  0.00000000E+00  0.00000000E+00  0.00000000E+00
  0.00000000E+00  0.00000000E+00  0.00000000E+00
  0.00000000E+00  0.00000000E+00  0.00000000E+00
  0.00000000E+00  0.00000000E+00  0.00000000E+00
  0.00000000E+00  0.00000000E+00  0.00000000E+00
  0.00000000E+00  0.00000000E+00  0.00000000E+00
  0.00000000E+00  0.00000000E+00  0.00000000E+00
  0.00000000E+00  0.00000000E+00  0.00000000E+00
  0.00000000E+00  0.00000000E+00  0.00000000E+00
  0.00000000E+00  0.00000000E+00  0.00000000E+00
  0.00000000E+00  0.00000000E+00  0.00000000E+00
  0.00000000E+00  0.00000000E+00  0.00000000E+00
  0.00000000E+00  0.00000000E+00  0.00000000E+00
  0.00000000E+00  0.00000000E+00  0.00000000E+00
  0.00000000E+00  0.00000000E+00  0.00000000E+00
