O  C  H  Co Li                          
   1.00000000000000     
    23.9261198104165054    1.4270226320989507   -0.1702423552515908
    13.3807977504398092   19.9075722412530887    0.0070620584243260
    -0.0366049182984033    0.0428470880645103    6.8013684059336974
   O    C    H    Co   Li
    52    66    16    18     2
Direct
  0.0302655862161645  0.2614631924774668  0.3129817660151899
 -0.0031093092186480  0.3119231449948554  0.9193298439369678
  0.0820998354336327  0.2581472061518923  0.7021635361890697
  0.6592956958070652  0.0958207571682822  0.2940406391908770
  0.6536721622187854  0.0647459188877221  0.9030241183843051
  0.5882064216621991  0.1497294620602136  0.6839911129803644
  0.0294915763183366  0.3954008276145974  0.6502565601088550
  0.3710348688139244  0.5657944128580121  0.3424731242240917
  0.4279502957379319  0.5283922873282343  0.9976187152030301
  0.3887586576526148  0.4847754073225880  0.7954876343632538
  0.5531002670048392  0.0559467912164607  0.6256243402235032
  0.3262389703041633  0.0020861564435999  0.3767627534943527
  0.2431993565191013  0.0494792995229416  0.6010638910396834
  0.2901581386930500  0.0515051037507269 -0.0091732726018718
  0.6118873547038477  0.3670741387191334  0.3404893571174052
  0.6612484541985606  0.2756369797579308  0.5554429654274586
  0.0112576619700288  0.6531367314795998  0.7220227385783063
  0.0484903039302451  0.5685184129396019  0.9410828589737278
  0.5509512600021230  0.3612965152507100  0.0092097191651594
  0.0904072087889897  0.6296796923825541  0.3872357987324526
  0.1396017357682575  0.6568956079698789  0.6049598704580027
  0.4080452916080075  0.9240982175104608  0.7106959962025609
  0.4290708413233725 -0.0213753424366784  0.9274275676125782
  0.1413814940724890  0.5993759386129496 -0.0012688985277431
  0.6802607149639760  0.9831162048457865  0.5688615767187467
  0.7610112398212314  0.9538247255198824  0.3489779616920546
  0.7204230169069021  0.9377527214480327 -0.0423278717728875
  0.4230779287176756  0.6280791049889095  0.4830887443019776
  0.3261329321432282  0.7146468401847864  0.3319577049164766
  0.0102661544027254  0.3729353774450596  0.2546220372174757
  0.9685162344834163  0.4591775399421436  0.0382682861725743
  0.3840850283817514  0.6545951381100856  0.9109315429271305
  0.9280044046792504  0.3983989747592300  0.5858095787143300
  0.8867324329140148  0.3618709302814043  0.3711761981708033
  0.5929586268112785  0.0516236028896161  0.2325157052427708
  0.5843038714922187 -0.0117116942552130  0.0169159717620151
  0.8800059170340273  0.4205303790826229 -0.0172672849822636
  0.9912354358122358  0.7645687413059881  0.6561705329200023
  0.0268311951615794  0.7149171510757348  0.0542360442691060
  0.9406458923442578  0.7662474158118622  0.2680680472993096
  0.3151475629863053  0.9084927988639364  0.6504937010007052
  0.3327367846799422 -0.0704099470845062  0.0393589200484846
  0.3858660342120105  0.8396718833419352  0.2461860459783512
  0.9897623449545303  0.6314661384695966  0.3276470276598638
  0.7018760462013224  0.3675233179431648  0.6674095515318442
  0.6258156223580486  0.4263382755208215  0.0075840418027692
  0.6735412206297751  0.4474518765876515  0.2522629423221490
  0.4542190430775975  0.9144398771397668  0.3165086924348385
  0.5434462216258734  0.4978072489976190  0.6309954695259424
  0.5286105966189923  0.5776085015306374  0.8375780406858025
  0.6198512002594831  0.5217784059266939  0.6264431671426125
  0.8102444196805711  0.2161334145121870  0.0704792378718887
  0.0920612293608686  0.2105062964331285  0.2268146580798144
  0.1445360325702307  0.1553935209747707  0.3471197431464608
  0.0608955037891142  0.2614899426731584  0.8754171521498538
  0.1085818976226387  0.2083421276419256  0.0239233515925248
  0.6328762207591097  0.1584560253690646  0.2063086457096128
  0.6343428809418150  0.2042167820858761  0.3259026228916412
  0.6147447332736637  0.1307275724092889  0.8568877142330026
  0.6068932705161717  0.1800447046409788  0.0062109923077747
  0.0191069256340116  0.4522004088707202  0.5629722724881747
  0.0270014927313911  0.4939764094970219  0.6839564662897343
  0.3149349574569894  0.5727080752171000  0.2619288154950388
  0.2542624127698868  0.6033267500683753  0.3697196625073313
  0.3813578729293730  0.5185712133822334  0.9515657614258465
  0.3184649362374559  0.5485838604607779  0.0693849338738087
  0.5312001567124595  0.0204982288026808  0.5413390390096084
  0.4970183835131685  0.0034014272081482  0.6644780009168553
  0.2617583900562906  0.0487914241960107  0.4262324068081318
  0.2115193247672302  0.1014357122619992  0.2799515864876223
  0.2278504725957244  0.0998296806926261  0.0772498121845600
  0.1750926289835336  0.1539635876170724  0.9566220283234340
  0.6272210635479829  0.3073219551938448  0.3978043980517520
  0.6098141221980699  0.2711793222483652  0.2653432628767322
  0.0267702264035573  0.5929047842955002  0.7672383748706656
  0.0173130946482639  0.5545812811780411  0.6182300209338546
  0.5776282804050824  0.2969245931609491  0.0712063091640862
  0.5785922717781221  0.2484289937489625  0.9473276554181012
  0.1391083579738548  0.6352213288414861  0.4346263005908145
  0.1956675000279021  0.6109134388033920  0.2937981784115583
  0.4347851240016959 -0.0445039873215812  0.7543279505920460
  0.4714435576912680  0.9669965868985262  0.6032879620583737
  0.1964644483151751  0.5901984388938207  0.0943027792538621
  0.2590059998669499  0.5577909667936758 -0.0103251598855508
  0.7454788546304822  0.9487195944142924  0.5231946502117282
  0.8000839176909418  0.9029367285970095  0.6731690634294469
  0.7847162760034782  0.9006468797276516  0.8745556434833021
  0.8411643224169791  0.8545590464186906  0.0003804817746915
  0.3652131930510342  0.6919480016962426  0.4842892771284636
  0.3516503507931728  0.7381071275327975  0.6500650973910649
  0.9920958692945956  0.4342988665123673  0.2107140927196861
  0.0009484092500064  0.4729700006051525  0.3600645220849262
  0.3694927560958026  0.7158065597924413  0.8501584089592283
  0.3711368659898791  0.7592185848524293  0.9820262575775959
  0.8866454807166921  0.3824365075353213  0.5439635343047899
  0.8386313134765896  0.3901150101534662  0.6944528693932905
  0.5738443936500046  0.0130042987085079  0.1895352985284010
  0.5398636597998833 -0.0009832546681986  0.3405566934896953
  0.8353196640979895  0.4105327398209065  0.8944963839649710
  0.7814049771954389  0.4211567902497588  0.0102153098678525
  0.9263616222188348  0.8094077087773764  0.7375411125407985
  0.8700559037245702  0.8585634344041180  0.6127650768213361
  0.9614635081585932  0.7620308992899836  0.0937146415543536
  0.9105642387838320  0.8095965810419656  0.9397071119669952
  0.3308203214499667  0.8486071810820104  0.7278476628672307
  0.3291374293678694  0.8048071749912036  0.5959662965809157
  0.3583596225554714  0.8651717935346531  0.0770138481580110
  0.3529976489569615  0.8246210406115182  0.9261848872812279
 -0.0005575868507660  0.5751875247886178  0.4151165914361925
  0.9910687008342649  0.5336440508453709  0.2944682794649916
  0.7414027275534385  0.3842276391768216  0.7494385968390679
  0.7929179370692115  0.3757957809008543  0.6313907065334431
  0.6740674193955482  0.4287857214836172  0.0722016987101185
  0.7330346260590548  0.4104211891433293  0.9437424689447680
  0.4791777376793697  0.9465383962597621  0.4015006670341992
  0.5151123811679279  0.9619081218564794  0.2798511664167687
  0.5644303851015459  0.5349423046224167  0.7043420191882466
  0.7527943935436655  0.2553086060992696  0.0045446633232958
  0.1331726300594987  0.1554077842309431  0.5018613846198475
  0.6574620742152020  0.1858528809765538  0.4727359980547092
  0.0403746949582460  0.4789336588729634  0.8384238758260564
  0.2523996497177842  0.6213901474204955  0.5185881291416981
  0.4903375201245443  0.0192371101826283  0.8175004461779855
  0.1868052705029921  0.1535065218062983  0.8021289987356371
  0.5584876497769357  0.2650474621750000  0.7968482003735774
  0.2601201779535992  0.5410352244571116  0.8398440720770264
  0.8299332613209086  0.8530109427850621  0.1540704610690079
  0.3873807424518564  0.7420061824626009  0.1342011161091037
  0.7791135575193573  0.4370993153567640  0.1616339731189106
  0.8807392888212516  0.8606400188402324  0.4586471671450361
  0.3144967901196805  0.8217833061156185  0.4430430401844495
  0.9775729032367346  0.5487180668094283  0.1401019883062531
  0.7975640255688932  0.3571629625416807  0.4819462134708374
  0.5222753663643310  0.9457445200245785  0.1269813737903406
  0.4020602876359385  0.5212435708162630  0.5809377770612363
  0.0348688350963302  0.3253143647720944  0.4931296498432869
  0.5987745651565674  0.0863978228465307  0.4719653982664196
  0.0716420732305025  0.6860051411636821  0.8133057540908631
  0.3733877810042538 -0.0162871893328241  0.1406021111812655
  0.2986375138178901 -0.0183653050360043  0.8071555745325463
  0.6561032011962648  0.3186916292822667  0.0413718714588936
  0.7010206386382688  0.2925951400994747  0.7626578207368225
  0.0674052804754333  0.6103250970702739  0.1486154172022523
  0.6356521151241822 -0.0065050708376078  0.8042606756874163
  0.9514260901087677  0.3385209834244862  0.1593959890342022
  0.4420356544508430  0.5715941418521631  0.7315373615535917
  0.6951806706950823  0.0150619027287025  0.1394685870765611
  0.9515347671736143  0.4158129260953369  0.8277129685797832
  0.3860634082652154  0.6230989307611910  0.1757018424716601
  0.6274628427024150  0.4287302194039971  0.4753908051326946
  0.9868273575240146  0.7009070283305797  0.4825002004230293
  0.3889741972600651  0.8979520167005693  0.4510026092815894
  0.6604140995787379  0.5182275116863716  0.4050531095650424
  0.5314888548712601  0.4492984577393404  0.0127800856752846
 
  0.00000000E+00  0.00000000E+00  0.00000000E+00
  0.00000000E+00  0.00000000E+00  0.00000000E+00
  0.00000000E+00  0.00000000E+00  0.00000000E+00
  0.00000000E+00  0.00000000E+00  0.00000000E+00
  0.00000000E+00  0.00000000E+00  0.00000000E+00
  0.00000000E+00  0.00000000E+00  0.00000000E+00
  0.00000000E+00  0.00000000E+00  0.00000000E+00
  0.00000000E+00  0.00000000E+00  0.00000000E+00
  0.00000000E+00  0.00000000E+00  0.00000000E+00
  0.00000000E+00  0.00000000E+00  0.00000000E+00
  0.00000000E+00  0.00000000E+00  0.00000000E+00
  0.00000000E+00  0.00000000E+00  0.00000000E+00
  0.00000000E+00  0.00000000E+00  0.00000000E+00
  0.00000000E+00  0.00000000E+00  0.00000000E+00
  0.00000000E+00  0.00000000E+00  0.00000000E+00
  0.00000000E+00  0.00000000E+00  0.00000000E+00
  0.00000000E+00  0.00000000E+00  0.00000000E+00
  0.00000000E+00  0.00000000E+00  0.00000000E+00
  0.00000000E+00  0.00000000E+00  0.00000000E+00
  0.00000000E+00  0.00000000E+00  0.00000000E+00
  0.00000000E+00  0.00000000E+00  0.00000000E+00
  0.00000000E+00  0.00000000E+00  0.00000000E+00
  0.00000000E+00  0.00000000E+00  0.00000000E+00
  0.00000000E+00  0.00000000E+00  0.00000000E+00
  0.00000000E+00  0.00000000E+00  0.00000000E+00
  0.00000000E+00  0.00000000E+00  0.00000000E+00
  0.00000000E+00  0.00000000E+00  0.00000000E+00
  0.00000000E+00  0.00000000E+00  0.00000000E+00
  0.00000000E+00  0.00000000E+00  0.00000000E+00
  0.00000000E+00  0.00000000E+00  0.00000000E+00
  0.00000000E+00  0.00000000E+00  0.00000000E+00
  0.00000000E+00  0.00000000E+00  0.00000000E+00
  0.00000000E+00  0.00000000E+00  0.00000000E+00
  0.00000000E+00  0.00000000E+00  0.00000000E+00
  0.00000000E+00  0.00000000E+00  0.00000000E+00
  0.00000000E+00  0.00000000E+00  0.00000000E+00
  0.00000000E+00  0.00000000E+00  0.00000000E+00
  0.00000000E+00  0.00000000E+00  0.00000000E+00
  0.00000000E+00  0.00000000E+00  0.00000000E+00
  0.00000000E+00  0.00000000E+00  0.00000000E+00
  0.00000000E+00  0.00000000E+00  0.00000000E+00
  0.00000000E+00  0.00000000E+00  0.00000000E+00
  0.00000000E+00  0.00000000E+00  0.00000000E+00
  0.00000000E+00  0.00000000E+00  0.00000000E+00
  0.00000000E+00  0.00000000E+00  0.00000000E+00
  0.00000000E+00  0.00000000E+00  0.00000000E+00
  0.00000000E+00  0.00000000E+00  0.00000000E+00
  0.00000000E+00  0.00000000E+00  0.00000000E+00
  0.00000000E+00  0.00000000E+00  0.00000000E+00
  0.00000000E+00  0.00000000E+00  0.00000000E+00
  0.00000000E+00  0.00000000E+00  0.00000000E+00
  0.00000000E+00  0.00000000E+00  0.00000000E+00
  0.00000000E+00  0.00000000E+00  0.00000000E+00
  0.00000000E+00  0.00000000E+00  0.00000000E+00
  0.00000000E+00  0.00000000E+00  0.00000000E+00
  0.00000000E+00  0.00000000E+00  0.00000000E+00
  0.00000000E+00  0.00000000E+00  0.00000000E+00
  0.00000000E+00  0.00000000E+00  0.00000000E+00
  0.00000000E+00  0.00000000E+00  0.00000000E+00
  0.00000000E+00  0.00000000E+00  0.00000000E+00
  0.00000000E+00  0.00000000E+00  0.00000000E+00
  0.00000000E+00  0.00000000E+00  0.00000000E+00
  0.00000000E+00  0.00000000E+00  0.00000000E+00
  0.00000000E+00  0.00000000E+00  0.00000000E+00
  0.00000000E+00  0.00000000E+00  0.00000000E+00
  0.00000000E+00  0.00000000E+00  0.00000000E+00
  0.00000000E+00  0.00000000E+00  0.00000000E+00
  0.00000000E+00  0.00000000E+00  0.00000000E+00
  0.00000000E+00  0.00000000E+00  0.00000000E+00
  0.00000000E+00  0.00000000E+00  0.00000000E+00
  0.00000000E+00  0.00000000E+00  0.00000000E+00
  0.00000000E+00  0.00000000E+00  0.00000000E+00
  0.00000000E+00  0.00000000E+00  0.00000000E+00
  0.00000000E+00  0.00000000E+00  0.00000000E+00
  0.00000000E+00  0.00000000E+00  0.00000000E+00
  0.00000000E+00  0.00000000E+00  0.00000000E+00
  0.00000000E+00  0.00000000E+00  0.00000000E+00
  0.00000000E+00  0.00000000E+00  0.00000000E+00
  0.00000000E+00  0.00000000E+00  0.00000000E+00
  0.00000000E+00  0.00000000E+00  0.00000000E+00
  0.00000000E+00  0.00000000E+00  0.00000000E+00
  0.00000000E+00  0.00000000E+00  0.00000000E+00
  0.00000000E+00  0.00000000E+00  0.00000000E+00
  0.00000000E+00  0.00000000E+00  0.00000000E+00
  0.00000000E+00  0.00000000E+00  0.00000000E+00
  0.00000000E+00  0.00000000E+00  0.00000000E+00
  0.00000000E+00  0.00000000E+00  0.00000000E+00
  0.00000000E+00  0.00000000E+00  0.00000000E+00
  0.00000000E+00  0.00000000E+00  0.00000000E+00
  0.00000000E+00  0.00000000E+00  0.00000000E+00
  0.00000000E+00  0.00000000E+00  0.00000000E+00
  0.00000000E+00  0.00000000E+00  0.00000000E+00
  0.00000000E+00  0.00000000E+00  0.00000000E+00
  0.00000000E+00  0.00000000E+00  0.00000000E+00
  0.00000000E+00  0.00000000E+00  0.00000000E+00
  0.00000000E+00  0.00000000E+00  0.00000000E+00
  0.00000000E+00  0.00000000E+00  0.00000000E+00
  0.00000000E+00  0.00000000E+00  0.00000000E+00
  0.00000000E+00  0.00000000E+00  0.00000000E+00
  0.00000000E+00  0.00000000E+00  0.00000000E+00
  0.00000000E+00  0.00000000E+00  0.00000000E+00
  0.00000000E+00  0.00000000E+00  0.00000000E+00
  0.00000000E+00  0.00000000E+00  0.00000000E+00
  0.00000000E+00  0.00000000E+00  0.00000000E+00
  0.00000000E+00  0.00000000E+00  0.00000000E+00
  0.00000000E+00  0.00000000E+00  0.00000000E+00
  0.00000000E+00  0.00000000E+00  0.00000000E+00
  0.00000000E+00  0.00000000E+00  0.00000000E+00
  0.00000000E+00  0.00000000E+00  0.00000000E+00
  0.00000000E+00  0.00000000E+00  0.00000000E+00
  0.00000000E+00  0.00000000E+00  0.00000000E+00
  0.00000000E+00  0.00000000E+00  0.00000000E+00
  0.00000000E+00  0.00000000E+00  0.00000000E+00
  0.00000000E+00  0.00000000E+00  0.00000000E+00
  0.00000000E+00  0.00000000E+00  0.00000000E+00
  0.00000000E+00  0.00000000E+00  0.00000000E+00
  0.00000000E+00  0.00000000E+00  0.00000000E+00
  0.00000000E+00  0.00000000E+00  0.00000000E+00
  0.00000000E+00  0.00000000E+00  0.00000000E+00
  0.00000000E+00  0.00000000E+00  0.00000000E+00
  0.00000000E+00  0.00000000E+00  0.00000000E+00
  0.00000000E+00  0.00000000E+00  0.00000000E+00
  0.00000000E+00  0.00000000E+00  0.00000000E+00
  0.00000000E+00  0.00000000E+00  0.00000000E+00
  0.00000000E+00  0.00000000E+00  0.00000000E+00
  0.00000000E+00  0.00000000E+00  0.00000000E+00
  0.00000000E+00  0.00000000E+00  0.00000000E+00
  0.00000000E+00  0.00000000E+00  0.00000000E+00
  0.00000000E+00  0.00000000E+00  0.00000000E+00
  0.00000000E+00  0.00000000E+00  0.00000000E+00
  0.00000000E+00  0.00000000E+00  0.00000000E+00
  0.00000000E+00  0.00000000E+00  0.00000000E+00
  0.00000000E+00  0.00000000E+00  0.00000000E+00
  0.00000000E+00  0.00000000E+00  0.00000000E+00
  0.00000000E+00  0.00000000E+00  0.00000000E+00
  0.00000000E+00  0.00000000E+00  0.00000000E+00
  0.00000000E+00  0.00000000E+00  0.00000000E+00
  0.00000000E+00  0.00000000E+00  0.00000000E+00
  0.00000000E+00  0.00000000E+00  0.00000000E+00
  0.00000000E+00  0.00000000E+00  0.00000000E+00
  0.00000000E+00  0.00000000E+00  0.00000000E+00
  0.00000000E+00  0.00000000E+00  0.00000000E+00
  0.00000000E+00  0.00000000E+00  0.00000000E+00
  0.00000000E+00  0.00000000E+00  0.00000000E+00
  0.00000000E+00  0.00000000E+00  0.00000000E+00
  0.00000000E+00  0.00000000E+00  0.00000000E+00
  0.00000000E+00  0.00000000E+00  0.00000000E+00
  0.00000000E+00  0.00000000E+00  0.00000000E+00
  0.00000000E+00  0.00000000E+00  0.00000000E+00
  0.00000000E+00  0.00000000E+00  0.00000000E+00
  0.00000000E+00  0.00000000E+00  0.00000000E+00
  0.00000000E+00  0.00000000E+00  0.00000000E+00
  0.00000000E+00  0.00000000E+00  0.00000000E+00
  0.00000000E+00  0.00000000E+00  0.00000000E+00
