O  C  H  Co Li                          
   1.00000000000000     
    23.5077742882732714    2.1077323868084976   -0.2413142776190632
    13.4704902429679674   22.2141480838478778   -0.2672467502282025
    -0.0580550127285027   -0.0475156205586003    6.8401061198403523
   O    C    H    Co   Li
    52    66    16    18     2
Direct
  0.0118721875829452  0.2894197367230221  0.3005105550298387
 -0.0135622129941783  0.3340646132852580  0.9276993222732556
  0.0699915090115642  0.2774859106034647  0.7055545951904604
  0.6625600147276629  0.0814941058144127  0.3156963903348885
  0.6436906047136810  0.0531990400034662  0.9595675154552427
  0.5966230819507941  0.1251818871795300  0.7210819360542980
  0.0032303624447232  0.4195656665962926  0.6404248942158320
  0.3866849225967777  0.5957400645583533  0.3244025436127125
  0.4439091243143259  0.5633517617041552  0.9795009333509607
  0.4086968238320505  0.5203312321756675  0.7698028707008663
  0.5796809621203752  0.0185009181237814  0.6351813032463083
  0.2747098361421791  0.0226411840678015  0.3406416388866184
  0.1936407425781188  0.0736496910746415  0.5736211043525073
  0.2466398075808753  0.0677975263451523  0.9844098382648604
  0.6058894805485838  0.3379168747401750  0.3513617895419696
  0.6472847323485378  0.2634685831695061  0.5823651701448599
  0.0612894042973540  0.6134986276809622  0.6913632998445141
  0.0766594220152614  0.5480151889857050  0.9257135211143126
  0.5452125133199707  0.3230020445563254  0.0277445458289714
  0.1128997185952958  0.6327054845125978  0.3615601545295523
  0.1674716905666573  0.6476410654946579  0.6004896992833242
  0.3574499411054550  0.9780371168577094  0.6775951376081014
  0.3974997879167270  0.0093761115985672  0.9133329602867782
  0.1698148440748782  0.5961974555937392 -0.0002552653897096
  0.7124785254601574  0.9781086586327518  0.6246413317589249
  0.7905415206694298  0.9362150281115913  0.3821079160871600
  0.7460705347337900  0.9302535524811081  0.9741613303529566
  0.4409317314658718  0.6530726651287717  0.4818084237857997
  0.3469922360938188  0.7287045495310577  0.3184267574593836
  0.9731711635735285  0.4046963160045348  0.2712838263574860
  0.9524756507906432  0.4736526021790450  0.0429765589084414
  0.4031733037729550  0.6805076092091743  0.9023271062968378
  0.9091034837147547  0.4001699838043056  0.5935629073081928
  0.8522751144293417  0.3832886049898481  0.3674749529209998
  0.6325539350372222 -0.0023102864606085  0.2858412934002093
  0.5974268093433458  0.9652832783960451  0.0378858393953588
  0.8529140116867582  0.4312084418860447  0.9664951918740623
  0.0052767189309715  0.7361974647541497  0.6680952506085730
  0.0349354909239499  0.6886873054128421  0.0334210769417952
  0.9527485118617298  0.7404437493363242  0.2618833923072315
  0.2941085813512204  0.9240050310544107  0.6405895020672427
  0.3185122837058648  0.9472557381017253  0.0047081969640133
  0.3608194897667407  0.8729902878695396  0.2339468857294378
  0.0291408013318610  0.5998297539797042  0.3286915398379154
  0.7067895774145498  0.3371722199410387  0.6933882949200796
  0.6124877711966549  0.4190363399699206  0.0365454775699188
  0.6941002670702910  0.3894568048053418  0.2713138097753554
  0.4128149420349513  0.9525048799565119  0.3173652816324252
  0.5758889836136393  0.4684665440280417  0.5931695107741534
  0.5596469015073979  0.5514891570853282  0.7487423545909212
  0.6474685294284244  0.4981105594140345  0.5303644881988636
  0.7512620220815885  0.2372977078252845  0.1702304159771773
  0.0677111346310026  0.2358719997457968  0.2183062376372506
  0.1111807632019112  0.1823464155937410  0.3366540023995970
  0.0462990494491475  0.2829135612501233  0.8757043536603344
  0.0861226891117943  0.2304226928438728  0.0166007210871085
  0.6338229748643024  0.1397311532857657  0.2391714011177105
  0.6330682887003626  0.1846679741195768  0.3565701601837939
  0.6152708024592898  0.1101364721152600  0.8981988471744000
  0.6068182313438821  0.1572909410507918  0.0437997174653258
  0.0088737036604218  0.4630047589107116  0.5595147499096599
  0.0296817644076419  0.4933691621116748  0.6798455079435403
  0.3349921732350489  0.5929910795843850  0.2479791297708042
  0.2771408176709377  0.6122765660815301  0.3611211681596445
  0.3995596103928195  0.5503549384064472  0.9319811259368925
  0.3394061576356364  0.5705924953071171  0.0543987514485689
  0.5408984118535877  0.0014188385197503  0.5528712488155685
  0.4939063965723809  0.0009556175428702  0.6717489846043662
  0.2148891603543069  0.0712760872365961  0.4020686322456423
  0.1715133990446868  0.1252571991669600  0.2658851171838417
  0.1896859667616046  0.1204327095817248  0.0645299936520735
  0.1461783011843137  0.1734305644097183  0.9457653515318916
  0.6193908739010554  0.2845207128388105  0.4151856984791670
  0.6058614715953557  0.2460094706983781  0.2905408980357417
  0.0597927082190088  0.5677182966643034  0.7512793569978401
  0.0369414540267582  0.5392663699793604  0.6102440242937689
  0.5729061261879990  0.2657478154102120  0.1017211459483835
  0.5748760690196155  0.2198078797899982  0.9831813118426237
  0.1645884064604182  0.6321822895302878  0.4250433767134199
  0.2220126315655766  0.6118391224431461  0.2869489712893367
  0.3995600399941852  0.9908379944761767  0.7382571915765942
  0.4502731728945455  0.9851469664978015  0.6002776915355625
  0.2230521923212516  0.5930953671689603  0.0871041510587403
  0.2835827395662479  0.5708100981313377  0.9777734515197072
  0.7743523940546444  0.9354341348615308  0.5569569265106993
  0.8259854939889146  0.8848055104462476  0.6947191631144207
  0.8091403433364753  0.8858488521205871  0.8950962449062446
  0.8605276252117010  0.8372318643260743  0.0161289330413204
  0.3826985036860238  0.7106412288453813  0.4759352260041295
  0.3620848236435510  0.7564708742886583  0.6392384833978880
  0.9719717848077294  0.4522618009056926  0.2153370434422051
  0.9949821255606900  0.4803155106755620  0.3571402878337216
  0.3785993586392593  0.7397023834792318  0.8399359310862370
  0.3683665439644571  0.7862181421508386  0.9711291169976773
  0.8649733901585961  0.3886576002294460  0.5469991574332177
  0.8249727014915075  0.3847137656190719  0.7001608528027905
  0.5937627805837997  0.9820966991176047  0.2152976794379831
  0.5442109936228026  0.9843363108137200  0.3513695215474192
  0.8158561469413574  0.4118377520320831  0.8901061186522288
  0.7631631863022408  0.4178634408414797  0.0042005358085002
  0.9436094491044269  0.7844746054735386  0.7466073245918905
  0.8925042319544649  0.8347618928141928  0.6262221154363865
  0.9734456676440272  0.7365775621919041  0.0888221090978001
  0.9265546394078999  0.7869741111417999  0.9474388141681676
  0.3202042346618582  0.8662224295425790  0.7143705450459109
  0.3305322733334361  0.8192993895919679  0.5832871318917281
  0.3396689620193552  0.8916632681866504  0.0595140382380169
  0.3409724729111522  0.8482579276707046  0.9127685311887341
  0.0232486045451800  0.5563451292806393  0.4082140120744556
  0.0023111371141891  0.5262199477820994  0.2876498819165799
  0.7396887294449556  0.3619644735366044  0.7661426456403979
  0.7902100241220454  0.3572874415286110  0.6489816102967791
  0.6741237132205006  0.4013392536640322  0.0922702733958883
  0.7251249759063636  0.3942909376568823  0.9494106780969295
  0.4532929964983727  0.9681198557819506  0.3991956849066007
  0.5010396448383018  0.9679813873769134  0.2799663620042400
  0.5964452983822036  0.5064728787615873  0.6172685418836086
  0.7097475402773270  0.2683656936538320  0.0463188534333939
  0.0976392986616062  0.1859127823315108  0.4902511407587452
  0.6569916826785472  0.1702946474599417  0.5016556853405569
  0.0406170259670656  0.4804039771069875  0.8336478808916872
  0.2740649468191541  0.6287709366208022  0.5115314152893367
  0.4912312309807071  0.0138496807707754  0.8257333172675833
  0.1602854177057375  0.1698276882655668  0.7926176321287020
  0.5543570840809777  0.2328599574267092  0.8339553535708586
  0.2858800147208814  0.5550894291521780  0.8269500599657437
  0.8477157692857236  0.8381553280622139  0.1688572694602683
  0.3830344329203633  0.7740702394600547  0.1237222577744744
  0.7516810814418882  0.4449534194607793  0.1398088563980087
  0.9048652777019994  0.8339085372278816  0.4728575800442230
  0.3174543922121948  0.8314730287576385  0.4292873647348363
  0.9915733714347666  0.5391518752117828  0.1337197612369081
  0.8023704234734478  0.3317442668744411  0.5086967331390599
  0.5038360749559659  0.9554006380325122  0.1254947587415721
  0.4211687372147278  0.5565642431606391  0.5613346202111710
  0.0121074400058939  0.3456323148141126  0.5064821650041410
  0.6252136190875451  0.0563281753100979  0.5148209225226573
  0.0978101945936650  0.6610464423096725  0.7993241781628831
  0.3417276516186796  0.0064858376700060  0.1170141702225776
  0.2604444184647540  0.0093571076831693  0.7714977850807677
  0.6086599308997291  0.3436546537189065  0.0429847272782182
  0.6769947723387142  0.2881539617762251  0.7975580273543794
  0.0905309896082715  0.5974241696803175  0.1257436484784804
  0.6510628829673681  0.9789277965854702  0.8432164772806400
  0.9262468671730246  0.3656889203106716  0.1646913163437503
  0.4564736375388986  0.6057371670776945  0.7244951325849721
  0.7128087933595569  0.9944493358691622  0.1841293783743072
  0.9367099505748645  0.4256271494150483  0.8411815624893125
  0.4039596682860957  0.6472972943451064  0.1597634059914536
  0.6384316373207076  0.3841330331941648  0.4825080722907824
  0.0157803459539034  0.6762570915829830  0.4639876536214960
  0.3481774637588325  0.9332213009876025  0.4435199683564097
  0.7296294514079764  0.4327773970390160  0.4152475827025129
  0.5450065353390020  0.4895933833826630  0.8777491001507794
 
  0.00000000E+00  0.00000000E+00  0.00000000E+00
  0.00000000E+00  0.00000000E+00  0.00000000E+00
  0.00000000E+00  0.00000000E+00  0.00000000E+00
  0.00000000E+00  0.00000000E+00  0.00000000E+00
  0.00000000E+00  0.00000000E+00  0.00000000E+00
  0.00000000E+00  0.00000000E+00  0.00000000E+00
  0.00000000E+00  0.00000000E+00  0.00000000E+00
  0.00000000E+00  0.00000000E+00  0.00000000E+00
  0.00000000E+00  0.00000000E+00  0.00000000E+00
  0.00000000E+00  0.00000000E+00  0.00000000E+00
  0.00000000E+00  0.00000000E+00  0.00000000E+00
  0.00000000E+00  0.00000000E+00  0.00000000E+00
  0.00000000E+00  0.00000000E+00  0.00000000E+00
  0.00000000E+00  0.00000000E+00  0.00000000E+00
  0.00000000E+00  0.00000000E+00  0.00000000E+00
  0.00000000E+00  0.00000000E+00  0.00000000E+00
  0.00000000E+00  0.00000000E+00  0.00000000E+00
  0.00000000E+00  0.00000000E+00  0.00000000E+00
  0.00000000E+00  0.00000000E+00  0.00000000E+00
  0.00000000E+00  0.00000000E+00  0.00000000E+00
  0.00000000E+00  0.00000000E+00  0.00000000E+00
  0.00000000E+00  0.00000000E+00  0.00000000E+00
  0.00000000E+00  0.00000000E+00  0.00000000E+00
  0.00000000E+00  0.00000000E+00  0.00000000E+00
  0.00000000E+00  0.00000000E+00  0.00000000E+00
  0.00000000E+00  0.00000000E+00  0.00000000E+00
  0.00000000E+00  0.00000000E+00  0.00000000E+00
  0.00000000E+00  0.00000000E+00  0.00000000E+00
  0.00000000E+00  0.00000000E+00  0.00000000E+00
  0.00000000E+00  0.00000000E+00  0.00000000E+00
  0.00000000E+00  0.00000000E+00  0.00000000E+00
  0.00000000E+00  0.00000000E+00  0.00000000E+00
  0.00000000E+00  0.00000000E+00  0.00000000E+00
  0.00000000E+00  0.00000000E+00  0.00000000E+00
  0.00000000E+00  0.00000000E+00  0.00000000E+00
  0.00000000E+00  0.00000000E+00  0.00000000E+00
  0.00000000E+00  0.00000000E+00  0.00000000E+00
  0.00000000E+00  0.00000000E+00  0.00000000E+00
  0.00000000E+00  0.00000000E+00  0.00000000E+00
  0.00000000E+00  0.00000000E+00  0.00000000E+00
  0.00000000E+00  0.00000000E+00  0.00000000E+00
  0.00000000E+00  0.00000000E+00  0.00000000E+00
  0.00000000E+00  0.00000000E+00  0.00000000E+00
  0.00000000E+00  0.00000000E+00  0.00000000E+00
  0.00000000E+00  0.00000000E+00  0.00000000E+00
  0.00000000E+00  0.00000000E+00  0.00000000E+00
  0.00000000E+00  0.00000000E+00  0.00000000E+00
  0.00000000E+00  0.00000000E+00  0.00000000E+00
  0.00000000E+00  0.00000000E+00  0.00000000E+00
  0.00000000E+00  0.00000000E+00  0.00000000E+00
  0.00000000E+00  0.00000000E+00  0.00000000E+00
  0.00000000E+00  0.00000000E+00  0.00000000E+00
  0.00000000E+00  0.00000000E+00  0.00000000E+00
  0.00000000E+00  0.00000000E+00  0.00000000E+00
  0.00000000E+00  0.00000000E+00  0.00000000E+00
  0.00000000E+00  0.00000000E+00  0.00000000E+00
  0.00000000E+00  0.00000000E+00  0.00000000E+00
  0.00000000E+00  0.00000000E+00  0.00000000E+00
  0.00000000E+00  0.00000000E+00  0.00000000E+00
  0.00000000E+00  0.00000000E+00  0.00000000E+00
  0.00000000E+00  0.00000000E+00  0.00000000E+00
  0.00000000E+00  0.00000000E+00  0.00000000E+00
  0.00000000E+00  0.00000000E+00  0.00000000E+00
  0.00000000E+00  0.00000000E+00  0.00000000E+00
  0.00000000E+00  0.00000000E+00  0.00000000E+00
  0.00000000E+00  0.00000000E+00  0.00000000E+00
  0.00000000E+00  0.00000000E+00  0.00000000E+00
  0.00000000E+00  0.00000000E+00  0.00000000E+00
  0.00000000E+00  0.00000000E+00  0.00000000E+00
  0.00000000E+00  0.00000000E+00  0.00000000E+00
  0.00000000E+00  0.00000000E+00  0.00000000E+00
  0.00000000E+00  0.00000000E+00  0.00000000E+00
  0.00000000E+00  0.00000000E+00  0.00000000E+00
  0.00000000E+00  0.00000000E+00  0.00000000E+00
  0.00000000E+00  0.00000000E+00  0.00000000E+00
  0.00000000E+00  0.00000000E+00  0.00000000E+00
  0.00000000E+00  0.00000000E+00  0.00000000E+00
  0.00000000E+00  0.00000000E+00  0.00000000E+00
  0.00000000E+00  0.00000000E+00  0.00000000E+00
  0.00000000E+00  0.00000000E+00  0.00000000E+00
  0.00000000E+00  0.00000000E+00  0.00000000E+00
  0.00000000E+00  0.00000000E+00  0.00000000E+00
  0.00000000E+00  0.00000000E+00  0.00000000E+00
  0.00000000E+00  0.00000000E+00  0.00000000E+00
  0.00000000E+00  0.00000000E+00  0.00000000E+00
  0.00000000E+00  0.00000000E+00  0.00000000E+00
  0.00000000E+00  0.00000000E+00  0.00000000E+00
  0.00000000E+00  0.00000000E+00  0.00000000E+00
  0.00000000E+00  0.00000000E+00  0.00000000E+00
  0.00000000E+00  0.00000000E+00  0.00000000E+00
  0.00000000E+00  0.00000000E+00  0.00000000E+00
  0.00000000E+00  0.00000000E+00  0.00000000E+00
  0.00000000E+00  0.00000000E+00  0.00000000E+00
  0.00000000E+00  0.00000000E+00  0.00000000E+00
  0.00000000E+00  0.00000000E+00  0.00000000E+00
  0.00000000E+00  0.00000000E+00  0.00000000E+00
  0.00000000E+00  0.00000000E+00  0.00000000E+00
  0.00000000E+00  0.00000000E+00  0.00000000E+00
  0.00000000E+00  0.00000000E+00  0.00000000E+00
  0.00000000E+00  0.00000000E+00  0.00000000E+00
  0.00000000E+00  0.00000000E+00  0.00000000E+00
  0.00000000E+00  0.00000000E+00  0.00000000E+00
  0.00000000E+00  0.00000000E+00  0.00000000E+00
  0.00000000E+00  0.00000000E+00  0.00000000E+00
  0.00000000E+00  0.00000000E+00  0.00000000E+00
  0.00000000E+00  0.00000000E+00  0.00000000E+00
  0.00000000E+00  0.00000000E+00  0.00000000E+00
  0.00000000E+00  0.00000000E+00  0.00000000E+00
  0.00000000E+00  0.00000000E+00  0.00000000E+00
  0.00000000E+00  0.00000000E+00  0.00000000E+00
  0.00000000E+00  0.00000000E+00  0.00000000E+00
  0.00000000E+00  0.00000000E+00  0.00000000E+00
  0.00000000E+00  0.00000000E+00  0.00000000E+00
  0.00000000E+00  0.00000000E+00  0.00000000E+00
  0.00000000E+00  0.00000000E+00  0.00000000E+00
  0.00000000E+00  0.00000000E+00  0.00000000E+00
  0.00000000E+00  0.00000000E+00  0.00000000E+00
  0.00000000E+00  0.00000000E+00  0.00000000E+00
  0.00000000E+00  0.00000000E+00  0.00000000E+00
  0.00000000E+00  0.00000000E+00  0.00000000E+00
  0.00000000E+00  0.00000000E+00  0.00000000E+00
  0.00000000E+00  0.00000000E+00  0.00000000E+00
  0.00000000E+00  0.00000000E+00  0.00000000E+00
  0.00000000E+00  0.00000000E+00  0.00000000E+00
  0.00000000E+00  0.00000000E+00  0.00000000E+00
  0.00000000E+00  0.00000000E+00  0.00000000E+00
  0.00000000E+00  0.00000000E+00  0.00000000E+00
  0.00000000E+00  0.00000000E+00  0.00000000E+00
  0.00000000E+00  0.00000000E+00  0.00000000E+00
  0.00000000E+00  0.00000000E+00  0.00000000E+00
  0.00000000E+00  0.00000000E+00  0.00000000E+00
  0.00000000E+00  0.00000000E+00  0.00000000E+00
  0.00000000E+00  0.00000000E+00  0.00000000E+00
  0.00000000E+00  0.00000000E+00  0.00000000E+00
  0.00000000E+00  0.00000000E+00  0.00000000E+00
  0.00000000E+00  0.00000000E+00  0.00000000E+00
  0.00000000E+00  0.00000000E+00  0.00000000E+00
  0.00000000E+00  0.00000000E+00  0.00000000E+00
  0.00000000E+00  0.00000000E+00  0.00000000E+00
  0.00000000E+00  0.00000000E+00  0.00000000E+00
  0.00000000E+00  0.00000000E+00  0.00000000E+00
  0.00000000E+00  0.00000000E+00  0.00000000E+00
  0.00000000E+00  0.00000000E+00  0.00000000E+00
  0.00000000E+00  0.00000000E+00  0.00000000E+00
  0.00000000E+00  0.00000000E+00  0.00000000E+00
  0.00000000E+00  0.00000000E+00  0.00000000E+00
  0.00000000E+00  0.00000000E+00  0.00000000E+00
  0.00000000E+00  0.00000000E+00  0.00000000E+00
  0.00000000E+00  0.00000000E+00  0.00000000E+00
  0.00000000E+00  0.00000000E+00  0.00000000E+00
  0.00000000E+00  0.00000000E+00  0.00000000E+00
  0.00000000E+00  0.00000000E+00  0.00000000E+00
  0.00000000E+00  0.00000000E+00  0.00000000E+00
  0.00000000E+00  0.00000000E+00  0.00000000E+00
