O  C  H  Co Li                          
   1.00000000000000     
    24.5605716191343575    1.9291760197436318   -0.2969775452122732
    13.8996835069377358   21.9937891243106662   -0.2031349324917067
    -0.0784261931396427   -0.0171899214054710    6.8173320627718121
   O    C    H    Co   Li
    52    66    16    18     2
Direct
  0.0414421660407565  0.2718897060691390  0.3066269183992525
  0.0159117858288474  0.3202163909167526  0.9473252823178279
  0.0921784927378226  0.2659460902860521  0.7129690422125183
  0.6562073630966243  0.0922514655939177  0.3099097652382520
  0.6340215135166305  0.0665387913681235  0.9521212864799830
  0.5915187818951377  0.1387861006148455  0.7115284459659300
  0.0096115474250782  0.4118382031905812  0.6459743920336227
  0.3509709464992046  0.6063089956224321  0.3422188533048274
  0.4059591820681828  0.5722448956444971  0.9930544531749829
  0.3713792830921304  0.5294325551717195  0.7865051718636297
  0.5678440242204730  0.0357259990137566  0.6319889946983693
  0.3026390612958542  0.0086098951984038  0.3549697414264489
  0.2261999803053278  0.0603748658787136  0.5892012406351854
  0.2741015671405016  0.0556624010500519 -0.0075590173345600
  0.6364656891170747  0.3328200576649380  0.3159492455348868
  0.6774272153225025  0.2570102770504640  0.5476770791896525
  0.0410873187298765  0.6214379439271652  0.6974531648334741
  0.0594510677642704  0.5546021225194300  0.9347666832401044
  0.5772807124494157  0.3222811339735324  0.9918506137634144
  0.0863372599348194  0.6459945468376576  0.3685974710310430
  0.1378462121627338  0.6607137099564609  0.6116839005376062
  0.3886225435887712  0.9543021960043784  0.6976385499420111
  0.4194892581132629 -0.0059374298145506  0.9263942032308171
  0.1421162601604457  0.6084556086588832  0.0109647893291267
  0.6976934934426575  0.9898271461317463  0.6173647875409951
  0.7731363911156112  0.9460028319701165  0.3772272868893985
  0.7303132822277402  0.9418402760418211  0.9707129495237169
  0.4188690251715194  0.6481368865901868  0.4986200295553092
  0.3339945505107064  0.7315244903833699  0.3359598135591132
  0.9798261910846019  0.3964731797526783  0.2836053379850499
  0.9561638702747843  0.4655975119555588  0.0474092641997759
  0.3854974542122349  0.6797842791077356  0.9207971260164741
  0.9356529999556030  0.3714276942830234  0.6103608066402648
  0.8885102414482986  0.3507327014994427  0.3694811543403964
  0.6170718313491906  0.0176545265980675  0.2766265305790533
  0.5906931981439536  0.9768087004868475  0.0362144380614052
  0.8810198845570379  0.4020813619539439  0.9713602010557119
  0.9802760376571266  0.7464060640395488  0.6713500235713344
  0.0094654062130331  0.6984850684454126  0.0370401247361486
  0.9299871855047295  0.7485085313107013  0.2637625618301321
  0.3189594435739000  0.9111973996879454  0.6491872144700997
  0.3385006728915196  0.9331585475087383  0.0213870237007734
  0.3818273576254448  0.8569065726411439  0.2467699838844770
  0.0105788856153045  0.6066402049546673  0.3345167385065699
  0.7118605150238598  0.3474716039746079  0.6543975078005492
  0.6272571421202171  0.4187337797473176  0.9768213123345154
  0.6831429417122016  0.4214641457511243  0.2378887639268694
  0.4349344739032386  0.9386218283033055  0.3269214619843833
  0.5668488207938625  0.4685512402187796  0.5604696807841126
  0.5275362682781352  0.5479504219257252  0.7724815553398031
  0.6017665993103023  0.5318754182393860  0.5470641287985774
  0.7838854187232759  0.2309517908990103  0.1279863064556864
  0.0976402319605520  0.2199699989494238  0.2270359697564852
  0.1421350307928969  0.1666781231394759  0.3464687447992273
  0.0726040950089495  0.2698506265006160  0.8865838751353008
  0.1145715066885982  0.2161020498131412  0.0254365020085476
  0.6369456792714975  0.1476601050343646  0.2268944065213420
  0.6456183067229092  0.1880031194212465  0.3370637504360813
  0.6109858473359043  0.1224442141677646  0.8885230798758652
  0.6107236565296843  0.1664470348355430  0.0302514487696048
  0.0083830257467518  0.4593280417080493  0.5658346420640210
  0.0235399552759439  0.4932099125384640  0.6869428544355576
  0.3012000167535766  0.6036213690261227  0.2641680046814395
  0.2448912669041091  0.6241659295502124  0.3753118916450051
  0.3639853613211874  0.5590821207206660  0.9486564683292950
  0.3060699437608185  0.5800428104501656  0.0715956839144552
  0.5372593541329840  0.0112303308143127  0.5525866630417495
  0.4978764142753233  0.0035158117009250  0.6743936453253609
  0.2449642147682951  0.0575670591567599  0.4152275854724737
  0.2016746088052013  0.1109856140368299  0.2756492048352923
  0.2182107281344375  0.1071954592104152  0.0735564948647422
  0.1738410623236862  0.1603852422109914  0.9544268019879995
  0.6480660449210990  0.2802157451572915  0.3825335620625013
  0.6283341371115464  0.2461034794068178  0.2634376901127580
  0.0429228075002945  0.5739458561073235  0.7586955033632005
  0.0246921308775952  0.5426498131553843  0.6169988841497320
  0.5961715386674384  0.2677840538645730  0.0740443659662737
  0.5885435811531876  0.2264772910360406  0.9625728415523840
  0.1358223116188939  0.6451737364926398  0.4354165266430639
  0.1917193885148952  0.6242030605587099  0.2999631758401839
  0.4224078143972699  0.9754808632566144  0.7512521673104859
  0.4641266376781935  0.9784550407890685  0.6073866481801665
  0.1932160427002924  0.6049404464818862  0.1003826468495368
  0.2521299032022682  0.5812037986952244  0.9935414397990884
  0.7572510231385011  0.9459499491407897  0.5525832691985312
  0.8067576412265471  0.8948474213292951  0.6923126951867723
  0.7907233938419479  0.8962367666719617  0.8933074080559451
  0.8402365188769215  0.8470231090812089  0.0159159593554429
  0.3692702565863998  0.7090804755078567  0.4928478073047206
  0.3583678435111281  0.7525117645677361  0.6547997029684969
  0.9751023639787695  0.4454719089012699  0.2222481028693106
  0.9930100919767305  0.4772260969682238  0.3632625374114318
  0.3722784800524047  0.7353527341536716  0.8568355617255657
  0.3710851118588578  0.7780023184791258  0.9872660035441033
  0.8904143921363584  0.3652154309607438  0.5471927362044052
  0.8401297034845692  0.3751979495354255  0.6864544792210259
  0.5853288260954055 -0.0045150716742377  0.2123625056979155
  0.5427510023486333  0.9919487965756056  0.3523395041565531
  0.8371490485320847  0.3935855687442071  0.8870521548938458
  0.7848388106011930  0.4029688463363832  0.0001431027217452
  0.9204009113713539  0.7942818901238508  0.7474925017911259
  0.8707999500785593  0.8445594353673194  0.6250081763519313
  0.9497177637581335  0.7457301504757700  0.0911420434310615
  0.9039063384598548  0.7966049090037384  0.9484933375205825
  0.3360429414142558  0.8560135843145321  0.7259392677505371
  0.3382509518070122  0.8126176019679534  0.5959939821506031
  0.3587736747843603  0.8770130409598609  0.0739768013747116
  0.3542983912778282  0.8371922658241601  0.9268372570138999
  0.0100452259104792  0.5600633943356474  0.4142551783116468
  0.9939723002816210  0.5267972274068027  0.2935318078554398
  0.7466887815234977  0.3683408687677796  0.7324484787058736
  0.7961686420909867  0.3617252138507203  0.6168993247670709
  0.6811274118398057  0.4100369956098715  0.0511726386222644
  0.7377608196897251  0.3931016479210840  0.9273531320893699
  0.4683569207324671  0.9603217109186503  0.4063934080595745
  0.5090394976119977  0.9668736552174967  0.2850614119483719
  0.5662325422511388  0.5176518871891431  0.6210311696570069
  0.7419605056963724  0.2621035995325868  0.0064041625221153
  0.1297226188141917  0.1691492580566141  0.5004135700742096
  0.6685890071038576  0.1723898440117853  0.4832990757076487
  0.0352676737115081  0.4799786604165834  0.8413849896137864
  0.2413368205616508  0.6416078736928604  0.5248693647428316
  0.4935837094041658  0.0174442020681236  0.8279648280395731
  0.1864960197546263  0.1578526674660033  0.8006631042147091
  0.5681910285913950  0.2407401818688127  0.8132772300389186
  0.2545698331205861  0.5649139297671301  0.8433338571751430
  0.8280613015313635  0.8480579880514011  0.1692588738095228
  0.3839087366672626  0.7650542344297190  0.1414047895502611
  0.7827106440229574  0.4169641817883036  0.1531434658868430
  0.8824802284759546  0.8437134537979988  0.4711330685202006
  0.3269148675887754  0.8255207937950948  0.4413693059931334
  0.9821647522648099  0.5401133791448396  0.1389493117118980
  0.8024068597125216  0.3431525112812581  0.4678249921934933
  0.5136918694944776  0.9528197491713867  0.1314975905278032
  0.3847420158984965  0.5639342742064717  0.5776557912830933
  0.0289627852574912  0.3324543605826208  0.5123204102836201
  0.6146532221980944  0.0709986139137151  0.5077991072844436
  0.0711682404603352  0.6725651605802108  0.8074399647195061
  0.3634820378614201 -0.0102833786874139  0.1237861766375304
  0.2924847844374311 -0.0073634048858850  0.7842141223355513
  0.6436309556032327  0.3357368734643008  0.0121497604786621
  0.7054497156128915  0.2825686766411603  0.7610304437226526
  0.0678412069052058  0.6072335845125328  0.1347884311823904
  0.6384922798607431 -0.0065483504492748  0.8380578996181163
  0.9523101558085775  0.3435234310763750  0.1731537597999616
  0.4279164397744376  0.6033754966502031  0.7452981381205399
  0.6992212804266030  0.0063626759601743  0.1792477259078906
  0.9523396909200346  0.4100318753479585  0.8460115254330698
  0.3775204271813397  0.6504091524710208  0.1770983006827970
  0.6476513368188198  0.3944233178245818  0.4450985618030704
  0.9936785808568596  0.6849875982422260  0.4684923038705603
  0.3735709867099507  0.9190890793091717  0.4517706032939380
  0.6582488768938013  0.4991645980648491  0.3461567320743921
  0.5423706516683170  0.4673687414046961  0.8371828337304871
 
  0.00000000E+00  0.00000000E+00  0.00000000E+00
  0.00000000E+00  0.00000000E+00  0.00000000E+00
  0.00000000E+00  0.00000000E+00  0.00000000E+00
  0.00000000E+00  0.00000000E+00  0.00000000E+00
  0.00000000E+00  0.00000000E+00  0.00000000E+00
  0.00000000E+00  0.00000000E+00  0.00000000E+00
  0.00000000E+00  0.00000000E+00  0.00000000E+00
  0.00000000E+00  0.00000000E+00  0.00000000E+00
  0.00000000E+00  0.00000000E+00  0.00000000E+00
  0.00000000E+00  0.00000000E+00  0.00000000E+00
  0.00000000E+00  0.00000000E+00  0.00000000E+00
  0.00000000E+00  0.00000000E+00  0.00000000E+00
  0.00000000E+00  0.00000000E+00  0.00000000E+00
  0.00000000E+00  0.00000000E+00  0.00000000E+00
  0.00000000E+00  0.00000000E+00  0.00000000E+00
  0.00000000E+00  0.00000000E+00  0.00000000E+00
  0.00000000E+00  0.00000000E+00  0.00000000E+00
  0.00000000E+00  0.00000000E+00  0.00000000E+00
  0.00000000E+00  0.00000000E+00  0.00000000E+00
  0.00000000E+00  0.00000000E+00  0.00000000E+00
  0.00000000E+00  0.00000000E+00  0.00000000E+00
  0.00000000E+00  0.00000000E+00  0.00000000E+00
  0.00000000E+00  0.00000000E+00  0.00000000E+00
  0.00000000E+00  0.00000000E+00  0.00000000E+00
  0.00000000E+00  0.00000000E+00  0.00000000E+00
  0.00000000E+00  0.00000000E+00  0.00000000E+00
  0.00000000E+00  0.00000000E+00  0.00000000E+00
  0.00000000E+00  0.00000000E+00  0.00000000E+00
  0.00000000E+00  0.00000000E+00  0.00000000E+00
  0.00000000E+00  0.00000000E+00  0.00000000E+00
  0.00000000E+00  0.00000000E+00  0.00000000E+00
  0.00000000E+00  0.00000000E+00  0.00000000E+00
  0.00000000E+00  0.00000000E+00  0.00000000E+00
  0.00000000E+00  0.00000000E+00  0.00000000E+00
  0.00000000E+00  0.00000000E+00  0.00000000E+00
  0.00000000E+00  0.00000000E+00  0.00000000E+00
  0.00000000E+00  0.00000000E+00  0.00000000E+00
  0.00000000E+00  0.00000000E+00  0.00000000E+00
  0.00000000E+00  0.00000000E+00  0.00000000E+00
  0.00000000E+00  0.00000000E+00  0.00000000E+00
  0.00000000E+00  0.00000000E+00  0.00000000E+00
  0.00000000E+00  0.00000000E+00  0.00000000E+00
  0.00000000E+00  0.00000000E+00  0.00000000E+00
  0.00000000E+00  0.00000000E+00  0.00000000E+00
  0.00000000E+00  0.00000000E+00  0.00000000E+00
  0.00000000E+00  0.00000000E+00  0.00000000E+00
  0.00000000E+00  0.00000000E+00  0.00000000E+00
  0.00000000E+00  0.00000000E+00  0.00000000E+00
  0.00000000E+00  0.00000000E+00  0.00000000E+00
  0.00000000E+00  0.00000000E+00  0.00000000E+00
  0.00000000E+00  0.00000000E+00  0.00000000E+00
  0.00000000E+00  0.00000000E+00  0.00000000E+00
  0.00000000E+00  0.00000000E+00  0.00000000E+00
  0.00000000E+00  0.00000000E+00  0.00000000E+00
  0.00000000E+00  0.00000000E+00  0.00000000E+00
  0.00000000E+00  0.00000000E+00  0.00000000E+00
  0.00000000E+00  0.00000000E+00  0.00000000E+00
  0.00000000E+00  0.00000000E+00  0.00000000E+00
  0.00000000E+00  0.00000000E+00  0.00000000E+00
  0.00000000E+00  0.00000000E+00  0.00000000E+00
  0.00000000E+00  0.00000000E+00  0.00000000E+00
  0.00000000E+00  0.00000000E+00  0.00000000E+00
  0.00000000E+00  0.00000000E+00  0.00000000E+00
  0.00000000E+00  0.00000000E+00  0.00000000E+00
  0.00000000E+00  0.00000000E+00  0.00000000E+00
  0.00000000E+00  0.00000000E+00  0.00000000E+00
  0.00000000E+00  0.00000000E+00  0.00000000E+00
  0.00000000E+00  0.00000000E+00  0.00000000E+00
  0.00000000E+00  0.00000000E+00  0.00000000E+00
  0.00000000E+00  0.00000000E+00  0.00000000E+00
  0.00000000E+00  0.00000000E+00  0.00000000E+00
  0.00000000E+00  0.00000000E+00  0.00000000E+00
  0.00000000E+00  0.00000000E+00  0.00000000E+00
  0.00000000E+00  0.00000000E+00  0.00000000E+00
  0.00000000E+00  0.00000000E+00  0.00000000E+00
  0.00000000E+00  0.00000000E+00  0.00000000E+00
  0.00000000E+00  0.00000000E+00  0.00000000E+00
  0.00000000E+00  0.00000000E+00  0.00000000E+00
  0.00000000E+00  0.00000000E+00  0.00000000E+00
  0.00000000E+00  0.00000000E+00  0.00000000E+00
  0.00000000E+00  0.00000000E+00  0.00000000E+00
  0.00000000E+00  0.00000000E+00  0.00000000E+00
  0.00000000E+00  0.00000000E+00  0.00000000E+00
  0.00000000E+00  0.00000000E+00  0.00000000E+00
  0.00000000E+00  0.00000000E+00  0.00000000E+00
  0.00000000E+00  0.00000000E+00  0.00000000E+00
  0.00000000E+00  0.00000000E+00  0.00000000E+00
  0.00000000E+00  0.00000000E+00  0.00000000E+00
  0.00000000E+00  0.00000000E+00  0.00000000E+00
  0.00000000E+00  0.00000000E+00  0.00000000E+00
  0.00000000E+00  0.00000000E+00  0.00000000E+00
  0.00000000E+00  0.00000000E+00  0.00000000E+00
  0.00000000E+00  0.00000000E+00  0.00000000E+00
  0.00000000E+00  0.00000000E+00  0.00000000E+00
  0.00000000E+00  0.00000000E+00  0.00000000E+00
  0.00000000E+00  0.00000000E+00  0.00000000E+00
  0.00000000E+00  0.00000000E+00  0.00000000E+00
  0.00000000E+00  0.00000000E+00  0.00000000E+00
  0.00000000E+00  0.00000000E+00  0.00000000E+00
  0.00000000E+00  0.00000000E+00  0.00000000E+00
  0.00000000E+00  0.00000000E+00  0.00000000E+00
  0.00000000E+00  0.00000000E+00  0.00000000E+00
  0.00000000E+00  0.00000000E+00  0.00000000E+00
  0.00000000E+00  0.00000000E+00  0.00000000E+00
  0.00000000E+00  0.00000000E+00  0.00000000E+00
  0.00000000E+00  0.00000000E+00  0.00000000E+00
  0.00000000E+00  0.00000000E+00  0.00000000E+00
  0.00000000E+00  0.00000000E+00  0.00000000E+00
  0.00000000E+00  0.00000000E+00  0.00000000E+00
  0.00000000E+00  0.00000000E+00  0.00000000E+00
  0.00000000E+00  0.00000000E+00  0.00000000E+00
  0.00000000E+00  0.00000000E+00  0.00000000E+00
  0.00000000E+00  0.00000000E+00  0.00000000E+00
  0.00000000E+00  0.00000000E+00  0.00000000E+00
  0.00000000E+00  0.00000000E+00  0.00000000E+00
  0.00000000E+00  0.00000000E+00  0.00000000E+00
  0.00000000E+00  0.00000000E+00  0.00000000E+00
  0.00000000E+00  0.00000000E+00  0.00000000E+00
  0.00000000E+00  0.00000000E+00  0.00000000E+00
  0.00000000E+00  0.00000000E+00  0.00000000E+00
  0.00000000E+00  0.00000000E+00  0.00000000E+00
  0.00000000E+00  0.00000000E+00  0.00000000E+00
  0.00000000E+00  0.00000000E+00  0.00000000E+00
  0.00000000E+00  0.00000000E+00  0.00000000E+00
  0.00000000E+00  0.00000000E+00  0.00000000E+00
  0.00000000E+00  0.00000000E+00  0.00000000E+00
  0.00000000E+00  0.00000000E+00  0.00000000E+00
  0.00000000E+00  0.00000000E+00  0.00000000E+00
  0.00000000E+00  0.00000000E+00  0.00000000E+00
  0.00000000E+00  0.00000000E+00  0.00000000E+00
  0.00000000E+00  0.00000000E+00  0.00000000E+00
  0.00000000E+00  0.00000000E+00  0.00000000E+00
  0.00000000E+00  0.00000000E+00  0.00000000E+00
  0.00000000E+00  0.00000000E+00  0.00000000E+00
  0.00000000E+00  0.00000000E+00  0.00000000E+00
  0.00000000E+00  0.00000000E+00  0.00000000E+00
  0.00000000E+00  0.00000000E+00  0.00000000E+00
  0.00000000E+00  0.00000000E+00  0.00000000E+00
  0.00000000E+00  0.00000000E+00  0.00000000E+00
  0.00000000E+00  0.00000000E+00  0.00000000E+00
  0.00000000E+00  0.00000000E+00  0.00000000E+00
  0.00000000E+00  0.00000000E+00  0.00000000E+00
  0.00000000E+00  0.00000000E+00  0.00000000E+00
  0.00000000E+00  0.00000000E+00  0.00000000E+00
  0.00000000E+00  0.00000000E+00  0.00000000E+00
  0.00000000E+00  0.00000000E+00  0.00000000E+00
  0.00000000E+00  0.00000000E+00  0.00000000E+00
  0.00000000E+00  0.00000000E+00  0.00000000E+00
  0.00000000E+00  0.00000000E+00  0.00000000E+00
  0.00000000E+00  0.00000000E+00  0.00000000E+00
  0.00000000E+00  0.00000000E+00  0.00000000E+00
  0.00000000E+00  0.00000000E+00  0.00000000E+00
  0.00000000E+00  0.00000000E+00  0.00000000E+00
  0.00000000E+00  0.00000000E+00  0.00000000E+00
