O  C  H  Co Li                          
   1.00000000000000     
    23.4527205013392290    2.1329191794023057   -0.2353074733141353
    13.4650344105207971   22.1851345281469072   -0.2906353980767925
    -0.0554097133059533   -0.0562078069544158    6.8432588903918052
   O    C    H    Co   Li
    52    66    16    18     2
Direct
  0.0076444782569847  0.2917268028390695  0.3010586505112285
 -0.0181343353658594  0.3358721043771426  0.9250355258225187
  0.0666026842985219  0.2791323367389184  0.7058430424317985
  0.6616575961222816  0.0808569091604760  0.3176302463436409
  0.6427818063474249  0.0526087581075721  0.9623049246404939
  0.5959217037600875  0.1244463916435515  0.7236018167631290
  0.0019605217926771  0.4208936201037906  0.6409603250259782
  0.3893580446540321  0.5952586955731459  0.3220706107118662
  0.4467296913253211  0.5628568618028638  0.9766998579037579
  0.4115974725207641  0.5197988282453131  0.7668516210158759
  0.5800205527680152  0.0169771136455545  0.6359881675646175
  0.2720270525672863  0.0245935988828448  0.3401403872219881
  0.1904647284221743  0.0752928142933563  0.5727107493038989
  0.2434810303416148  0.0695246353202348  0.9832169704267613
  0.6053949064923162  0.3373223272712943  0.3551539244551729
  0.6461067051909644  0.2628969028626231  0.5857957348980021
  0.0632600265640706  0.6129039903181590  0.6904977580726930
  0.0782661599880098  0.5475445184345720  0.9243452430363929
  0.5438131964505512  0.3228935517113903  0.0316562703066875
  0.1155142449015701  0.6312646649249716  0.3606529560280652
  0.1696953890980899  0.6470830714394289  0.5985254504940714
  0.3553753602018904  0.9790367015604005  0.6767420547638000
  0.3949951085765465  0.0111310552856373  0.9119173555769996
  0.1723162778885357  0.5952714246657701 -0.0021627384812242
  0.7129884801654518  0.9774546824927415  0.6262963725207564
  0.7911606902320176  0.9356498843325937  0.3838283032447447
  0.7467504718993612  0.9291854545885179  0.9752135183685331
  0.4440666759898468  0.6522961907906495  0.4797036563144324
  0.3503668118885939  0.7279584173390843  0.3150720905107146
  0.9727104875307241  0.4053753232845105  0.2701542928979714
  0.9512034400509368  0.4750773466942007  0.0438434955169667
  0.4063222299649899  0.6799545951482352  0.8990235577908239
  0.9051827473777617  0.4048998468787478  0.5922246048061303
  0.8471184818458821  0.3882915362009751  0.3699501217795300
  0.6335131249394979 -0.0045742169401634  0.2884007900028226
  0.5966627364366991  0.9651972669742055  0.0379007415354598
  0.8492209270500570  0.4351950357235155  0.9672832300668203
  0.0072793594948949  0.7357456905461861  0.6679645158342383
  0.0374409021330411  0.6882695763965545  0.0335554277626795
  0.9549938466797495  0.7398811890389499  0.2617522336297232
  0.2919647928061841  0.9250835454604113  0.6389156173519936
  0.3154094567912611  0.9490661802441841  0.0037468067400087
  0.3598116063550056  0.8741566887829298  0.2316289847743078
  0.0309924646551132  0.5992658241184075  0.3276567783805370
  0.7098889087327696  0.3335488057152787  0.6984209405550870
  0.6127603763318518  0.4179292380693141  0.0428953789545750
  0.6966094306967097  0.3855840720688822  0.2730429231936652
  0.4099698424784633  0.9545872222690240  0.3153094408977858
  0.5790680824331658  0.4658754093784963  0.5949933692385406
  0.5638248740816271  0.5496010028473571  0.7436418257211340
  0.6523378514677597  0.4933509262799773  0.5270583297022378
  0.7501235389645290  0.2353239006822480  0.1740875663018407
  0.0636576337255849  0.2379381234713873  0.2184271725217559
  0.1074202416548651  0.1842760473758539  0.3361742364853137
  0.0424001286411060  0.2845873795698199  0.8752764612861845
  0.0822553072617771  0.2323178366502170  0.0168387248526499
  0.6326263845388855  0.1392644191830220  0.2417468057770200
  0.6316473030577057  0.1843193352526792  0.3594394503214899
  0.6143152867868188  0.1095819224988701  0.9006957115330991
  0.6056403859114849  0.1568499443982893  0.0464490124222052
  0.0083453168680331  0.4638661421757705  0.5597358653357775
  0.0298384572645594  0.4939053498449392  0.6794364085370698
  0.3376870673564861  0.5922503869230447  0.2457799514398043
  0.2798181484414186  0.6112990389847633  0.3592261255515302
  0.4023582584503643  0.5497800306580931  0.9292275792006125
  0.3421675106719130  0.5698789484104050  0.0519006220362631
  0.5403666124554203  0.0008578110544802  0.5531276855704252
  0.4928969821431778  0.0008313559361497  0.6715953095099118
  0.2117023035141801  0.0731575185666373  0.4012424195457757
  0.1679799396325537  0.1271082906291144  0.2648161299509204
  0.1862585899191243  0.1222138510219133  0.0636978761367950
  0.1425604345787463  0.1752462452513008  0.9456629311937718
  0.6182557279166631  0.2840835244540858  0.4186759823935762
  0.6043457411167290  0.2457849194517142  0.2937637552702396
  0.0613687542304277  0.5673197501841496  0.7501772150499306
  0.0378925330443181  0.5392831173273196  0.6093702085036901
  0.5714658556672720  0.2655428141314901  0.1049681569209302
  0.5736037999824460  0.2194377544057016  0.9861222587840616
  0.1670935594303789  0.6311861004942256  0.4233359517268784
  0.2246383348585148  0.6108133699392931  0.2849108833001489
  0.3973497783362608  0.9921364811987956  0.7371066608207115
  0.4483605281054897  0.9860841720407850  0.5990560153708105
  0.2256382289041880  0.5921664420075504  0.0850782290142973
  0.2863001894264519  0.5700069034519463  0.9754983425105891
  0.7751716485121238  0.9347363711728365  0.5587405082174096
  0.8271162969770025  0.8841342285915688  0.6960890627145092
  0.8101923580312727  0.8850496304049568  0.8961105474605545
  0.8618800771326791  0.8364875862233541  0.0166831635666523
  0.3856408776990754  0.7101004206911954  0.4733406298913548
  0.3642584734928548  0.7560728745384608  0.6364835230456496
  0.9711785346672087  0.4532676724838595  0.2154547392565757
  0.9946365782032641  0.4810306452341774  0.3573707230543287
  0.3808755118317381  0.7393632012960789  0.8366556719131482
  0.3696897118465937  0.7864303565599832  0.9681312106490900
  0.8619562073560165  0.3919575931908726  0.5492318457650721
  0.8247382270864932  0.3850656125188088  0.7040130401484440
  0.5934712105138572  0.9814439672276154  0.2157604514612667
  0.5431201579739742  0.9845683529319328  0.3510061314221121
  0.8137866946021551  0.4139469556861554  0.8920674074874918
  0.7607527398896901  0.4198839773015567  0.0050694268928488
  0.9452551678481658  0.7839825381709608  0.7466844441952342
  0.8938984704151498  0.8342689751100673  0.6269651843961389
  0.9755335839497558  0.7361467792017754  0.0885719737338612
  0.9282134922324008  0.7864375200275697  0.9474210096105928
  0.3197020365966247  0.8667333543620591  0.7118000320287066
  0.3314562137594300  0.8191863440969296  0.5808183631174838
  0.3382265627166646  0.8929384472389040  0.0576917986033418
  0.3408164140856462  0.8489329527580530  0.9103693344470994
  0.0243318654086587  0.5562479500390549  0.4073275823873659
  0.0026880808100189  0.5264816101397304  0.2874810631805604
  0.7418127187492254  0.3594265900752193  0.7714010465706342
  0.7923001070726446  0.3552375855866227  0.6549580832229694
  0.6750136075415071  0.3994599750795592  0.0962112308367560
  0.7252756217031223  0.3935741031973408  0.9522999652521167
  0.4508614277773020  0.9697589320720974  0.3971625628421702
  0.4987695515062712  0.9696217092871875  0.2782009068562996
  0.6006524847840917  0.5033017845581682  0.6148277891073498
  0.7087238857055052  0.2668696427644042  0.0497923709774144
  0.0939287702070228  0.1878231261947763  0.4897958175791091
  0.6555686338607176  0.1699378410277407  0.5043589654156672
  0.0407076579566098  0.4810584445593865  0.8331696766777675
  0.2766415033581114  0.6277240642102364  0.5097421565456807
  0.4907295167277909  0.0130500836422484  0.8260668649723617
  0.1566228160698508  0.1716281870502920  0.7926239319933565
  0.5532446777246485  0.2323744884934164  0.8368215852822177
  0.2885894738476536  0.5543626409200396  0.8245856403401475
  0.8492096844241005  0.8372221046394503  0.1692709311766768
  0.3846185099374362  0.7742832245182074  0.1207476592323925
  0.7461918029891825  0.4498595503656608  0.1358041219476278
  0.9060746592954605  0.8335994023295316  0.4738334808544125
  0.3182935934774233  0.8312051231662101  0.4271503946991793
  0.9920535311452040  0.5391963785764866  0.1335826610643359
  0.8054674257239336  0.3287430624603069  0.5160724572796102
  0.5008777176005528  0.9578652677229093  0.1231412173042661
  0.4244759332363842  0.5557856121459646  0.5583958720533991
  0.0096162339593780  0.3475197861165110  0.5073537318659962
  0.6250821082958058  0.0552080623555970  0.5169199761315029
  0.1001218108937422  0.6603776302924325  0.7981041210127077
  0.3389030453803432  0.0084609758242989  0.1149772423155278
  0.2577609589565266  0.0107483467279059  0.7696858121336332
  0.6078042615246420  0.3430364949100371  0.0461051325927323
  0.6765914570032110  0.2868928051936179  0.8003453159981672
  0.0926990063923628  0.5966274799252805  0.1240383359011186
  0.6512325798155890  0.9779814877973261  0.8443778275869567
  0.9227077618261605  0.3688031604805657  0.1648203847229268
  0.4602053803860372  0.6047232619905394  0.7216754463872977
  0.7129111387916727  0.9934752450318537  0.1860418958438744
  0.9342896018157190  0.4277935340828270  0.8419599903274910
  0.4069691590968254  0.6465905395232726  0.1563726944146845
  0.6413528384896874  0.3808483667171795  0.4871269996792320
  0.0179576958707055  0.6755727813264853  0.4632415834493965
  0.3458472032081659  0.9347466200959311  0.4419011266107937
  0.7364062179597048  0.4275369874977266  0.4115502739653910
  0.5481218483445063  0.4884752646009293  0.8780090675728316
 
  0.00000000E+00  0.00000000E+00  0.00000000E+00
  0.00000000E+00  0.00000000E+00  0.00000000E+00
  0.00000000E+00  0.00000000E+00  0.00000000E+00
  0.00000000E+00  0.00000000E+00  0.00000000E+00
  0.00000000E+00  0.00000000E+00  0.00000000E+00
  0.00000000E+00  0.00000000E+00  0.00000000E+00
  0.00000000E+00  0.00000000E+00  0.00000000E+00
  0.00000000E+00  0.00000000E+00  0.00000000E+00
  0.00000000E+00  0.00000000E+00  0.00000000E+00
  0.00000000E+00  0.00000000E+00  0.00000000E+00
  0.00000000E+00  0.00000000E+00  0.00000000E+00
  0.00000000E+00  0.00000000E+00  0.00000000E+00
  0.00000000E+00  0.00000000E+00  0.00000000E+00
  0.00000000E+00  0.00000000E+00  0.00000000E+00
  0.00000000E+00  0.00000000E+00  0.00000000E+00
  0.00000000E+00  0.00000000E+00  0.00000000E+00
  0.00000000E+00  0.00000000E+00  0.00000000E+00
  0.00000000E+00  0.00000000E+00  0.00000000E+00
  0.00000000E+00  0.00000000E+00  0.00000000E+00
  0.00000000E+00  0.00000000E+00  0.00000000E+00
  0.00000000E+00  0.00000000E+00  0.00000000E+00
  0.00000000E+00  0.00000000E+00  0.00000000E+00
  0.00000000E+00  0.00000000E+00  0.00000000E+00
  0.00000000E+00  0.00000000E+00  0.00000000E+00
  0.00000000E+00  0.00000000E+00  0.00000000E+00
  0.00000000E+00  0.00000000E+00  0.00000000E+00
  0.00000000E+00  0.00000000E+00  0.00000000E+00
  0.00000000E+00  0.00000000E+00  0.00000000E+00
  0.00000000E+00  0.00000000E+00  0.00000000E+00
  0.00000000E+00  0.00000000E+00  0.00000000E+00
  0.00000000E+00  0.00000000E+00  0.00000000E+00
  0.00000000E+00  0.00000000E+00  0.00000000E+00
  0.00000000E+00  0.00000000E+00  0.00000000E+00
  0.00000000E+00  0.00000000E+00  0.00000000E+00
  0.00000000E+00  0.00000000E+00  0.00000000E+00
  0.00000000E+00  0.00000000E+00  0.00000000E+00
  0.00000000E+00  0.00000000E+00  0.00000000E+00
  0.00000000E+00  0.00000000E+00  0.00000000E+00
  0.00000000E+00  0.00000000E+00  0.00000000E+00
  0.00000000E+00  0.00000000E+00  0.00000000E+00
  0.00000000E+00  0.00000000E+00  0.00000000E+00
  0.00000000E+00  0.00000000E+00  0.00000000E+00
  0.00000000E+00  0.00000000E+00  0.00000000E+00
  0.00000000E+00  0.00000000E+00  0.00000000E+00
  0.00000000E+00  0.00000000E+00  0.00000000E+00
  0.00000000E+00  0.00000000E+00  0.00000000E+00
  0.00000000E+00  0.00000000E+00  0.00000000E+00
  0.00000000E+00  0.00000000E+00  0.00000000E+00
  0.00000000E+00  0.00000000E+00  0.00000000E+00
  0.00000000E+00  0.00000000E+00  0.00000000E+00
  0.00000000E+00  0.00000000E+00  0.00000000E+00
  0.00000000E+00  0.00000000E+00  0.00000000E+00
  0.00000000E+00  0.00000000E+00  0.00000000E+00
  0.00000000E+00  0.00000000E+00  0.00000000E+00
  0.00000000E+00  0.00000000E+00  0.00000000E+00
  0.00000000E+00  0.00000000E+00  0.00000000E+00
  0.00000000E+00  0.00000000E+00  0.00000000E+00
  0.00000000E+00  0.00000000E+00  0.00000000E+00
  0.00000000E+00  0.00000000E+00  0.00000000E+00
  0.00000000E+00  0.00000000E+00  0.00000000E+00
  0.00000000E+00  0.00000000E+00  0.00000000E+00
  0.00000000E+00  0.00000000E+00  0.00000000E+00
  0.00000000E+00  0.00000000E+00  0.00000000E+00
  0.00000000E+00  0.00000000E+00  0.00000000E+00
  0.00000000E+00  0.00000000E+00  0.00000000E+00
  0.00000000E+00  0.00000000E+00  0.00000000E+00
  0.00000000E+00  0.00000000E+00  0.00000000E+00
  0.00000000E+00  0.00000000E+00  0.00000000E+00
  0.00000000E+00  0.00000000E+00  0.00000000E+00
  0.00000000E+00  0.00000000E+00  0.00000000E+00
  0.00000000E+00  0.00000000E+00  0.00000000E+00
  0.00000000E+00  0.00000000E+00  0.00000000E+00
  0.00000000E+00  0.00000000E+00  0.00000000E+00
  0.00000000E+00  0.00000000E+00  0.00000000E+00
  0.00000000E+00  0.00000000E+00  0.00000000E+00
  0.00000000E+00  0.00000000E+00  0.00000000E+00
  0.00000000E+00  0.00000000E+00  0.00000000E+00
  0.00000000E+00  0.00000000E+00  0.00000000E+00
  0.00000000E+00  0.00000000E+00  0.00000000E+00
  0.00000000E+00  0.00000000E+00  0.00000000E+00
  0.00000000E+00  0.00000000E+00  0.00000000E+00
  0.00000000E+00  0.00000000E+00  0.00000000E+00
  0.00000000E+00  0.00000000E+00  0.00000000E+00
  0.00000000E+00  0.00000000E+00  0.00000000E+00
  0.00000000E+00  0.00000000E+00  0.00000000E+00
  0.00000000E+00  0.00000000E+00  0.00000000E+00
  0.00000000E+00  0.00000000E+00  0.00000000E+00
  0.00000000E+00  0.00000000E+00  0.00000000E+00
  0.00000000E+00  0.00000000E+00  0.00000000E+00
  0.00000000E+00  0.00000000E+00  0.00000000E+00
  0.00000000E+00  0.00000000E+00  0.00000000E+00
  0.00000000E+00  0.00000000E+00  0.00000000E+00
  0.00000000E+00  0.00000000E+00  0.00000000E+00
  0.00000000E+00  0.00000000E+00  0.00000000E+00
  0.00000000E+00  0.00000000E+00  0.00000000E+00
  0.00000000E+00  0.00000000E+00  0.00000000E+00
  0.00000000E+00  0.00000000E+00  0.00000000E+00
  0.00000000E+00  0.00000000E+00  0.00000000E+00
  0.00000000E+00  0.00000000E+00  0.00000000E+00
  0.00000000E+00  0.00000000E+00  0.00000000E+00
  0.00000000E+00  0.00000000E+00  0.00000000E+00
  0.00000000E+00  0.00000000E+00  0.00000000E+00
  0.00000000E+00  0.00000000E+00  0.00000000E+00
  0.00000000E+00  0.00000000E+00  0.00000000E+00
  0.00000000E+00  0.00000000E+00  0.00000000E+00
  0.00000000E+00  0.00000000E+00  0.00000000E+00
  0.00000000E+00  0.00000000E+00  0.00000000E+00
  0.00000000E+00  0.00000000E+00  0.00000000E+00
  0.00000000E+00  0.00000000E+00  0.00000000E+00
  0.00000000E+00  0.00000000E+00  0.00000000E+00
  0.00000000E+00  0.00000000E+00  0.00000000E+00
  0.00000000E+00  0.00000000E+00  0.00000000E+00
  0.00000000E+00  0.00000000E+00  0.00000000E+00
  0.00000000E+00  0.00000000E+00  0.00000000E+00
  0.00000000E+00  0.00000000E+00  0.00000000E+00
  0.00000000E+00  0.00000000E+00  0.00000000E+00
  0.00000000E+00  0.00000000E+00  0.00000000E+00
  0.00000000E+00  0.00000000E+00  0.00000000E+00
  0.00000000E+00  0.00000000E+00  0.00000000E+00
  0.00000000E+00  0.00000000E+00  0.00000000E+00
  0.00000000E+00  0.00000000E+00  0.00000000E+00
  0.00000000E+00  0.00000000E+00  0.00000000E+00
  0.00000000E+00  0.00000000E+00  0.00000000E+00
  0.00000000E+00  0.00000000E+00  0.00000000E+00
  0.00000000E+00  0.00000000E+00  0.00000000E+00
  0.00000000E+00  0.00000000E+00  0.00000000E+00
  0.00000000E+00  0.00000000E+00  0.00000000E+00
  0.00000000E+00  0.00000000E+00  0.00000000E+00
  0.00000000E+00  0.00000000E+00  0.00000000E+00
  0.00000000E+00  0.00000000E+00  0.00000000E+00
  0.00000000E+00  0.00000000E+00  0.00000000E+00
  0.00000000E+00  0.00000000E+00  0.00000000E+00
  0.00000000E+00  0.00000000E+00  0.00000000E+00
  0.00000000E+00  0.00000000E+00  0.00000000E+00
  0.00000000E+00  0.00000000E+00  0.00000000E+00
  0.00000000E+00  0.00000000E+00  0.00000000E+00
  0.00000000E+00  0.00000000E+00  0.00000000E+00
  0.00000000E+00  0.00000000E+00  0.00000000E+00
  0.00000000E+00  0.00000000E+00  0.00000000E+00
  0.00000000E+00  0.00000000E+00  0.00000000E+00
  0.00000000E+00  0.00000000E+00  0.00000000E+00
  0.00000000E+00  0.00000000E+00  0.00000000E+00
  0.00000000E+00  0.00000000E+00  0.00000000E+00
  0.00000000E+00  0.00000000E+00  0.00000000E+00
  0.00000000E+00  0.00000000E+00  0.00000000E+00
  0.00000000E+00  0.00000000E+00  0.00000000E+00
  0.00000000E+00  0.00000000E+00  0.00000000E+00
  0.00000000E+00  0.00000000E+00  0.00000000E+00
  0.00000000E+00  0.00000000E+00  0.00000000E+00
  0.00000000E+00  0.00000000E+00  0.00000000E+00
  0.00000000E+00  0.00000000E+00  0.00000000E+00
  0.00000000E+00  0.00000000E+00  0.00000000E+00
  0.00000000E+00  0.00000000E+00  0.00000000E+00
  0.00000000E+00  0.00000000E+00  0.00000000E+00
