O  C  H  Co Li                          
   1.00000000000000     
    23.9261198104165054    1.4270226320989507   -0.1702423552515908
    13.3807977504398092   19.9075722412530887    0.0070620584243260
    -0.0366049182984033    0.0428470880645103    6.8013684059336974
   O    C    H    Co   Li
    52    66    16    18     2
Direct
  0.0633728022912600  0.2554372498368238  0.3003282592851543
  0.0352552405490979  0.2980904750788998  0.9193960356640217
  0.1087372384719784  0.2632489593947288  0.7058454677519891
  0.6971337490086174  0.0497876896839856  0.3251073634708427
  0.6825601084767848  0.0217193617285232  0.9383547265503800
  0.6379516715654341  0.0971465818061707  0.7338899023393655
  0.0354120884277951  0.3956100620338293  0.6424103707074215
  0.2487513482212434  0.6946810394316491  0.3371799817158185
  0.3027237143851953  0.6620417925351384  0.9838438248494171
  0.2730311185919513  0.6129300499323858  0.7906485554314532
  0.5822116150459887  0.0218178127851746  0.6480647197594678
  0.3050104258111900  0.0485413736169523  0.3631301032553143
  0.2318322190526842  0.0874972387806606  0.5777337137004844
  0.2782909327528686  0.0925833747824602  0.9822539869438529
  0.7015790038689573  0.2760750396489526  0.3213578732593640
  0.7247583635891038  0.2091586910257892  0.5594911115988348
  0.9854836248039853  0.6424288079283238  0.7243900169902575
  0.0271059477850014  0.5678142303491338  0.9325358001838948
  0.6343409528381593  0.2669607933640075  0.0198759489304696
  0.0415656936338962  0.6575412944399106  0.3941327131803727
  0.0742795399284573  0.6983292864109909  0.6081453780553543
  0.3737308423191257  0.9894079492070728  0.6959054492972008
  0.4108213848296243  0.0250074018504749  0.9128305725919202
  0.0862864067336739  0.6408894910794902  0.0152938146461736
  0.6959433892682454  0.9524127361529553  0.6038894953147145
  0.7697719458305167  0.9179341767818623  0.3922210147943595
  0.7237019130398874  0.9089109536714171  0.9865688827740786
  0.3439453088066678  0.7135305844625620  0.5193449265978933
  0.2867618056350165  0.7932481427395244  0.3464371485880588
  0.0212776805912030  0.3682581408960686  0.2551963252353149
  0.9780123081180468  0.4432932186006442  0.0493897326493301
  0.3262745818879507  0.7470418409083859  0.9308551572901165
  0.9642535836437461  0.3546953694029051  0.5863973709417911
  0.9324102305433630  0.3133736396558180  0.3717297219340664
  0.6255154616915510  0.0081133040396599  0.2708133765801926
  0.5909068813319245  0.9702345795463919  0.0528783811915109
  0.9207754418850905  0.3673754044288192  0.9683231303757757
  0.9431769274267441  0.7556011284536243  0.6763527308801860
  0.9716030628947864  0.7128625897753427  0.0590212167498246
  0.8975551142835156  0.7462680806063937  0.2698344525981749
  0.2966157436311811  0.9565243652691016  0.6418147649475110
  0.3145477071593631  0.9796456091404451  0.0270061983690918
  0.3510624659696348  0.9047197542750288  0.2342761789346929
  0.9710801767203946  0.6150913756088030  0.3384941549593819
  0.7735026201667595  0.2943640022251098  0.6439263804176706
  0.7025758437723025  0.3484443321505424  0.9743914080219540
  0.7474124995382090  0.3688480392107605  0.2145358757460396
  0.4180993167625142  0.9732184759572471  0.3167740040771006
  0.6614618204281999  0.4133455587476051  0.5596893165791095
  0.6679752323232411  0.4687761947956378  0.7947211195246746
  0.6969288823879332  0.4755380101651923  0.4918051518596476
  0.8049261519185404  0.1647545006023852  0.1202113781966659
  0.1145480569740913  0.2176541157897527  0.2143790103623597
  0.1571722002129892  0.1737145567273440  0.3332712231600085
  0.0897261218202624  0.2619694040001523  0.8734908756534623
  0.1290708525848682  0.2182315395216282  0.0154349645735750
  0.6852000290574962  0.1002580103017523  0.2378563485739861
  0.6954453760114846  0.1392392478347478  0.3483974280647031
  0.6600523170408610  0.0771859805503071  0.8994722345530500
  0.6627770816940106  0.1169310322751692  0.0447247546538628
  0.0195244969125507  0.4478143405629378  0.5590457250205814
  0.0194634977723367  0.4907260949663403  0.6809138333872451
  0.2096266160736543  0.6804831961396263  0.2570243537852433
  0.1611904014580752  0.6891216497648593  0.3667842760636589
  0.2670232091931903  0.6414561920050265  0.9484875978900215
  0.2178541207480347  0.6541783992941752  0.0717228096776631
  0.5440620762454994  0.0094489735331399  0.5595152289256717
  0.4995758519103887  0.0108701857907831  0.6757554795876022
  0.2512478519486089  0.0868608248001995  0.4091262514996023
  0.2127084282873614  0.1307728030849188  0.2667190854701241
  0.2272406386464273  0.1310615447348590  0.0676809145208196
  0.1847091157146783  0.1753579731769891  0.9489432702146724
  0.7033853769016305  0.2285425194543583  0.3943645941228769
  0.6823318789259109  0.1949124534576600  0.2806851047396816
  0.0060181938281517  0.5873120643274899  0.7659091711818294
  0.0032967350078359  0.5477439434312362  0.6197937723209065
  0.6529262176106523  0.2143100227091890  0.0971656321594076
  0.6438980340383882  0.1744628491232060  0.9854498417988897
  0.0761779646223556  0.6776028509691165  0.4401408107563314
  0.1200123166263272  0.6734692450927788  0.3006643579733081
  0.4114968458937918  0.0051468963308031  0.7445936119268531
  0.4562923672689148  0.9993184093100647  0.6053199826452907
  0.1248530936748020  0.6522119573762163  0.1064190852495792
  0.1743481975419598  0.6422356103970359  0.9995342718116899
  0.7506640997088277  0.9169827044787437  0.5600881346287117
  0.7905666836139191  0.8745076623763754  0.7040953589631087
  0.7758506095020541  0.8730331277153484  0.9023379152010944
  0.8195007493964868  0.8303970366421722  0.0226171846084916
  0.3135531996568637  0.7711386218042529  0.5040210498577421
  0.3129597704530407  0.8104097418530704  0.6575266925595322
  0.9999286546224396  0.4235641240211951  0.2151239118730200
  0.0027084309771708  0.4630954824871912  0.3612657814211855
  0.3235964120738846  0.7959240645156590  0.8574261490096864
  0.3290198258344695  0.8349476032848091  0.9829370325015448
  0.9305862313944140  0.3335695279143349  0.5405954538159451
  0.8888980896325301  0.3338512320058364  0.6817340041941539
  0.5891133205820824  0.9905791933451019  0.2209883577067031
  0.5444730390420887  0.9954379592087774  0.3596011337062043
  0.8851216974981100  0.3516483656527437  0.8794563094246242
  0.8397124273163746  0.3533386054680613  0.9916112834292801
  0.8910591926034795  0.7915678496997540  0.7605288938699002
  0.8474285979240528  0.8341555172444589  0.6402919164984036
  0.9165926664687528  0.7477195306385445  0.1024491449888688
  0.8764071698198155  0.7900804452854796  0.9587650104123366
  0.3068268766441281  0.9057914239739396  0.7237431798785740
  0.3035895381863452  0.8655324001322231  0.5980404363138796
  0.3300841658138710  0.9255698423713443  0.0685548741711960
  0.3214876587427610  0.8893155873836200  0.9224485011858330
  0.9866777218215877  0.5629329051419989  0.4218854680510055
  0.9865527640905286  0.5201085532107761  0.3001507318873389
  0.8061026157866320  0.3156814495788469  0.7275782642230669
  0.8508609040448871  0.3142634112411756  0.6158233683467478
  0.7482105063987057  0.3508918461201729  0.0386931054368793
  0.7981075318212059  0.3386144542037954  0.9195107386897965
  0.4565791622225510  0.9852975746426862  0.4053390949006898
  0.5012747436458144  0.9836823737454928  0.2891889860417989
  0.6768640220822550  0.4549845787445705  0.6165558293483514
  0.7858168553422900  0.1953976254299623  0.9826235455364497
  0.1452382288658464  0.1730446311645883  0.4833217362678570
  0.7152485298613962  0.1236899537164512  0.4901395825693188
  0.0336487763539788  0.4777748813084715  0.8293700599593067
  0.1536282326493027  0.7103296701277479  0.5078634535114260
  0.4986122292158025  0.0229349910534073  0.8266075633580288
  0.1966026514317930  0.1761176488320828  0.7988680609127632
  0.6230644178660777  0.1898861865872893  0.8449201049409651
  0.1792550281497051  0.6232204955192608  0.8563880178701848
  0.8074178222981373  0.8288533955782107  0.1719073979312897
  0.3392426607078440  0.8221547385324767  0.1333480332613423
  0.8368853821024805  0.3680607987719650  0.1401964932765765
  0.8594928284787471  0.8357321152813728  0.4909958959982565
  0.2935197893818974  0.8784254082239327  0.4474399395753385
  0.9724403386248573  0.5330228045423724  0.1516174756676357
  0.8570444765308508  0.2961484622765426  0.4703349104232754
  0.5023370473155019  0.9716118260946822  0.1383077879041090
  0.2705313271615898  0.6517274141066565  0.5667345019496138
  0.0538725708720925  0.3189746884087971  0.5002109585359026
  0.6406395904235828  0.0419291080004145  0.5198239510775401
  0.0203886602029621  0.6966030763294787  0.8155466459092272
  0.3543851552087313  0.0297912080480416  0.1191721360880530
  0.2841356426716068  0.0307051492162549  0.7840860423474202
  0.7021608615871797  0.2746617741991541  0.0259108045725007
  0.7677041615744589  0.2285887047368365  0.7527608557145242
  0.0258966831345512  0.6234141269187750  0.1445171705255046
  0.6466393820272417  0.9678729351897637  0.8471735606612900
  0.9862675897247255  0.3137035667286288  0.1637253960960161
  0.3262003302077404  0.6863967276163874  0.7492899625359172
  0.7143028648447507  0.9723726110166055  0.1852587996961354
  0.9801774147689313  0.3871738069667915  0.8374972082255563
  0.2955360292505532  0.7272058117952959  0.1761365265994896
  0.7166766834521163  0.3405850786478244  0.4371601759790701
  0.9525127609214684  0.6920570289919660  0.4790644190438548
  0.3553907249669186  0.9588312887278156  0.4443116498192237
  0.7140647679779683  0.4521182620653049  0.2445981020962927
  0.6452279121381284  0.4115694751703994  0.8252923631543121
