O  C  H  Co Li                          
   1.00000000000000     
    25.4872053964129996    0.6846737798161966   -0.2008220907572091
    13.3340822307466436   22.0333683006296610   -0.1753226668789996
    -0.0526499977104072   -0.0231322140809066    6.8292248443501462
   O    C    H    Co   Li
    52    66    16    18     2
Direct
  0.0536569296658885  0.2624343723309863  0.3020455713634236
  0.0300134788242894  0.3115020748675721  0.9492620978163530
  0.0998404323916275  0.2643042789914347  0.7106714202635737
  0.6716118183085115  0.0751471415921454  0.3153518473361466
  0.6484433367673965  0.0491828158961171  0.9597895547828404
  0.6139999079868235  0.1183794596303476  0.7191473158469660
  0.0188710459688765  0.4028028156058463  0.6437737536081428
  0.3073192489315753  0.6396916632113570  0.3275550315557167
  0.3523532158586577  0.6110041288988259  0.9636684934173272
  0.3168306491386784  0.5653542411902546  0.7727079392828010
  0.5819149502680697  0.0209184932643072  0.6388716253972135
  0.2975991563914957  0.0221432445914699  0.3458352646410771
  0.2279661414032228  0.0688070700799353  0.5835389373035774
  0.2731486944465668  0.0694971962931168  0.9882416278547168
  0.6637003727581446  0.3124661297848973  0.3209364903305030
  0.6974467299297370  0.2394796847193913  0.5518676269968653
  0.0200757580833532  0.6330228835039639  0.7048931516990569
  0.0412639122402860  0.5652598432963284  0.9406927789369646
  0.6073664082903975  0.2988129652519056 -0.0018859186645740
  0.0601655253313138  0.6643294965951844  0.3742052246360511
  0.1074326185245035  0.6836447398841571  0.6154781525217602
  0.3733163864299834  0.9810814629503604  0.6840867399478728
  0.4117066951804170  0.0114985106951645  0.9214270560083951
  0.1092859287180420  0.6322362925806431  0.0168833143955455
  0.7027636381892475  0.9761598072714391  0.6242157843190447
  0.7726089073716058  0.9360482786959599  0.3845326640595317
  0.7304068708975646  0.9289310064817146  0.9774275244660923
  0.3859572034296673  0.6704846118416433  0.5053787766571773
  0.3178907158164485  0.7524289728158310  0.3354627458080602
 -0.0082142685565916  0.3836243319167054  0.2840578551154971
  0.9655240949135611  0.4534272758794200  0.0500384411202483
  0.3628141469948472  0.7026615677877299  0.9227040033185423
  0.9568765694882403  0.3498297030074419  0.6140111627490538
  0.9139351632340793  0.3243389211023029  0.3748463516719278
  0.6290859491782423  0.0006099387556860  0.2865777380097467
  0.5942373600448532  0.9681983521042706  0.0426293662738133
  0.9069210390372792  0.3764659442866629  0.9717487610703307
  0.9621796855471456  0.7539160791904006  0.6791589231082191
  0.9884395358004107  0.7077699311471594  0.0424681989083751
  0.9155422171809835  0.7505773148513044  0.2715302357644170
  0.3127819282064808  0.9268541271574861  0.6478258737045939
  0.3338027695863289  0.9491459498466518  0.0128093569221364
  0.3668914406575993  0.8776283045247237  0.2433857121376808
  0.9948407647736501  0.6131663939425104  0.3428740401450154
  0.7376750899460250  0.3267056081229498  0.6528285745292535
  0.6627454921242042  0.3946307527835391  0.9771866974363960
  0.7172582319056472  0.3959285296149403  0.2374200753368665
  0.4198749833737069  0.9604493891386445  0.3224643175705674
  0.6091562142591268  0.4480838923096147  0.5612216714466942
  0.5871679342426056  0.5232551245569751  0.7744343702217816
  0.6391218356334376  0.5154212456455899  0.4986826949372047
  0.7964179408434532  0.2154954668344042  0.1279121752946712
  0.1068754690364669  0.2166366392689063  0.2221191425375593
  0.1489398391293039  0.1673528495577423  0.3412172432715301
  0.0822058022301826  0.2661869436953900  0.8853164613269777
  0.1225528047063800  0.2152786070993302  0.0214348138061004
  0.6565512379269046  0.1288860322093077  0.2325010097305579
  0.6666472897716409  0.1691034096376924  0.3412757784064041
  0.6307894214399287  0.1029839267502117  0.8959300921791769
  0.6329376476828059  0.1461695904912521  0.0366144296168770
  0.0115456916189186  0.4539685702070002  0.5661925519450616
  0.0198849505489233  0.4928897752492303  0.6891427926896425
  0.2590606605210150  0.6359160711804488  0.2553488978827270
  0.2070028663583679  0.6544452848106412  0.3704887582149251
  0.3135069389717485  0.5935615097291108  0.9331017524292650
  0.2618207012873478  0.6118716053390429  0.0653003729225701
  0.5440708041000856  0.0051135938861258  0.5574656682431064
  0.5001473951587391  0.0051169984053746  0.6768871586403196
  0.2450783825130334  0.0671660184195100  0.4088747688090075
  0.2049057137988264  0.1174578285327473  0.2703594328577161
  0.2205001303107935  0.1157743618656638  0.0690970576028650
  0.1785274049692417  0.1653441351013128  0.9503651653364582
  0.6719024017624960  0.2610973420697059  0.3864037407838286
  0.6527233618049557  0.2258078310361481  0.2674771976127651
  0.0260281353705207  0.5830272084915404  0.7649025320714335
  0.0144793667559309  0.5464472777476400  0.6220622241971400
  0.6233567614786087  0.2456571273850306  0.0791283399117029
  0.6148004069457963  0.2043377053689890  0.9684048342647907
  0.1055152200471275  0.6680252703536180  0.4393362015094632
  0.1567112432309874  0.6514102546578086  0.3014562908167122
  0.4124570842314241 -0.0054387054325839  0.7455207139008309
  0.4582840572551216 -0.0098112803712245  0.6058644915261978
  0.1570482884991910  0.6317325698044597  0.1037108211435265
  0.2108003020010752  0.6107399269350653 -0.0068386574295000
  0.7572947869775234  0.9355621892903406  0.5598608132586608
  0.8018496805738305  0.8880162010385600  0.7000632901603038
  0.7862513110773591  0.8879672289791427  0.9000288546167113
  0.8316568778734358  0.8423438028035873  0.0226069608448084
  0.3474123499706884  0.7302517297291164  0.4953559234981269
  0.3419328852143279  0.7720890309503392  0.6548541432691686
 -0.0161194445368363  0.4343581804842470  0.2241483803416965
 -0.0038403737048487  0.4709162472066991  0.3647113939920126
  0.3543102624852684  0.7559198823397556  0.8570195023938961
  0.3555205038699276  0.7980714642973928  0.9854377754457515
  0.9149088117244072  0.3405865394669439  0.5511300342616068
  0.8666971458276758  0.3493228565694588  0.6886420431314234
  0.5917840231105488  0.9854506713724515  0.2189452589860254
  0.5457639750877289  0.9885831180198330  0.3560792790333271
  0.8644476075358285  0.3672723561274411  0.8889031906340840
  0.8148580173342711  0.3760205853401215  0.0024274763051779
  0.9065954035081322  0.7965980609103763  0.7559173267604800
  0.8611731808823165  0.8428927287194345  0.6336211532633476
  0.9333255284346587  0.7498643121694991  0.0983951237535611
  0.8907972186252490  0.7972012825664831  0.9561993334039454
  0.3263559596906699  0.8730036293338660  0.7237388529234788
  0.3262899047832475  0.8303449123224589  0.5952197454878564
  0.3481615499982511  0.8955649614123297  0.0694052411704678
  0.3424215472954803  0.8556074445634840  0.9240304309229546
  0.0000553629366168  0.5629183512257722  0.4202731579059962
  0.9908218375413301  0.5245131544109781  0.2975843647135218
  0.7747980076170599  0.3443378840068496  0.7324182671219440
  0.8227992642280432  0.3371296388351884  0.6176574468715491
  0.7146093874816785  0.3843217085837027  0.0522572693931321
  0.7685683374174244  0.3670882923768810  0.9278998818722993
  0.4593541426328643  0.9742442220552684  0.4040384167672145
  0.5040065080235395  0.9734373645117923  0.2849425590661642
  0.6122510447456284  0.4986245057000099  0.6118797968295204
  0.7586083805338643  0.2454974637692641  0.0080230784488473
  0.1372379226720262  0.1680614473278146  0.4944476782836144
  0.6875323966026755  0.1547447851000319  0.4867470910508951
  0.0313132874893051  0.4804440238322327  0.8428252409975258
  0.2048436122535287  0.6720913325924371  0.5185060211781393
  0.4985859032667106  0.0174674326369106  0.8308544712663686
  0.1902820394309421  0.1645516297231095  0.7972145424047142
  0.5964283136455157  0.2173640491611052  0.8195090614160282
  0.2116821001802795  0.5947093805743845  0.8440326332622958
  0.8200626701410005  0.8420940595206063  0.1752634219329077
  0.3667345940671691  0.7861644636040432  0.1392842727822605
  0.8130868135395309  0.3899780914838014  0.1549349734116155
  0.8725045091415624  0.8432549735256827  0.4806972540694964
  0.3158240530019150  0.8426432636879030  0.4413674794235021
  0.9794189723754190  0.5370173523773241  0.1439351794629051
  0.8267483181284814  0.3204140773913682  0.4675990340110143
  0.5056827577067855  0.9610757942091315  0.1308974691912964
  0.3342904828331058  0.5958015850066485  0.5594523163487231
  0.0420472341361464  0.3215233591034700  0.5068266340341472
  0.6304932365193995  0.0540615974172032  0.5142071328708472
  0.0458376369840471  0.6889557645433251  0.8117085414234958
  0.3559025887226225  0.0082067110808787  0.1182442203388640
  0.2884386127284841  0.0076223050758547  0.7816572176700765
  0.6695939638990953  0.3161220375013216  0.0158921496348848
  0.7250319741970648  0.2653335407824624  0.7636254042764480
  0.0446645233869900  0.6212800518319274  0.1422499250047316
  0.6456964396088560  0.9793629211638225  0.8453369382103886
  0.9694185242651197  0.3245115949668059  0.1755971336218836
  0.3768469210145635  0.6340068310016769  0.7298503219261990
  0.7061114367493896  0.9917527045660804  0.1851168068732550
  0.9674330747816631  0.3972050714843811  0.8446549863446342
  0.3422694688108404  0.6786807433445462  0.1676789164817831
  0.6773003865090381  0.3747928246179262  0.4515620220324820
  0.9755530758625978  0.6928671591396405  0.4758607193430752
  0.3617855193049185  0.9383813985937521  0.4471071801686824
  0.6774045968717987  0.4834270177340759  0.2764321979168151
  0.5892216555547690  0.4516898298957607  0.8350915516955355
 
  0.00000000E+00  0.00000000E+00  0.00000000E+00
  0.00000000E+00  0.00000000E+00  0.00000000E+00
  0.00000000E+00  0.00000000E+00  0.00000000E+00
  0.00000000E+00  0.00000000E+00  0.00000000E+00
  0.00000000E+00  0.00000000E+00  0.00000000E+00
  0.00000000E+00  0.00000000E+00  0.00000000E+00
  0.00000000E+00  0.00000000E+00  0.00000000E+00
  0.00000000E+00  0.00000000E+00  0.00000000E+00
  0.00000000E+00  0.00000000E+00  0.00000000E+00
  0.00000000E+00  0.00000000E+00  0.00000000E+00
  0.00000000E+00  0.00000000E+00  0.00000000E+00
  0.00000000E+00  0.00000000E+00  0.00000000E+00
  0.00000000E+00  0.00000000E+00  0.00000000E+00
  0.00000000E+00  0.00000000E+00  0.00000000E+00
  0.00000000E+00  0.00000000E+00  0.00000000E+00
  0.00000000E+00  0.00000000E+00  0.00000000E+00
  0.00000000E+00  0.00000000E+00  0.00000000E+00
  0.00000000E+00  0.00000000E+00  0.00000000E+00
  0.00000000E+00  0.00000000E+00  0.00000000E+00
  0.00000000E+00  0.00000000E+00  0.00000000E+00
  0.00000000E+00  0.00000000E+00  0.00000000E+00
  0.00000000E+00  0.00000000E+00  0.00000000E+00
  0.00000000E+00  0.00000000E+00  0.00000000E+00
  0.00000000E+00  0.00000000E+00  0.00000000E+00
  0.00000000E+00  0.00000000E+00  0.00000000E+00
  0.00000000E+00  0.00000000E+00  0.00000000E+00
  0.00000000E+00  0.00000000E+00  0.00000000E+00
  0.00000000E+00  0.00000000E+00  0.00000000E+00
  0.00000000E+00  0.00000000E+00  0.00000000E+00
  0.00000000E+00  0.00000000E+00  0.00000000E+00
  0.00000000E+00  0.00000000E+00  0.00000000E+00
  0.00000000E+00  0.00000000E+00  0.00000000E+00
  0.00000000E+00  0.00000000E+00  0.00000000E+00
  0.00000000E+00  0.00000000E+00  0.00000000E+00
  0.00000000E+00  0.00000000E+00  0.00000000E+00
  0.00000000E+00  0.00000000E+00  0.00000000E+00
  0.00000000E+00  0.00000000E+00  0.00000000E+00
  0.00000000E+00  0.00000000E+00  0.00000000E+00
  0.00000000E+00  0.00000000E+00  0.00000000E+00
  0.00000000E+00  0.00000000E+00  0.00000000E+00
  0.00000000E+00  0.00000000E+00  0.00000000E+00
  0.00000000E+00  0.00000000E+00  0.00000000E+00
  0.00000000E+00  0.00000000E+00  0.00000000E+00
  0.00000000E+00  0.00000000E+00  0.00000000E+00
  0.00000000E+00  0.00000000E+00  0.00000000E+00
  0.00000000E+00  0.00000000E+00  0.00000000E+00
  0.00000000E+00  0.00000000E+00  0.00000000E+00
  0.00000000E+00  0.00000000E+00  0.00000000E+00
  0.00000000E+00  0.00000000E+00  0.00000000E+00
  0.00000000E+00  0.00000000E+00  0.00000000E+00
  0.00000000E+00  0.00000000E+00  0.00000000E+00
  0.00000000E+00  0.00000000E+00  0.00000000E+00
  0.00000000E+00  0.00000000E+00  0.00000000E+00
  0.00000000E+00  0.00000000E+00  0.00000000E+00
  0.00000000E+00  0.00000000E+00  0.00000000E+00
  0.00000000E+00  0.00000000E+00  0.00000000E+00
  0.00000000E+00  0.00000000E+00  0.00000000E+00
  0.00000000E+00  0.00000000E+00  0.00000000E+00
  0.00000000E+00  0.00000000E+00  0.00000000E+00
  0.00000000E+00  0.00000000E+00  0.00000000E+00
  0.00000000E+00  0.00000000E+00  0.00000000E+00
  0.00000000E+00  0.00000000E+00  0.00000000E+00
  0.00000000E+00  0.00000000E+00  0.00000000E+00
  0.00000000E+00  0.00000000E+00  0.00000000E+00
  0.00000000E+00  0.00000000E+00  0.00000000E+00
  0.00000000E+00  0.00000000E+00  0.00000000E+00
  0.00000000E+00  0.00000000E+00  0.00000000E+00
  0.00000000E+00  0.00000000E+00  0.00000000E+00
  0.00000000E+00  0.00000000E+00  0.00000000E+00
  0.00000000E+00  0.00000000E+00  0.00000000E+00
  0.00000000E+00  0.00000000E+00  0.00000000E+00
  0.00000000E+00  0.00000000E+00  0.00000000E+00
  0.00000000E+00  0.00000000E+00  0.00000000E+00
  0.00000000E+00  0.00000000E+00  0.00000000E+00
  0.00000000E+00  0.00000000E+00  0.00000000E+00
  0.00000000E+00  0.00000000E+00  0.00000000E+00
  0.00000000E+00  0.00000000E+00  0.00000000E+00
  0.00000000E+00  0.00000000E+00  0.00000000E+00
  0.00000000E+00  0.00000000E+00  0.00000000E+00
  0.00000000E+00  0.00000000E+00  0.00000000E+00
  0.00000000E+00  0.00000000E+00  0.00000000E+00
  0.00000000E+00  0.00000000E+00  0.00000000E+00
  0.00000000E+00  0.00000000E+00  0.00000000E+00
  0.00000000E+00  0.00000000E+00  0.00000000E+00
  0.00000000E+00  0.00000000E+00  0.00000000E+00
  0.00000000E+00  0.00000000E+00  0.00000000E+00
  0.00000000E+00  0.00000000E+00  0.00000000E+00
  0.00000000E+00  0.00000000E+00  0.00000000E+00
  0.00000000E+00  0.00000000E+00  0.00000000E+00
  0.00000000E+00  0.00000000E+00  0.00000000E+00
  0.00000000E+00  0.00000000E+00  0.00000000E+00
  0.00000000E+00  0.00000000E+00  0.00000000E+00
  0.00000000E+00  0.00000000E+00  0.00000000E+00
  0.00000000E+00  0.00000000E+00  0.00000000E+00
  0.00000000E+00  0.00000000E+00  0.00000000E+00
  0.00000000E+00  0.00000000E+00  0.00000000E+00
  0.00000000E+00  0.00000000E+00  0.00000000E+00
  0.00000000E+00  0.00000000E+00  0.00000000E+00
  0.00000000E+00  0.00000000E+00  0.00000000E+00
  0.00000000E+00  0.00000000E+00  0.00000000E+00
  0.00000000E+00  0.00000000E+00  0.00000000E+00
  0.00000000E+00  0.00000000E+00  0.00000000E+00
  0.00000000E+00  0.00000000E+00  0.00000000E+00
  0.00000000E+00  0.00000000E+00  0.00000000E+00
  0.00000000E+00  0.00000000E+00  0.00000000E+00
  0.00000000E+00  0.00000000E+00  0.00000000E+00
  0.00000000E+00  0.00000000E+00  0.00000000E+00
  0.00000000E+00  0.00000000E+00  0.00000000E+00
  0.00000000E+00  0.00000000E+00  0.00000000E+00
  0.00000000E+00  0.00000000E+00  0.00000000E+00
  0.00000000E+00  0.00000000E+00  0.00000000E+00
  0.00000000E+00  0.00000000E+00  0.00000000E+00
  0.00000000E+00  0.00000000E+00  0.00000000E+00
  0.00000000E+00  0.00000000E+00  0.00000000E+00
  0.00000000E+00  0.00000000E+00  0.00000000E+00
  0.00000000E+00  0.00000000E+00  0.00000000E+00
  0.00000000E+00  0.00000000E+00  0.00000000E+00
  0.00000000E+00  0.00000000E+00  0.00000000E+00
  0.00000000E+00  0.00000000E+00  0.00000000E+00
  0.00000000E+00  0.00000000E+00  0.00000000E+00
  0.00000000E+00  0.00000000E+00  0.00000000E+00
  0.00000000E+00  0.00000000E+00  0.00000000E+00
  0.00000000E+00  0.00000000E+00  0.00000000E+00
  0.00000000E+00  0.00000000E+00  0.00000000E+00
  0.00000000E+00  0.00000000E+00  0.00000000E+00
  0.00000000E+00  0.00000000E+00  0.00000000E+00
  0.00000000E+00  0.00000000E+00  0.00000000E+00
  0.00000000E+00  0.00000000E+00  0.00000000E+00
  0.00000000E+00  0.00000000E+00  0.00000000E+00
  0.00000000E+00  0.00000000E+00  0.00000000E+00
  0.00000000E+00  0.00000000E+00  0.00000000E+00
  0.00000000E+00  0.00000000E+00  0.00000000E+00
  0.00000000E+00  0.00000000E+00  0.00000000E+00
  0.00000000E+00  0.00000000E+00  0.00000000E+00
  0.00000000E+00  0.00000000E+00  0.00000000E+00
  0.00000000E+00  0.00000000E+00  0.00000000E+00
  0.00000000E+00  0.00000000E+00  0.00000000E+00
  0.00000000E+00  0.00000000E+00  0.00000000E+00
  0.00000000E+00  0.00000000E+00  0.00000000E+00
  0.00000000E+00  0.00000000E+00  0.00000000E+00
  0.00000000E+00  0.00000000E+00  0.00000000E+00
  0.00000000E+00  0.00000000E+00  0.00000000E+00
  0.00000000E+00  0.00000000E+00  0.00000000E+00
  0.00000000E+00  0.00000000E+00  0.00000000E+00
  0.00000000E+00  0.00000000E+00  0.00000000E+00
  0.00000000E+00  0.00000000E+00  0.00000000E+00
  0.00000000E+00  0.00000000E+00  0.00000000E+00
  0.00000000E+00  0.00000000E+00  0.00000000E+00
  0.00000000E+00  0.00000000E+00  0.00000000E+00
  0.00000000E+00  0.00000000E+00  0.00000000E+00
  0.00000000E+00  0.00000000E+00  0.00000000E+00
  0.00000000E+00  0.00000000E+00  0.00000000E+00
  0.00000000E+00  0.00000000E+00  0.00000000E+00
  0.00000000E+00  0.00000000E+00  0.00000000E+00
