O  C  H  Co Li                          
   1.00000000000000     
    23.9261198104165054    1.4270226320989507   -0.1702423552515908
    13.3807977504398092   19.9075722412530887    0.0070620584243260
    -0.0366049182984033    0.0428470880645103    6.8013684059336974
   O    C    H    Co   Li
    54    67    16    18     4
Direct
  0.0444043459552892  0.2513466716202072  0.2939892775862507
  0.0153466053257665  0.3012749718448748  0.9056516750190919
  0.0996558744039469  0.2453296553698976  0.6863146980139383
  0.6630333041126597  0.1258259259877380  0.2987349697383402
  0.6420418402647425  0.0852316248458274 -0.0547797898376407
  0.5717921441074348  0.1666346468126467  0.7193259823212268
  0.0425983111908203  0.3836734014538421  0.6318954974402302
  0.3786764282470854  0.5233153395933661  0.4120430197909477
  0.3981665716080450  0.5519449511835925  0.0239690128589205
  0.3555598803248918  0.5132875700478219  0.8175181313883030
  0.5631445204456194  0.0452674208881839  0.6722155415989949
  0.3354407632366747 -0.0125027466125250  0.3765813096169849
  0.2511187689626349  0.0287690506104856  0.5932934810616918
  0.3015405323637267  0.0320038891760943 -0.0130994297355771
  0.5670703162286487  0.4136294010811696  0.2873403338594603
  0.6012921722656372  0.3430239421375547  0.5480133348485364
 -0.0047476015832629  0.6545765096440580  0.7687560544170875
  0.0330532486212585  0.5656872387321081  0.9709622670156364
  0.4749653734642854  0.4013700757701804  0.0189288228332735
  0.0795449645623566  0.6243104947288735  0.4488730325206822
  0.1349039925185476  0.6431226004596373  0.6725926009861304
  0.4199944046583689  0.9125801786912328  0.7139212120183480
  0.4408629215887153 -0.0348066994693710  0.9395954944438876
  0.1297591436234097  0.5987302108987352  0.0664513047572945
  0.6887477789845095  0.9977744403863874  0.6181916072499202
  0.7666181200979798  0.9858947466731459  0.4135211463782044
  0.7252704453559583  0.9602998671089910  0.0092155220138532
  0.4469204942285559  0.5875043270508429  0.5390210504676174
  0.3733090942117174  0.6761380946975982  0.3458364564377228
  0.0181681613492244  0.3676115792717020  0.2424572407530334
  0.9675914573778430  0.4585867391785315  0.0389640995809604
  0.4693684211476575  0.6115916677954407  0.9137335864827083
  0.9422646526057720  0.3783452418964689  0.5641349483749275
  0.9004714658651821  0.3453205926573780  0.3351021826071777
  0.6018647154721281  0.0534346577940463  0.2829394459329468
  0.5984061057724823 -0.0125691759473514  0.0592931214947146
  0.8897588039813724  0.3991444796417883  0.9481421678415226
  0.9894366931773443  0.7601950954070206  0.7115253866236354
  0.0172328737900242  0.7095067584838366  0.1056113064502818
  0.9332711716915022  0.7713653877592306  0.3215838717572524
  0.3367287172925176  0.8842256695471749  0.6479675421383406
  0.3510829152929404 -0.0896913877449037  0.0383628037058668
  0.4111819375618012  0.8215859214415248  0.2482299275873771
  0.9655344872853253  0.6423639700434056  0.3759541244634929
  0.6998543177048631  0.3663955950845110  0.6036577440572292
  0.6191551089815912  0.4394039905084438 -0.0640540451321477
  0.6852354376208210  0.4243742760000944  0.1949540406341460
  0.4660370314470028  0.9095243476530005  0.3239365094245562
  0.5969058479097302  0.5194501146548529  0.5661000778165948
  0.5921483452212077  0.6088109118357191  0.6747534683256796
  0.6423088777736060  0.5619770230559011  0.3802349928937228
  0.7487179539842147  0.1822045639514743  0.5643041586327155
  0.6846927931788065  0.2398087784960652  0.8302907330333807
  0.7173837744908225  0.1307123469327742  0.7603070323205230
  0.1053891645625820  0.1976530900852676  0.2113311666025366
  0.1546191448400747  0.1412968026472355  0.3347397381987412
  0.0781538683558048  0.2489532077668554  0.8593707987519437
  0.1233225525248522  0.1940468294870865  0.0088493568339188
  0.6173094399953539  0.1892174168903984  0.2137839670994983
  0.6049947231340282  0.2458697681692191  0.3234102210915503
  0.5995669416091599  0.1505517099343108  0.8919090654073150
  0.5838780849040512  0.2045784859239211  0.0280980966410986
  0.0230573048991338  0.4457012336270907  0.5593567049264435
  0.0268515389787101  0.4881010550663850  0.6911543043862773
  0.3154521460680637  0.5456158695453981  0.3365884662137698
  0.2572732692720627  0.5691587863886538  0.4518379536649913
  0.3567117065047264  0.5347540986194185  0.9849949730804689
  0.3060321008170168  0.5464930385284957  0.1295689869076074
  0.5441289136459282  0.0094748450252092  0.5790567808731693
  0.5118231779990264 -0.0112508531049067  0.6946244279824551
  0.2699306304239402  0.0313417615104074  0.4217756273453251
  0.2210530016148621  0.0845461401392756  0.2722452256402449
  0.2390918047476770  0.0820154383032734  0.0698144792129475
  0.1888122353831818  0.1366119902562810  0.9452539810084633
  0.5755245891465316  0.3612722912249622  0.3704083484023686
  0.5653373017370278  0.3148348164883064  0.2584181816697884
  0.0121543320085635  0.5928862296060946  0.7997731876317495
  0.0066513669370905  0.5545474755594758  0.6417457717301891
  0.5282001222700957  0.3310314361233676  0.0745300951604060
  0.5357769291300385  0.2766050974424701 -0.0373684662904987
  0.1329843011943371  0.6206604571286137  0.5046726727507621
  0.1929572711761841  0.5901692445610790  0.3707217572379634
  0.4469510536669443 -0.0569909791896670  0.7647612140184317
  0.4846258712154611 -0.0445055492090921  0.6210558353052745
  0.1866187195939439  0.5843309032589390  0.1624268756181599
  0.2444038572699176  0.5622366842124665  0.0491588246166299
  0.7530282052006549  0.9707093464645290  0.5776793196256135
  0.8071136134103515  0.9212620668165190  0.7270041005178048
  0.7897915417484879  0.9204371172792316  0.9282634299879000
  0.8432977225151473  0.8714726038842947  0.0565245101073283
  0.4064604808781705  0.6558713346560280  0.5087376709769891
  0.4021467143849001  0.7023044966627998  0.6571760305376529
 -0.0066091909292747  0.4320063141044502  0.2087959655349311
 -0.0027693584088203  0.4724831865980909  0.3641423789974772
  0.4330781650194811  0.6781787261754089  0.8502454923143820
  0.4244693646008714  0.7279165767740869 -0.0206738114937802
  0.8998207694603004  0.3654438123804618  0.5098097124674510
  0.8474394089073189  0.3755818438226578  0.6484237053397701
  0.5858024284768565  0.0127519657606934  0.2318429755645389
  0.5517321838785567 -0.0055837963822042  0.3730898052285345
  0.8447450678988225  0.3922359421189858  0.8520916473762691
  0.7895448034672986  0.4031368631743438  0.9597082117102481
  0.9278468943643321  0.8140499236356699  0.7923271521881740
  0.8762668706589962  0.8695013012378788  0.6679699221446705
  0.9555787393618584  0.7644404641888445  0.1478649321645990
  0.9106167387055676  0.8178176200094956  0.9952771071145914
  0.3637355848905223  0.8206914621738852  0.7276011525067360
  0.3674015177082673  0.7723433039995918  0.6024242186596308
  0.3850287875052019  0.8440853158510072  0.0767821893274544
  0.3908118356671475  0.7978447730851757  0.9241143444600757
  0.9819155047977803  0.5812074418958352  0.4461266678628321
  0.9759586568573053  0.5395835479856486  0.3152328397519938
  0.7431715585417199  0.3779552920260056  0.6826161838071213
  0.7980737854748874  0.3673699193736439  0.5729180349293354
  0.6774839745173886  0.4203773262589522  0.0086494516203102
  0.7376861849053148  0.3991951355245715  0.8822534775151955
  0.4908472344872857  0.9407683706271801  0.4146879369273121
  0.5255374838015386  0.9596381701811655  0.2998033578497774
  0.6111617598904749  0.5663080572416732  0.5354649650688749
  0.7175181274448091  0.1826366443055648  0.7220708714150211
  0.4989289633374759  0.4019197570006734 -0.1671884932984875
  0.1409728672946194  0.1433426565189815  0.4884867341412059
  0.6356736077387689  0.2320054055746534  0.4579681141591452
  0.0457169617094922  0.4684804992091520  0.8403290410056449
  0.2617256713607276  0.5724061083037603  0.6101385916462806
  0.5065623996349042  0.0013659211135472  0.8502965865382119
  0.2018408601150349  0.1343984547381547  0.7909809216982322
  0.4951235996970164  0.2890755507927165  0.8547267570321669
  0.2394565307963365  0.5597277016692213  0.8907514812352015
  0.8298961729833072  0.8723648611448684  0.2094468351532535
  0.4452214316635006  0.7109220223890595  0.1288897270171806
  0.7921673691215585  0.4120897343519710  0.1157602304294733
  0.8895752192604849  0.8686036714040788  0.5146032596188370
  0.3447910113273520  0.7896490492585113  0.4546364160286687
  0.9556861629882571  0.5594917886526947  0.1669512184646771
  0.8042649032593129  0.3488967277465511  0.4222315210531439
  0.5302214869048668  0.9477933919599378  0.1435970782497321
  0.4370657828232216  0.4746873338462129  0.6498529133132513
  0.0486228280507315  0.3146795052610295  0.4746924185833913
  0.5965606637787466  0.0926631291352744  0.5404905957679310
  0.0654060494442406  0.6794797159334166  0.8720985784310371
  0.3846479238250712 -0.0300840306234231  0.1457177225610259
  0.3134849996672240 -0.0391399910958620  0.8033076944469921
  0.5521546341117705  0.4352857294055784 -0.2056702995789602
  0.5783677998761483  0.3121386968813246  0.7990552427815553
  0.0500844904981358  0.6081726288693613  0.1903827030570141
  0.6437062847024617  0.0000687040112415  0.8491367656441631
  0.9651321664746606  0.3239810034881220  0.1344745645930310
  0.4554159531895449  0.5461361604176665  0.7993027628760569
  0.6946256149190834  0.0410801556911800  0.1761375022930445
  0.9623901408077513  0.4052346295948074  0.8214928257634218
  0.4126062548286763  0.5725471395308127  0.2866261109497129
  0.6232381215077309  0.4400596767460777  0.4236588630601362
  0.9748001112561513  0.7032906379209579  0.5330776259671838
  0.4063809261524202  0.8846506021526355  0.4488967225187261
  0.7134815369837266  0.4794948276197170  0.2962297191346618
  0.5662041931439982  0.5624585964559914  0.8299004522526593
  0.7394152320317978  0.1069679453616806  0.4894778385394467
  0.7121957165723486  0.2786711768413852  0.6182575676223591
 
  0.00000000E+00  0.00000000E+00  0.00000000E+00
  0.00000000E+00  0.00000000E+00  0.00000000E+00
  0.00000000E+00  0.00000000E+00  0.00000000E+00
  0.00000000E+00  0.00000000E+00  0.00000000E+00
  0.00000000E+00  0.00000000E+00  0.00000000E+00
  0.00000000E+00  0.00000000E+00  0.00000000E+00
  0.00000000E+00  0.00000000E+00  0.00000000E+00
  0.00000000E+00  0.00000000E+00  0.00000000E+00
  0.00000000E+00  0.00000000E+00  0.00000000E+00
  0.00000000E+00  0.00000000E+00  0.00000000E+00
  0.00000000E+00  0.00000000E+00  0.00000000E+00
  0.00000000E+00  0.00000000E+00  0.00000000E+00
  0.00000000E+00  0.00000000E+00  0.00000000E+00
  0.00000000E+00  0.00000000E+00  0.00000000E+00
  0.00000000E+00  0.00000000E+00  0.00000000E+00
  0.00000000E+00  0.00000000E+00  0.00000000E+00
  0.00000000E+00  0.00000000E+00  0.00000000E+00
  0.00000000E+00  0.00000000E+00  0.00000000E+00
  0.00000000E+00  0.00000000E+00  0.00000000E+00
  0.00000000E+00  0.00000000E+00  0.00000000E+00
  0.00000000E+00  0.00000000E+00  0.00000000E+00
  0.00000000E+00  0.00000000E+00  0.00000000E+00
  0.00000000E+00  0.00000000E+00  0.00000000E+00
  0.00000000E+00  0.00000000E+00  0.00000000E+00
  0.00000000E+00  0.00000000E+00  0.00000000E+00
  0.00000000E+00  0.00000000E+00  0.00000000E+00
  0.00000000E+00  0.00000000E+00  0.00000000E+00
  0.00000000E+00  0.00000000E+00  0.00000000E+00
  0.00000000E+00  0.00000000E+00  0.00000000E+00
  0.00000000E+00  0.00000000E+00  0.00000000E+00
  0.00000000E+00  0.00000000E+00  0.00000000E+00
  0.00000000E+00  0.00000000E+00  0.00000000E+00
  0.00000000E+00  0.00000000E+00  0.00000000E+00
  0.00000000E+00  0.00000000E+00  0.00000000E+00
  0.00000000E+00  0.00000000E+00  0.00000000E+00
  0.00000000E+00  0.00000000E+00  0.00000000E+00
  0.00000000E+00  0.00000000E+00  0.00000000E+00
  0.00000000E+00  0.00000000E+00  0.00000000E+00
  0.00000000E+00  0.00000000E+00  0.00000000E+00
  0.00000000E+00  0.00000000E+00  0.00000000E+00
  0.00000000E+00  0.00000000E+00  0.00000000E+00
  0.00000000E+00  0.00000000E+00  0.00000000E+00
  0.00000000E+00  0.00000000E+00  0.00000000E+00
  0.00000000E+00  0.00000000E+00  0.00000000E+00
  0.00000000E+00  0.00000000E+00  0.00000000E+00
  0.00000000E+00  0.00000000E+00  0.00000000E+00
  0.00000000E+00  0.00000000E+00  0.00000000E+00
  0.00000000E+00  0.00000000E+00  0.00000000E+00
  0.00000000E+00  0.00000000E+00  0.00000000E+00
  0.00000000E+00  0.00000000E+00  0.00000000E+00
  0.00000000E+00  0.00000000E+00  0.00000000E+00
  0.00000000E+00  0.00000000E+00  0.00000000E+00
  0.00000000E+00  0.00000000E+00  0.00000000E+00
  0.00000000E+00  0.00000000E+00  0.00000000E+00
  0.00000000E+00  0.00000000E+00  0.00000000E+00
  0.00000000E+00  0.00000000E+00  0.00000000E+00
  0.00000000E+00  0.00000000E+00  0.00000000E+00
  0.00000000E+00  0.00000000E+00  0.00000000E+00
  0.00000000E+00  0.00000000E+00  0.00000000E+00
  0.00000000E+00  0.00000000E+00  0.00000000E+00
  0.00000000E+00  0.00000000E+00  0.00000000E+00
  0.00000000E+00  0.00000000E+00  0.00000000E+00
  0.00000000E+00  0.00000000E+00  0.00000000E+00
  0.00000000E+00  0.00000000E+00  0.00000000E+00
  0.00000000E+00  0.00000000E+00  0.00000000E+00
  0.00000000E+00  0.00000000E+00  0.00000000E+00
  0.00000000E+00  0.00000000E+00  0.00000000E+00
  0.00000000E+00  0.00000000E+00  0.00000000E+00
  0.00000000E+00  0.00000000E+00  0.00000000E+00
  0.00000000E+00  0.00000000E+00  0.00000000E+00
  0.00000000E+00  0.00000000E+00  0.00000000E+00
  0.00000000E+00  0.00000000E+00  0.00000000E+00
  0.00000000E+00  0.00000000E+00  0.00000000E+00
  0.00000000E+00  0.00000000E+00  0.00000000E+00
  0.00000000E+00  0.00000000E+00  0.00000000E+00
  0.00000000E+00  0.00000000E+00  0.00000000E+00
  0.00000000E+00  0.00000000E+00  0.00000000E+00
  0.00000000E+00  0.00000000E+00  0.00000000E+00
  0.00000000E+00  0.00000000E+00  0.00000000E+00
  0.00000000E+00  0.00000000E+00  0.00000000E+00
  0.00000000E+00  0.00000000E+00  0.00000000E+00
  0.00000000E+00  0.00000000E+00  0.00000000E+00
  0.00000000E+00  0.00000000E+00  0.00000000E+00
  0.00000000E+00  0.00000000E+00  0.00000000E+00
  0.00000000E+00  0.00000000E+00  0.00000000E+00
  0.00000000E+00  0.00000000E+00  0.00000000E+00
  0.00000000E+00  0.00000000E+00  0.00000000E+00
  0.00000000E+00  0.00000000E+00  0.00000000E+00
  0.00000000E+00  0.00000000E+00  0.00000000E+00
  0.00000000E+00  0.00000000E+00  0.00000000E+00
  0.00000000E+00  0.00000000E+00  0.00000000E+00
  0.00000000E+00  0.00000000E+00  0.00000000E+00
  0.00000000E+00  0.00000000E+00  0.00000000E+00
  0.00000000E+00  0.00000000E+00  0.00000000E+00
  0.00000000E+00  0.00000000E+00  0.00000000E+00
  0.00000000E+00  0.00000000E+00  0.00000000E+00
  0.00000000E+00  0.00000000E+00  0.00000000E+00
  0.00000000E+00  0.00000000E+00  0.00000000E+00
  0.00000000E+00  0.00000000E+00  0.00000000E+00
  0.00000000E+00  0.00000000E+00  0.00000000E+00
  0.00000000E+00  0.00000000E+00  0.00000000E+00
  0.00000000E+00  0.00000000E+00  0.00000000E+00
  0.00000000E+00  0.00000000E+00  0.00000000E+00
  0.00000000E+00  0.00000000E+00  0.00000000E+00
  0.00000000E+00  0.00000000E+00  0.00000000E+00
  0.00000000E+00  0.00000000E+00  0.00000000E+00
  0.00000000E+00  0.00000000E+00  0.00000000E+00
  0.00000000E+00  0.00000000E+00  0.00000000E+00
  0.00000000E+00  0.00000000E+00  0.00000000E+00
  0.00000000E+00  0.00000000E+00  0.00000000E+00
  0.00000000E+00  0.00000000E+00  0.00000000E+00
  0.00000000E+00  0.00000000E+00  0.00000000E+00
  0.00000000E+00  0.00000000E+00  0.00000000E+00
  0.00000000E+00  0.00000000E+00  0.00000000E+00
  0.00000000E+00  0.00000000E+00  0.00000000E+00
  0.00000000E+00  0.00000000E+00  0.00000000E+00
  0.00000000E+00  0.00000000E+00  0.00000000E+00
  0.00000000E+00  0.00000000E+00  0.00000000E+00
  0.00000000E+00  0.00000000E+00  0.00000000E+00
  0.00000000E+00  0.00000000E+00  0.00000000E+00
  0.00000000E+00  0.00000000E+00  0.00000000E+00
  0.00000000E+00  0.00000000E+00  0.00000000E+00
  0.00000000E+00  0.00000000E+00  0.00000000E+00
  0.00000000E+00  0.00000000E+00  0.00000000E+00
  0.00000000E+00  0.00000000E+00  0.00000000E+00
  0.00000000E+00  0.00000000E+00  0.00000000E+00
  0.00000000E+00  0.00000000E+00  0.00000000E+00
  0.00000000E+00  0.00000000E+00  0.00000000E+00
  0.00000000E+00  0.00000000E+00  0.00000000E+00
  0.00000000E+00  0.00000000E+00  0.00000000E+00
  0.00000000E+00  0.00000000E+00  0.00000000E+00
  0.00000000E+00  0.00000000E+00  0.00000000E+00
  0.00000000E+00  0.00000000E+00  0.00000000E+00
  0.00000000E+00  0.00000000E+00  0.00000000E+00
  0.00000000E+00  0.00000000E+00  0.00000000E+00
  0.00000000E+00  0.00000000E+00  0.00000000E+00
  0.00000000E+00  0.00000000E+00  0.00000000E+00
  0.00000000E+00  0.00000000E+00  0.00000000E+00
  0.00000000E+00  0.00000000E+00  0.00000000E+00
  0.00000000E+00  0.00000000E+00  0.00000000E+00
  0.00000000E+00  0.00000000E+00  0.00000000E+00
  0.00000000E+00  0.00000000E+00  0.00000000E+00
  0.00000000E+00  0.00000000E+00  0.00000000E+00
  0.00000000E+00  0.00000000E+00  0.00000000E+00
  0.00000000E+00  0.00000000E+00  0.00000000E+00
  0.00000000E+00  0.00000000E+00  0.00000000E+00
  0.00000000E+00  0.00000000E+00  0.00000000E+00
  0.00000000E+00  0.00000000E+00  0.00000000E+00
  0.00000000E+00  0.00000000E+00  0.00000000E+00
  0.00000000E+00  0.00000000E+00  0.00000000E+00
  0.00000000E+00  0.00000000E+00  0.00000000E+00
  0.00000000E+00  0.00000000E+00  0.00000000E+00
  0.00000000E+00  0.00000000E+00  0.00000000E+00
  0.00000000E+00  0.00000000E+00  0.00000000E+00
  0.00000000E+00  0.00000000E+00  0.00000000E+00
  0.00000000E+00  0.00000000E+00  0.00000000E+00
  0.00000000E+00  0.00000000E+00  0.00000000E+00
  0.00000000E+00  0.00000000E+00  0.00000000E+00
  0.00000000E+00  0.00000000E+00  0.00000000E+00
