O  C  H  Co Li                          
   1.00000000000000     
    25.9869300222800774    0.0014776472087939   -0.0002841704448074
    12.9947443186480527   22.5035161465627063   -0.0005769115704474
    -0.0000740905812471   -0.0001328080293999    6.8098320633878924
   O    C    H    Co   Li
    58    74    18    18     2
Direct
  0.0621136113990429  0.2529648859687886  0.3035045974342380
  0.0384423292607109  0.2973469724413628  0.9408917057551022
  0.1073210529397529  0.2584557866829371  0.7072216101940976
  0.3950070632928032  0.5861987392503571  0.6467634193979077
  0.6908982361302539  0.0613915957924625  0.3057290566232710
  0.6666137102307881  0.0378406708528764  0.9495497931634692
  0.6392869957534778  0.1054037068664811  0.7106103101791074
  0.0247344806487343  0.3924819975397513  0.6366639935213282
  0.2557942502623098  0.6875862649545024  0.3112718999831424
  0.3010022147047922  0.6659032451624083  0.9520484852076890
  0.2608611971271644  0.6383516281524055  0.7144674778147987
  0.5886610728514644  0.0243514090951883  0.6404577446197294
  0.3019662202468718  0.0367223764119097  0.3607115059445977
  0.2333086989084002  0.0760578471536975  0.5949490254892937
  0.6279071855764997  0.3569300807414747  0.6835678817239932
  0.5658866400897038  0.4080731325776804  0.9295669482997565
  0.2782507034757759  0.0811548297855365 -0.0020636575119655
  0.6848977540567449  0.2930884107020547  0.3405097561669144
  0.6958966909185496  0.2318481742705447  0.5904017690277070
  0.0024591256208078  0.6317022555532593  0.6928006234240197
  0.0309525815632744  0.5635164639629392  0.9285608346678543
  0.6419848674988849  0.2779122540031850  0.9973989833333636
  0.0369364486372757  0.6685342941788475  0.3597995505402564
  0.0772228979550608  0.6957893088167232  0.5977194595273385
  0.3731313019695823  0.9998903744704380  0.6944210248053709
  0.4123834987644504  0.0291003082884673  0.9295046096712601
  0.0822756167646074  0.6466705299798796  0.0003773843300517
  0.7046229858271776  0.9669537246904358  0.6149843859800518
  0.7738624305767979  0.9277960834532368  0.3813208256921947
  0.3722735095002621  0.6329644333744129  0.2877328681021957
  0.4390149795558423  0.5905469233669171  0.0485227515295944
  0.7285687114478823  0.9225281729509246  0.9750316792480065
  0.3350327366462745  0.7031670118447133  0.6188010454644077
  0.3065270787277836  0.7710820497823342  0.3817120728476364
  0.0040226557744536  0.3689290792889984  0.2746677859494783
  0.9752618109841563  0.4373630108341911  0.0397761436549783
  0.3564146478211973  0.7269499985435945  0.9779966758165143
  0.9682718380154555  0.3326060372172038  0.6086566208259825
  0.9259761186199520  0.3082079672356226  0.3689465327518786
  0.6356614625893864  0.0000210284162917  0.2819532431428237
  0.5964427840873895  0.9704893903442733  0.0466850535810240
  0.9222088223258627  0.3562565373194015  0.9677107760453001
  0.9426150667869749  0.7479045321491327  0.6666223692441445
  0.9658315205017943  0.7027986256589402  0.0264822013701461
  0.8981341297251292  0.7431261957882408  0.2636381945435310
  0.6048082141136043  0.4090402604059858  0.3302991621602651
  0.3157327685588431  0.9412300321581114  0.6659830386486369
  0.3367473246480201  0.9652092716707621  0.0271592271969240
  0.3646752338851100  0.8972923221641191  0.2636595592467686
  0.9807452205012400  0.6085036909106509  0.3319894880256672
  0.7482399628091386  0.3153225340726328  0.6616781277567030
  0.6981024637628501  0.3472591398754321  0.0105904543099507
  0.7427524950890027  0.3674487748561188  0.2546968871886102
  0.4178127257226356  0.9791823225587196  0.3324051363447256
  0.6763047774214260  0.4420803785823184  0.5988680233944410
  0.6088630605302376  0.5394364946856041  0.5752151566232448
  0.6915692865199692  0.4998945232258987  0.3827661390095147
  0.8168424927086999  0.1762931205446066  0.9839645195634481
  0.1141190056603755  0.2118957518778627  0.2243761714572888
  0.1553636826439077  0.1667240215544847  0.3462219911107963
  0.0904219066203574  0.2579190968440658  0.8817224628219734
  0.1298936005347631  0.2117548356403738  0.0231835045654121
  0.4454069601066012  0.5432544962829995  0.5653241686560476
  0.4857452781370531  0.4961288458077278  0.6839419305530205
  0.6787677704465963  0.1135843397442740  0.2261030004134273
  0.6838382236391091  0.1545908196098425  0.3460806189163571
  0.6554822117301540  0.0888921236070288  0.8867881996571237
  0.6618242875466825  0.1291751763099137  0.0256355197877337
  0.0141600253655351  0.4443919637661236  0.5577172414535821
  0.0182436057742392  0.4854937665109005  0.6797106444429390
  0.2143735998233921  0.6773698397657748  0.2314345465812085
  0.1687011350163067  0.6819569686043878  0.3519963969627277
  0.2608165878205968  0.6548556369395242  0.8899658385541398
  0.2141671808641677  0.6621196567087707  0.0299169878060860
  0.5483427129340682  0.0125349137508739  0.5610572840696363
  0.5030122879515209  0.0164548727812224  0.6821803751716575
  0.2501491675033920  0.0763157054389182  0.4201323968667420
  0.2106490792190879  0.1224716393340797  0.2784370706181579
  0.5801741743131028  0.4013251532679895  0.7479369033465396
  0.5394604735944737  0.4496568604545102  0.6110015998862558
  0.2264024173132840  0.1222526929084843  0.0770684310816925
  0.1851611781000438  0.1675115160825337  0.9553363230702420
  0.6846396913254282  0.2473948190346280  0.4130048929140260
  0.6729558490126494  0.2095597301553823  0.2766879014403936
  0.0141452435848962  0.5801863330488730  0.7534849449862804
  0.0073323689812915  0.5407296961922918  0.6119895390898558
  0.6546015393216721  0.2257959694887376  0.0779742307831829
  0.6496795994104566  0.1847234426878717  0.9575199844947172
  0.0772325995342534  0.6793572577475306  0.4221533200709296
  0.1239730283102420  0.6719527815683545  0.2822555449602343
  0.4126877214319874  0.0120304955804713  0.7546383824466250
  0.4589427338332842  0.0053566514315163  0.6136209445167536
  0.1237596587169490  0.6567332254560708  0.0806159863061072
  0.1694389599799881  0.6521146556407716  0.9600603513811443
  0.7563792146069925  0.9272406832840172  0.5554595341952973
  0.7956498272448291  0.8803955233998273  0.6950080594516111
  0.4222336601031537  0.5910874483634961  0.2238996332639641
  0.4600331431717073  0.5428989789208032  0.3624839808038037
  0.7800567147134513  0.8806391960440481  0.8964608804359279
  0.8207408170423739  0.8347589408961479  0.0172115357881725
  0.3235586490141063  0.7545390707999401  0.5567343980065033
  0.3308349484514023  0.7940262792923506  0.6963512314974859
  0.9920935520953712  0.4206620393607515  0.2148226023728686
 -0.0012200428296237  0.4600981424326445  0.3563839810194546
  0.3460830807553467  0.7786320740575036  0.8979503095256935
  0.3504747959600342  0.8198435707792643  0.0184873854195739
  0.9271305752992122  0.3233284124574269  0.5454936038555041
  0.8802408862198724  0.3311886600464040  0.6856786293331258
  0.5957830699176164  0.9885844030819795  0.2210136144710371
  0.5486824332517378  0.9963808425720679  0.3599492679173596
  0.8805803797680254  0.3467464522723093  0.8865396449625328
  0.8343494919571549  0.3522004020570890  0.0063850160180311
  0.8910722239936623  0.7896260892779584  0.7465423935785614
  0.8502876503750613  0.8353424385419804  0.6255816790228212
  0.9146512133307869  0.7431535610477285  0.0882735232512360
  0.8754706942631635  0.7899195124438102  0.9480230130495135
  0.5533288537248912  0.4501627333118079  0.4090794105850981
  0.5130443541907431  0.4966181410302889  0.2900475900487166
  0.3255539850681668  0.8898156323306312  0.7465567278281603
  0.3208472450048224  0.8487294820806160  0.6263071483578824
  0.3479473238595632  0.9138650810771515  0.0884268320170806
  0.3405753894970928  0.8745236765316603  0.9483880385340608
  0.9917505412991647  0.5565339344483420  0.4107825718640751
  0.9878877284246301  0.5153169924445608  0.2886263898337997
  0.7892470063666051  0.3261556240101798  0.7378907273142181
  0.8354963857619820  0.3206330501115078  0.6173810780516208
  0.7410824652726602  0.3528601304858295  0.0773748065143743
  0.7891403210920002  0.3428428908384691  0.9386498770320773
  0.4589080104710010  0.9898087739625910  0.4120717781640808
  0.5043980819243817  0.9855744379014377  0.2911449738077175
  0.6575147207073174  0.4975005337729253  0.5101324729787327
  0.7736725259501251  0.2152214943892385  0.9205364566285552
  0.1438086626717167  0.1664197931222013  0.5000435231125063
  0.4744113707055807  0.4961559855728186  0.8383465607256478
  0.6974979033578869  0.1425619481999804  0.4985315843048252
  0.0300683265344419  0.4738975884572021  0.8335103826465472
  0.1683387200758832  0.6936370896232880  0.5060635114104103
  0.5023318151177512  0.0285964711656373  0.8359026721463489
  0.1967410047993830  0.1678101679926579  0.8015701493914913
  0.6366323889324637  0.1967896165081404  0.8046337342364787
  0.1697287677684446  0.6405556379542395  0.8058983931575787
  0.8091760193057870  0.8343049042470246  0.1708999508653383
  0.3620250996964548  0.8086870998853449  0.1727090857543417
  0.8349728025777320  0.3637622457572072  0.1599896993823645
  0.8617437066371496  0.8353461508652178  0.4714361908304071
  0.5239490524504231  0.4966797163680725  0.1357283057522364
  0.3092138530889512  0.8599884944571048  0.4722203537415623
  0.9761369977316166  0.5269482551333740  0.1348270967484820
  0.8376840712667548  0.3057102961603695  0.4660842283973488
  0.5049008370428216  0.9735172274393594  0.1374394534852378
  0.3158405553040995  0.6426258189237204  0.5158391840030145
  0.0482549379300920  0.3132337663301686  0.5061252435569076
  0.6448081787495477  0.0482175492712482  0.5072965261772091
  0.0217789120397726  0.6922010876535288  0.7966066367769207
  0.3574440096408141  0.0250039984027320  0.1291999254988921
  0.2924605070174405  0.0205010320384614  0.7947253551896208
  0.6250612223598730  0.3521274003616918  0.1248411272799513
  0.7076099842951417  0.2771890920767855  0.8139479544542447
  0.0265767841733431  0.6230391456903841  0.1288340798926287
  0.6475016411316818  0.9759778240422445  0.8422680354299961
  0.9831986570974979  0.3093587929670706  0.1717836166790732
  0.3805843519886223  0.6472877420475069  0.8489260463345213
  0.7166240725217540  0.9808241211116134  0.1801206258921419
  0.9790830650362701  0.3782724631742341  0.8398027568764653
  0.3111927893253586  0.7118692804064956  0.1814035296267843
  0.6841196326115228  0.3652318909097598  0.4734224931340568
  0.9571326982004771  0.6878060917253909  0.4629035918447142
  0.3616923908485163  0.9559403558943264  0.4623921599773250
  0.7494272393938952  0.4223983764418174  0.4269739973735601
  0.6086415703459486  0.4899310469837312  0.7665433509949744
 
  0.00000000E+00  0.00000000E+00  0.00000000E+00
  0.00000000E+00  0.00000000E+00  0.00000000E+00
  0.00000000E+00  0.00000000E+00  0.00000000E+00
  0.00000000E+00  0.00000000E+00  0.00000000E+00
  0.00000000E+00  0.00000000E+00  0.00000000E+00
  0.00000000E+00  0.00000000E+00  0.00000000E+00
  0.00000000E+00  0.00000000E+00  0.00000000E+00
  0.00000000E+00  0.00000000E+00  0.00000000E+00
  0.00000000E+00  0.00000000E+00  0.00000000E+00
  0.00000000E+00  0.00000000E+00  0.00000000E+00
  0.00000000E+00  0.00000000E+00  0.00000000E+00
  0.00000000E+00  0.00000000E+00  0.00000000E+00
  0.00000000E+00  0.00000000E+00  0.00000000E+00
  0.00000000E+00  0.00000000E+00  0.00000000E+00
  0.00000000E+00  0.00000000E+00  0.00000000E+00
  0.00000000E+00  0.00000000E+00  0.00000000E+00
  0.00000000E+00  0.00000000E+00  0.00000000E+00
  0.00000000E+00  0.00000000E+00  0.00000000E+00
  0.00000000E+00  0.00000000E+00  0.00000000E+00
  0.00000000E+00  0.00000000E+00  0.00000000E+00
  0.00000000E+00  0.00000000E+00  0.00000000E+00
  0.00000000E+00  0.00000000E+00  0.00000000E+00
  0.00000000E+00  0.00000000E+00  0.00000000E+00
  0.00000000E+00  0.00000000E+00  0.00000000E+00
  0.00000000E+00  0.00000000E+00  0.00000000E+00
  0.00000000E+00  0.00000000E+00  0.00000000E+00
  0.00000000E+00  0.00000000E+00  0.00000000E+00
  0.00000000E+00  0.00000000E+00  0.00000000E+00
  0.00000000E+00  0.00000000E+00  0.00000000E+00
  0.00000000E+00  0.00000000E+00  0.00000000E+00
  0.00000000E+00  0.00000000E+00  0.00000000E+00
  0.00000000E+00  0.00000000E+00  0.00000000E+00
  0.00000000E+00  0.00000000E+00  0.00000000E+00
  0.00000000E+00  0.00000000E+00  0.00000000E+00
  0.00000000E+00  0.00000000E+00  0.00000000E+00
  0.00000000E+00  0.00000000E+00  0.00000000E+00
  0.00000000E+00  0.00000000E+00  0.00000000E+00
  0.00000000E+00  0.00000000E+00  0.00000000E+00
  0.00000000E+00  0.00000000E+00  0.00000000E+00
  0.00000000E+00  0.00000000E+00  0.00000000E+00
  0.00000000E+00  0.00000000E+00  0.00000000E+00
  0.00000000E+00  0.00000000E+00  0.00000000E+00
  0.00000000E+00  0.00000000E+00  0.00000000E+00
  0.00000000E+00  0.00000000E+00  0.00000000E+00
  0.00000000E+00  0.00000000E+00  0.00000000E+00
  0.00000000E+00  0.00000000E+00  0.00000000E+00
  0.00000000E+00  0.00000000E+00  0.00000000E+00
  0.00000000E+00  0.00000000E+00  0.00000000E+00
  0.00000000E+00  0.00000000E+00  0.00000000E+00
  0.00000000E+00  0.00000000E+00  0.00000000E+00
  0.00000000E+00  0.00000000E+00  0.00000000E+00
  0.00000000E+00  0.00000000E+00  0.00000000E+00
  0.00000000E+00  0.00000000E+00  0.00000000E+00
  0.00000000E+00  0.00000000E+00  0.00000000E+00
  0.00000000E+00  0.00000000E+00  0.00000000E+00
  0.00000000E+00  0.00000000E+00  0.00000000E+00
  0.00000000E+00  0.00000000E+00  0.00000000E+00
  0.00000000E+00  0.00000000E+00  0.00000000E+00
  0.00000000E+00  0.00000000E+00  0.00000000E+00
  0.00000000E+00  0.00000000E+00  0.00000000E+00
  0.00000000E+00  0.00000000E+00  0.00000000E+00
  0.00000000E+00  0.00000000E+00  0.00000000E+00
  0.00000000E+00  0.00000000E+00  0.00000000E+00
  0.00000000E+00  0.00000000E+00  0.00000000E+00
  0.00000000E+00  0.00000000E+00  0.00000000E+00
  0.00000000E+00  0.00000000E+00  0.00000000E+00
  0.00000000E+00  0.00000000E+00  0.00000000E+00
  0.00000000E+00  0.00000000E+00  0.00000000E+00
  0.00000000E+00  0.00000000E+00  0.00000000E+00
  0.00000000E+00  0.00000000E+00  0.00000000E+00
  0.00000000E+00  0.00000000E+00  0.00000000E+00
  0.00000000E+00  0.00000000E+00  0.00000000E+00
  0.00000000E+00  0.00000000E+00  0.00000000E+00
  0.00000000E+00  0.00000000E+00  0.00000000E+00
  0.00000000E+00  0.00000000E+00  0.00000000E+00
  0.00000000E+00  0.00000000E+00  0.00000000E+00
  0.00000000E+00  0.00000000E+00  0.00000000E+00
  0.00000000E+00  0.00000000E+00  0.00000000E+00
  0.00000000E+00  0.00000000E+00  0.00000000E+00
  0.00000000E+00  0.00000000E+00  0.00000000E+00
  0.00000000E+00  0.00000000E+00  0.00000000E+00
  0.00000000E+00  0.00000000E+00  0.00000000E+00
  0.00000000E+00  0.00000000E+00  0.00000000E+00
  0.00000000E+00  0.00000000E+00  0.00000000E+00
  0.00000000E+00  0.00000000E+00  0.00000000E+00
  0.00000000E+00  0.00000000E+00  0.00000000E+00
  0.00000000E+00  0.00000000E+00  0.00000000E+00
  0.00000000E+00  0.00000000E+00  0.00000000E+00
  0.00000000E+00  0.00000000E+00  0.00000000E+00
  0.00000000E+00  0.00000000E+00  0.00000000E+00
  0.00000000E+00  0.00000000E+00  0.00000000E+00
  0.00000000E+00  0.00000000E+00  0.00000000E+00
  0.00000000E+00  0.00000000E+00  0.00000000E+00
  0.00000000E+00  0.00000000E+00  0.00000000E+00
  0.00000000E+00  0.00000000E+00  0.00000000E+00
  0.00000000E+00  0.00000000E+00  0.00000000E+00
  0.00000000E+00  0.00000000E+00  0.00000000E+00
  0.00000000E+00  0.00000000E+00  0.00000000E+00
  0.00000000E+00  0.00000000E+00  0.00000000E+00
  0.00000000E+00  0.00000000E+00  0.00000000E+00
  0.00000000E+00  0.00000000E+00  0.00000000E+00
  0.00000000E+00  0.00000000E+00  0.00000000E+00
  0.00000000E+00  0.00000000E+00  0.00000000E+00
  0.00000000E+00  0.00000000E+00  0.00000000E+00
  0.00000000E+00  0.00000000E+00  0.00000000E+00
  0.00000000E+00  0.00000000E+00  0.00000000E+00
  0.00000000E+00  0.00000000E+00  0.00000000E+00
  0.00000000E+00  0.00000000E+00  0.00000000E+00
  0.00000000E+00  0.00000000E+00  0.00000000E+00
  0.00000000E+00  0.00000000E+00  0.00000000E+00
  0.00000000E+00  0.00000000E+00  0.00000000E+00
  0.00000000E+00  0.00000000E+00  0.00000000E+00
  0.00000000E+00  0.00000000E+00  0.00000000E+00
  0.00000000E+00  0.00000000E+00  0.00000000E+00
  0.00000000E+00  0.00000000E+00  0.00000000E+00
  0.00000000E+00  0.00000000E+00  0.00000000E+00
  0.00000000E+00  0.00000000E+00  0.00000000E+00
  0.00000000E+00  0.00000000E+00  0.00000000E+00
  0.00000000E+00  0.00000000E+00  0.00000000E+00
  0.00000000E+00  0.00000000E+00  0.00000000E+00
  0.00000000E+00  0.00000000E+00  0.00000000E+00
  0.00000000E+00  0.00000000E+00  0.00000000E+00
  0.00000000E+00  0.00000000E+00  0.00000000E+00
  0.00000000E+00  0.00000000E+00  0.00000000E+00
  0.00000000E+00  0.00000000E+00  0.00000000E+00
  0.00000000E+00  0.00000000E+00  0.00000000E+00
  0.00000000E+00  0.00000000E+00  0.00000000E+00
  0.00000000E+00  0.00000000E+00  0.00000000E+00
  0.00000000E+00  0.00000000E+00  0.00000000E+00
  0.00000000E+00  0.00000000E+00  0.00000000E+00
  0.00000000E+00  0.00000000E+00  0.00000000E+00
  0.00000000E+00  0.00000000E+00  0.00000000E+00
  0.00000000E+00  0.00000000E+00  0.00000000E+00
  0.00000000E+00  0.00000000E+00  0.00000000E+00
  0.00000000E+00  0.00000000E+00  0.00000000E+00
  0.00000000E+00  0.00000000E+00  0.00000000E+00
  0.00000000E+00  0.00000000E+00  0.00000000E+00
  0.00000000E+00  0.00000000E+00  0.00000000E+00
  0.00000000E+00  0.00000000E+00  0.00000000E+00
  0.00000000E+00  0.00000000E+00  0.00000000E+00
  0.00000000E+00  0.00000000E+00  0.00000000E+00
  0.00000000E+00  0.00000000E+00  0.00000000E+00
  0.00000000E+00  0.00000000E+00  0.00000000E+00
  0.00000000E+00  0.00000000E+00  0.00000000E+00
  0.00000000E+00  0.00000000E+00  0.00000000E+00
  0.00000000E+00  0.00000000E+00  0.00000000E+00
  0.00000000E+00  0.00000000E+00  0.00000000E+00
  0.00000000E+00  0.00000000E+00  0.00000000E+00
  0.00000000E+00  0.00000000E+00  0.00000000E+00
  0.00000000E+00  0.00000000E+00  0.00000000E+00
  0.00000000E+00  0.00000000E+00  0.00000000E+00
  0.00000000E+00  0.00000000E+00  0.00000000E+00
  0.00000000E+00  0.00000000E+00  0.00000000E+00
  0.00000000E+00  0.00000000E+00  0.00000000E+00
  0.00000000E+00  0.00000000E+00  0.00000000E+00
  0.00000000E+00  0.00000000E+00  0.00000000E+00
  0.00000000E+00  0.00000000E+00  0.00000000E+00
  0.00000000E+00  0.00000000E+00  0.00000000E+00
  0.00000000E+00  0.00000000E+00  0.00000000E+00
  0.00000000E+00  0.00000000E+00  0.00000000E+00
  0.00000000E+00  0.00000000E+00  0.00000000E+00
  0.00000000E+00  0.00000000E+00  0.00000000E+00
  0.00000000E+00  0.00000000E+00  0.00000000E+00
  0.00000000E+00  0.00000000E+00  0.00000000E+00
  0.00000000E+00  0.00000000E+00  0.00000000E+00
  0.00000000E+00  0.00000000E+00  0.00000000E+00
  0.00000000E+00  0.00000000E+00  0.00000000E+00
  0.00000000E+00  0.00000000E+00  0.00000000E+00
  0.00000000E+00  0.00000000E+00  0.00000000E+00
  0.00000000E+00  0.00000000E+00  0.00000000E+00
