O  C  H  Co Li                          
   1.00000000000000     
    25.9869300222800774    0.0014776472087939   -0.0002841704448074
    12.9947443186480527   22.5035161465627063   -0.0005769115704474
    -0.0000740905812471   -0.0001328080293999    6.8098320633878924
   O    C    H    Co   Li
    60    75    18    18     3
Direct
  0.0618447235404339  0.2461085764203724  0.3267541408020972
  0.0359427303839832  0.2867997881289735  0.9486151668757832
  0.1084632057029210  0.2509093488737328  0.7297352276438129
  0.3895188430946314  0.5884494060558343  0.6510656618859766
  0.6864179539716814  0.0652882716028163  0.3231046994939038
  0.6652518462819849  0.0406870567903632  0.9647437045397260
  0.6356922077273394  0.1080740618159971  0.7257565746636078
  0.0331636158123847  0.3866989236377962  0.6555874422057157
  0.2482390016916438  0.6891928168948289  0.3228959287728539
  0.2935251149954258  0.6687536587937246  0.9610188054244972
  0.2541274026673367  0.6401815153718864  0.7249157567613697
  0.5901313455169576  0.0194180268481364  0.6561322344171191
  0.3082106613417411  0.0374373737050038  0.3888033942665913
  0.2383223216781585  0.0696384722591544  0.6198586670153549
  0.6264434691077732  0.3646894436053154  0.6993845094230234
  0.5611066117664041  0.4138078577191904  0.9365170020286931
  0.2804060093927812  0.0786902114893803  0.0116447687473119
  0.6898860377790366  0.2917333590885408  0.3496790358980372
  0.8003289816670773  0.1846259892891343  0.0151436737558590
  0.9868646894111800  0.6358708860362028  0.7172248303204031
  0.0242797750174586  0.5639945083559046  0.9406613816215805
  0.6302582458339913  0.2852059644648675  0.0170384417675547
  0.0389116871240750  0.6533569566808416  0.3864954571257153
  0.0707789529657639  0.6921263404937253  0.6142927476244867
  0.3782525194408569  0.9870769142266566  0.7183914095464446
  0.4143252089023612  0.0226891809574702  0.9424362526561357
  0.0796918681558951  0.6412713043002951  0.0058491483285854
  0.7079312918163851  0.9687191743881811  0.6306881211556776
  0.7746303542212483  0.9295614245172434  0.3896424059528042
  0.3654892980723470  0.6346349429141234  0.2936669718270987
  0.4318698110540180  0.5936015445167079  0.0526486312541742
  0.7319836584304691  0.9238262469581493  0.9869368791696406
  0.3279388486887765  0.7061296543199325  0.6253219701495779
  0.2987395579158941  0.7742111645481813  0.3886640636088387
  0.0190375624455744  0.3575977603941413  0.2806783619082021
  0.9813957217145833  0.4294307088223777  0.0570694135324755
  0.3482092090565895  0.7299558880056836  0.9849038603717493
  0.9690954767324045  0.3376865238215850  0.6117668745510969
  0.9356806956982201  0.3011856791141948  0.3801669721808804
  0.6358996446074114  0.9985845791177370  0.2987351392218912
  0.5970276720449558  0.9705492099183540  0.0585994683302408
  0.9266007302931228  0.3517802812414763  0.9900889196006331
  0.9455693505102796  0.7470166593374464  0.6725819186788563
  0.9708984848546292  0.7063116413352617  0.0491740318898651
  0.8988037984420169  0.7432935857697813  0.2698009124178088
  0.6026120033725305  0.4126775256547496  0.3371704722419054
  0.3092773730520892  0.9446400522771244  0.6761358970787389
  0.3252160028070304  0.9694560562355996  0.0519407342692485
  0.3597891085412368  0.8974926591190947  0.2729882157181300
  0.9729733635423925  0.6067866630570359  0.3415103911198118
  0.7552239459075227  0.3090262603647083  0.6591530031075642
  0.6900204113644951  0.3733982535880873  0.0037367454278676
  0.7518303766430049  0.3501187021129205  0.2602647823128064
  0.4208188190949458  0.9722987202729910  0.3439444523985339
  0.6933874773697999  0.4304822545737100  0.6080876898884483
  0.6217677220083545  0.5235363383028387  0.6705617834571653
  0.6773584562659406  0.5020517570953037  0.3880883435853550
  0.6806329147208425  0.2428875203481960  0.6093134806122820
  0.8295525880086243  0.1848323414437568  0.4407324867966332
  0.8405258116585786  0.0902062922672864  0.4061548356711829
  0.1139470870004663  0.2045343272395963  0.2460000629008433
  0.1566337414801842  0.1600104316157110  0.3677087737268663
  0.0903313534089808  0.2488426850387564  0.9009391583268243
  0.1293565996133327  0.2040913912596638  0.0444673408627992
  0.4403001063009561  0.5460704070999612  0.5690146405436949
  0.4811824355970492  0.4995022583304523  0.6873329906617638
  0.6735330663879181  0.1179027801070276  0.2432625937101175
  0.6779930966716150  0.1594549986583197  0.3621292596277140
  0.6517638134591138  0.0926474240914070  0.9021236662041276
  0.6561005829033923  0.1338243225963495  0.0431267243795851
  0.0184123413777018  0.4395425398377416  0.5742703504545192
  0.0178570451283173  0.4835298203761808  0.6946292980440805
  0.2073288997540580  0.6781471080144261  0.2433549558844855
  0.1624166773603473  0.6806424583862918  0.3642483180490187
  0.2537155333232238  0.6569749242863633  0.9001431532665337
  0.2073275235428779  0.6634299826076525  0.0410645555796791
  0.5496128568172969  0.0077996358765938  0.5763184198246371
  0.5045903761656494  0.0106043864692381  0.6967852802676378
  0.2547428611227929  0.0725747401406388  0.4457014290859871
  0.2129666127574993  0.1168449805134945  0.3010833862406103
  0.5757007488276225  0.4083996989049251  0.7571150783035518
  0.5354417484426739  0.4540699470200092  0.6152671476212148
  0.2280951451615624  0.1166913424306378  0.0969404429035635
  0.1851265872121700  0.1608581195391421  0.9768489549528189
  0.6781594033827893  0.2524440982629721  0.4281801567037303
  0.6658907681386890  0.2151061542270000  0.2923127250784232
  0.0048777595221086  0.5820274667526812  0.7675626870585837
  0.0028275336992477  0.5399139306937411  0.6252446956548204
  0.6460739763760857  0.2319210882703508  0.0954301431952688
  0.6420445542867204  0.1901543688043419  0.9757173124952869
  0.0740057642444471  0.6720700360809226  0.4411483682188068
  0.1185352494679076  0.6688386447998422  0.2963484380220416
  0.4154691039229693  0.0033053766522452  0.7695015990060597
  0.4608800159380083  0.9988240121579304  0.6274436371863260
  0.1185074863584035  0.6543496423105417  0.0917337092270634
  0.1634312079088072  0.6521512815110151  0.9721584798556336
  0.7590198384376228  0.9288609850589565  0.5657121249940401
  0.7990945326667939  0.8817788006023918  0.7046180111354463
  0.4159492930261277  0.5936084519722515  0.2287317456636722
  0.4552054354070696  0.5458353838532227  0.3666046198483136
  0.7834446933296820  0.8821868578928311  0.9064446871826920
  0.8242427126365018  0.8363034774079494  0.0263579004113786
  0.3158372727034749  0.7577547215246601  0.5637247029560064
  0.3227150232706050  0.7975384786696474  0.7041817472753437
  0.0009606943434045  0.4114982760842927  0.2300758935023133
  0.0031089730701273  0.4536381915979933  0.3718859805362883
  0.3382531217477980  0.7814483859727068  0.9057008231215263
  0.3430836085972576  0.8222718649902899  0.0267214673609392
  0.9332985973914525  0.3204011394304614  0.5544865118992500
  0.8877829815431493  0.3250995325862082  0.6973996244357026
  0.5963498538827715  0.9868089595076731  0.2346626972129797
  0.5498785688323560  0.9927215020779633  0.3741479756528970
  0.8868512849542717  0.3409191851366216  0.9008789647997738
  0.8388254999077002  0.3473790760897094  0.0130607147296739
  0.8946728159330724  0.7901797593121467  0.7547975611730980
  0.8538321808518573  0.8365622875581027  0.6347775321935969
  0.9170194282261767  0.7451878213127494  0.0984645327416604
  0.8788471585034118  0.7910515217982205  0.9564836462963874
  0.5501440607046014  0.4541795750311908  0.4137491036628887
  0.5092065046589538  0.5003590181007197  0.2944552343804802
  0.3177478984062290  0.8933662104529455  0.7572209610381019
  0.3126112453687837  0.8525657303801180  0.6358917110775110
  0.3401722125932438  0.9155656530004465  0.1012017888431171
  0.3330203421759198  0.8772224285230058  0.9584635813035204
  0.9875919462535605  0.5540511944055825  0.4228125199007830
  0.9881027427285681  0.5100274858964824  0.3024728214942679
  0.7948613471072482  0.3212908363423529  0.7401661102532424
  0.8433383290497745  0.3143005706487467  0.6275725818434589
  0.7424625299388057  0.3544460843217058  0.0733259727587991
  0.7926141496669348  0.3399034259325058  0.9393150867312147
  0.4611127945051846  0.9839985494530831  0.4249896061363044
  0.5060447772367310  0.9813721823737798  0.3042472855857551
  0.6608923321358993  0.4905720793275684  0.5490122564378878
  0.8347045834071362  0.1374069661116664  0.4220201454564606
  0.7592252298674735  0.2262911816017418  0.9490713926129207
  0.1457754329826734  0.1598284272267628  0.5223386204175295
  0.4704330349833629  0.4994412367453140  0.8420941090412105
  0.6918381133552938  0.1475633805785159  0.5145206277882641
  0.0296250319115104  0.4730846934862316  0.8489479917143016
  0.1625138382536775  0.6914670852717648  0.5189976332473473
  0.5041459312925897  0.0220050034710004  0.8511333762094885
  0.1961923281662870  0.1612741207156618  0.8226796929363497
  0.6281898148511709  0.2021935495825803  0.8234090347319105
  0.1637387876157296  0.6408169757058223  0.8178318246725048
  0.8129722761072576  0.8360177744527362  0.1804636743715090
  0.3548905699012834  0.8107015830077153  0.1805020484383650
  0.8384736636040457  0.3594460173621657  0.1668193895053366
  0.8649830666320805  0.8369299584683343  0.4805742714159270
  0.5199730233749448  0.5012642748278804  0.1402845233662367
  0.3009673638325336  0.8639960996174657  0.4818833758621801
  0.9764105667725477  0.5204780705117745  0.1481326717451794
  0.8470620330559414  0.3004792327241282  0.4739979954028966
  0.5066783047013329  0.9697582832824495  0.1500263835453197
  0.3095241411654182  0.6444682212797916  0.5245592022151837
  0.0540618012928429  0.3082394642867516  0.5280204734219044
  0.6436893241380295  0.0466068073874953  0.5265096162038329
  0.0159495740885960  0.6953933499260836  0.8222330900641523
  0.3595637502159295  0.0218281072921131  0.1433409938735478
  0.2905162177962310  0.0147929816605840  0.8263868323397132
  0.6246088225278567  0.3562732016723745  0.1202864404052921
  0.6978231637627127  0.2878383456222601  0.8334723731142761
  0.0228253765887567  0.6195245338085896  0.1409309537936145
  0.6515354215601384  0.9766512526673132  0.8591951588434582
  0.9913200001388034  0.2971120630156390  0.1748992545176351
  0.3733731122039694  0.6496931806823559  0.8546325138813816
  0.7135362088435803  0.9849295604518906  0.1926668562773580
  0.9841587135133661  0.3737280452601012  0.8557088856048315
  0.3035747497493339  0.7140533748131738  0.1906330918215783
  0.6771306806526053  0.3705590273675403  0.4907803198612298
  0.9531107550036364  0.6850356468822512  0.4689274438643380
  0.3630087252466593  0.9519902422971400  0.4729807232424271
  0.7428863959321829  0.4242872402929622  0.3888580069825738
  0.6509101639708545  0.4569642996369606  0.8524886320876969
  0.7720257522466271  0.2736242236934575  0.4010067645288818
 
  0.00000000E+00  0.00000000E+00  0.00000000E+00
  0.00000000E+00  0.00000000E+00  0.00000000E+00
  0.00000000E+00  0.00000000E+00  0.00000000E+00
  0.00000000E+00  0.00000000E+00  0.00000000E+00
  0.00000000E+00  0.00000000E+00  0.00000000E+00
  0.00000000E+00  0.00000000E+00  0.00000000E+00
  0.00000000E+00  0.00000000E+00  0.00000000E+00
  0.00000000E+00  0.00000000E+00  0.00000000E+00
  0.00000000E+00  0.00000000E+00  0.00000000E+00
  0.00000000E+00  0.00000000E+00  0.00000000E+00
  0.00000000E+00  0.00000000E+00  0.00000000E+00
  0.00000000E+00  0.00000000E+00  0.00000000E+00
  0.00000000E+00  0.00000000E+00  0.00000000E+00
  0.00000000E+00  0.00000000E+00  0.00000000E+00
  0.00000000E+00  0.00000000E+00  0.00000000E+00
  0.00000000E+00  0.00000000E+00  0.00000000E+00
  0.00000000E+00  0.00000000E+00  0.00000000E+00
  0.00000000E+00  0.00000000E+00  0.00000000E+00
  0.00000000E+00  0.00000000E+00  0.00000000E+00
  0.00000000E+00  0.00000000E+00  0.00000000E+00
  0.00000000E+00  0.00000000E+00  0.00000000E+00
  0.00000000E+00  0.00000000E+00  0.00000000E+00
  0.00000000E+00  0.00000000E+00  0.00000000E+00
  0.00000000E+00  0.00000000E+00  0.00000000E+00
  0.00000000E+00  0.00000000E+00  0.00000000E+00
  0.00000000E+00  0.00000000E+00  0.00000000E+00
  0.00000000E+00  0.00000000E+00  0.00000000E+00
  0.00000000E+00  0.00000000E+00  0.00000000E+00
  0.00000000E+00  0.00000000E+00  0.00000000E+00
  0.00000000E+00  0.00000000E+00  0.00000000E+00
  0.00000000E+00  0.00000000E+00  0.00000000E+00
  0.00000000E+00  0.00000000E+00  0.00000000E+00
  0.00000000E+00  0.00000000E+00  0.00000000E+00
  0.00000000E+00  0.00000000E+00  0.00000000E+00
  0.00000000E+00  0.00000000E+00  0.00000000E+00
  0.00000000E+00  0.00000000E+00  0.00000000E+00
  0.00000000E+00  0.00000000E+00  0.00000000E+00
  0.00000000E+00  0.00000000E+00  0.00000000E+00
  0.00000000E+00  0.00000000E+00  0.00000000E+00
  0.00000000E+00  0.00000000E+00  0.00000000E+00
  0.00000000E+00  0.00000000E+00  0.00000000E+00
  0.00000000E+00  0.00000000E+00  0.00000000E+00
  0.00000000E+00  0.00000000E+00  0.00000000E+00
  0.00000000E+00  0.00000000E+00  0.00000000E+00
  0.00000000E+00  0.00000000E+00  0.00000000E+00
  0.00000000E+00  0.00000000E+00  0.00000000E+00
  0.00000000E+00  0.00000000E+00  0.00000000E+00
  0.00000000E+00  0.00000000E+00  0.00000000E+00
  0.00000000E+00  0.00000000E+00  0.00000000E+00
  0.00000000E+00  0.00000000E+00  0.00000000E+00
  0.00000000E+00  0.00000000E+00  0.00000000E+00
  0.00000000E+00  0.00000000E+00  0.00000000E+00
  0.00000000E+00  0.00000000E+00  0.00000000E+00
  0.00000000E+00  0.00000000E+00  0.00000000E+00
  0.00000000E+00  0.00000000E+00  0.00000000E+00
  0.00000000E+00  0.00000000E+00  0.00000000E+00
  0.00000000E+00  0.00000000E+00  0.00000000E+00
  0.00000000E+00  0.00000000E+00  0.00000000E+00
  0.00000000E+00  0.00000000E+00  0.00000000E+00
  0.00000000E+00  0.00000000E+00  0.00000000E+00
  0.00000000E+00  0.00000000E+00  0.00000000E+00
  0.00000000E+00  0.00000000E+00  0.00000000E+00
  0.00000000E+00  0.00000000E+00  0.00000000E+00
  0.00000000E+00  0.00000000E+00  0.00000000E+00
  0.00000000E+00  0.00000000E+00  0.00000000E+00
  0.00000000E+00  0.00000000E+00  0.00000000E+00
  0.00000000E+00  0.00000000E+00  0.00000000E+00
  0.00000000E+00  0.00000000E+00  0.00000000E+00
  0.00000000E+00  0.00000000E+00  0.00000000E+00
  0.00000000E+00  0.00000000E+00  0.00000000E+00
  0.00000000E+00  0.00000000E+00  0.00000000E+00
  0.00000000E+00  0.00000000E+00  0.00000000E+00
  0.00000000E+00  0.00000000E+00  0.00000000E+00
  0.00000000E+00  0.00000000E+00  0.00000000E+00
  0.00000000E+00  0.00000000E+00  0.00000000E+00
  0.00000000E+00  0.00000000E+00  0.00000000E+00
  0.00000000E+00  0.00000000E+00  0.00000000E+00
  0.00000000E+00  0.00000000E+00  0.00000000E+00
  0.00000000E+00  0.00000000E+00  0.00000000E+00
  0.00000000E+00  0.00000000E+00  0.00000000E+00
  0.00000000E+00  0.00000000E+00  0.00000000E+00
  0.00000000E+00  0.00000000E+00  0.00000000E+00
  0.00000000E+00  0.00000000E+00  0.00000000E+00
  0.00000000E+00  0.00000000E+00  0.00000000E+00
  0.00000000E+00  0.00000000E+00  0.00000000E+00
  0.00000000E+00  0.00000000E+00  0.00000000E+00
  0.00000000E+00  0.00000000E+00  0.00000000E+00
  0.00000000E+00  0.00000000E+00  0.00000000E+00
  0.00000000E+00  0.00000000E+00  0.00000000E+00
  0.00000000E+00  0.00000000E+00  0.00000000E+00
  0.00000000E+00  0.00000000E+00  0.00000000E+00
  0.00000000E+00  0.00000000E+00  0.00000000E+00
  0.00000000E+00  0.00000000E+00  0.00000000E+00
  0.00000000E+00  0.00000000E+00  0.00000000E+00
  0.00000000E+00  0.00000000E+00  0.00000000E+00
  0.00000000E+00  0.00000000E+00  0.00000000E+00
  0.00000000E+00  0.00000000E+00  0.00000000E+00
  0.00000000E+00  0.00000000E+00  0.00000000E+00
  0.00000000E+00  0.00000000E+00  0.00000000E+00
  0.00000000E+00  0.00000000E+00  0.00000000E+00
  0.00000000E+00  0.00000000E+00  0.00000000E+00
  0.00000000E+00  0.00000000E+00  0.00000000E+00
  0.00000000E+00  0.00000000E+00  0.00000000E+00
  0.00000000E+00  0.00000000E+00  0.00000000E+00
  0.00000000E+00  0.00000000E+00  0.00000000E+00
  0.00000000E+00  0.00000000E+00  0.00000000E+00
  0.00000000E+00  0.00000000E+00  0.00000000E+00
  0.00000000E+00  0.00000000E+00  0.00000000E+00
  0.00000000E+00  0.00000000E+00  0.00000000E+00
  0.00000000E+00  0.00000000E+00  0.00000000E+00
  0.00000000E+00  0.00000000E+00  0.00000000E+00
  0.00000000E+00  0.00000000E+00  0.00000000E+00
  0.00000000E+00  0.00000000E+00  0.00000000E+00
  0.00000000E+00  0.00000000E+00  0.00000000E+00
  0.00000000E+00  0.00000000E+00  0.00000000E+00
  0.00000000E+00  0.00000000E+00  0.00000000E+00
  0.00000000E+00  0.00000000E+00  0.00000000E+00
  0.00000000E+00  0.00000000E+00  0.00000000E+00
  0.00000000E+00  0.00000000E+00  0.00000000E+00
  0.00000000E+00  0.00000000E+00  0.00000000E+00
  0.00000000E+00  0.00000000E+00  0.00000000E+00
  0.00000000E+00  0.00000000E+00  0.00000000E+00
  0.00000000E+00  0.00000000E+00  0.00000000E+00
  0.00000000E+00  0.00000000E+00  0.00000000E+00
  0.00000000E+00  0.00000000E+00  0.00000000E+00
  0.00000000E+00  0.00000000E+00  0.00000000E+00
  0.00000000E+00  0.00000000E+00  0.00000000E+00
  0.00000000E+00  0.00000000E+00  0.00000000E+00
  0.00000000E+00  0.00000000E+00  0.00000000E+00
  0.00000000E+00  0.00000000E+00  0.00000000E+00
  0.00000000E+00  0.00000000E+00  0.00000000E+00
  0.00000000E+00  0.00000000E+00  0.00000000E+00
  0.00000000E+00  0.00000000E+00  0.00000000E+00
  0.00000000E+00  0.00000000E+00  0.00000000E+00
  0.00000000E+00  0.00000000E+00  0.00000000E+00
  0.00000000E+00  0.00000000E+00  0.00000000E+00
  0.00000000E+00  0.00000000E+00  0.00000000E+00
  0.00000000E+00  0.00000000E+00  0.00000000E+00
  0.00000000E+00  0.00000000E+00  0.00000000E+00
  0.00000000E+00  0.00000000E+00  0.00000000E+00
  0.00000000E+00  0.00000000E+00  0.00000000E+00
  0.00000000E+00  0.00000000E+00  0.00000000E+00
  0.00000000E+00  0.00000000E+00  0.00000000E+00
  0.00000000E+00  0.00000000E+00  0.00000000E+00
  0.00000000E+00  0.00000000E+00  0.00000000E+00
  0.00000000E+00  0.00000000E+00  0.00000000E+00
  0.00000000E+00  0.00000000E+00  0.00000000E+00
  0.00000000E+00  0.00000000E+00  0.00000000E+00
  0.00000000E+00  0.00000000E+00  0.00000000E+00
  0.00000000E+00  0.00000000E+00  0.00000000E+00
  0.00000000E+00  0.00000000E+00  0.00000000E+00
  0.00000000E+00  0.00000000E+00  0.00000000E+00
  0.00000000E+00  0.00000000E+00  0.00000000E+00
  0.00000000E+00  0.00000000E+00  0.00000000E+00
  0.00000000E+00  0.00000000E+00  0.00000000E+00
  0.00000000E+00  0.00000000E+00  0.00000000E+00
  0.00000000E+00  0.00000000E+00  0.00000000E+00
  0.00000000E+00  0.00000000E+00  0.00000000E+00
  0.00000000E+00  0.00000000E+00  0.00000000E+00
  0.00000000E+00  0.00000000E+00  0.00000000E+00
  0.00000000E+00  0.00000000E+00  0.00000000E+00
  0.00000000E+00  0.00000000E+00  0.00000000E+00
  0.00000000E+00  0.00000000E+00  0.00000000E+00
  0.00000000E+00  0.00000000E+00  0.00000000E+00
  0.00000000E+00  0.00000000E+00  0.00000000E+00
  0.00000000E+00  0.00000000E+00  0.00000000E+00
  0.00000000E+00  0.00000000E+00  0.00000000E+00
  0.00000000E+00  0.00000000E+00  0.00000000E+00
  0.00000000E+00  0.00000000E+00  0.00000000E+00
  0.00000000E+00  0.00000000E+00  0.00000000E+00
  0.00000000E+00  0.00000000E+00  0.00000000E+00
  0.00000000E+00  0.00000000E+00  0.00000000E+00
  0.00000000E+00  0.00000000E+00  0.00000000E+00
  0.00000000E+00  0.00000000E+00  0.00000000E+00
