 running on   24 total cores
 distrk:  each k-point on   24 cores,    1 groups
 distr:  one band on    4 cores,    6 groups
 using from now: INCAR     
 vasp.5.4.4.18Apr17-6-g9f103f2a35 (build May 21 2019 18:34:56) complex          
  
 POSCAR found type information on POSCAR  O  C  H  Co Li
 POSCAR found :  5 types and     174 ions
 LDA part: xc-table for Pade appr. of Perdew
 POSCAR found type information on POSCAR  O  C  H  Co Li
 POSCAR found :  5 types and     174 ions
 POSCAR, INCAR and KPOINTS ok, starting setup
 FFT: planning ...
 WAVECAR not read
 WARNING: random wavefunctions but no delay for mixing, default for NELMDL
 entering main loop
       N       E                     dE             d eps       ncg     rms          rms(c)
DAV:   1     0.902255314326E+04    0.90226E+04   -0.36259E+05  2172   0.136E+03
DAV:   2     0.759591108721E+03   -0.82630E+04   -0.74572E+04  2544   0.424E+02
DAV:   3    -0.132327314257E+04   -0.20829E+04   -0.19782E+04  3564   0.213E+02
DAV:   4    -0.147438562660E+04   -0.15111E+03   -0.14060E+03  3372   0.654E+01
DAV:   5    -0.148269153364E+04   -0.83059E+01   -0.76610E+01  3612   0.144E+01    0.161E+02
RMM:   6    -0.204028987458E+04   -0.55760E+03   -0.36815E+03  2960   0.136E+02    0.548E+02
RMM:   7    -0.180701477722E+04    0.23328E+03   -0.26264E+02  2175   0.456E+01    0.344E+02
RMM:   8    -0.131999903707E+04    0.48702E+03   -0.56204E+02  2361   0.480E+01    0.119E+02
RMM:   9    -0.142223191515E+04   -0.10223E+03   -0.17391E+02  2425   0.251E+01    0.167E+02
RMM:  10    -0.154087678707E+04   -0.11864E+03   -0.72717E+01  2425   0.176E+01    0.194E+02
RMM:  11    -0.138992884842E+04    0.15095E+03   -0.43713E+01  2280   0.140E+01    0.135E+02
RMM:  12    -0.143581893117E+04   -0.45890E+02   -0.67222E+01  2199   0.172E+01    0.137E+02
RMM:  13    -0.138993632128E+04    0.45883E+02   -0.72046E+01  2183   0.189E+01    0.143E+02
RMM:  14    -0.132489999569E+04    0.65036E+02   -0.54649E+01  2307   0.146E+01    0.116E+02
RMM:  15    -0.127814712124E+04    0.46753E+02   -0.44569E+01  2274   0.134E+01    0.931E+01
RMM:  16    -0.127945645475E+04   -0.13093E+01   -0.36016E+01  2284   0.121E+01    0.104E+02
RMM:  17    -0.125915099591E+04    0.20305E+02   -0.19897E+01  2361   0.866E+00    0.920E+01
RMM:  18    -0.124201224091E+04    0.17139E+02   -0.14403E+01  2363   0.731E+00    0.596E+01
RMM:  19    -0.124817224110E+04   -0.61600E+01   -0.93766E+00  2272   0.607E+00    0.769E+01
RMM:  20    -0.124473636233E+04    0.34359E+01   -0.67129E+00  2328   0.537E+00    0.584E+01
RMM:  21    -0.124393706552E+04    0.79930E+00   -0.53658E+00  2314   0.458E+00    0.676E+01
RMM:  22    -0.124027407815E+04    0.36630E+01   -0.39624E+00  2339   0.393E+00    0.468E+01
RMM:  23    -0.123914191715E+04    0.11322E+01   -0.15003E+00  2323   0.248E+00    0.353E+01
RMM:  24    -0.124012806638E+04   -0.98615E+00   -0.76478E-01  2277   0.177E+00    0.325E+01
RMM:  25    -0.124034035190E+04   -0.21229E+00   -0.35765E-01  2325   0.123E+00    0.321E+01
RMM:  26    -0.124097164025E+04   -0.63129E+00   -0.32625E-01  2268   0.108E+00    0.328E+01
RMM:  27    -0.124127677860E+04   -0.30514E+00   -0.63738E-01  2268   0.154E+00    0.333E+01
RMM:  28    -0.124214674158E+04   -0.86996E+00   -0.53818E-01  2276   0.148E+00    0.318E+01
RMM:  29    -0.124265527218E+04   -0.50853E+00   -0.56657E-01  2312   0.149E+00    0.293E+01
RMM:  30    -0.124471451113E+04   -0.20592E+01   -0.76947E-01  2265   0.171E+00    0.306E+01
RMM:  31    -0.124499450801E+04   -0.28000E+00   -0.10403E+00  2373   0.193E+00    0.248E+01
RMM:  32    -0.124828716235E+04   -0.32927E+01   -0.20652E+00  2296   0.275E+00    0.365E+01
RMM:  33    -0.124792524336E+04    0.36192E+00   -0.15588E+00  2316   0.253E+00    0.277E+01
RMM:  34    -0.125014666721E+04   -0.22214E+01   -0.18906E+00  2283   0.256E+00    0.299E+01
RMM:  35    -0.125164781975E+04   -0.15012E+01   -0.15098E+00  2363   0.235E+00    0.238E+01
RMM:  36    -0.125285970335E+04   -0.12119E+01   -0.89457E-01  2318   0.183E+00    0.175E+01
RMM:  37    -0.125422399706E+04   -0.13643E+01   -0.84630E-01  2328   0.177E+00    0.206E+01
RMM:  38    -0.125461811749E+04   -0.39412E+00   -0.33628E-01  2461   0.108E+00    0.168E+01
RMM:  39    -0.125488369112E+04   -0.26557E+00   -0.97231E-02  2535   0.550E-01    0.168E+01
RMM:  40    -0.125546596873E+04   -0.58228E+00   -0.89969E-02  2265   0.530E-01    0.167E+01
RMM:  41    -0.125647352431E+04   -0.10076E+01   -0.17750E-01  2183   0.752E-01    0.147E+01
RMM:  42    -0.125697157343E+04   -0.49805E+00   -0.10092E-01  2363   0.592E-01    0.152E+01
RMM:  43    -0.125881689803E+04   -0.18453E+01   -0.30031E-01  2230   0.945E-01    0.181E+01
RMM:  44    -0.125944298779E+04   -0.62609E+00   -0.15105E-01  2341   0.656E-01    0.151E+01
RMM:  45    -0.126103263561E+04   -0.15896E+01   -0.26550E-01  2238   0.813E-01    0.120E+01
RMM:  46    -0.126360904888E+04   -0.25764E+01   -0.42761E-01  2275   0.100E+00    0.114E+01
RMM:  47    -0.126389400137E+04   -0.28495E+00   -0.12823E-01  2528   0.599E-01    0.117E+01
RMM:  48    -0.126386556614E+04    0.28435E-01   -0.50572E-02  2518   0.313E-01    0.109E+01
RMM:  49    -0.126446916026E+04   -0.60359E+00   -0.69268E-02  2238   0.461E-01    0.833E+00
RMM:  50    -0.126657465682E+04   -0.21055E+01   -0.24093E-01  2210   0.755E-01    0.856E+00
RMM:  51    -0.126906501296E+04   -0.24904E+01   -0.92045E-01  2217   0.136E+00    0.136E+01
RMM:  52    -0.126864607358E+04    0.41894E+00   -0.16207E-01  2279   0.780E-01    0.135E+01
RMM:  53    -0.126895847397E+04   -0.31240E+00   -0.16936E-01  2392   0.638E-01    0.127E+01
RMM:  54    -0.127029698784E+04   -0.13385E+01   -0.25406E-01  2299   0.883E-01    0.647E+00
RMM:  55    -0.127179081799E+04   -0.14938E+01   -0.19825E-01  2337   0.681E-01    0.509E+00
RMM:  56    -0.127307631610E+04   -0.12855E+01   -0.24539E-01  2372   0.767E-01    0.660E+00
RMM:  57    -0.127344480903E+04   -0.36849E+00   -0.10417E-01  2417   0.510E-01    0.586E+00
RMM:  58    -0.127393324199E+04   -0.48843E+00   -0.54071E-02  2520   0.318E-01    0.569E+00
RMM:  59    -0.127522989848E+04   -0.12967E+01   -0.14317E-01  2182   0.503E-01    0.491E+00
RMM:  60    -0.127646258883E+04   -0.12327E+01   -0.18991E-01  2318   0.548E-01    0.930E+00
RMM:  61    -0.127618275510E+04    0.27983E+00   -0.37270E-02  2273   0.391E-01    0.919E+00
RMM:  62    -0.127637854363E+04   -0.19579E+00   -0.28711E-02  2465   0.241E-01    0.738E+00
RMM:  63    -0.127681769222E+04   -0.43915E+00   -0.43421E-02  2219   0.334E-01    0.496E+00
RMM:  64    -0.127753151859E+04   -0.71383E+00   -0.63301E-02  2229   0.343E-01    0.356E+00
RMM:  65    -0.127809427989E+04   -0.56276E+00   -0.57319E-02  2526   0.310E-01    0.356E+00
RMM:  66    -0.127806312773E+04    0.31152E-01   -0.51346E-02  2378   0.409E-01    0.324E+00
RMM:  67    -0.127831187093E+04   -0.24874E+00   -0.22314E-02  2247   0.285E-01    0.240E+00
RMM:  68    -0.127896756257E+04   -0.65569E+00   -0.60129E-02  2192   0.296E-01    0.215E+00
RMM:  69    -0.127953745402E+04   -0.56989E+00   -0.64750E-02  2583   0.307E-01    0.197E+00
RMM:  70    -0.128000292090E+04   -0.46547E+00   -0.46221E-02  2498   0.230E-01    0.170E+00
RMM:  71    -0.128020055967E+04   -0.19764E+00   -0.15524E-02  2591   0.171E-01    0.121E+00
RMM:  72    -0.128050456884E+04   -0.30401E+00   -0.23586E-02  2416   0.156E-01    0.920E-01
RMM:  73    -0.128056411711E+04   -0.59548E-01   -0.51598E-03  2382   0.124E-01    0.747E-01
RMM:  74    -0.128063634918E+04   -0.72232E-01   -0.57336E-03  2584   0.787E-02    0.716E-01
RMM:  75    -0.128068827563E+04   -0.51926E-01   -0.31441E-03  2585   0.783E-02    0.558E-01
RMM:  76    -0.128074388785E+04   -0.55612E-01   -0.48575E-03  2494   0.745E-02    0.537E-01
RMM:  77    -0.128074907289E+04   -0.51850E-02   -0.11841E-03  2392   0.634E-02    0.412E-01
RMM:  78    -0.128076330483E+04   -0.14232E-01   -0.12836E-03  2606   0.370E-02    0.340E-01
RMM:  79    -0.128076849095E+04   -0.51861E-02   -0.39881E-04  2529   0.304E-02    0.299E-01
RMM:  80    -0.128077559096E+04   -0.71000E-02   -0.53821E-04  2588   0.256E-02    0.270E-01
RMM:  81    -0.128078139673E+04   -0.58058E-02   -0.51991E-04  2704   0.300E-02    0.237E-01
RMM:  82    -0.128078338137E+04   -0.19846E-02   -0.19848E-04  2663   0.176E-02    0.204E-01
RMM:  83    -0.128078587761E+04   -0.24962E-02   -0.18059E-04  2642   0.157E-02    0.160E-01
RMM:  84    -0.128078819577E+04   -0.23182E-02   -0.15635E-04  2601   0.141E-02    0.136E-01
RMM:  85    -0.128078918876E+04   -0.99299E-03   -0.65990E-05  2410   0.100E-02    0.117E-01
RMM:  86    -0.128078942279E+04   -0.23403E-03   -0.46285E-05  2162   0.107E-02    0.113E-01
RMM:  87    -0.128078995291E+04   -0.53012E-03   -0.21123E-05  2045   0.686E-03    0.102E-01
RMM:  88    -0.128079100299E+04   -0.10501E-02   -0.57586E-05  2272   0.772E-03    0.845E-02
RMM:  89    -0.128079142920E+04   -0.42620E-03   -0.27081E-05  2171   0.652E-03    0.741E-02
RMM:  90    -0.128079182590E+04   -0.39670E-03   -0.21699E-05  2147   0.471E-03    0.656E-02
RMM:  91    -0.128079193720E+04   -0.11130E-03   -0.59488E-06  1701   0.453E-03    0.607E-02
RMM:  92    -0.128079226436E+04   -0.32716E-03   -0.14863E-05  1945   0.402E-03    0.513E-02
RMM:  93    -0.128079256694E+04   -0.30258E-03   -0.15832E-05  2080   0.479E-03    0.408E-02
RMM:  94    -0.128079277269E+04   -0.20575E-03   -0.11951E-05  1941   0.387E-03    0.317E-02
RMM:  95    -0.128079295662E+04   -0.18393E-03   -0.13386E-05  2039   0.441E-03    0.220E-02
RMM:  96    -0.128079308068E+04   -0.12406E-03   -0.16734E-05  2040   0.449E-03    0.121E-02
RMM:  97    -0.128079308492E+04   -0.42444E-05   -0.27022E-06  1445   0.304E-03    0.106E-02
RMM:  98    -0.128079310314E+04   -0.18215E-04   -0.19772E-06  1366   0.178E-03    0.747E-03
RMM:  99    -0.128079311353E+04   -0.10397E-04   -0.97127E-07  1302   0.170E-03    0.492E-03
RMM: 100    -0.128079312353E+04   -0.99974E-05   -0.81339E-07  1247   0.124E-03    0.343E-03
RMM: 101    -0.128079313158E+04   -0.80461E-05   -0.52074E-07  1217   0.115E-03    0.278E-03
RMM: 102    -0.128079313739E+04   -0.58145E-05   -0.47283E-07  1163   0.905E-04    0.199E-03
RMM: 103    -0.128079314452E+04   -0.71263E-05   -0.49000E-07  1208   0.921E-04    0.127E-03
RMM: 104    -0.128079314815E+04   -0.36308E-05   -0.32794E-07  1113   0.780E-04    0.103E-03
RMM: 105    -0.128079315056E+04   -0.24077E-05   -0.22743E-07  1032   0.664E-04    0.898E-04
RMM: 106    -0.128079315330E+04   -0.27426E-05   -0.22063E-07  1019   0.599E-04    0.650E-04
RMM: 107    -0.128079315512E+04   -0.18231E-05   -0.19436E-07  1017   0.596E-04    0.442E-04
RMM: 108    -0.128079315596E+04   -0.83746E-06   -0.15554E-07   957   0.521E-04
   1 F= -.12897853E+04 E0= -.12897805E+04  d E =-.128979E+04  mag=    16.9993
 curvature:   0.00 expect dE= 0.000E+00 dE for cont linesearch  0.000E+00
 trial: gam= 0.00000 g(F)=  0.413E-01 g(S)=  0.000E+00 ort = 0.000E+00 (trialstep = 0.100E+01)
 search vector abs. value=  0.413E-01
 bond charge predicted
       N       E                     dE             d eps       ncg     rms          rms(c)
DAV:   1    -0.128074830964E+04    0.44845E-01   -0.14711E+01  2280   0.597E+00    0.184E+00
RMM:   2    -0.128079291343E+04   -0.44604E-01   -0.25667E-01  2402   0.103E+00    0.214E+00
RMM:   3    -0.128083768598E+04   -0.44773E-01   -0.10225E-01  2568   0.610E-01    0.293E+00
RMM:   4    -0.128080545151E+04    0.32234E-01   -0.33495E-02  2576   0.367E-01    0.139E+00
RMM:   5    -0.128080067135E+04    0.47802E-02   -0.11666E-02  2525   0.195E-01    0.954E-01
RMM:   6    -0.128080023365E+04    0.43770E-03   -0.36589E-03  2698   0.963E-02    0.524E-01
RMM:   7    -0.128080163595E+04   -0.14023E-02   -0.37902E-03  2451   0.117E-01    0.741E-01
RMM:   8    -0.128080091412E+04    0.72183E-03   -0.19881E-03  2471   0.913E-02    0.467E-01
RMM:   9    -0.128080134240E+04   -0.42828E-03   -0.15728E-03  2383   0.800E-02    0.460E-01
RMM:  10    -0.128080084582E+04    0.49658E-03   -0.85453E-04  2434   0.604E-02    0.157E-01
RMM:  11    -0.128080088858E+04   -0.42754E-04   -0.30090E-04  2314   0.338E-02    0.107E-01
RMM:  12    -0.128080090349E+04   -0.14919E-04   -0.89985E-05  2215   0.194E-02    0.102E-01
RMM:  13    -0.128080090334E+04    0.15469E-06   -0.48847E-05  1996   0.139E-02    0.555E-02
RMM:  14    -0.128080093285E+04   -0.29506E-04   -0.19028E-05  1846   0.884E-03    0.354E-02
RMM:  15    -0.128080095005E+04   -0.17202E-04   -0.12117E-05  1633   0.706E-03    0.364E-02
RMM:  16    -0.128080096309E+04   -0.13048E-04   -0.47520E-06  1508   0.495E-03    0.141E-02
RMM:  17    -0.128080098650E+04   -0.23407E-04   -0.26477E-06  1441   0.315E-03    0.183E-02
RMM:  18    -0.128080100335E+04   -0.16846E-04   -0.30543E-06  1463   0.382E-03    0.181E-02
RMM:  19    -0.128080101696E+04   -0.13617E-04   -0.20672E-06  1418   0.313E-03    0.110E-02
RMM:  20    -0.128080102705E+04   -0.10082E-04   -0.12133E-06  1310   0.234E-03    0.773E-03
RMM:  21    -0.128080103495E+04   -0.79006E-05   -0.59896E-07  1259   0.165E-03    0.521E-03
RMM:  22    -0.128080104288E+04   -0.79356E-05   -0.43277E-07  1227   0.127E-03    0.637E-03
RMM:  23    -0.128080105091E+04   -0.80247E-05   -0.37320E-07  1192   0.120E-03    0.308E-03
RMM:  24    -0.128080106339E+04   -0.12481E-04   -0.40425E-07  1218   0.964E-04    0.352E-03
RMM:  25    -0.128080106837E+04   -0.49830E-05   -0.29819E-07  1123   0.103E-03    0.306E-03
RMM:  26    -0.128080107462E+04   -0.62431E-05   -0.24790E-07  1063   0.747E-04    0.168E-03
RMM:  27    -0.128080108067E+04   -0.60524E-05   -0.22127E-07  1074   0.712E-04    0.108E-03
RMM:  28    -0.128080108724E+04   -0.65771E-05   -0.25369E-07  1079   0.640E-04    0.880E-04
RMM:  29    -0.128080109205E+04   -0.48046E-05   -0.22607E-07  1077   0.681E-04    0.727E-04
RMM:  30    -0.128080109494E+04   -0.28892E-05   -0.19370E-07   997   0.576E-04    0.603E-04
RMM:  31    -0.128080109770E+04   -0.27568E-05   -0.17259E-07   990   0.565E-04    0.476E-04
RMM:  32    -0.128080109995E+04   -0.22546E-05   -0.16345E-07   988   0.521E-04    0.422E-04
RMM:  33    -0.128080110154E+04   -0.15950E-05   -0.13698E-07   952   0.509E-04    0.307E-04
RMM:  34    -0.128080110287E+04   -0.13275E-05   -0.13011E-07   928   0.465E-04    0.222E-04
RMM:  35    -0.128080110367E+04   -0.79349E-06   -0.11001E-07   937   0.467E-04
   2 F= -.12897923E+04 E0= -.12897872E+04  d E =-.691478E-02  mag=    16.9998
 trial-energy change:   -0.006915  1 .order   -0.006850   -0.041271    0.027571
 step:   0.5995(harm=  0.5995)  dis= 0.01034  next Energy= -1289.797717 (dE=-0.124E-01)
 bond charge predicted
       N       E                     dE             d eps       ncg     rms          rms(c)
DAV:   1    -0.128079811177E+04    0.29911E-02   -0.23594E+00  2232   0.239E+00    0.736E-01
RMM:   2    -0.128080443112E+04   -0.63194E-02   -0.37820E-02  2417   0.404E-01    0.658E-01
RMM:   3    -0.128081676916E+04   -0.12338E-01   -0.13454E-02  2555   0.222E-01    0.303E+00
RMM:   4    -0.128080200495E+04    0.14764E-01   -0.75979E-03  2525   0.179E-01    0.575E-01
RMM:   5    -0.128080580376E+04   -0.37988E-02   -0.33100E-03  2317   0.128E-01    0.292E-01
RMM:   6    -0.128080611839E+04   -0.31463E-03   -0.58996E-04  2534   0.496E-02    0.220E-01
RMM:   7    -0.128080627180E+04   -0.15341E-03   -0.48643E-04  2420   0.434E-02    0.275E-01
RMM:   8    -0.128080613825E+04    0.13355E-03   -0.32553E-04  2397   0.362E-02    0.136E-01
RMM:   9    -0.128080616087E+04   -0.22618E-04   -0.12496E-04  2240   0.221E-02    0.108E-01
RMM:  10    -0.128080614295E+04    0.17919E-04   -0.47379E-05  1984   0.138E-02    0.663E-02
RMM:  11    -0.128080615080E+04   -0.78519E-05   -0.21646E-05  1762   0.981E-03    0.566E-02
RMM:  12    -0.128080615184E+04   -0.10414E-05   -0.11067E-05  1599   0.698E-03    0.420E-02
RMM:  13    -0.128080615605E+04   -0.42046E-05   -0.47091E-06  1506   0.465E-03    0.208E-02
RMM:  14    -0.128080616311E+04   -0.70627E-05   -0.22732E-06  1436   0.329E-03    0.148E-02
RMM:  15    -0.128080616785E+04   -0.47380E-05   -0.14345E-06  1362   0.278E-03    0.117E-02
RMM:  16    -0.128080617340E+04   -0.55505E-05   -0.96970E-07  1310   0.224E-03    0.704E-03
RMM:  17    -0.128080617775E+04   -0.43573E-05   -0.62967E-07  1265   0.179E-03    0.520E-03
RMM:  18    -0.128080618080E+04   -0.30409E-05   -0.40196E-07  1213   0.139E-03    0.508E-03
RMM:  19    -0.128080618321E+04   -0.24135E-05   -0.26422E-07  1195   0.114E-03    0.285E-03
RMM:  20    -0.128080618589E+04   -0.26850E-05   -0.16054E-07  1121   0.756E-04    0.198E-03
RMM:  21    -0.128080618849E+04   -0.25919E-05   -0.13064E-07  1065   0.676E-04    0.155E-03
RMM:  22    -0.128080619126E+04   -0.27733E-05   -0.12633E-07  1001   0.632E-04    0.146E-03
RMM:  23    -0.128080619277E+04   -0.15084E-05   -0.91584E-08   949   0.566E-04    0.150E-03
RMM:  24    -0.128080619360E+04   -0.83145E-06   -0.59124E-08   829   0.449E-04
   3 F= -.12897977E+04 E0= -.12897928E+04  d E =-.124027E-01  mag=    16.9997
 curvature:  -0.30 expect dE=-0.220E-01 dE for cont linesearch -0.545E-07
 trial: gam= 1.77819 g(F)=  0.735E-01 g(S)=  0.000E+00 ort = 0.866E-04 (trialstep = 0.186E+00)
 search vector abs. value=  0.204E+00
 bond charge predicted
       N       E                     dE             d eps       ncg     rms          rms(c)
DAV:   1    -0.128080647894E+04   -0.28618E-03   -0.27313E+00  2208   0.219E+00    0.801E-01
RMM:   2    -0.128081245156E+04   -0.59726E-02   -0.32077E-02  2273   0.347E-01    0.600E-01
RMM:   3    -0.128081838343E+04   -0.59319E-02   -0.86032E-03  2493   0.176E-01    0.109E+00
RMM:   4    -0.128081505177E+04    0.33317E-02   -0.34572E-03  2524   0.116E-01    0.431E-01
RMM:   5    -0.128081579491E+04   -0.74314E-03   -0.15018E-03  2347   0.717E-02    0.516E-01
RMM:   6    -0.128081545573E+04    0.33918E-03   -0.85028E-04  2333   0.586E-02    0.231E-01
RMM:   7    -0.128081573818E+04   -0.28246E-03   -0.74049E-04  2357   0.546E-02    0.277E-01
RMM:   8    -0.128081556813E+04    0.17005E-03   -0.31172E-04  2308   0.369E-02    0.130E-01
RMM:   9    -0.128081558552E+04   -0.17383E-04   -0.12625E-04  2201   0.221E-02    0.101E-01
RMM:  10    -0.128081556614E+04    0.19374E-04   -0.35747E-05  1944   0.127E-02    0.331E-02
RMM:  11    -0.128081557904E+04   -0.12901E-04   -0.17218E-05  1710   0.823E-03    0.452E-02
RMM:  12    -0.128081558043E+04   -0.13832E-05   -0.92955E-06  1603   0.641E-03    0.208E-02
RMM:  13    -0.128081558507E+04   -0.46404E-05   -0.48580E-06  1491   0.464E-03    0.131E-02
RMM:  14    -0.128081558873E+04   -0.36567E-05   -0.17539E-06  1402   0.302E-03    0.887E-03
RMM:  15    -0.128081559093E+04   -0.22075E-05   -0.10622E-06  1338   0.231E-03    0.111E-02
RMM:  16    -0.128081559218E+04   -0.12447E-05   -0.62055E-07  1236   0.185E-03    0.586E-03
RMM:  17    -0.128081559421E+04   -0.20353E-05   -0.35430E-07  1192   0.126E-03    0.513E-03
RMM:  18    -0.128081559647E+04   -0.22534E-05   -0.33350E-07  1169   0.128E-03    0.599E-03
RMM:  19    -0.128081559898E+04   -0.25127E-05   -0.30671E-07  1140   0.119E-03    0.441E-03
RMM:  20    -0.128081560132E+04   -0.23392E-05   -0.24604E-07  1132   0.101E-03    0.272E-03
RMM:  21    -0.128081560269E+04   -0.13717E-05   -0.14664E-07  1038   0.785E-04    0.260E-03
RMM:  22    -0.128081560360E+04   -0.91146E-06   -0.10028E-07   937   0.640E-04
   4 F= -.12898067E+04 E0= -.12898018E+04  d E =-.898525E-02  mag=    16.9998
 trial-energy change:   -0.008985  1 .order   -0.008989   -0.013684   -0.004295
 step:   0.2709(harm=  0.2709)  dis= 0.01177  next Energy= -1289.807720 (dE=-0.997E-02)
 bond charge predicted
       N       E                     dE             d eps       ncg     rms          rms(c)
DAV:   1    -0.128081489425E+04    0.70844E-03   -0.57154E-01  2208   0.100E+00    0.366E-01
RMM:   2    -0.128081596858E+04   -0.10743E-02   -0.63721E-03  2273   0.156E-01    0.271E-01
RMM:   3    -0.128081741086E+04   -0.14423E-02   -0.17695E-03  2467   0.807E-02    0.556E-01
RMM:   4    -0.128081658843E+04    0.82243E-03   -0.73691E-04  2458   0.541E-02    0.219E-01
RMM:   5    -0.128081674211E+04   -0.15368E-03   -0.32299E-04  2261   0.345E-02    0.199E-01
RMM:   6    -0.128081673444E+04    0.76653E-05   -0.15901E-04  2241   0.255E-02    0.992E-02
RMM:   7    -0.128081679464E+04   -0.60197E-04   -0.14741E-04  2277   0.243E-02    0.126E-01
RMM:   8    -0.128081676001E+04    0.34632E-04   -0.62495E-05  2039   0.165E-02    0.584E-02
RMM:   9    -0.128081676458E+04   -0.45753E-05   -0.23931E-05  1755   0.983E-03    0.427E-02
RMM:  10    -0.128081676184E+04    0.27444E-05   -0.66843E-06  1561   0.583E-03    0.132E-02
RMM:  11    -0.128081676585E+04   -0.40159E-05   -0.33324E-06  1468   0.381E-03    0.201E-02
RMM:  12    -0.128081676685E+04   -0.99848E-06   -0.20038E-06  1364   0.308E-03
   5 F= -.12898077E+04 E0= -.12898027E+04  d E =-.996333E-02  mag=    16.9998
 curvature:  -0.38 expect dE=-0.359E-01 dE for cont linesearch -0.387E-07
 trial: gam= 1.30419 g(F)=  0.956E-01 g(S)=  0.000E+00 ort =-0.145E-03 (trialstep = 0.936E-01)
 search vector abs. value=  0.443E+00
 bond charge predicted
       N       E                     dE             d eps       ncg     rms          rms(c)
DAV:   1    -0.128081914430E+04   -0.23784E-02   -0.14723E+00  2184   0.159E+00    0.592E-01
RMM:   2    -0.128082217571E+04   -0.30314E-02   -0.15513E-02  2357   0.251E-01    0.410E-01
RMM:   3    -0.128082511434E+04   -0.29386E-02   -0.42328E-03  2547   0.121E-01    0.690E-01
RMM:   4    -0.128082381084E+04    0.13035E-02   -0.16563E-03  2543   0.778E-02    0.297E-01
RMM:   5    -0.128082422299E+04   -0.41215E-03   -0.72631E-04  2470   0.473E-02    0.420E-01
RMM:   6    -0.128082394333E+04    0.27966E-03   -0.40120E-04  2333   0.417E-02    0.133E-01
RMM:   7    -0.128082414211E+04   -0.19878E-03   -0.30120E-04  2352   0.354E-02    0.190E-01
RMM:   8    -0.128082406497E+04    0.77144E-04   -0.13631E-04  2241   0.243E-02    0.852E-02
RMM:   9    -0.128082408504E+04   -0.20071E-04   -0.61689E-05  2023   0.158E-02    0.771E-02
RMM:  10    -0.128082407070E+04    0.14344E-04   -0.18983E-05  1730   0.955E-03    0.243E-02
RMM:  11    -0.128082407948E+04   -0.87817E-05   -0.77161E-06  1579   0.565E-03    0.331E-02
RMM:  12    -0.128082407974E+04   -0.26476E-06   -0.47975E-06  1487   0.459E-03
   6 F= -.12898148E+04 E0= -.12898097E+04  d E =-.704828E-02  mag=    16.9998
 trial-energy change:   -0.007048  1 .order   -0.007031   -0.008931   -0.005131
 step:   0.2126(harm=  0.2200)  dis= 0.01366  next Energy= -1289.818057 (dE=-0.103E-01)
 bond charge predicted
       N       E                     dE             d eps       ncg     rms          rms(c)
DAV:   1    -0.128081985574E+04    0.42237E-02   -0.23796E+00  2196   0.202E+00    0.752E-01
RMM:   2    -0.128082497623E+04   -0.51205E-02   -0.25821E-02  2360   0.322E-01    0.536E-01
RMM:   3    -0.128082967426E+04   -0.46980E-02   -0.71788E-03  2555   0.156E-01    0.895E-01
RMM:   4    -0.128082742761E+04    0.22466E-02   -0.27908E-03  2554   0.984E-02    0.326E-01
RMM:   5    -0.128082832391E+04   -0.89630E-03   -0.11950E-03  2486   0.604E-02    0.595E-01
RMM:   6    -0.128082761895E+04    0.70496E-03   -0.68230E-04  2359   0.537E-02    0.164E-01
RMM:   7    -0.128082798602E+04   -0.36707E-03   -0.49624E-04  2369   0.459E-02    0.249E-01
RMM:   8    -0.128082783391E+04    0.15211E-03   -0.22843E-04  2319   0.318E-02    0.103E-01
RMM:   9    -0.128082787848E+04   -0.44573E-04   -0.99148E-05  2171   0.201E-02    0.103E-01
RMM:  10    -0.128082785075E+04    0.27734E-04   -0.32159E-05  1883   0.123E-02    0.298E-02
RMM:  11    -0.128082786705E+04   -0.16306E-04   -0.11431E-05  1644   0.664E-03    0.424E-02
RMM:  12    -0.128082786713E+04   -0.80108E-07   -0.71818E-06  1544   0.570E-03
   7 F= -.12898182E+04 E0= -.12898131E+04  d E =-.105204E-01  mag=    16.9998
 curvature:  -0.51 expect dE=-0.132E-01 dE for cont linesearch -0.118E-04
 trial: gam= 0.23099 g(F)=  0.259E-01 g(S)=  0.000E+00 ort = 0.321E-02 (trialstep = 0.117E+00)
 search vector abs. value=  0.510E-01
 bond charge predicted
       N       E                     dE             d eps       ncg     rms          rms(c)
DAV:   1    -0.128082965876E+04   -0.17917E-02   -0.23371E-01  2352   0.770E-01    0.216E-01
RMM:   2    -0.128083015477E+04   -0.49601E-03   -0.37858E-03  2486   0.121E-01    0.199E-01
RMM:   3    -0.128083069299E+04   -0.53822E-03   -0.11673E-03  2464   0.674E-02    0.327E-01
RMM:   4    -0.128083030107E+04    0.39191E-03   -0.41956E-04  2481   0.410E-02    0.918E-02
RMM:   5    -0.128083040868E+04   -0.10760E-03   -0.12624E-04  2318   0.204E-02    0.197E-01
RMM:   6    -0.128083033913E+04    0.69551E-04   -0.76351E-05  2237   0.164E-02    0.791E-02
RMM:   7    -0.128083036481E+04   -0.25689E-04   -0.56312E-05  2068   0.157E-02    0.644E-02
RMM:   8    -0.128083037120E+04   -0.63898E-05   -0.31735E-05  1971   0.116E-02    0.538E-02
RMM:   9    -0.128083036891E+04    0.22929E-05   -0.16919E-05  1663   0.913E-03    0.363E-02
RMM:  10    -0.128083036848E+04    0.42741E-06   -0.56014E-06  1533   0.538E-03
   8 F= -.12898207E+04 E0= -.12898155E+04  d E =-.248087E-02  mag=    16.9998
 trial-energy change:   -0.002481  1 .order   -0.002450   -0.003131   -0.001768
 step:   0.2367(harm=  0.2698)  dis= 0.00395  next Energy= -1289.821644 (dE=-0.341E-02)
 bond charge predicted
       N       E                     dE             d eps       ncg     rms          rms(c)
DAV:   1    -0.128083075776E+04   -0.38885E-03   -0.24120E-01  2304   0.780E-01    0.219E-01
RMM:   2    -0.128083122555E+04   -0.46779E-03   -0.38637E-03  2489   0.122E-01    0.177E-01
RMM:   3    -0.128083180592E+04   -0.58037E-03   -0.10651E-03  2492   0.630E-02    0.335E-01
RMM:   4    -0.128083143494E+04    0.37099E-03   -0.41954E-04  2493   0.401E-02    0.191E-01
RMM:   5    -0.128083144805E+04   -0.13118E-04   -0.14572E-04  2314   0.220E-02    0.128E-01
RMM:   6    -0.128083146066E+04   -0.12606E-04   -0.68045E-05  2217   0.162E-02    0.775E-02
RMM:   7    -0.128083146307E+04   -0.24124E-05   -0.48593E-05  2057   0.145E-02    0.582E-02
RMM:   8    -0.128083147064E+04   -0.75686E-05   -0.28679E-05  1971   0.110E-02    0.542E-02
RMM:   9    -0.128083146803E+04    0.26114E-05   -0.17314E-05  1674   0.877E-03    0.382E-02
RMM:  10    -0.128083146771E+04    0.31714E-06   -0.62347E-06  1529   0.560E-03
   9 F= -.12898218E+04 E0= -.12898165E+04  d E =-.355998E-02  mag=    16.9998
 curvature:  -0.25 expect dE=-0.440E-02 dE for cont linesearch -0.430E-04
 trial: gam= 0.61363 g(F)=  0.179E-01 g(S)=  0.000E+00 ort = 0.299E-02 (trialstep = 0.141E+00)
 search vector abs. value=  0.408E-01
 bond charge predicted
       N       E                     dE             d eps       ncg     rms          rms(c)
DAV:   1    -0.128083311768E+04   -0.16497E-02   -0.22099E-01  2316   0.836E-01    0.191E-01
RMM:   2    -0.128083363810E+04   -0.52041E-03   -0.42370E-03  2581   0.133E-01    0.186E-01
RMM:   3    -0.128083413401E+04   -0.49591E-03   -0.10870E-03  2518   0.643E-02    0.383E-01
RMM:   4    -0.128083379944E+04    0.33457E-03   -0.41554E-04  2581   0.403E-02    0.241E-01
RMM:   5    -0.128083375330E+04    0.46144E-04   -0.14726E-04  2249   0.242E-02    0.629E-02
RMM:   6    -0.128083380494E+04   -0.51640E-04   -0.46000E-05  2251   0.132E-02    0.683E-02
RMM:   7    -0.128083381039E+04   -0.54534E-05   -0.35059E-05  2000   0.113E-02    0.625E-02
RMM:   8    -0.128083382101E+04   -0.10618E-04   -0.25162E-05  1988   0.101E-02    0.459E-02
RMM:   9    -0.128083382027E+04    0.74237E-06   -0.15099E-05  1634   0.837E-03    0.304E-02
RMM:  10    -0.128083381962E+04    0.64242E-06   -0.46658E-06  1502   0.500E-03
  10 F= -.12898242E+04 E0= -.12898189E+04  d E =-.238902E-02  mag=    16.9998
 trial-energy change:   -0.002389  1 .order   -0.002367   -0.002783   -0.001951
 step:   0.3749(harm=  0.4724)  dis= 0.00468  next Energy= -1289.825894 (dE=-0.410E-02)
 bond charge predicted
       N       E                     dE             d eps       ncg     rms          rms(c)
DAV:   1    -0.128083397275E+04   -0.15249E-03   -0.60430E-01  2232   0.138E+00    0.313E-01
RMM:   2    -0.128083538962E+04   -0.14169E-02   -0.11481E-02  2571   0.219E-01    0.257E-01
RMM:   3    -0.128083658031E+04   -0.11907E-02   -0.25859E-03  2564   0.972E-02    0.565E-01
RMM:   4    -0.128083581195E+04    0.76837E-03   -0.98142E-04  2630   0.599E-02    0.351E-01
RMM:   5    -0.128083572962E+04    0.82321E-04   -0.36505E-04  2375   0.373E-02    0.111E-01
RMM:   6    -0.128083580699E+04   -0.77365E-04   -0.10361E-04  2417   0.195E-02    0.862E-02
RMM:   7    -0.128083584117E+04   -0.34185E-04   -0.10009E-04  2303   0.199E-02    0.111E-01
RMM:   8    -0.128083583990E+04    0.12762E-05   -0.68644E-05  2171   0.168E-02    0.760E-02
RMM:   9    -0.128083583780E+04    0.20977E-05   -0.37838E-05  1931   0.130E-02    0.526E-02
RMM:  10    -0.128083583361E+04    0.41927E-05   -0.11483E-05  1604   0.744E-03    0.189E-02
RMM:  11    -0.128083583610E+04   -0.24882E-05   -0.39897E-06  1481   0.451E-03    0.174E-02
RMM:  12    -0.128083583685E+04   -0.75756E-06   -0.21495E-06  1404   0.322E-03
  11 F= -.12898263E+04 E0= -.12898209E+04  d E =-.446704E-02  mag=    16.9998
 curvature:  -0.45 expect dE=-0.497E-02 dE for cont linesearch -0.173E-03
 ZBRENT: extrapolating
 opt :   0.4693  next Energy= -1289.826447 (dE=-0.465E-02)
 bond charge predicted
       N       E                     dE             d eps       ncg     rms          rms(c)
DAV:   1    -0.128083570020E+04    0.13590E-03   -0.98698E-02  2316   0.559E-01    0.126E-01
RMM:   2    -0.128083589378E+04   -0.19358E-03   -0.18748E-03  2569   0.884E-02    0.102E-01
RMM:   3    -0.128083609571E+04   -0.20194E-03   -0.41834E-04  2516   0.396E-02    0.184E-01
RMM:   4    -0.128083597564E+04    0.12007E-03   -0.14607E-04  2422   0.232E-02    0.823E-02
RMM:   5    -0.128083599437E+04   -0.18731E-04   -0.39249E-05  2019   0.115E-02    0.821E-02
RMM:   6    -0.128083599502E+04   -0.65011E-06   -0.19766E-05  1915   0.903E-03    0.430E-02
RMM:   7    -0.128083600228E+04   -0.72565E-05   -0.16140E-05  1794   0.856E-03    0.394E-02
RMM:   8    -0.128083600921E+04   -0.69334E-05   -0.12298E-05  1732   0.749E-03    0.412E-02
RMM:   9    -0.128083600599E+04    0.32183E-05   -0.71622E-06  1547   0.619E-03    0.159E-02
RMM:  10    -0.128083600763E+04   -0.16351E-05   -0.14805E-06  1389   0.301E-03    0.101E-02
RMM:  11    -0.128083600781E+04   -0.18354E-06   -0.65322E-07  1275   0.201E-03
  12 F= -.12898265E+04 E0= -.12898211E+04  d E =-.466233E-02  mag=    16.9997
 curvature:  -0.48 expect dE=-0.869E-02 dE for cont linesearch -0.244E-07
 trial: gam= 1.19629 g(F)=  0.180E-01 g(S)=  0.000E+00 ort = 0.454E-04 (trialstep = 0.110E+00)
 search vector abs. value=  0.764E-01
 bond charge predicted
       N       E                     dE             d eps       ncg     rms          rms(c)
DAV:   1    -0.128083689884E+04   -0.89122E-03   -0.27034E-01  2160   0.942E-01    0.181E-01
RMM:   2    -0.128083739807E+04   -0.49923E-03   -0.47664E-03  2561   0.133E-01    0.110E-01
RMM:   3    -0.128083779469E+04   -0.39662E-03   -0.60346E-04  2558   0.461E-02    0.292E-01
RMM:   4    -0.128083758297E+04    0.21172E-03   -0.22282E-04  2559   0.261E-02    0.709E-02
RMM:   5    -0.128083765958E+04   -0.76612E-04   -0.72404E-05  2171   0.177E-02    0.864E-02
RMM:   6    -0.128083765630E+04    0.32825E-05   -0.37420E-05  2093   0.127E-02    0.466E-02
RMM:   7    -0.128083768284E+04   -0.26544E-04   -0.32941E-05  2024   0.114E-02    0.704E-02
RMM:   8    -0.128083767466E+04    0.81799E-05   -0.21285E-05  1808   0.949E-03    0.347E-02
RMM:   9    -0.128083767672E+04   -0.20563E-05   -0.76485E-06  1552   0.607E-03    0.236E-02
RMM:  10    -0.128083767726E+04   -0.53924E-06   -0.28453E-06  1450   0.397E-03
  13 F= -.12898282E+04 E0= -.12898229E+04  d E =-.174716E-02  mag=    16.9997
 trial-energy change:   -0.001747  1 .order   -0.001741   -0.001988   -0.001495
 step:   0.3790(harm=  0.4447)  dis= 0.00546  next Energy= -1289.830106 (dE=-0.365E-02)
 bond charge predicted
       N       E                     dE             d eps       ncg     rms          rms(c)
DAV:   1    -0.128083506185E+04    0.26149E-02   -0.16023E+00  2160   0.230E+00    0.441E-01
RMM:   2    -0.128083842320E+04   -0.33614E-02   -0.28365E-02  2565   0.324E-01    0.260E-01
RMM:   3    -0.128084018970E+04   -0.17665E-02   -0.34169E-03  2602   0.108E-01    0.587E-01
RMM:   4    -0.128083937842E+04    0.81128E-03   -0.11686E-03  2712   0.585E-02    0.181E-01
RMM:   5    -0.128083964823E+04   -0.26981E-03   -0.38878E-04  2397   0.399E-02    0.215E-01
RMM:   6    -0.128083958337E+04    0.64859E-04   -0.22274E-04  2416   0.303E-02    0.108E-01
RMM:   7    -0.128083969332E+04   -0.10995E-03   -0.17458E-04  2385   0.259E-02    0.144E-01
RMM:   8    -0.128083965736E+04    0.35966E-04   -0.11654E-04  2245   0.224E-02    0.853E-02
RMM:   9    -0.128083965545E+04    0.19092E-05   -0.42043E-05  1936   0.136E-02    0.470E-02
RMM:  10    -0.128083965727E+04   -0.18210E-05   -0.14527E-05  1622   0.796E-03    0.336E-02
RMM:  11    -0.128083965941E+04   -0.21368E-05   -0.65405E-06  1545   0.562E-03    0.183E-02
RMM:  12    -0.128083966177E+04   -0.23611E-05   -0.24126E-06  1448   0.361E-03    0.116E-02
RMM:  13    -0.128083966426E+04   -0.24881E-05   -0.17890E-06  1409   0.299E-03    0.143E-02
RMM:  14    -0.128083966599E+04   -0.17378E-05   -0.10655E-06  1339   0.249E-03    0.962E-03
RMM:  15    -0.128083966746E+04   -0.14655E-05   -0.63008E-07  1255   0.183E-03    0.782E-03
RMM:  16    -0.128083966851E+04   -0.10518E-05   -0.34706E-07  1193   0.143E-03    0.410E-03
RMM:  17    -0.128083966938E+04   -0.86768E-06   -0.15814E-07  1129   0.861E-04
  14 F= -.12898304E+04 E0= -.12898250E+04  d E =-.392754E-02  mag=    16.9998
 curvature:  -0.91 expect dE=-0.798E-02 dE for cont linesearch -0.821E-04
 ZBRENT: extrapolating
 opt :   0.4438  next Energy= -1289.830468 (dE=-0.401E-02)
 bond charge predicted
       N       E                     dE             d eps       ncg     rms          rms(c)
DAV:   1    -0.128083944670E+04    0.22181E-03   -0.93087E-02  2292   0.553E-01    0.106E-01
RMM:   2    -0.128083960246E+04   -0.15576E-03   -0.16466E-03  2567   0.780E-02    0.697E-02
RMM:   3    -0.128083978711E+04   -0.18465E-03   -0.23083E-04  2489   0.291E-02    0.220E-01
RMM:   4    -0.128083966268E+04    0.12443E-03   -0.91515E-05  2336   0.178E-02    0.439E-02
RMM:   5    -0.128083970508E+04   -0.42401E-04   -0.30257E-05  1945   0.120E-02    0.499E-02
RMM:   6    -0.128083970883E+04   -0.37504E-05   -0.12867E-05  1868   0.749E-03    0.272E-02
RMM:   7    -0.128083971965E+04   -0.10815E-04   -0.11693E-05  1724   0.719E-03    0.396E-02
RMM:   8    -0.128083971732E+04    0.23294E-05   -0.74003E-06  1568   0.626E-03    0.193E-02
RMM:   9    -0.128083971860E+04   -0.12832E-05   -0.22253E-06  1437   0.358E-03    0.118E-02
RMM:  10    -0.128083971935E+04   -0.74967E-06   -0.96851E-07  1310   0.248E-03
  15 F= -.12898305E+04 E0= -.12898250E+04  d E =-.402275E-02  mag=    16.9998
 curvature:  -0.94 expect dE=-0.100E-01 dE for cont linesearch -0.290E-07
 trial: gam= 0.45424 g(F)=  0.107E-01 g(S)=  0.000E+00 ort = 0.485E-04 (trialstep = 0.177E+00)
 search vector abs. value=  0.265E-01
 bond charge predicted
       N       E                     dE             d eps       ncg     rms          rms(c)
DAV:   1    -0.128084030575E+04   -0.58715E-03   -0.22652E-01  2172   0.916E-01    0.175E-01
RMM:   2    -0.128084075570E+04   -0.44995E-03   -0.48079E-03  2566   0.138E-01    0.149E-01
RMM:   3    -0.128084126829E+04   -0.51259E-03   -0.78978E-04  2500   0.586E-02    0.427E-01
RMM:   4    -0.128084082447E+04    0.44382E-03   -0.32852E-04  2638   0.352E-02    0.106E-01
RMM:   5    -0.128084092634E+04   -0.10187E-03   -0.12554E-04  2227   0.235E-02    0.109E-01
RMM:   6    -0.128084092142E+04    0.49264E-05   -0.63875E-05  2287   0.163E-02    0.723E-02
RMM:   7    -0.128084095360E+04   -0.32178E-04   -0.75316E-05  2190   0.171E-02    0.105E-01
RMM:   8    -0.128084092804E+04    0.25555E-04   -0.37863E-05  1974   0.127E-02    0.391E-02
RMM:   9    -0.128084093179E+04   -0.37463E-05   -0.12473E-05  1619   0.778E-03    0.306E-02
RMM:  10    -0.128084093075E+04    0.10346E-05   -0.41117E-06  1495   0.458E-03    0.164E-02
RMM:  11    -0.128084093211E+04   -0.13560E-05   -0.18097E-06  1414   0.320E-03    0.835E-03
RMM:  12    -0.128084093318E+04   -0.10706E-05   -0.69206E-07  1293   0.194E-03    0.736E-03
RMM:  13    -0.128084093359E+04   -0.41421E-06   -0.45260E-07  1247   0.167E-03
  16 F= -.12898318E+04 E0= -.12898263E+04  d E =-.129783E-02  mag=    16.9998
 trial-energy change:   -0.001298  1 .order   -0.001290   -0.001896   -0.000684
 step:   0.2712(harm=  0.2769)  dis= 0.00278  next Energy= -1289.831958 (dE=-0.148E-02)
 bond charge predicted
       N       E                     dE             d eps       ncg     rms          rms(c)
DAV:   1    -0.128084090946E+04    0.23723E-04   -0.64124E-02  2304   0.487E-01    0.934E-02
RMM:   2    -0.128084102497E+04   -0.11551E-03   -0.13700E-03  2572   0.734E-02    0.907E-02
RMM:   3    -0.128084120735E+04   -0.18238E-03   -0.25189E-04  2486   0.325E-02    0.266E-01
RMM:   4    -0.128084103443E+04    0.17292E-03   -0.10731E-04  2416   0.204E-02    0.634E-02
RMM:   5    -0.128084107658E+04   -0.42152E-04   -0.39232E-05  1971   0.133E-02    0.511E-02
RMM:   6    -0.128084108236E+04   -0.57775E-05   -0.18006E-05  2026   0.856E-03    0.387E-02
RMM:   7    -0.128084109115E+04   -0.87899E-05   -0.20819E-05  1834   0.936E-03    0.531E-02
RMM:   8    -0.128084108441E+04    0.67391E-05   -0.93646E-06  1600   0.715E-03    0.202E-02
RMM:   9    -0.128084108717E+04   -0.27620E-05   -0.31228E-06  1467   0.418E-03    0.179E-02
RMM:  10    -0.128084108689E+04    0.28374E-06   -0.10649E-06  1335   0.262E-03
  17 F= -.12898320E+04 E0= -.12898266E+04  d E =-.149556E-02  mag=    16.9998
 curvature:  -0.34 expect dE=-0.405E-02 dE for cont linesearch -0.952E-06
 trial: gam= 1.08717 g(F)=  0.119E-01 g(S)=  0.000E+00 ort = 0.272E-03 (trialstep = 0.119E+00)
 search vector abs. value=  0.438E-01
 bond charge predicted
       N       E                     dE             d eps       ncg     rms          rms(c)
DAV:   1    -0.128084161708E+04   -0.52991E-03   -0.16436E-01  2172   0.793E-01    0.146E-01
RMM:   2    -0.128084194780E+04   -0.33072E-03   -0.34788E-03  2575   0.117E-01    0.154E-01
RMM:   3    -0.128084240758E+04   -0.45979E-03   -0.64379E-04  2516   0.535E-02    0.436E-01
RMM:   4    -0.128084193445E+04    0.47313E-03   -0.29241E-04  2591   0.342E-02    0.974E-02
RMM:   5    -0.128084203399E+04   -0.99540E-04   -0.95115E-05  2170   0.205E-02    0.789E-02
RMM:   6    -0.128084205612E+04   -0.22126E-04   -0.48524E-05  2270   0.141E-02    0.733E-02
RMM:   7    -0.128084206726E+04   -0.11146E-04   -0.54556E-05  2069   0.152E-02    0.798E-02
RMM:   8    -0.128084205733E+04    0.99323E-05   -0.24168E-05  1829   0.109E-02    0.347E-02
RMM:   9    -0.128084205959E+04   -0.22614E-05   -0.92295E-06  1579   0.681E-03    0.276E-02
RMM:  10    -0.128084205870E+04    0.89024E-06   -0.28692E-06  1456   0.398E-03
  18 F= -.12898330E+04 E0= -.12898276E+04  d E =-.104093E-02  mag=    16.9998
 trial-energy change:   -0.001041  1 .order   -0.001036   -0.001443   -0.000629
 step:   0.2049(harm=  0.2102)  dis= 0.00235  next Energy= -1289.833245 (dE=-0.127E-02)
 bond charge predicted
       N       E                     dE             d eps       ncg     rms          rms(c)
DAV:   1    -0.128084201934E+04    0.40252E-04   -0.87374E-02  2328   0.578E-01    0.108E-01
RMM:   2    -0.128084220034E+04   -0.18101E-03   -0.18660E-03  2554   0.863E-02    0.143E-01
RMM:   3    -0.128084242142E+04   -0.22108E-03   -0.37128E-04  2510   0.404E-02    0.322E-01
RMM:   4    -0.128084218939E+04    0.23203E-03   -0.17099E-04  2490   0.261E-02    0.944E-02
RMM:   5    -0.128084223202E+04   -0.42629E-04   -0.55062E-05  2072   0.162E-02    0.539E-02
RMM:   6    -0.128084225747E+04   -0.25451E-04   -0.32701E-05  2094   0.113E-02    0.712E-02
RMM:   7    -0.128084224750E+04    0.99695E-05   -0.29947E-05  1973   0.113E-02    0.425E-02
RMM:   8    -0.128084225540E+04   -0.79034E-05   -0.12403E-05  1644   0.744E-03    0.396E-02
RMM:   9    -0.128084225213E+04    0.32707E-05   -0.64426E-06  1533   0.595E-03    0.169E-02
RMM:  10    -0.128084225308E+04   -0.94558E-06   -0.17279E-06  1390   0.308E-03
  19 F= -.12898333E+04 E0= -.12898278E+04  d E =-.128576E-02  mag=    16.9998
 curvature:  -0.38 expect dE=-0.251E-02 dE for cont linesearch -0.111E-05
 trial: gam= 0.57596 g(F)=  0.667E-02 g(S)=  0.000E+00 ort = 0.359E-03 (trialstep = 0.136E+00)
 search vector abs. value=  0.216E-01
 bond charge predicted
       N       E                     dE             d eps       ncg     rms          rms(c)
DAV:   1    -0.128084265679E+04   -0.40466E-03   -0.10557E-01  2220   0.622E-01    0.112E-01
RMM:   2    -0.128084292974E+04   -0.27295E-03   -0.21775E-03  2588   0.926E-02    0.189E-01
RMM:   3    -0.128084304444E+04   -0.11469E-03   -0.44856E-04  2531   0.431E-02    0.295E-01
RMM:   4    -0.128084293270E+04    0.11174E-03   -0.24049E-04  2541   0.292E-02    0.155E-01
RMM:   5    -0.128084291316E+04    0.19538E-04   -0.89166E-05  2126   0.192E-02    0.400E-02
RMM:   6    -0.128084293475E+04   -0.21583E-04   -0.24772E-05  2060   0.933E-03    0.476E-02
RMM:   7    -0.128084293592E+04   -0.11750E-05   -0.19021E-05  1887   0.891E-03    0.351E-02
RMM:   8    -0.128084294175E+04   -0.58331E-05   -0.12001E-05  1731   0.717E-03    0.356E-02
RMM:   9    -0.128084293999E+04    0.17674E-05   -0.66536E-06  1506   0.564E-03    0.232E-02
RMM:  10    -0.128084293986E+04    0.12738E-06   -0.24112E-06  1407   0.360E-03
  20 F= -.12898340E+04 E0= -.12898285E+04  d E =-.739453E-03  mag=    16.9998
 trial-energy change:   -0.000739  1 .order   -0.000737   -0.000934   -0.000540
 step:   0.3214(harm=  0.3214)  dis= 0.00333  next Energy= -1289.834365 (dE=-0.111E-02)
 bond charge predicted
       N       E                     dE             d eps       ncg     rms          rms(c)
DAV:   1    -0.128084270654E+04    0.23345E-03   -0.19719E-01  2244   0.850E-01    0.153E-01
RMM:   2    -0.128084324424E+04   -0.53770E-03   -0.40663E-03  2579   0.127E-01    0.266E-01
RMM:   3    -0.128084341433E+04   -0.17009E-03   -0.84553E-04  2532   0.595E-02    0.386E-01
RMM:   4    -0.128084325317E+04    0.16116E-03   -0.45335E-04  2600   0.398E-02    0.226E-01
RMM:   5    -0.128084318265E+04    0.70521E-04   -0.16931E-04  2248   0.263E-02    0.563E-02
RMM:   6    -0.128084321968E+04   -0.37024E-04   -0.48951E-05  2246   0.129E-02    0.674E-02
RMM:   7    -0.128084321732E+04    0.23540E-05   -0.34836E-05  2042   0.118E-02    0.454E-02
RMM:   8    -0.128084322825E+04   -0.10930E-04   -0.22631E-05  1961   0.955E-03    0.521E-02
RMM:   9    -0.128084322318E+04    0.50742E-05   -0.12307E-05  1605   0.736E-03    0.312E-02
RMM:  10    -0.128084322310E+04    0.75866E-07   -0.43851E-06  1472   0.468E-03
  21 F= -.12898344E+04 E0= -.12898288E+04  d E =-.109482E-02  mag=    16.9998
 curvature:  -0.50 expect dE=-0.278E-02 dE for cont linesearch -0.882E-07
 trial: gam= 0.87294 g(F)=  0.551E-02 g(S)=  0.000E+00 ort =-0.615E-04 (trialstep = 0.171E+00)
 search vector abs. value=  0.219E-01
 bond charge predicted
       N       E                     dE             d eps       ncg     rms          rms(c)
DAV:   1    -0.128084344883E+04   -0.22565E-03   -0.16110E-01  2292   0.761E-01    0.137E-01
RMM:   2    -0.128084378432E+04   -0.33549E-03   -0.30987E-03  2548   0.114E-01    0.168E-01
RMM:   3    -0.128084422828E+04   -0.44396E-03   -0.71630E-04  2534   0.532E-02    0.444E-01
RMM:   4    -0.128084376898E+04    0.45930E-03   -0.30771E-04  2575   0.348E-02    0.115E-01
RMM:   5    -0.128084384004E+04   -0.71063E-04   -0.88452E-05  2148   0.197E-02    0.501E-02
RMM:   6    -0.128084387215E+04   -0.32102E-04   -0.26414E-05  2139   0.955E-03    0.490E-02
RMM:   7    -0.128084387906E+04   -0.69100E-05   -0.24592E-05  1873   0.989E-03    0.476E-02
RMM:   8    -0.128084388265E+04   -0.35941E-05   -0.13504E-05  1812   0.790E-03    0.326E-02
RMM:   9    -0.128084388292E+04   -0.26549E-06   -0.80127E-06  1555   0.617E-03
  22 F= -.12898351E+04 E0= -.12898295E+04  d E =-.711464E-03  mag=    16.9998
 trial-energy change:   -0.000711  1 .order   -0.000716   -0.000932   -0.000499
 step:   0.3987(harm=  0.3678)  dis= 0.00454  next Energy= -1289.835388 (dE=-0.103E-02)
 bond charge predicted
       N       E                     dE             d eps       ncg     rms          rms(c)
DAV:   1    -0.128084330203E+04    0.58062E-03   -0.28611E-01  2232   0.101E+00    0.182E-01
RMM:   2    -0.128084395131E+04   -0.64928E-03   -0.55190E-03  2541   0.152E-01    0.267E-01
RMM:   3    -0.128084463870E+04   -0.68739E-03   -0.13047E-03  2536   0.717E-02    0.573E-01
RMM:   4    -0.128084392623E+04    0.71248E-03   -0.55390E-04  2613   0.467E-02    0.154E-01
RMM:   5    -0.128084400083E+04   -0.74604E-04   -0.15490E-04  2264   0.255E-02    0.694E-02
RMM:   6    -0.128084405417E+04   -0.53341E-04   -0.50372E-05  2294   0.133E-02    0.784E-02
RMM:   7    -0.128084405659E+04   -0.24229E-05   -0.41841E-05  2035   0.131E-02    0.629E-02
RMM:   8    -0.128084406685E+04   -0.10253E-04   -0.25957E-05  2008   0.102E-02    0.544E-02
RMM:   9    -0.128084406158E+04    0.52683E-05   -0.16129E-05  1644   0.841E-03    0.293E-02
RMM:  10    -0.128084406388E+04   -0.23071E-05   -0.36291E-06  1483   0.450E-03    0.167E-02
RMM:  11    -0.128084406465E+04   -0.76107E-06   -0.18819E-06  1405   0.323E-03
  23 F= -.12898353E+04 E0= -.12898298E+04  d E =-.962253E-03  mag=    16.9998
 curvature:  -0.72 expect dE=-0.471E-02 dE for cont linesearch -0.111E-04
 trial: gam= 1.23013 g(F)=  0.654E-02 g(S)=  0.000E+00 ort =-0.582E-03 (trialstep = 0.124E+00)
 search vector abs. value=  0.382E-01
 bond charge predicted
       N       E                     dE             d eps       ncg     rms          rms(c)
DAV:   1    -0.128084423277E+04   -0.16889E-03   -0.15331E-01  2268   0.743E-01    0.126E-01
RMM:   2    -0.128084461744E+04   -0.38467E-03   -0.29410E-03  2530   0.108E-01    0.216E-01
RMM:   3    -0.128084478053E+04   -0.16308E-03   -0.63046E-04  2516   0.504E-02    0.344E-01
RMM:   4    -0.128084462290E+04    0.15763E-03   -0.31878E-04  2574   0.334E-02    0.172E-01
RMM:   5    -0.128084460152E+04    0.21379E-04   -0.11304E-04  2154   0.213E-02    0.419E-02
RMM:   6    -0.128084462464E+04   -0.23123E-04   -0.25565E-05  2062   0.922E-03    0.459E-02
RMM:   7    -0.128084462885E+04   -0.42037E-05   -0.19317E-05  1857   0.893E-03    0.381E-02
RMM:   8    -0.128084463713E+04   -0.82879E-05   -0.13473E-05  1830   0.730E-03    0.402E-02
RMM:   9    -0.128084463573E+04    0.13998E-05   -0.78263E-06  1557   0.594E-03    0.225E-02
RMM:  10    -0.128084463723E+04   -0.14962E-05   -0.20174E-06  1405   0.349E-03    0.764E-03
RMM:  11    -0.128084463860E+04   -0.13660E-05   -0.70521E-07  1302   0.207E-03    0.782E-03
RMM:  12    -0.128084463920E+04   -0.60816E-06   -0.41069E-07  1250   0.156E-03
  24 F= -.12898359E+04 E0= -.12898303E+04  d E =-.627084E-03  mag=    16.9998
 trial-energy change:   -0.000627  1 .order   -0.000620   -0.000722   -0.000518
 step:   0.3289(harm=  0.4398)  dis= 0.00492  next Energy= -1289.836403 (dE=-0.109E-02)
 bond charge predicted
       N       E                     dE             d eps       ncg     rms          rms(c)
DAV:   1    -0.128084404146E+04    0.59714E-03   -0.41951E-01  2160   0.123E+00    0.207E-01
RMM:   2    -0.128084509819E+04   -0.10567E-02   -0.80006E-03  2535   0.178E-01    0.342E-01
RMM:   3    -0.128084561155E+04   -0.51336E-03   -0.16990E-03  2536   0.828E-02    0.564E-01
RMM:   4    -0.128084513283E+04    0.47872E-03   -0.84966E-04  2628   0.547E-02    0.266E-01
RMM:   5    -0.128084505973E+04    0.73094E-04   -0.29314E-04  2296   0.340E-02    0.742E-02
RMM:   6    -0.128084510632E+04   -0.46582E-04   -0.67654E-05  2352   0.144E-02    0.733E-02
RMM:   7    -0.128084511468E+04   -0.83617E-05   -0.53164E-05  2150   0.140E-02    0.629E-02
RMM:   8    -0.128084512519E+04   -0.10515E-04   -0.29113E-05  2058   0.112E-02    0.489E-02
RMM:   9    -0.128084512899E+04   -0.37990E-05   -0.17832E-05  1702   0.885E-03    0.472E-02
RMM:  10    -0.128084512553E+04    0.34649E-05   -0.70231E-06  1553   0.600E-03    0.156E-02
RMM:  11    -0.128084512784E+04   -0.23116E-05   -0.19446E-06  1418   0.330E-03    0.102E-02
RMM:  12    -0.128084512931E+04   -0.14677E-05   -0.85409E-07  1312   0.220E-03    0.103E-02
RMM:  13    -0.128084513083E+04   -0.15233E-05   -0.10513E-06  1348   0.233E-03    0.119E-02
RMM:  14    -0.128084513252E+04   -0.16875E-05   -0.62577E-07  1268   0.193E-03    0.533E-03
RMM:  15    -0.128084513341E+04   -0.89601E-06   -0.32466E-07  1213   0.135E-03
  25 F= -.12898365E+04 E0= -.12898308E+04  d E =-.120832E-02  mag=    16.9998
 curvature:  -1.26 expect dE=-0.595E-02 dE for cont linesearch -0.704E-04
 ZBRENT: increasing intervall
 opt :   0.7388  next Energy= -1289.836005 (dE=-0.689E-03)
 bond charge predicted
       N       E                     dE             d eps       ncg     rms          rms(c)
DAV:   1    -0.128084008834E+04    0.50442E-02   -0.16778E+00  2160   0.246E+00    0.413E-01
RMM:   2    -0.128084447679E+04   -0.43884E-02   -0.31871E-02  2545   0.354E-01    0.701E-01
RMM:   3    -0.128084644164E+04   -0.19648E-02   -0.66877E-03  2543   0.164E-01    0.103E+00
RMM:   4    -0.128084471654E+04    0.17251E-02   -0.32926E-03  2667   0.107E-01    0.491E-01
RMM:   5    -0.128084426954E+04    0.44700E-03   -0.10769E-03  2410   0.644E-02    0.187E-01
RMM:   6    -0.128084437892E+04   -0.10939E-03   -0.26815E-04  2561   0.278E-02    0.148E-01
RMM:   7    -0.128084440654E+04   -0.27619E-04   -0.21637E-04  2425   0.277E-02    0.130E-01
RMM:   8    -0.128084442541E+04   -0.18870E-04   -0.99614E-05  2383   0.198E-02    0.856E-02
RMM:   9    -0.128084444098E+04   -0.15572E-04   -0.60459E-05  2079   0.160E-02    0.881E-02
RMM:  10    -0.128084442967E+04    0.11311E-04   -0.29715E-05  1819   0.109E-02    0.451E-02
RMM:  11    -0.128084443271E+04   -0.30341E-05   -0.11757E-05  1589   0.743E-03    0.240E-02
RMM:  12    -0.128084443740E+04   -0.46987E-05   -0.51246E-06  1529   0.489E-03    0.287E-02
RMM:  13    -0.128084443885E+04   -0.14421E-05   -0.41975E-06  1509   0.463E-03    0.171E-02
RMM:  14    -0.128084444378E+04   -0.49299E-05   -0.14791E-06  1391   0.291E-03    0.793E-03
RMM:  15    -0.128084444600E+04   -0.22243E-05   -0.63986E-07  1302   0.189E-03    0.822E-03
RMM:  16    -0.128084444637E+04   -0.37358E-06   -0.39068E-07  1224   0.145E-03
  26 F= -.12898360E+04 E0= -.12898302E+04  d E =-.695788E-03  mag=    16.9998
 curvature:   9.32 expect dE= 0.167E+00 dE for cont linesearch  0.376E-02
 ZBRENT: bracketing found
 ZBRENT: interpolating
 opt :   0.4399  next Energy= -1289.836605 (dE=-0.129E-02)
 bond charge predicted
       N       E                     dE             d eps       ncg     rms          rms(c)
DAV:   1    -0.128084283054E+04    0.16155E-02   -0.89157E-01  2160   0.179E+00    0.303E-01
RMM:   2    -0.128084509287E+04   -0.22623E-02   -0.17196E-02  2541   0.261E-01    0.425E-01
RMM:   3    -0.128084655382E+04   -0.14609E-02   -0.36572E-03  2540   0.120E-01    0.107E+00
RMM:   4    -0.128084495669E+04    0.15971E-02   -0.18584E-03  2642   0.823E-02    0.423E-01
RMM:   5    -0.128084505079E+04   -0.94097E-04   -0.78138E-04  2323   0.571E-02    0.117E-01
RMM:   6    -0.128084512587E+04   -0.75077E-04   -0.13537E-04  2535   0.210E-02    0.968E-02
RMM:   7    -0.128084516139E+04   -0.35521E-04   -0.11261E-04  2357   0.204E-02    0.106E-01
RMM:   8    -0.128084516436E+04   -0.29741E-05   -0.73697E-05  2260   0.172E-02    0.600E-02
RMM:   9    -0.128084517676E+04   -0.12397E-04   -0.31325E-05  1948   0.117E-02    0.613E-02
RMM:  10    -0.128084516744E+04    0.93204E-05   -0.12468E-05  1616   0.758E-03    0.319E-02
RMM:  11    -0.128084516915E+04   -0.17143E-05   -0.43012E-06  1501   0.470E-03    0.187E-02
RMM:  12    -0.128084517104E+04   -0.18849E-05   -0.19467E-06  1426   0.309E-03    0.151E-02
RMM:  13    -0.128084517236E+04   -0.13197E-05   -0.14764E-06  1373   0.274E-03    0.111E-02
RMM:  14    -0.128084517370E+04   -0.13407E-05   -0.77963E-07  1298   0.213E-03    0.597E-03
RMM:  15    -0.128084517425E+04   -0.55353E-06   -0.40203E-07  1241   0.153E-03
  27 F= -.12898366E+04 E0= -.12898309E+04  d E =-.129640E-02  mag=    16.9998
 curvature:  -0.20 expect dE=-0.133E-02 dE for cont linesearch -0.732E-08
 trial: gam= 0.76467 g(F)=  0.660E-02 g(S)=  0.000E+00 ort = 0.373E-04 (trialstep = 0.187E+00)
 search vector abs. value=  0.290E-01
 bond charge predicted
       N       E                     dE             d eps       ncg     rms          rms(c)
DAV:   1    -0.128084532366E+04   -0.14996E-03   -0.25065E-01  2268   0.980E-01    0.157E-01
RMM:   2    -0.128084594199E+04   -0.61833E-03   -0.53806E-03  2510   0.144E-01    0.284E-01
RMM:   3    -0.128084622379E+04   -0.28180E-03   -0.96470E-04  2501   0.647E-02    0.444E-01
RMM:   4    -0.128084589904E+04    0.32475E-03   -0.44017E-04  2633   0.410E-02    0.148E-01
RMM:   5    -0.128084592159E+04   -0.22555E-04   -0.13601E-04  2221   0.236E-02    0.729E-02
RMM:   6    -0.128084595732E+04   -0.35733E-04   -0.50720E-05  2256   0.137E-02    0.738E-02
RMM:   7    -0.128084596977E+04   -0.12450E-04   -0.60924E-05  2136   0.158E-02    0.828E-02
RMM:   8    -0.128084596164E+04    0.81360E-05   -0.28076E-05  1955   0.113E-02    0.398E-02
RMM:   9    -0.128084596521E+04   -0.35765E-05   -0.13197E-05  1631   0.782E-03    0.340E-02
RMM:  10    -0.128084596384E+04    0.13760E-05   -0.44582E-06  1502   0.505E-03    0.138E-02
RMM:  11    -0.128084596484E+04   -0.10003E-05   -0.15294E-06  1395   0.296E-03    0.120E-02
RMM:  12    -0.128084596516E+04   -0.31864E-06   -0.78508E-07  1296   0.210E-03
  28 F= -.12898375E+04 E0= -.12898318E+04  d E =-.880885E-03  mag=    16.9998
 trial-energy change:   -0.000881  1 .order   -0.000882   -0.001241   -0.000522
 step:   0.3232(harm=  0.3232)  dis= 0.00349  next Energy= -1289.837684 (dE=-0.107E-02)
 bond charge predicted
       N       E                     dE             d eps       ncg     rms          rms(c)
DAV:   1    -0.128084575422E+04    0.21062E-03   -0.13259E-01  2220   0.713E-01    0.115E-01
RMM:   2    -0.128084608637E+04   -0.33214E-03   -0.28661E-03  2503   0.105E-01    0.223E-01
RMM:   3    -0.128084620268E+04   -0.11632E-03   -0.51517E-04  2504   0.473E-02    0.320E-01
RMM:   4    -0.128084605211E+04    0.15058E-03   -0.23774E-04  2547   0.303E-02    0.111E-01
RMM:   5    -0.128084606618E+04   -0.14074E-04   -0.74069E-05  2104   0.175E-02    0.519E-02
RMM:   6    -0.128084608873E+04   -0.22548E-04   -0.27338E-05  2117   0.101E-02    0.531E-02
RMM:   7    -0.128084609637E+04   -0.76425E-05   -0.32761E-05  1972   0.115E-02    0.596E-02
RMM:   8    -0.128084609236E+04    0.40078E-05   -0.13833E-05  1692   0.828E-03    0.255E-02
RMM:   9    -0.128084609579E+04   -0.34299E-05   -0.64767E-06  1548   0.575E-03    0.266E-02
RMM:  10    -0.128084609472E+04    0.10747E-05   -0.21859E-06  1410   0.366E-03    0.853E-03
RMM:  11    -0.128084609580E+04   -0.10801E-05   -0.72616E-07  1300   0.207E-03    0.909E-03
RMM:  12    -0.128084609617E+04   -0.37305E-06   -0.48014E-07  1252   0.173E-03
  29 F= -.12898377E+04 E0= -.12898319E+04  d E =-.107719E-02  mag=    16.9998
 curvature:  -0.71 expect dE=-0.798E-02 dE for cont linesearch -0.594E-07
 trial: gam= 1.75285 g(F)=  0.113E-01 g(S)=  0.000E+00 ort = 0.494E-04 (trialstep = 0.618E-01)
 search vector abs. value=  0.101E+00
 bond charge predicted
       N       E                     dE             d eps       ncg     rms          rms(c)
DAV:   1    -0.128084639541E+04   -0.29961E-03   -0.90201E-02  2172   0.594E-01    0.914E-02
RMM:   2    -0.128084661283E+04   -0.21742E-03   -0.19692E-03  2528   0.876E-02    0.171E-01
RMM:   3    -0.128084672559E+04   -0.11276E-03   -0.35531E-04  2504   0.386E-02    0.281E-01
RMM:   4    -0.128084658102E+04    0.14457E-03   -0.14506E-04  2496   0.242E-02    0.703E-02
RMM:   5    -0.128084661350E+04   -0.32474E-04   -0.38015E-05  1984   0.131E-02    0.412E-02
RMM:   6    -0.128084663083E+04   -0.17330E-04   -0.15061E-05  1979   0.803E-03    0.392E-02
RMM:   7    -0.128084663783E+04   -0.70025E-05   -0.16962E-05  1770   0.857E-03    0.474E-02
RMM:   8    -0.128084663642E+04    0.14055E-05   -0.84903E-06  1616   0.664E-03    0.180E-02
RMM:   9    -0.128084663921E+04   -0.27899E-05   -0.39225E-06  1470   0.449E-03    0.212E-02
RMM:  10    -0.128084663806E+04    0.11506E-05   -0.14212E-06  1360   0.302E-03    0.834E-03
RMM:  11    -0.128084663888E+04   -0.81546E-06   -0.43380E-07  1257   0.159E-03
  30 F= -.12898383E+04 E0= -.12898326E+04  d E =-.614294E-03  mag=    16.9998
 trial-energy change:   -0.000614  1 .order   -0.000609   -0.000703   -0.000515
 step:   0.1761(harm=  0.2302)  dis= 0.00413  next Energy= -1289.838813 (dE=-0.112E-02)
 bond charge predicted
       N       E                     dE             d eps       ncg     rms          rms(c)
DAV:   1    -0.128084631367E+04    0.32439E-03   -0.30842E-01  2172   0.110E+00    0.169E-01
RMM:   2    -0.128084709248E+04   -0.77881E-03   -0.67273E-03  2528   0.162E-01    0.323E-01
RMM:   3    -0.128084745143E+04   -0.35894E-03   -0.12065E-03  2511   0.714E-02    0.494E-01
RMM:   4    -0.128084701770E+04    0.43373E-03   -0.48849E-04  2652   0.441E-02    0.138E-01
RMM:   5    -0.128084707210E+04   -0.54396E-04   -0.12844E-04  2290   0.233E-02    0.819E-02
RMM:   6    -0.128084712091E+04   -0.48808E-04   -0.58283E-05  2307   0.145E-02    0.929E-02
RMM:   7    -0.128084712190E+04   -0.99164E-06   -0.56433E-05  2124   0.148E-02    0.772E-02
RMM:   8    -0.128084712771E+04   -0.58086E-05   -0.27119E-05  2011   0.108E-02    0.452E-02
RMM:   9    -0.128084712972E+04   -0.20167E-05   -0.16693E-05  1642   0.836E-03    0.360E-02
RMM:  10    -0.128084712869E+04    0.10293E-05   -0.46171E-06  1508   0.499E-03    0.158E-02
RMM:  11    -0.128084712956E+04   -0.86193E-06   -0.17685E-06  1397   0.305E-03
  31 F= -.12898389E+04 E0= -.12898332E+04  d E =-.123710E-02  mag=    16.9998
 curvature:  -0.91 expect dE=-0.303E-02 dE for cont linesearch -0.614E-04
 ZBRENT: extrapolating
 opt :   0.2280  next Energy= -1289.838994 (dE=-0.130E-02)
 bond charge predicted
       N       E                     dE             d eps       ncg     rms          rms(c)
DAV:   1    -0.128084696792E+04    0.16078E-03   -0.63656E-02  2292   0.500E-01    0.777E-02
RMM:   2    -0.128084713240E+04   -0.16448E-03   -0.14049E-03  2525   0.744E-02    0.165E-01
RMM:   3    -0.128084717661E+04   -0.44210E-04   -0.25563E-04  2507   0.328E-02    0.222E-01
RMM:   4    -0.128084710616E+04    0.70454E-04   -0.10881E-04  2397   0.208E-02    0.721E-02
RMM:   5    -0.128084712019E+04   -0.14034E-04   -0.31528E-05  1887   0.119E-02    0.354E-02
RMM:   6    -0.128084713402E+04   -0.13833E-04   -0.12492E-05  1853   0.727E-03    0.383E-02
RMM:   7    -0.128084713606E+04   -0.20342E-05   -0.12645E-05  1692   0.784E-03    0.350E-02
RMM:   8    -0.128084713905E+04   -0.29962E-05   -0.89650E-06  1616   0.668E-03    0.276E-02
RMM:   9    -0.128084713912E+04   -0.69449E-07   -0.47849E-06  1509   0.528E-03
  32 F= -.12898390E+04 E0= -.12898332E+04  d E =-.130657E-02  mag=    16.9998
 curvature:  -1.00 expect dE=-0.469E-02 dE for cont linesearch -0.210E-06
 trial: gam= 0.42826 g(F)=  0.467E-02 g(S)=  0.000E+00 ort = 0.145E-03 (trialstep = 0.950E-01)
 search vector abs. value=  0.232E-01
 bond charge predicted
       N       E                     dE             d eps       ncg     rms          rms(c)
DAV:   1    -0.128084732857E+04   -0.18952E-03   -0.48614E-02  2208   0.437E-01    0.628E-02
RMM:   2    -0.128084745406E+04   -0.12548E-03   -0.10762E-03  2542   0.639E-02    0.146E-01
RMM:   3    -0.128084747110E+04   -0.17047E-04   -0.18521E-04  2498   0.273E-02    0.176E-01
RMM:   4    -0.128084743396E+04    0.37142E-04   -0.68229E-05  2307   0.168E-02    0.618E-02
RMM:   5    -0.128084744293E+04   -0.89673E-05   -0.18306E-05  1736   0.971E-03    0.272E-02
RMM:   6    -0.128084745314E+04   -0.10210E-04   -0.69518E-06  1645   0.547E-03    0.266E-02
RMM:   7    -0.128084745610E+04   -0.29617E-05   -0.71702E-06  1574   0.599E-03    0.259E-02
RMM:   8    -0.128084745954E+04   -0.34363E-05   -0.60891E-06  1548   0.547E-03    0.252E-02
RMM:   9    -0.128084745887E+04    0.67144E-06   -0.34228E-06  1458   0.449E-03
  33 F= -.12898394E+04 E0= -.12898336E+04  d E =-.406539E-03  mag=    16.9998
 ZBRENT: can't locate minimum, use default step
 trial-energy change:   -0.000407  1 .order   -0.000412   -0.000450   -0.000374
 step:   0.3802(harm=  0.5611)  dis= 0.00428  next Energy= -1289.840324 (dE=-0.133E-02)
 bond charge predicted
       N       E                     dE             d eps       ncg     rms          rms(c)
DAV:   1    -0.128084679202E+04    0.66752E-03   -0.43776E-01  2160   0.131E+00    0.185E-01
RMM:   2    -0.128084783842E+04   -0.10464E-02   -0.95389E-03  2544   0.188E-01    0.321E-01
RMM:   3    -0.128084845343E+04   -0.61501E-03   -0.16272E-03  2527   0.806E-02    0.585E-01
RMM:   4    -0.128084774771E+04    0.70572E-03   -0.57187E-04  2682   0.480E-02    0.128E-01
RMM:   5    -0.128084786885E+04   -0.12114E-03   -0.13167E-04  2320   0.235E-02    0.865E-02
RMM:   6    -0.128084791167E+04   -0.42819E-04   -0.55167E-05  2286   0.148E-02    0.720E-02
RMM:   7    -0.128084794449E+04   -0.32827E-04   -0.61281E-05  2184   0.155E-02    0.947E-02
RMM:   8    -0.128084793611E+04    0.83857E-05   -0.43660E-05  2070   0.133E-02    0.550E-02
RMM:   9    -0.128084794046E+04   -0.43496E-05   -0.23746E-05  1779   0.100E-02    0.488E-02
RMM:  10    -0.128084793737E+04    0.30845E-05   -0.86010E-06  1544   0.612E-03    0.261E-02
RMM:  11    -0.128084793833E+04   -0.96282E-06   -0.34015E-06  1454   0.414E-03
  34 F= -.12898401E+04 E0= -.12898343E+04  d E =-.114608E-02  mag=    16.9998
 curvature:  -1.17 expect dE=-0.232E-02 dE for cont linesearch -0.936E-04
 ZBRENT: increasing intervall
 opt :   0.9504  next Energy= -1289.839455 (dE=-0.459E-03)
 bond charge predicted
       N       E                     dE             d eps       ncg     rms          rms(c)
DAV:   1    -0.128084215620E+04    0.57812E-02   -0.17523E+00  2160   0.262E+00    0.367E-01
RMM:   2    -0.128084630287E+04   -0.41467E-02   -0.38080E-02  2553   0.375E-01    0.543E-01
RMM:   3    -0.128084922890E+04   -0.29260E-02   -0.64511E-03  2533   0.160E-01    0.110E+00
RMM:   4    -0.128084627939E+04    0.29495E-02   -0.22189E-03  2718   0.936E-02    0.265E-01
RMM:   5    -0.128084656124E+04   -0.28186E-03   -0.49284E-04  2492   0.436E-02    0.171E-01
RMM:   6    -0.128084666908E+04   -0.10783E-03   -0.22170E-04  2511   0.286E-02    0.147E-01
RMM:   7    -0.128084677105E+04   -0.10197E-03   -0.22579E-04  2430   0.292E-02    0.178E-01
RMM:   8    -0.128084672759E+04    0.43457E-04   -0.16403E-04  2364   0.246E-02    0.979E-02
RMM:   9    -0.128084675161E+04   -0.24017E-04   -0.92116E-05  2238   0.191E-02    0.886E-02
RMM:  10    -0.128084673293E+04    0.18683E-04   -0.31416E-05  1809   0.117E-02    0.491E-02
RMM:  11    -0.128084673485E+04   -0.19214E-05   -0.13211E-05  1609   0.739E-03    0.265E-02
RMM:  12    -0.128084673850E+04   -0.36482E-05   -0.54730E-06  1518   0.495E-03    0.255E-02
RMM:  13    -0.128084673898E+04   -0.48502E-06   -0.36083E-06  1471   0.421E-03
  35 F= -.12898395E+04 E0= -.12898336E+04  d E =-.465785E-03  mag=    16.9998
 curvature:   8.59 expect dE= 0.110E+00 dE for cont linesearch  0.521E-02
 ZBRENT: bracketing found
 ZBRENT: interpolating
 opt :   0.5321  next Energy= -1289.840246 (dE=-0.125E-02)
 bond charge predicted
       N       E                     dE             d eps       ncg     rms          rms(c)
DAV:   1    -0.128084543062E+04    0.13079E-02   -0.94266E-01  2160   0.192E+00    0.269E-01
RMM:   2    -0.128084761568E+04   -0.21851E-02   -0.20593E-02  2548   0.275E-01    0.352E-01
RMM:   3    -0.128084981185E+04   -0.21962E-02   -0.34624E-03  2517   0.118E-01    0.130E+00
RMM:   4    -0.128084696897E+04    0.28429E-02   -0.15762E-03  2644   0.808E-02    0.147E-01
RMM:   5    -0.128084779220E+04   -0.82323E-03   -0.43422E-04  2370   0.463E-02    0.151E-01
RMM:   6    -0.128084785498E+04   -0.62781E-04   -0.13016E-04  2466   0.237E-02    0.117E-01
RMM:   7    -0.128084793200E+04   -0.77025E-04   -0.14188E-04  2329   0.231E-02    0.151E-01
RMM:   8    -0.128084788604E+04    0.45959E-04   -0.10056E-04  2263   0.199E-02    0.105E-01
RMM:   9    -0.128084789926E+04   -0.13215E-04   -0.49969E-05  2057   0.141E-02    0.102E-01
RMM:  10    -0.128084789305E+04    0.62099E-05   -0.19662E-05  1707   0.918E-03    0.619E-02
RMM:  11    -0.128084789652E+04   -0.34698E-05   -0.90062E-06  1569   0.639E-03    0.351E-02
RMM:  12    -0.128084790034E+04   -0.38185E-05   -0.36895E-06  1479   0.422E-03    0.202E-02
RMM:  13    -0.128084790289E+04   -0.25516E-05   -0.18058E-06  1382   0.305E-03    0.842E-03
RMM:  14    -0.128084790500E+04   -0.21094E-05   -0.57503E-07  1278   0.188E-03    0.493E-03
RMM:  15    -0.128084790600E+04   -0.99542E-06   -0.43954E-07  1249   0.160E-03
  36 F= -.12898402E+04 E0= -.12898344E+04  d E =-.125214E-02  mag=    16.9998
 curvature:  -0.17 expect dE=-0.532E-03 dE for cont linesearch -0.960E-08
 trial: gam= 0.66118 g(F)=  0.312E-02 g(S)=  0.000E+00 ort = 0.362E-04 (trialstep = 0.182E+00)
 search vector abs. value=  0.133E-01
 bond charge predicted
       N       E                     dE             d eps       ncg     rms          rms(c)
DAV:   1    -0.128084789778E+04    0.72181E-05   -0.11211E-01  2280   0.665E-01    0.970E-02
RMM:   2    -0.128084813413E+04   -0.23635E-03   -0.24693E-03  2567   0.941E-02    0.117E-01
RMM:   3    -0.128084835813E+04   -0.22400E-03   -0.39677E-04  2501   0.415E-02    0.335E-01
RMM:   4    -0.128084810454E+04    0.25358E-03   -0.17100E-04  2543   0.259E-02    0.798E-02
RMM:   5    -0.128084816160E+04   -0.57056E-04   -0.53226E-05  2041   0.157E-02    0.428E-02
RMM:   6    -0.128084817742E+04   -0.15823E-04   -0.16954E-05  2025   0.819E-03    0.401E-02
RMM:   7    -0.128084818379E+04   -0.63625E-05   -0.18736E-05  1824   0.915E-03    0.470E-02
RMM:   8    -0.128084818403E+04   -0.24522E-06   -0.11410E-05  1687   0.753E-03    0.298E-02
RMM:   9    -0.128084818409E+04   -0.63308E-07   -0.58572E-06  1529   0.562E-03
  37 F= -.12898407E+04 E0= -.12898348E+04  d E =-.438049E-03  mag=    16.9998
 trial-energy change:   -0.000438  1 .order   -0.000447   -0.000573   -0.000321
 step:   0.4137(harm=  0.4137)  dis= 0.00346  next Energy= -1289.840898 (dE=-0.650E-03)
 bond charge predicted
       N       E                     dE             d eps       ncg     rms          rms(c)
DAV:   1    -0.128084769800E+04    0.48603E-03   -0.18010E-01  2196   0.844E-01    0.124E-01
RMM:   2    -0.128084811988E+04   -0.42188E-03   -0.40043E-03  2561   0.120E-01    0.198E-01
RMM:   3    -0.128084837617E+04   -0.25629E-03   -0.65374E-04  2515   0.531E-02    0.394E-01
RMM:   4    -0.128084808606E+04    0.29011E-03   -0.28524E-04  2612   0.333E-02    0.124E-01
RMM:   5    -0.128084812699E+04   -0.40933E-04   -0.89892E-05  2139   0.202E-02    0.551E-02
RMM:   6    -0.128084815908E+04   -0.32082E-04   -0.36978E-05  2141   0.114E-02    0.730E-02
RMM:   7    -0.128084815144E+04    0.76400E-05   -0.29731E-05  1983   0.111E-02    0.443E-02
RMM:   8    -0.128084816539E+04   -0.13957E-04   -0.18714E-05  1916   0.877E-03    0.477E-02
RMM:   9    -0.128084815944E+04    0.59515E-05   -0.10222E-05  1551   0.685E-03    0.189E-02
RMM:  10    -0.128084816213E+04   -0.26850E-05   -0.24482E-06  1453   0.365E-03    0.156E-02
RMM:  11    -0.128084816180E+04    0.32414E-06   -0.10903E-06  1343   0.261E-03
  38 F= -.12898409E+04 E0= -.12898350E+04  d E =-.618460E-03  mag=    16.9998
 curvature:  -0.88 expect dE=-0.430E-02 dE for cont linesearch -0.754E-06
 trial: gam= 1.60645 g(F)=  0.491E-02 g(S)=  0.000E+00 ort =-0.107E-03 (trialstep = 0.782E-01)
 search vector abs. value=  0.390E-01
 bond charge predicted
       N       E                     dE             d eps       ncg     rms          rms(c)
DAV:   1    -0.128084818143E+04   -0.19307E-04   -0.57802E-02  2268   0.480E-01    0.732E-02
RMM:   2    -0.128084830386E+04   -0.12242E-03   -0.13050E-03  2591   0.703E-02    0.945E-02
RMM:   3    -0.128084843486E+04   -0.13100E-03   -0.22862E-04  2523   0.307E-02    0.263E-01
RMM:   4    -0.128084827849E+04    0.15637E-03   -0.90149E-05  2377   0.193E-02    0.512E-02
RMM:   5    -0.128084832426E+04   -0.45768E-04   -0.26486E-05  1877   0.115E-02    0.406E-02
RMM:   6    -0.128084833501E+04   -0.10757E-04   -0.11399E-05  1873   0.720E-03    0.360E-02
RMM:   7    -0.128084834015E+04   -0.51375E-05   -0.13916E-05  1694   0.808E-03    0.425E-02
RMM:   8    -0.128084833946E+04    0.69287E-06   -0.84279E-06  1580   0.657E-03
  39 F= -.12898412E+04 E0= -.12898353E+04  d E =-.299527E-03  mag=    16.9998
 trial-energy change:   -0.000300  1 .order   -0.000303   -0.000370   -0.000235
 step:   0.2136(harm=  0.2136)  dis= 0.00296  next Energy= -1289.841372 (dE=-0.506E-03)
 bond charge predicted
       N       E                     dE             d eps       ncg     rms          rms(c)
DAV:   1    -0.128084783464E+04    0.50552E-03   -0.17287E-01  2172   0.830E-01    0.129E-01
RMM:   2    -0.128084832705E+04   -0.49242E-03   -0.39476E-03  2544   0.124E-01    0.317E-01
RMM:   3    -0.128084836853E+04   -0.41474E-04   -0.71545E-04  2548   0.544E-02    0.331E-01
RMM:   4    -0.128084824949E+04    0.11904E-03   -0.24544E-04  2550   0.330E-02    0.121E-01
RMM:   5    -0.128084826456E+04   -0.15069E-04   -0.73552E-05  2152   0.185E-02    0.659E-02
RMM:   6    -0.128084828900E+04   -0.24441E-04   -0.32596E-05  2163   0.111E-02    0.614E-02
RMM:   7    -0.128084830256E+04   -0.13556E-04   -0.41715E-05  2023   0.129E-02    0.788E-02
RMM:   8    -0.128084829584E+04    0.67187E-05   -0.21710E-05  1859   0.965E-03    0.370E-02
RMM:   9    -0.128084829778E+04   -0.19398E-05   -0.10481E-05  1584   0.716E-03    0.286E-02
RMM:  10    -0.128084829719E+04    0.58300E-06   -0.37813E-06  1478   0.451E-03
  40 F= -.12898413E+04 E0= -.12898354E+04  d E =-.468045E-03  mag=    16.9998
 curvature:  -0.88 expect dE=-0.354E-02 dE for cont linesearch -0.236E-05
 trial: gam= 0.81788 g(F)=  0.403E-02 g(S)=  0.000E+00 ort =-0.323E-03 (trialstep = 0.105E+00)
 search vector abs. value=  0.296E-01
 bond charge predicted
       N       E                     dE             d eps       ncg     rms          rms(c)
DAV:   1    -0.128084827143E+04    0.26344E-04   -0.78935E-02  2316   0.558E-01    0.858E-02
RMM:   2    -0.128084848428E+04   -0.21285E-03   -0.17159E-03  2550   0.829E-02    0.210E-01
RMM:   3    -0.128084852229E+04   -0.38014E-04   -0.33360E-04  2553   0.361E-02    0.243E-01
RMM:   4    -0.128084844239E+04    0.79906E-04   -0.10243E-04  2439   0.216E-02    0.592E-02
RMM:   5    -0.128084846811E+04   -0.25719E-04   -0.24729E-05  1874   0.108E-02    0.423E-02
RMM:   6    -0.128084848084E+04   -0.12734E-04   -0.11344E-05  1839   0.704E-03    0.324E-02
RMM:   7    -0.128084848760E+04   -0.67592E-05   -0.12475E-05  1669   0.752E-03    0.374E-02
RMM:   8    -0.128084848928E+04   -0.16761E-05   -0.82374E-06  1588   0.636E-03    0.242E-02
RMM:   9    -0.128084849007E+04   -0.78874E-06   -0.49319E-06  1499   0.519E-03
  41 F= -.12898417E+04 E0= -.12898358E+04  d E =-.340612E-03  mag=    16.9998
 trial-energy change:   -0.000341  1 .order   -0.000344   -0.000396   -0.000291
 step:   0.3981(harm=  0.3981)  dis= 0.00475  next Energy= -1289.842084 (dE=-0.749E-03)
 bond charge predicted
       N       E                     dE             d eps       ncg     rms          rms(c)
DAV:   1    -0.128084677158E+04    0.17177E-02   -0.60966E-01  2160   0.155E+00    0.237E-01
RMM:   2    -0.128084842507E+04   -0.16535E-02   -0.13158E-02  2557   0.229E-01    0.525E-01
RMM:   3    -0.128084899002E+04   -0.56495E-03   -0.25303E-03  2569   0.995E-02    0.668E-01
RMM:   4    -0.128084828162E+04    0.70840E-03   -0.89235E-04  2632   0.613E-02    0.203E-01
RMM:   5    -0.128084831746E+04   -0.35839E-04   -0.22541E-04  2405   0.298E-02    0.111E-01
RMM:   6    -0.128084839668E+04   -0.79222E-04   -0.94370E-05  2454   0.172E-02    0.112E-01
RMM:   7    -0.128084840758E+04   -0.10897E-04   -0.78479E-05  2220   0.173E-02    0.942E-02
RMM:   8    -0.128084842287E+04   -0.15292E-04   -0.43709E-05  2144   0.131E-02    0.623E-02
RMM:   9    -0.128084842538E+04   -0.25089E-05   -0.33816E-05  1918   0.116E-02    0.501E-02
RMM:  10    -0.128084842364E+04    0.17381E-05   -0.84073E-06  1576   0.650E-03    0.198E-02
RMM:  11    -0.128084842610E+04   -0.24575E-05   -0.38560E-06  1478   0.436E-03    0.231E-02
RMM:  12    -0.128084842576E+04    0.33982E-06   -0.18540E-06  1392   0.313E-03
  42 F= -.12898420E+04 E0= -.12898361E+04  d E =-.686580E-03  mag=    16.9998
 curvature:  -1.56 expect dE=-0.681E-02 dE for cont linesearch -0.483E-05
 trial: gam= 1.03218 g(F)=  0.436E-02 g(S)=  0.000E+00 ort =-0.302E-03 (trialstep = 0.138E+00)
 search vector abs. value=  0.352E-01
 bond charge predicted
       N       E                     dE             d eps       ncg     rms          rms(c)
DAV:   1    -0.128084816712E+04    0.25898E-03   -0.17743E-01  2244   0.816E-01    0.126E-01
RMM:   2    -0.128084871210E+04   -0.54498E-03   -0.37480E-03  2536   0.117E-01    0.322E-01
RMM:   3    -0.128084864901E+04    0.63087E-04   -0.63769E-04  2521   0.526E-02    0.318E-01
RMM:   4    -0.128084862571E+04    0.23300E-04   -0.39031E-04  2576   0.371E-02    0.166E-01
RMM:   5    -0.128084858114E+04    0.44575E-04   -0.11636E-04  2164   0.217E-02    0.467E-02
RMM:   6    -0.128084860239E+04   -0.21256E-04   -0.32658E-05  2065   0.104E-02    0.562E-02
RMM:   7    -0.128084860198E+04    0.41488E-06   -0.20483E-05  1905   0.927E-03    0.371E-02
RMM:   8    -0.128084861385E+04   -0.11868E-04   -0.17932E-05  1874   0.848E-03    0.472E-02
RMM:   9    -0.128084860955E+04    0.42935E-05   -0.98212E-06  1604   0.710E-03    0.223E-02
RMM:  10    -0.128084861169E+04   -0.21383E-05   -0.33426E-06  1459   0.418E-03    0.992E-03
RMM:  11    -0.128084861279E+04   -0.10931E-05   -0.11904E-06  1348   0.267E-03    0.914E-03
RMM:  12    -0.128084861328E+04   -0.49423E-06   -0.56692E-07  1286   0.179E-03
  43 F= -.12898424E+04 E0= -.12898364E+04  d E =-.396006E-03  mag=    16.9998
 trial-energy change:   -0.000396  1 .order   -0.000393   -0.000556   -0.000230
 step:   0.2346(harm=  0.2346)  dis= 0.00342  next Energy= -1289.842496 (dE=-0.474E-03)
 bond charge predicted
       N       E                     dE             d eps       ncg     rms          rms(c)
DAV:   1    -0.128084832357E+04    0.28921E-03   -0.88378E-02  2220   0.576E-01    0.896E-02
RMM:   2    -0.128084860895E+04   -0.28538E-03   -0.18790E-03  2526   0.830E-02    0.254E-01
RMM:   3    -0.128084853126E+04    0.77696E-04   -0.32145E-04  2505   0.375E-02    0.214E-01
RMM:   4    -0.128084854810E+04   -0.16844E-04   -0.19808E-04  2480   0.266E-02    0.114E-01
RMM:   5    -0.128084852595E+04    0.22149E-04   -0.56257E-05  2006   0.150E-02    0.322E-02
RMM:   6    -0.128084853767E+04   -0.11722E-04   -0.15624E-05  1876   0.713E-03    0.370E-02
RMM:   7    -0.128084853873E+04   -0.10594E-05   -0.10406E-05  1657   0.692E-03    0.262E-02
RMM:   8    -0.128084854461E+04   -0.58778E-05   -0.81792E-06  1658   0.612E-03    0.315E-02
RMM:   9    -0.128084854318E+04    0.14305E-05   -0.48407E-06  1514   0.524E-03    0.175E-02
RMM:  10    -0.128084854413E+04   -0.94785E-06   -0.16731E-06  1377   0.313E-03
  44 F= -.12898425E+04 E0= -.12898365E+04  d E =-.473937E-03  mag=    16.9998
 curvature:  -1.02 expect dE=-0.216E-02 dE for cont linesearch -0.141E-07
 trial: gam= 0.42066 g(F)=  0.212E-02 g(S)=  0.000E+00 ort = 0.221E-04 (trialstep = 0.157E+00)
 search vector abs. value=  0.837E-02
 bond charge predicted
       N       E                     dE             d eps       ncg     rms          rms(c)
DAV:   1    -0.128084859463E+04   -0.51447E-04   -0.50953E-02  2232   0.439E-01    0.737E-02
RMM:   2    -0.128084872208E+04   -0.12745E-03   -0.10513E-03  2535   0.665E-02    0.148E-01
RMM:   3    -0.128084877587E+04   -0.53789E-04   -0.22222E-04  2527   0.302E-02    0.233E-01
RMM:   4    -0.128084870024E+04    0.75626E-04   -0.11398E-04  2383   0.212E-02    0.860E-02
RMM:   5    -0.128084870864E+04   -0.84020E-05   -0.36143E-05  1914   0.132E-02    0.289E-02
RMM:   6    -0.128084871963E+04   -0.10987E-04   -0.10102E-05  1717   0.622E-03    0.319E-02
RMM:   7    -0.128084872046E+04   -0.82863E-06   -0.61792E-06  1556   0.575E-03
  45 F= -.12898428E+04 E0= -.12898367E+04  d E =-.266503E-03  mag=    16.9998
 trial-energy change:   -0.000267  1 .order   -0.000280   -0.000334   -0.000226
 step:   0.4864(harm=  0.4864)  dis= 0.00319  next Energy= -1289.843013 (dE=-0.518E-03)
 bond charge predicted
       N       E                     dE             d eps       ncg     rms          rms(c)
DAV:   1    -0.128084815805E+04    0.56158E-03   -0.22436E-01  2172   0.920E-01    0.155E-01
RMM:   2    -0.128084873045E+04   -0.57239E-03   -0.46292E-03  2522   0.140E-01    0.280E-01
RMM:   3    -0.128084903257E+04   -0.30212E-03   -0.98802E-04  2527   0.637E-02    0.476E-01
RMM:   4    -0.128084867793E+04    0.35464E-03   -0.49823E-04  2617   0.436E-02    0.189E-01
RMM:   5    -0.128084868032E+04   -0.23906E-05   -0.16150E-04  2318   0.278E-02    0.690E-02
RMM:   6    -0.128084870814E+04   -0.27824E-04   -0.46681E-05  2167   0.127E-02    0.695E-02
RMM:   7    -0.128084870852E+04   -0.37907E-06   -0.26715E-05  2016   0.105E-02    0.406E-02
RMM:   8    -0.128084872176E+04   -0.13242E-04   -0.23851E-05  2031   0.965E-03    0.455E-02
RMM:   9    -0.128084872341E+04   -0.16523E-05   -0.16745E-05  1708   0.860E-03    0.420E-02
RMM:  10    -0.128084872030E+04    0.31166E-05   -0.74916E-06  1555   0.623E-03    0.143E-02
RMM:  11    -0.128084872259E+04   -0.22962E-05   -0.18017E-06  1414   0.329E-03    0.852E-03
RMM:  12    -0.128084872361E+04   -0.10113E-05   -0.83265E-07  1309   0.214E-03    0.939E-03
RMM:  13    -0.128084872482E+04   -0.12106E-05   -0.46283E-07  1266   0.168E-03    0.458E-03
RMM:  14    -0.128084872651E+04   -0.16952E-05   -0.26648E-07  1244   0.119E-03    0.476E-03
RMM:  15    -0.128084872762E+04   -0.11074E-05   -0.19902E-07  1214   0.107E-03    0.252E-03
RMM:  16    -0.128084872847E+04   -0.85498E-06   -0.91622E-08  1063   0.678E-04
  46 F= -.12898430E+04 E0= -.12898369E+04  d E =-.463669E-03  mag=    16.9998
 curvature:  -0.96 expect dE=-0.153E-02 dE for cont linesearch -0.350E-05
 trial: gam= 0.87017 g(F)=  0.160E-02 g(S)=  0.000E+00 ort =-0.175E-03 (trialstep = 0.223E+00)
 search vector abs. value=  0.763E-02
 bond charge predicted
       N       E                     dE             d eps       ncg     rms          rms(c)
DAV:   1    -0.128084866981E+04    0.57811E-04   -0.99020E-02  2208   0.603E-01    0.977E-02
RMM:   2    -0.128084894039E+04   -0.27058E-03   -0.19095E-03  2550   0.862E-02    0.218E-01
RMM:   3    -0.128084896427E+04   -0.23885E-04   -0.36878E-04  2523   0.392E-02    0.274E-01
RMM:   4    -0.128084890657E+04    0.57709E-04   -0.21530E-04  2501   0.280E-02    0.130E-01
RMM:   5    -0.128084889362E+04    0.12944E-04   -0.70895E-05  2043   0.172E-02    0.332E-02
RMM:   6    -0.128084890765E+04   -0.14030E-04   -0.17952E-05  1898   0.783E-03    0.391E-02
RMM:   7    -0.128084890844E+04   -0.78423E-06   -0.11695E-05  1725   0.729E-03    0.261E-02
RMM:   8    -0.128084891440E+04   -0.59635E-05   -0.82876E-06  1659   0.592E-03    0.290E-02
RMM:   9    -0.128084891374E+04    0.65874E-06   -0.48491E-06  1490   0.503E-03
  47 F= -.12898432E+04 E0= -.12898371E+04  d E =-.255848E-03  mag=    16.9998
 trial-energy change:   -0.000256  1 .order   -0.000262   -0.000323   -0.000202
 step:   0.5944(harm=  0.5944)  dis= 0.00344  next Energy= -1289.843389 (dE=-0.430E-03)
 bond charge predicted
       N       E                     dE             d eps       ncg     rms          rms(c)
DAV:   1    -0.128084824198E+04    0.67242E-03   -0.27510E-01  2160   0.101E+00    0.163E-01
RMM:   2    -0.128084898065E+04   -0.73867E-03   -0.52816E-03  2548   0.143E-01    0.330E-01
RMM:   3    -0.128084914543E+04   -0.16478E-03   -0.10308E-03  2535   0.654E-02    0.459E-01
RMM:   4    -0.128084893199E+04    0.21344E-03   -0.58429E-04  2608   0.457E-02    0.222E-01
RMM:   5    -0.128084887552E+04    0.56472E-04   -0.19990E-04  2228   0.289E-02    0.587E-02
RMM:   6    -0.128084890880E+04   -0.33281E-04   -0.52341E-05  2205   0.131E-02    0.725E-02
RMM:   7    -0.128084890506E+04    0.37450E-05   -0.31818E-05  2027   0.113E-02    0.436E-02
RMM:   8    -0.128084892444E+04   -0.19382E-04   -0.26634E-05  1987   0.100E-02    0.631E-02
RMM:   9    -0.128084891521E+04    0.92299E-05   -0.14892E-05  1659   0.848E-03    0.240E-02
RMM:  10    -0.128084891996E+04   -0.47530E-05   -0.34630E-06  1487   0.428E-03    0.126E-02
RMM:  11    -0.128084892146E+04   -0.14955E-05   -0.14678E-06  1391   0.297E-03    0.113E-02
RMM:  12    -0.128084892203E+04   -0.57182E-06   -0.71197E-07  1294   0.203E-03
  48 F= -.12898433E+04 E0= -.12898373E+04  d E =-.381620E-03  mag=    16.9998
 curvature:  -1.57 expect dE=-0.457E-02 dE for cont linesearch -0.405E-05
 trial: gam= 1.73813 g(F)=  0.292E-02 g(S)=  0.000E+00 ort =-0.140E-03 (trialstep = 0.890E-01)
 search vector abs. value=  0.255E-01
 bond charge predicted
       N       E                     dE             d eps       ncg     rms          rms(c)
DAV:   1    -0.128084893711E+04   -0.15649E-04   -0.50251E-02  2280   0.436E-01    0.700E-02
RMM:   2    -0.128084906720E+04   -0.13009E-03   -0.10323E-03  2520   0.633E-02    0.163E-01
RMM:   3    -0.128084908069E+04   -0.13494E-04   -0.18837E-04  2484   0.285E-02    0.195E-01
RMM:   4    -0.128084904741E+04    0.33284E-04   -0.92559E-05  2303   0.192E-02    0.749E-02
RMM:   5    -0.128084905102E+04   -0.36108E-05   -0.28655E-05  1805   0.113E-02    0.305E-02
RMM:   6    -0.128084906446E+04   -0.13446E-04   -0.12841E-05  1781   0.721E-03    0.448E-02
RMM:   7    -0.128084906184E+04    0.26258E-05   -0.10791E-05  1666   0.743E-03    0.267E-02
RMM:   8    -0.128084906807E+04   -0.62309E-05   -0.69837E-06  1577   0.574E-03    0.307E-02
RMM:   9    -0.128084906602E+04    0.20522E-05   -0.36464E-06  1430   0.456E-03    0.830E-03
RMM:  10    -0.128084906775E+04   -0.17288E-05   -0.70129E-07  1273   0.205E-03    0.682E-03
RMM:  11    -0.128084906797E+04   -0.22927E-06   -0.37538E-07  1253   0.157E-03
  49 F= -.12898435E+04 E0= -.12898374E+04  d E =-.182725E-03  mag=    16.9998
 trial-energy change:   -0.000183  1 .order   -0.000177   -0.000238   -0.000116
 step:   0.1463(harm=  0.1736)  dis= 0.00127  next Energy= -1289.843562 (dE=-0.222E-03)
 bond charge predicted
       N       E                     dE             d eps       ncg     rms          rms(c)
DAV:   1    -0.128084904073E+04    0.27010E-04   -0.20805E-02  2352   0.281E-01    0.451E-02
RMM:   2    -0.128084909211E+04   -0.51379E-04   -0.42864E-04  2510   0.408E-02    0.106E-01
RMM:   3    -0.128084909612E+04   -0.40105E-05   -0.78263E-05  2371   0.183E-02    0.127E-01
RMM:   4    -0.128084908254E+04    0.13581E-04   -0.37856E-05  2054   0.124E-02    0.472E-02
RMM:   5    -0.128084908685E+04   -0.43027E-05   -0.11885E-05  1588   0.747E-03    0.190E-02
RMM:   6    -0.128084909265E+04   -0.58034E-05   -0.47038E-06  1545   0.462E-03    0.226E-02
RMM:   7    -0.128084909333E+04   -0.68232E-06   -0.47833E-06  1533   0.519E-03
  50 F= -.12898436E+04 E0= -.12898375E+04  d E =-.231721E-03  mag=    16.9998
 curvature:  -0.74 expect dE=-0.107E-02 dE for cont linesearch -0.771E-05
 ZBRENT: increasing intervall
 opt :   0.2608  next Energy= -1289.843541 (dE=-0.200E-03)
 bond charge predicted
       N       E                     dE             d eps       ncg     rms          rms(c)
DAV:   1    -0.128084878573E+04    0.30692E-03   -0.83078E-02  2208   0.561E-01    0.908E-02
RMM:   2    -0.128084899288E+04   -0.20715E-03   -0.17080E-03  2490   0.822E-02    0.189E-01
RMM:   3    -0.128084904772E+04   -0.54845E-04   -0.32291E-04  2478   0.381E-02    0.262E-01
RMM:   4    -0.128084896830E+04    0.79427E-04   -0.16050E-04  2461   0.253E-02    0.120E-01
RMM:   5    -0.128084897027E+04   -0.19784E-05   -0.54158E-05  2029   0.167E-02    0.457E-02
RMM:   6    -0.128084898579E+04   -0.15518E-04   -0.22639E-05  1858   0.949E-03    0.497E-02
RMM:   7    -0.128084898556E+04    0.23201E-06   -0.18227E-05  1899   0.894E-03    0.337E-02
RMM:   8    -0.128084899083E+04   -0.52649E-05   -0.14038E-05  1702   0.800E-03    0.362E-02
RMM:   9    -0.128084899017E+04    0.65812E-06   -0.75198E-06  1561   0.622E-03
  51 F= -.12898435E+04 E0= -.12898374E+04  d E =-.175753E-03  mag=    16.9998
 curvature:   3.01 expect dE= 0.138E-01 dE for cont linesearch  0.198E-03
 ZBRENT: bracketing found
 ZBRENT: interpolating
 opt :   0.1788  next Energy= -1289.843581 (dE=-0.240E-03)
 bond charge predicted
       N       E                     dE             d eps       ncg     rms          rms(c)
DAV:   1    -0.128084897893E+04    0.11892E-04   -0.42697E-02  2256   0.402E-01    0.642E-02
RMM:   2    -0.128084908165E+04   -0.10271E-03   -0.86881E-04  2524   0.581E-02    0.132E-01
RMM:   3    -0.128084911828E+04   -0.36638E-04   -0.15864E-04  2472   0.260E-02    0.206E-01
RMM:   4    -0.128084906021E+04    0.58076E-04   -0.77267E-05  2263   0.178E-02    0.690E-02
RMM:   5    -0.128084907625E+04   -0.16042E-04   -0.25354E-05  1795   0.112E-02    0.310E-02
RMM:   6    -0.128084908712E+04   -0.10873E-04   -0.11069E-05  1685   0.676E-03    0.392E-02
RMM:   7    -0.128084908567E+04    0.14505E-05   -0.90907E-06  1609   0.662E-03    0.207E-02
RMM:   8    -0.128084909016E+04   -0.44890E-05   -0.63317E-06  1543   0.545E-03    0.221E-02
RMM:   9    -0.128084908961E+04    0.55518E-06   -0.31469E-06  1449   0.437E-03
  52 F= -.12898436E+04 E0= -.12898375E+04  d E =-.241430E-03  mag=    16.9998
 curvature:  -0.13 expect dE=-0.254E-03 dE for cont linesearch -0.161E-06
 trial: gam= 0.63945 g(F)=  0.199E-02 g(S)=  0.000E+00 ort =-0.179E-03 (trialstep = 0.107E+00)
 search vector abs. value=  0.122E-01
 bond charge predicted
       N       E                     dE             d eps       ncg     rms          rms(c)
DAV:   1    -0.128084915771E+04   -0.67544E-04   -0.32486E-02  2328   0.359E-01    0.522E-02
RMM:   2    -0.128084921657E+04   -0.58865E-04   -0.69054E-04  2530   0.516E-02    0.636E-02
RMM:   3    -0.128084929355E+04   -0.76978E-04   -0.11571E-04  2439   0.230E-02    0.198E-01
RMM:   4    -0.128084920247E+04    0.91083E-04   -0.51298E-05  2241   0.146E-02    0.447E-02
RMM:   5    -0.128084922935E+04   -0.26880E-04   -0.15566E-05  1725   0.920E-03    0.247E-02
RMM:   6    -0.128084923651E+04   -0.71642E-05   -0.51104E-06  1580   0.494E-03    0.217E-02
RMM:   7    -0.128084923820E+04   -0.16895E-05   -0.52633E-06  1518   0.527E-03    0.208E-02
RMM:   8    -0.128084923998E+04   -0.17835E-05   -0.40869E-06  1492   0.469E-03    0.196E-02
RMM:   9    -0.128084923947E+04    0.51839E-06   -0.21272E-06  1414   0.372E-03
  53 F= -.12898438E+04 E0= -.12898377E+04  d E =-.172645E-03  mag=    16.9998
 trial-energy change:   -0.000173  1 .order   -0.000173   -0.000201   -0.000146
 step:   0.3918(harm=  0.3918)  dis= 0.00241  next Energy= -1289.843950 (dE=-0.368E-03)
 bond charge predicted
       N       E                     dE             d eps       ncg     rms          rms(c)
DAV:   1    -0.128084873286E+04    0.50712E-03   -0.22988E-01  2160   0.955E-01    0.141E-01
RMM:   2    -0.128084932756E+04   -0.59470E-03   -0.49730E-03  2507   0.140E-01    0.339E-01
RMM:   3    -0.128084944198E+04   -0.11442E-03   -0.85206E-04  2494   0.611E-02    0.393E-01
RMM:   4    -0.128084924732E+04    0.19467E-03   -0.32687E-04  2600   0.373E-02    0.119E-01
RMM:   5    -0.128084927145E+04   -0.24132E-04   -0.85546E-05  2168   0.193E-02    0.662E-02
RMM:   6    -0.128084930724E+04   -0.35793E-04   -0.40206E-05  2182   0.123E-02    0.710E-02
RMM:   7    -0.128084931032E+04   -0.30754E-05   -0.34744E-05  1986   0.125E-02    0.602E-02
RMM:   8    -0.128084931881E+04   -0.84973E-05   -0.19453E-05  1942   0.927E-03    0.433E-02
RMM:   9    -0.128084931682E+04    0.19945E-05   -0.10370E-05  1575   0.697E-03    0.222E-02
RMM:  10    -0.128084931923E+04   -0.24151E-05   -0.24707E-06  1447   0.382E-03    0.140E-02
RMM:  11    -0.128084931942E+04   -0.18370E-06   -0.12198E-06  1368   0.267E-03
  54 F= -.12898439E+04 E0= -.12898379E+04  d E =-.312971E-03  mag=    16.9998
 curvature:  -1.27 expect dE=-0.323E-02 dE for cont linesearch -0.935E-05
 trial: gam= 1.45842 g(F)=  0.254E-02 g(S)=  0.000E+00 ort =-0.299E-03 (trialstep = 0.724E-01)
 search vector abs. value=  0.276E-01
 bond charge predicted
       N       E                     dE             d eps       ncg     rms          rms(c)
DAV:   1    -0.128084932768E+04   -0.84454E-05   -0.35473E-02  2340   0.372E-01    0.508E-02
RMM:   2    -0.128084940568E+04   -0.78000E-04   -0.75306E-04  2491   0.519E-02    0.104E-01
RMM:   3    -0.128084943012E+04   -0.24444E-04   -0.11107E-04  2404   0.230E-02    0.158E-01
RMM:   4    -0.128084939795E+04    0.32175E-04   -0.56650E-05  2243   0.150E-02    0.539E-02
RMM:   5    -0.128084940637E+04   -0.84246E-05   -0.17338E-05  1691   0.902E-03    0.195E-02
RMM:   6    -0.128084941369E+04   -0.73190E-05   -0.56545E-06  1571   0.491E-03    0.232E-02
RMM:   7    -0.128084941512E+04   -0.14304E-05   -0.44046E-06  1510   0.501E-03    0.195E-02
RMM:   8    -0.128084941837E+04   -0.32469E-05   -0.42108E-06  1489   0.442E-03    0.200E-02
RMM:   9    -0.128084941829E+04    0.80450E-07   -0.23134E-06  1401   0.376E-03
  55 F= -.12898440E+04 E0= -.12898380E+04  d E =-.133581E-03  mag=    16.9998
 ZBRENT: can't locate minimum, use default step
 trial-energy change:   -0.000134  1 .order   -0.000134   -0.000153   -0.000115
 step:   0.2896(harm=  0.2906)  dis= 0.00379  next Energy= -1289.844201 (dE=-0.306E-03)
 bond charge predicted
       N       E                     dE             d eps       ncg     rms          rms(c)
DAV:   1    -0.128084866443E+04    0.75394E-03   -0.31903E-01  2160   0.112E+00    0.151E-01
RMM:   2    -0.128084939391E+04   -0.72948E-03   -0.66846E-03  2475   0.154E-01    0.284E-01
RMM:   3    -0.128084969723E+04   -0.30333E-03   -0.98867E-04  2441   0.689E-02    0.467E-01
RMM:   4    -0.128084936885E+04    0.32838E-03   -0.49247E-04  2648   0.435E-02    0.156E-01
RMM:   5    -0.128084938347E+04   -0.14615E-04   -0.14776E-04  2197   0.251E-02    0.614E-02
RMM:   6    -0.128084942354E+04   -0.40078E-04   -0.48113E-05  2204   0.124E-02    0.722E-02
RMM:   7    -0.128084942620E+04   -0.26599E-05   -0.35530E-05  2014   0.120E-02    0.565E-02
RMM:   8    -0.128084944172E+04   -0.15519E-04   -0.27329E-05  1998   0.103E-02    0.538E-02
RMM:   9    -0.128084943760E+04    0.41254E-05   -0.15026E-05  1660   0.845E-03    0.243E-02
RMM:  10    -0.128084944026E+04   -0.26652E-05   -0.45181E-06  1510   0.472E-03    0.139E-02
RMM:  11    -0.128084944089E+04   -0.62567E-06   -0.14346E-06  1390   0.302E-03
  56 F= -.12898442E+04 E0= -.12898381E+04  d E =-.259932E-03  mag=    16.9998
 curvature:  -1.90 expect dE=-0.396E-02 dE for cont linesearch -0.645E-05
 trial: gam= 0.61422 g(F)=  0.208E-02 g(S)=  0.000E+00 ort =-0.306E-03 (trialstep = 0.116E+00)
 search vector abs. value=  0.121E-01
 bond charge predicted
       N       E                     dE             d eps       ncg     rms          rms(c)
DAV:   1    -0.128084947499E+04   -0.34726E-04   -0.37685E-02  2292   0.389E-01    0.530E-02
RMM:   2    -0.128084955058E+04   -0.75589E-04   -0.83848E-04  2490   0.558E-02    0.773E-02
RMM:   3    -0.128084961014E+04   -0.59560E-04   -0.12931E-04  2419   0.248E-02    0.183E-01
RMM:   4    -0.128084954366E+04    0.66473E-04   -0.57694E-05  2332   0.151E-02    0.635E-02
RMM:   5    -0.128084956059E+04   -0.16923E-04   -0.19115E-05  1750   0.102E-02    0.223E-02
RMM:   6    -0.128084956791E+04   -0.73217E-05   -0.59108E-06  1584   0.506E-03    0.244E-02
RMM:   7    -0.128084956927E+04   -0.13587E-05   -0.52595E-06  1500   0.521E-03    0.219E-02
RMM:   8    -0.128084957260E+04   -0.33294E-05   -0.48755E-06  1534   0.491E-03    0.208E-02
RMM:   9    -0.128084957257E+04    0.31752E-07   -0.27960E-06  1444   0.415E-03
  57 F= -.12898443E+04 E0= -.12898383E+04  d E =-.188834E-03  mag=    16.9998
 trial-energy change:   -0.000189  1 .order   -0.000191   -0.000219   -0.000164
 step:   0.4578(harm=  0.4578)  dis= 0.00346  next Energy= -1289.844588 (dE=-0.433E-03)
 bond charge predicted
       N       E                     dE             d eps       ncg     rms          rms(c)
DAV:   1    -0.128084876908E+04    0.80352E-03   -0.32815E-01  2160   0.115E+00    0.154E-01
RMM:   2    -0.128084943609E+04   -0.66701E-03   -0.72103E-03  2499   0.163E-01    0.156E-01
RMM:   3    -0.128085008354E+04   -0.64745E-03   -0.10438E-03  2454   0.697E-02    0.545E-01
RMM:   4    -0.128084940201E+04    0.68153E-03   -0.45047E-04  2711   0.419E-02    0.998E-02
RMM:   5    -0.128084954638E+04   -0.14437E-03   -0.11653E-04  2225   0.239E-02    0.765E-02
RMM:   6    -0.128084957313E+04   -0.26752E-04   -0.44018E-05  2259   0.125E-02    0.695E-02
RMM:   7    -0.128084958690E+04   -0.13765E-04   -0.43635E-05  2024   0.136E-02    0.724E-02
RMM:   8    -0.128084959010E+04   -0.32067E-05   -0.27375E-05  2038   0.112E-02    0.543E-02
RMM:   9    -0.128084959098E+04   -0.87774E-06   -0.14433E-05  1674   0.837E-03    0.443E-02
RMM:  10    -0.128084959134E+04   -0.35902E-06   -0.45742E-06  1510   0.511E-03
  58 F= -.12898445E+04 E0= -.12898385E+04  d E =-.376009E-03  mag=    16.9998
 curvature:  -1.46 expect dE=-0.279E-02 dE for cont linesearch -0.437E-05
 trial: gam= 0.95884 g(F)=  0.191E-02 g(S)=  0.000E+00 ort =-0.190E-03 (trialstep = 0.176E+00)
 search vector abs. value=  0.127E-01
 bond charge predicted
       N       E                     dE             d eps       ncg     rms          rms(c)
DAV:   1    -0.128084947610E+04    0.11488E-03   -0.90371E-02  2256   0.603E-01    0.842E-02
RMM:   2    -0.128084966548E+04   -0.18938E-03   -0.20646E-03  2516   0.865E-02    0.110E-01
RMM:   3    -0.128084978511E+04   -0.11963E-03   -0.31507E-04  2468   0.383E-02    0.242E-01
RMM:   4    -0.128084967951E+04    0.10560E-03   -0.12618E-04  2540   0.217E-02    0.120E-01
RMM:   5    -0.128084968690E+04   -0.73950E-05   -0.45715E-05  2025   0.153E-02    0.419E-02
RMM:   6    -0.128084970242E+04   -0.15519E-04   -0.18564E-05  1978   0.853E-03    0.459E-02
RMM:   7    -0.128084970337E+04   -0.94362E-06   -0.18508E-05  1819   0.917E-03    0.399E-02
RMM:   8    -0.128084971178E+04   -0.84157E-05   -0.15175E-05  1745   0.828E-03    0.403E-02
RMM:   9    -0.128084970685E+04    0.49296E-05   -0.67547E-06  1541   0.621E-03    0.147E-02
RMM:  10    -0.128084970850E+04   -0.16449E-05   -0.22654E-06  1411   0.330E-03    0.865E-03
RMM:  11    -0.128084970915E+04   -0.65184E-06   -0.72542E-07  1286   0.217E-03
  59 F= -.12898447E+04 E0= -.12898387E+04  d E =-.199936E-03  mag=    16.9998
 trial-energy change:   -0.000200  1 .order   -0.000197   -0.000303   -0.000091
 step:   0.2520(harm=  0.2520)  dis= 0.00174  next Energy= -1289.844748 (dE=-0.217E-03)
 bond charge predicted
       N       E                     dE             d eps       ncg     rms          rms(c)
DAV:   1    -0.128084964987E+04    0.58631E-04   -0.16829E-02  2292   0.260E-01    0.358E-02
RMM:   2    -0.128084967970E+04   -0.29837E-04   -0.38467E-04  2546   0.369E-02    0.365E-02
RMM:   3    -0.128084971551E+04   -0.35806E-04   -0.53912E-05  2300   0.155E-02    0.133E-01
RMM:   4    -0.128084967112E+04    0.44394E-04   -0.22230E-05  1931   0.966E-03    0.214E-02
RMM:   5    -0.128084968912E+04   -0.18002E-04   -0.71873E-06  1598   0.661E-03    0.253E-02
RMM:   6    -0.128084969138E+04   -0.22657E-05   -0.34492E-06  1485   0.443E-03    0.195E-02
RMM:   7    -0.128084969365E+04   -0.22651E-05   -0.41719E-06  1485   0.472E-03    0.211E-02
RMM:   8    -0.128084969365E+04   -0.35652E-08   -0.23186E-06  1401   0.375E-03
  60 F= -.12898448E+04 E0= -.12898387E+04  d E =-.219813E-03  mag=    16.9998
 curvature:  -0.93 expect dE=-0.205E-02 dE for cont linesearch -0.167E-06
 trial: gam= 1.03644 g(F)=  0.222E-02 g(S)=  0.000E+00 ort = 0.478E-04 (trialstep = 0.152E+00)
 search vector abs. value=  0.159E-01
 bond charge predicted
       N       E                     dE             d eps       ncg     rms          rms(c)
DAV:   1    -0.128084965108E+04    0.42571E-04   -0.88468E-02  2160   0.599E-01    0.816E-02
RMM:   2    -0.128084987931E+04   -0.22823E-03   -0.19918E-03  2521   0.851E-02    0.211E-01
RMM:   3    -0.128084987288E+04    0.64250E-05   -0.28281E-04  2475   0.365E-02    0.209E-01
RMM:   4    -0.128084984567E+04    0.27216E-04   -0.12337E-04  2479   0.228E-02    0.815E-02
RMM:   5    -0.128084984787E+04   -0.21995E-05   -0.34869E-05  1966   0.131E-02    0.425E-02
RMM:   6    -0.128084986541E+04   -0.17547E-04   -0.20752E-05  1956   0.881E-03    0.542E-02
RMM:   7    -0.128084986144E+04    0.39706E-05   -0.16766E-05  1893   0.871E-03    0.321E-02
RMM:   8    -0.128084986974E+04   -0.83002E-05   -0.92863E-06  1639   0.647E-03    0.353E-02
RMM:   9    -0.128084986691E+04    0.28355E-05   -0.50327E-06  1514   0.543E-03    0.113E-02
RMM:  10    -0.128084986860E+04   -0.16934E-05   -0.14494E-06  1382   0.283E-03    0.106E-02
RMM:  11    -0.128084986862E+04   -0.19660E-07   -0.62914E-07  1263   0.211E-03
  61 F= -.12898450E+04 E0= -.12898389E+04  d E =-.237959E-03  mag=    16.9998
 trial-energy change:   -0.000238  1 .order   -0.000242   -0.000345   -0.000139
 step:   0.2545(harm=  0.2545)  dis= 0.00212  next Energy= -1289.845039 (dE=-0.288E-03)
 bond charge predicted
       N       E                     dE             d eps       ncg     rms          rms(c)
DAV:   1    -0.128084977479E+04    0.93811E-04   -0.40054E-02  2220   0.403E-01    0.541E-02
RMM:   2    -0.128084985739E+04   -0.82595E-04   -0.89281E-04  2528   0.566E-02    0.933E-02
RMM:   3    -0.128084990552E+04   -0.48136E-04   -0.12658E-04  2445   0.245E-02    0.182E-01
RMM:   4    -0.128084984344E+04    0.62086E-04   -0.57618E-05  2298   0.153E-02    0.489E-02
RMM:   5    -0.128084986155E+04   -0.18118E-04   -0.17335E-05  1716   0.927E-03    0.274E-02
RMM:   6    -0.128084987058E+04   -0.90313E-05   -0.84508E-06  1666   0.589E-03    0.345E-02
RMM:   7    -0.128084986973E+04    0.85052E-06   -0.73675E-06  1542   0.605E-03
  62 F= -.12898450E+04 E0= -.12898389E+04  d E =-.281341E-03  mag=    16.9998
 curvature:  -0.89 expect dE=-0.100E-02 dE for cont linesearch -0.984E-06
 trial: gam= 0.57787 g(F)=  0.112E-02 g(S)=  0.000E+00 ort = 0.132E-03 (trialstep = 0.173E+00)
 search vector abs. value=  0.659E-02
 bond charge predicted
       N       E                     dE             d eps       ncg     rms          rms(c)
DAV:   1    -0.128084986275E+04    0.78361E-05   -0.48312E-02  2232   0.444E-01    0.631E-02
RMM:   2    -0.128084999160E+04   -0.12886E-03   -0.10895E-03  2480   0.650E-02    0.148E-01
RMM:   3    -0.128084999001E+04    0.15939E-05   -0.16782E-04  2436   0.289E-02    0.172E-01
RMM:   4    -0.128084996317E+04    0.26840E-04   -0.87270E-05  2390   0.183E-02    0.869E-02
RMM:   5    -0.128084996677E+04   -0.36015E-05   -0.27121E-05  1907   0.119E-02    0.343E-02
RMM:   6    -0.128084997187E+04   -0.50954E-05   -0.10166E-05  1637   0.665E-03    0.315E-02
RMM:   7    -0.128084997559E+04   -0.37235E-05   -0.85719E-06  1713   0.615E-03    0.262E-02
RMM:   8    -0.128084997815E+04   -0.25598E-05   -0.83368E-06  1684   0.642E-03    0.219E-02
RMM:   9    -0.128084997963E+04   -0.14801E-05   -0.44626E-06  1492   0.485E-03    0.197E-02
RMM:  10    -0.128084997892E+04    0.71347E-06   -0.16524E-06  1388   0.334E-03
  63 F= -.12898452E+04 E0= -.12898391E+04  d E =-.144534E-03  mag=    16.9998
 trial-energy change:   -0.000145  1 .order   -0.000149   -0.000206   -0.000091
 step:   0.3094(harm=  0.3094)  dis= 0.00151  next Energy= -1289.845217 (dE=-0.185E-03)
 bond charge predicted
       N       E                     dE             d eps       ncg     rms          rms(c)
DAV:   1    -0.128084991236E+04    0.67271E-04   -0.30430E-02  2232   0.352E-01    0.482E-02
RMM:   2    -0.128084997882E+04   -0.66466E-04   -0.66789E-04  2505   0.499E-02    0.886E-02
RMM:   3    -0.128085000117E+04   -0.22346E-04   -0.97921E-05  2426   0.221E-02    0.146E-01
RMM:   4    -0.128084997102E+04    0.30149E-04   -0.51060E-05  2254   0.138E-02    0.640E-02
RMM:   5    -0.128084997766E+04   -0.66397E-05   -0.17139E-05  1707   0.938E-03    0.202E-02
RMM:   6    -0.128084998409E+04   -0.64250E-05   -0.68240E-06  1619   0.540E-03    0.289E-02
RMM:   7    -0.128084998369E+04    0.39612E-06   -0.51513E-06  1549   0.534E-03
  64 F= -.12898452E+04 E0= -.12898391E+04  d E =-.177288E-03  mag=    16.9998
 curvature:  -0.85 expect dE=-0.788E-03 dE for cont linesearch -0.779E-06
 trial: gam= 0.81917 g(F)=  0.923E-03 g(S)=  0.000E+00 ort = 0.775E-04 (trialstep = 0.200E+00)
 search vector abs. value=  0.547E-02
 bond charge predicted
       N       E                     dE             d eps       ncg     rms          rms(c)
DAV:   1    -0.128084995000E+04    0.34085E-04   -0.53951E-02  2220   0.466E-01    0.686E-02
RMM:   2    -0.128085008735E+04   -0.13735E-03   -0.11714E-03  2469   0.683E-02    0.141E-01
RMM:   3    -0.128085008386E+04    0.34891E-05   -0.19822E-04  2432   0.323E-02    0.147E-01
RMM:   4    -0.128085008462E+04   -0.76032E-06   -0.84614E-05  2425   0.176E-02    0.140E-01
RMM:   5    -0.128085005530E+04    0.29329E-04   -0.35211E-05  1952   0.135E-02    0.352E-02
RMM:   6    -0.128085007082E+04   -0.15526E-04   -0.13387E-05  1691   0.776E-03    0.343E-02
RMM:   7    -0.128085007403E+04   -0.32076E-05   -0.87959E-06  1806   0.627E-03    0.213E-02
RMM:   8    -0.128085007929E+04   -0.52576E-05   -0.93470E-06  1596   0.650E-03    0.298E-02
RMM:   9    -0.128085007777E+04    0.15162E-05   -0.43155E-06  1483   0.493E-03    0.157E-02
RMM:  10    -0.128085007798E+04   -0.20991E-06   -0.13978E-06  1388   0.294E-03
  65 F= -.12898453E+04 E0= -.12898392E+04  d E =-.128139E-03  mag=    16.9998
 trial-energy change:   -0.000128  1 .order   -0.000132   -0.000197   -0.000068
 step:   0.3630(harm=  0.3044)  dis= 0.00148  next Energy= -1289.845363 (dE=-0.153E-03)
 bond charge predicted
       N       E                     dE             d eps       ncg     rms          rms(c)
DAV:   1    -0.128084997388E+04    0.10389E-03   -0.35973E-02  2232   0.380E-01    0.532E-02
RMM:   2    -0.128085003679E+04   -0.62910E-04   -0.74842E-04  2540   0.527E-02    0.546E-02
RMM:   3    -0.128085009653E+04   -0.59742E-04   -0.10819E-04  2433   0.233E-02    0.161E-01
RMM:   4    -0.128085003427E+04    0.62261E-04   -0.45273E-05  2228   0.136E-02    0.583E-02
RMM:   5    -0.128085005244E+04   -0.18166E-04   -0.17019E-05  1734   0.941E-03    0.251E-02
RMM:   6    -0.128085005864E+04   -0.62053E-05   -0.72007E-06  1618   0.543E-03    0.294E-02
RMM:   7    -0.128085005811E+04    0.52995E-06   -0.64123E-06  1539   0.569E-03
  66 F= -.12898453E+04 E0= -.12898393E+04  d E =-.135799E-03  mag=    16.9998
 curvature:  -0.58 expect dE=-0.948E-03 dE for cont linesearch -0.144E-05
 trial: gam= 1.95504 g(F)=  0.164E-02 g(S)=  0.000E+00 ort =-0.117E-03 (trialstep = 0.576E-01)
 search vector abs. value=  0.221E-01
 bond charge predicted
       N       E                     dE             d eps       ncg     rms          rms(c)
DAV:   1    -0.128085006487E+04   -0.62220E-05   -0.18094E-02  2244   0.269E-01    0.402E-02
RMM:   2    -0.128085012135E+04   -0.56485E-04   -0.39148E-04  2465   0.400E-02    0.113E-01
RMM:   3    -0.128085010207E+04    0.19280E-04   -0.70580E-05  2331   0.188E-02    0.104E-01
RMM:   4    -0.128085009812E+04    0.39532E-05   -0.34344E-05  2104   0.116E-02    0.542E-02
RMM:   5    -0.128085010185E+04   -0.37306E-05   -0.98984E-06  1631   0.759E-03    0.207E-02
RMM:   6    -0.128085010388E+04   -0.20258E-05   -0.32026E-06  1472   0.423E-03    0.158E-02
RMM:   7    -0.128085010639E+04   -0.25168E-05   -0.23937E-06  1413   0.350E-03    0.132E-02
RMM:   8    -0.128085010778E+04   -0.13906E-05   -0.25924E-06  1456   0.390E-03    0.121E-02
RMM:   9    -0.128085010849E+04   -0.70514E-06   -0.14319E-06  1326   0.283E-03
  67 F= -.12898454E+04 E0= -.12898393E+04  d E =-.712911E-04  mag=    16.9998
 ZBRENT: can't locate minimum, use default step
 trial-energy change:   -0.000071  1 .order   -0.000073   -0.000081   -0.000064
 step:   0.2303(harm=  0.2650)  dis= 0.00195  next Energy= -1289.845532 (dE=-0.187E-03)
 bond charge predicted
       N       E                     dE             d eps       ncg     rms          rms(c)
DAV:   1    -0.128084976534E+04    0.34245E-03   -0.16384E-01  2160   0.806E-01    0.106E-01
RMM:   2    -0.128085007527E+04   -0.30994E-03   -0.31760E-03  2521   0.108E-01    0.123E-01
RMM:   3    -0.128085035759E+04   -0.28232E-03   -0.47791E-04  2455   0.483E-02    0.370E-01
RMM:   4    -0.128085006314E+04    0.29444E-03   -0.23040E-04  2618   0.294E-02    0.949E-02
RMM:   5    -0.128085012240E+04   -0.59257E-04   -0.69574E-05  2065   0.178E-02    0.409E-02
RMM:   6    -0.128085014292E+04   -0.20516E-04   -0.21043E-05  2059   0.857E-03    0.462E-02
RMM:   7    -0.128085014607E+04   -0.31463E-05   -0.16265E-05  1825   0.853E-03    0.388E-02
RMM:   8    -0.128085015413E+04   -0.80611E-05   -0.12687E-05  1856   0.752E-03    0.351E-02
RMM:   9    -0.128085015306E+04    0.10678E-05   -0.69538E-06  1561   0.603E-03    0.223E-02
RMM:  10    -0.128085015350E+04   -0.44463E-06   -0.22967E-06  1441   0.357E-03
  68 F= -.12898455E+04 E0= -.12898395E+04  d E =-.178852E-03  mag=    16.9998
 curvature:  -2.01 expect dE=-0.285E-02 dE for cont linesearch -0.737E-05
 ZBRENT: extrapolating
 opt :   0.2901  next Energy= -1289.845532 (dE=-0.187E-03)
 bond charge predicted
       N       E                     dE             d eps       ncg     rms          rms(c)
DAV:   1    -0.128085009125E+04    0.61805E-04   -0.19598E-02  2304   0.279E-01    0.378E-02
RMM:   2    -0.128085013230E+04   -0.41043E-04   -0.38786E-04  2493   0.383E-02    0.795E-02
RMM:   3    -0.128085014378E+04   -0.11483E-04   -0.61832E-05  2315   0.176E-02    0.115E-01
RMM:   4    -0.128085012870E+04    0.15082E-04   -0.31685E-05  2061   0.114E-02    0.531E-02
RMM:   5    -0.128085013277E+04   -0.40751E-05   -0.10219E-05  1613   0.767E-03    0.157E-02
RMM:   6    -0.128085013680E+04   -0.40218E-05   -0.34253E-06  1449   0.396E-03    0.184E-02
RMM:   7    -0.128085013758E+04   -0.78589E-06   -0.22213E-06  1374   0.360E-03
  69 F= -.12898455E+04 E0= -.12898394E+04  d E =-.184501E-03  mag=    16.9998
 curvature:  -2.32 expect dE=-0.385E-02 dE for cont linesearch -0.393E-06
 trial: gam= 0.46322 g(F)=  0.166E-02 g(S)=  0.000E+00 ort = 0.612E-04 (trialstep = 0.104E+00)
 search vector abs. value=  0.646E-02
 bond charge predicted
       N       E                     dE             d eps       ncg     rms          rms(c)
DAV:   1    -0.128085021899E+04   -0.82195E-04   -0.17219E-02  2232   0.261E-01    0.417E-02
RMM:   2    -0.128085029111E+04   -0.72125E-04   -0.42898E-04  2467   0.409E-02    0.124E-01
RMM:   3    -0.128085024242E+04    0.48698E-04   -0.75725E-05  2339   0.205E-02    0.484E-02
RMM:   4    -0.128085026769E+04   -0.25274E-04   -0.28439E-05  2058   0.101E-02    0.101E-01
RMM:   5    -0.128085024468E+04    0.23009E-04   -0.12036E-05  1625   0.770E-03    0.269E-02
RMM:   6    -0.128085025347E+04   -0.87893E-05   -0.60800E-06  1492   0.556E-03    0.166E-02
RMM:   7    -0.128085025598E+04   -0.25140E-05   -0.34240E-06  1467   0.392E-03    0.207E-02
RMM:   8    -0.128085025564E+04    0.34340E-06   -0.29176E-06  1448   0.421E-03
  70 F= -.12898457E+04 E0= -.12898396E+04  d E =-.138701E-03  mag=    16.9998
 trial-energy change:   -0.000139  1 .order   -0.000143   -0.000176   -0.000111
 step:   0.2837(harm=  0.2837)  dis= 0.00144  next Energy= -1289.845769 (dE=-0.239E-03)
 bond charge predicted
       N       E                     dE             d eps       ncg     rms          rms(c)
DAV:   1    -0.128085018470E+04    0.71283E-04   -0.51342E-02  2184   0.449E-01    0.618E-02
RMM:   2    -0.128085028638E+04   -0.10168E-03   -0.11240E-03  2511   0.618E-02    0.671E-02
RMM:   3    -0.128085031638E+04   -0.29998E-04   -0.15844E-04  2435   0.290E-02    0.101E-01
RMM:   4    -0.128085031179E+04    0.45905E-05   -0.56274E-05  2333   0.146E-02    0.121E-01
RMM:   5    -0.128085027863E+04    0.33153E-04   -0.22855E-05  1787   0.101E-02    0.282E-02
RMM:   6    -0.128085029704E+04   -0.18405E-04   -0.11786E-05  1669   0.725E-03    0.359E-02
RMM:   7    -0.128085029661E+04    0.43007E-06   -0.72378E-06  1607   0.589E-03
  71 F= -.12898457E+04 E0= -.12898396E+04  d E =-.215245E-03  mag=    16.9998
 curvature:  -0.54 expect dE=-0.526E-03 dE for cont linesearch -0.442E-07
 trial: gam= 0.64608 g(F)=  0.968E-03 g(S)=  0.000E+00 ort =-0.229E-04 (trialstep = 0.140E+00)
 search vector abs. value=  0.363E-02
 bond charge predicted
       N       E                     dE             d eps       ncg     rms          rms(c)
DAV:   1    -0.128085033462E+04   -0.37584E-04   -0.16284E-02  2292   0.262E-01    0.410E-02
RMM:   2    -0.128085041392E+04   -0.79298E-04   -0.43977E-04  2524   0.424E-02    0.132E-01
RMM:   3    -0.128085035885E+04    0.55074E-04   -0.78583E-05  2418   0.206E-02    0.731E-02
RMM:   4    -0.128085037055E+04   -0.11703E-04   -0.28084E-05  1965   0.100E-02    0.694E-02
RMM:   5    -0.128085036520E+04    0.53499E-05   -0.10263E-05  1602   0.730E-03    0.248E-02
RMM:   6    -0.128085036861E+04   -0.34038E-05   -0.48844E-06  1494   0.518E-03    0.195E-02
RMM:   7    -0.128085037147E+04   -0.28602E-05   -0.44102E-06  1476   0.443E-03    0.193E-02
RMM:   8    -0.128085037174E+04   -0.27408E-06   -0.36443E-06  1469   0.463E-03
  72 F= -.12898458E+04 E0= -.12898397E+04  d E =-.984798E-04  mag=    16.9998
 trial-energy change:   -0.000098  1 .order   -0.000102   -0.000134   -0.000070
 step:   0.2942(harm=  0.2942)  dis= 0.00103  next Energy= -1289.845885 (dE=-0.140E-03)
 bond charge predicted
       N       E                     dE             d eps       ncg     rms          rms(c)
DAV:   1    -0.128085032967E+04    0.41795E-04   -0.19821E-02  2280   0.288E-01    0.375E-02
RMM:   2    -0.128085036855E+04   -0.38877E-04   -0.45847E-04  2552   0.413E-02    0.483E-02
RMM:   3    -0.128085038071E+04   -0.12159E-04   -0.64622E-05  2404   0.182E-02    0.738E-02
RMM:   4    -0.128085037467E+04    0.60379E-05   -0.21838E-05  1945   0.940E-03    0.723E-02
RMM:   5    -0.128085036593E+04    0.87340E-05   -0.86439E-06  1570   0.686E-03    0.176E-02
RMM:   6    -0.128085037354E+04   -0.76081E-05   -0.51793E-06  1481   0.493E-03    0.169E-02
RMM:   7    -0.128085037439E+04   -0.84587E-06   -0.43469E-06  1503   0.490E-03
  73 F= -.12898459E+04 E0= -.12898398E+04  d E =-.126823E-03  mag=    16.9998
 curvature:  -0.56 expect dE=-0.483E-03 dE for cont linesearch -0.767E-07
 trial: gam= 0.83050 g(F)=  0.862E-03 g(S)=  0.000E+00 ort =-0.223E-04 (trialstep = 0.171E+00)
 search vector abs. value=  0.333E-02
 bond charge predicted
       N       E                     dE             d eps       ncg     rms          rms(c)
DAV:   1    -0.128085038439E+04   -0.10844E-04   -0.22759E-02  2280   0.308E-01    0.422E-02
RMM:   2    -0.128085044418E+04   -0.59793E-04   -0.54032E-04  2525   0.442E-02    0.920E-02
RMM:   3    -0.128085043632E+04    0.78633E-05   -0.75644E-05  2410   0.204E-02    0.850E-02
RMM:   4    -0.128085043817E+04   -0.18583E-05   -0.30847E-05  2078   0.108E-02    0.889E-02
RMM:   5    -0.128085042416E+04    0.14018E-04   -0.12954E-05  1663   0.833E-03    0.218E-02
RMM:   6    -0.128085043299E+04   -0.88373E-05   -0.67662E-06  1551   0.573E-03    0.221E-02
RMM:   7    -0.128085043561E+04   -0.26111E-05   -0.63305E-06  1622   0.546E-03    0.251E-02
RMM:   8    -0.128085043483E+04    0.77672E-06   -0.51657E-06  1523   0.534E-03
  74 F= -.12898460E+04 E0= -.12898399E+04  d E =-.100109E-03  mag=    16.9998
 trial-energy change:   -0.000100  1 .order   -0.000107   -0.000144   -0.000070
 step:   0.3342(harm=  0.3342)  dis= 0.00099  next Energy= -1289.846013 (dE=-0.141E-03)
 bond charge predicted
       N       E                     dE             d eps       ncg     rms          rms(c)
DAV:   1    -0.128085037405E+04    0.61553E-04   -0.20790E-02  2304   0.294E-01    0.391E-02
RMM:   2    -0.128085041695E+04   -0.42898E-04   -0.48328E-04  2553   0.410E-02    0.531E-02
RMM:   3    -0.128085042417E+04   -0.72189E-05   -0.61321E-05  2371   0.183E-02    0.595E-02
RMM:   4    -0.128085041774E+04    0.64273E-05   -0.18873E-05  1910   0.896E-03    0.383E-02
RMM:   5    -0.128085041868E+04   -0.94160E-06   -0.57534E-06  1555   0.544E-03
  75 F= -.12898460E+04 E0= -.12898400E+04  d E =-.121856E-03  mag=    16.9998
 curvature:  -0.66 expect dE=-0.784E-03 dE for cont linesearch -0.479E-06
 trial: gam= 1.34264 g(F)=  0.119E-02 g(S)=  0.000E+00 ort =-0.491E-04 (trialstep = 0.960E-01)
 search vector abs. value=  0.706E-02
 bond charge predicted
       N       E                     dE             d eps       ncg     rms          rms(c)
DAV:   1    -0.128085043366E+04   -0.15915E-04   -0.16124E-02  2244   0.256E-01    0.391E-02
RMM:   2    -0.128085051404E+04   -0.80385E-04   -0.39135E-04  2461   0.390E-02    0.159E-01
RMM:   3    -0.128085044692E+04    0.67117E-04   -0.71017E-05  2343   0.195E-02    0.903E-02
RMM:   4    -0.128085046028E+04   -0.13353E-04   -0.31210E-05  2028   0.119E-02    0.386E-02
RMM:   5    -0.128085046436E+04   -0.40806E-05   -0.74719E-06  1626   0.632E-03    0.251E-02
RMM:   6    -0.128085046471E+04   -0.35152E-06   -0.39376E-06  1493   0.473E-03
  76 F= -.12898461E+04 E0= -.12898400E+04  d E =-.809505E-04  mag=    16.9998
 trial-energy change:   -0.000081  1 .order   -0.000086   -0.000108   -0.000064
 step:   0.2388(harm=  0.2388)  dis= 0.00115  next Energy= -1289.846127 (dE=-0.134E-03)
 bond charge predicted
       N       E                     dE             d eps       ncg     rms          rms(c)
DAV:   1    -0.128085037367E+04    0.90692E-04   -0.35322E-02  2268   0.378E-01    0.460E-02
RMM:   2    -0.128085044224E+04   -0.68578E-04   -0.74826E-04  2526   0.505E-02    0.627E-02
RMM:   3    -0.128085044901E+04   -0.67692E-05   -0.89276E-05  2448   0.228E-02    0.752E-02
RMM:   4    -0.128085044505E+04    0.39631E-05   -0.30970E-05  2103   0.109E-02    0.765E-02
RMM:   5    -0.128085043711E+04    0.79374E-05   -0.11845E-05  1635   0.756E-03    0.382E-02
RMM:   6    -0.128085044254E+04   -0.54285E-05   -0.96407E-06  1590   0.675E-03    0.266E-02
RMM:   7    -0.128085044622E+04   -0.36770E-05   -0.96570E-06  1712   0.653E-03    0.346E-02
RMM:   8    -0.128085044310E+04    0.31166E-05   -0.66236E-06  1546   0.591E-03    0.102E-02
RMM:   9    -0.128085044533E+04   -0.22258E-05   -0.13549E-06  1329   0.287E-03    0.115E-02
RMM:  10    -0.128085044514E+04    0.19103E-06   -0.67625E-07  1263   0.215E-03
  77 F= -.12898461E+04 E0= -.12898400E+04  d E =-.113218E-03  mag=    16.9998
 curvature:  -0.75 expect dE=-0.768E-03 dE for cont linesearch -0.293E-05
 trial: gam= 0.94173 g(F)=  0.102E-02 g(S)=  0.000E+00 ort =-0.166E-03 (trialstep = 0.125E+00)
 search vector abs. value=  0.697E-02
 bond charge predicted
       N       E                     dE             d eps       ncg     rms          rms(c)
DAV:   1    -0.128085043510E+04    0.10225E-04   -0.25979E-02  2256   0.326E-01    0.358E-02
RMM:   2    -0.128085048137E+04   -0.46270E-04   -0.53281E-04  2538   0.418E-02    0.272E-02
RMM:   3    -0.128085050029E+04   -0.18921E-04   -0.54293E-05  2313   0.178E-02    0.835E-02
RMM:   4    -0.128085048190E+04    0.18391E-04   -0.19945E-05  1986   0.881E-03    0.386E-02
RMM:   5    -0.128085048814E+04   -0.62396E-05   -0.67123E-06  1592   0.644E-03    0.182E-02
RMM:   6    -0.128085049085E+04   -0.27064E-05   -0.32817E-06  1484   0.406E-03    0.191E-02
RMM:   7    -0.128085049104E+04   -0.18583E-06   -0.32772E-06  1470   0.436E-03
  78 F= -.12898462E+04 E0= -.12898401E+04  d E =-.873250E-04  mag=    16.9998
 trial-energy change:   -0.000087  1 .order   -0.000092   -0.000108   -0.000076
 step:   0.4275(harm=  0.4275)  dis= 0.00205  next Energy= -1289.846292 (dE=-0.185E-03)
 bond charge predicted
       N       E                     dE             d eps       ncg     rms          rms(c)
DAV:   1    -0.128085011796E+04    0.37289E-03   -0.15322E-01  2160   0.791E-01    0.880E-02
RMM:   2    -0.128085040973E+04   -0.29177E-03   -0.31466E-03  2511   0.102E-01    0.908E-02
RMM:   3    -0.128085050139E+04   -0.91662E-04   -0.36658E-04  2448   0.458E-02    0.197E-01
RMM:   4    -0.128085043945E+04    0.61938E-04   -0.14133E-04  2638   0.225E-02    0.146E-01
RMM:   5    -0.128085042025E+04    0.19208E-04   -0.47964E-05  2037   0.149E-02    0.448E-02
RMM:   6    -0.128085043917E+04   -0.18922E-04   -0.24354E-05  1938   0.964E-03    0.519E-02
RMM:   7    -0.128085043555E+04    0.36225E-05   -0.16497E-05  1955   0.809E-03    0.282E-02
RMM:   8    -0.128085044440E+04   -0.88562E-05   -0.16198E-05  1922   0.809E-03    0.355E-02
RMM:   9    -0.128085044240E+04    0.20005E-05   -0.74322E-06  1549   0.609E-03    0.215E-02
RMM:  10    -0.128085044249E+04   -0.86671E-07   -0.28079E-06  1443   0.392E-03
  79 F= -.12898462E+04 E0= -.12898402E+04  d E =-.139270E-03  mag=    16.9998
 curvature:  -1.72 expect dE=-0.176E-02 dE for cont linesearch -0.608E-05
 trial: gam= 0.80218 g(F)=  0.102E-02 g(S)=  0.000E+00 ort =-0.157E-03 (trialstep = 0.185E+00)
 search vector abs. value=  0.525E-02
 bond charge predicted
       N       E                     dE             d eps       ncg     rms          rms(c)
DAV:   1    -0.128085042058E+04    0.21822E-04   -0.42152E-02  2280   0.412E-01    0.488E-02
RMM:   2    -0.128085050147E+04   -0.80885E-04   -0.90027E-04  2430   0.540E-02    0.468E-02
RMM:   3    -0.128085053249E+04   -0.31028E-04   -0.10906E-04  2344   0.260E-02    0.115E-01
RMM:   4    -0.128085050594E+04    0.26551E-04   -0.43740E-05  2284   0.128E-02    0.762E-02
RMM:   5    -0.128085050568E+04    0.26412E-06   -0.15035E-05  1717   0.900E-03    0.225E-02
RMM:   6    -0.128085051365E+04   -0.79737E-05   -0.71700E-06  1627   0.568E-03    0.315E-02
RMM:   7    -0.128085051259E+04    0.10645E-05   -0.54376E-06  1521   0.540E-03    0.193E-02
RMM:   8    -0.128085051673E+04   -0.41407E-05   -0.50868E-06  1568   0.489E-03    0.216E-02
RMM:   9    -0.128085051587E+04    0.85718E-06   -0.25280E-06  1397   0.402E-03
  80 F= -.12898464E+04 E0= -.12898403E+04  d E =-.115716E-03  mag=    16.9998
 trial-energy change:   -0.000116  1 .order   -0.000118   -0.000165   -0.000071
 step:   0.3250(harm=  0.3250)  dis= 0.00156  next Energy= -1289.846391 (dE=-0.145E-03)
 bond charge predicted
       N       E                     dE             d eps       ncg     rms          rms(c)
DAV:   1    -0.128085045037E+04    0.66353E-04   -0.23993E-02  2244   0.311E-01    0.376E-02
RMM:   2    -0.128085049786E+04   -0.47487E-04   -0.51774E-04  2437   0.413E-02    0.447E-02
RMM:   3    -0.128085050853E+04   -0.10671E-04   -0.67021E-05  2315   0.202E-02    0.633E-02
RMM:   4    -0.128085049971E+04    0.88195E-05   -0.21484E-05  2016   0.966E-03    0.351E-02
RMM:   5    -0.128085050051E+04   -0.80169E-06   -0.51412E-06  1521   0.536E-03
  81 F= -.12898464E+04 E0= -.12898402E+04  d E =-.132270E-03  mag=    16.9998
 curvature:  -0.96 expect dE=-0.108E-02 dE for cont linesearch -0.572E-06
 trial: gam= 1.00779 g(F)=  0.113E-02 g(S)=  0.000E+00 ort =-0.561E-04 (trialstep = 0.176E+00)
 search vector abs. value=  0.635E-02
 bond charge predicted
       N       E                     dE             d eps       ncg     rms          rms(c)
DAV:   1    -0.128085047974E+04    0.19968E-04   -0.48381E-02  2196   0.436E-01    0.588E-02
RMM:   2    -0.128085064610E+04   -0.16636E-03   -0.10912E-03  2429   0.616E-02    0.199E-01
RMM:   3    -0.128085055541E+04    0.90692E-04   -0.15521E-04  2408   0.297E-02    0.126E-01
RMM:   4    -0.128085056887E+04   -0.13458E-04   -0.73249E-05  2356   0.168E-02    0.716E-02
RMM:   5    -0.128085057069E+04   -0.18225E-05   -0.17764E-05  1812   0.940E-03    0.375E-02
RMM:   6    -0.128085057479E+04   -0.40983E-05   -0.13207E-05  1672   0.743E-03    0.409E-02
RMM:   7    -0.128085057670E+04   -0.19137E-05   -0.13417E-05  1976   0.718E-03    0.286E-02
RMM:   8    -0.128085057794E+04   -0.12398E-05   -0.81880E-06  1580   0.621E-03    0.247E-02
RMM:   9    -0.128085057784E+04    0.10122E-06   -0.26918E-06  1450   0.394E-03
  82 F= -.12898465E+04 E0= -.12898404E+04  d E =-.119771E-03  mag=    16.9998
 trial-energy change:   -0.000120  1 .order   -0.000119   -0.000189   -0.000049
 step:   0.2383(harm=  0.2383)  dis= 0.00109  next Energy= -1289.846506 (dE=-0.128E-03)
 bond charge predicted
       N       E                     dE             d eps       ncg     rms          rms(c)
DAV:   1    -0.128085055625E+04    0.21691E-04   -0.59701E-03  2352   0.154E-01    0.205E-02
RMM:   2    -0.128085057201E+04   -0.15757E-04   -0.13373E-04  2522   0.214E-02    0.481E-02
RMM:   3    -0.128085056737E+04    0.46393E-05   -0.17866E-05  1894   0.101E-02    0.333E-02
RMM:   4    -0.128085057125E+04   -0.38833E-05   -0.66260E-06  1617   0.542E-03    0.474E-02
RMM:   5    -0.128085056545E+04    0.58024E-05   -0.31548E-06  1432   0.457E-03    0.102E-02
RMM:   6    -0.128085056977E+04   -0.43160E-05   -0.20939E-06  1362   0.330E-03    0.150E-02
RMM:   7    -0.128085056996E+04   -0.19361E-06   -0.15193E-06  1324   0.289E-03
  83 F= -.12898465E+04 E0= -.12898404E+04  d E =-.126787E-03  mag=    16.9998
 curvature:  -0.71 expect dE=-0.718E-03 dE for cont linesearch -0.135E-07
 trial: gam= 0.93035 g(F)=  0.102E-02 g(S)=  0.000E+00 ort =-0.110E-04 (trialstep = 0.185E+00)
 search vector abs. value=  0.649E-02
 bond charge predicted
       N       E                     dE             d eps       ncg     rms          rms(c)
DAV:   1    -0.128085052290E+04    0.46871E-04   -0.54184E-02  2208   0.465E-01    0.572E-02
RMM:   2    -0.128085062779E+04   -0.10490E-03   -0.11301E-03  2552   0.621E-02    0.737E-02
RMM:   3    -0.128085064725E+04   -0.19452E-04   -0.14246E-04  2477   0.280E-02    0.902E-02
RMM:   4    -0.128085064326E+04    0.39881E-05   -0.46482E-05  2289   0.134E-02    0.930E-02
RMM:   5    -0.128085062490E+04    0.18359E-04   -0.15361E-05  1690   0.840E-03    0.363E-02
RMM:   6    -0.128085063841E+04   -0.13514E-04   -0.11704E-05  1626   0.720E-03    0.381E-02
RMM:   7    -0.128085063717E+04    0.12421E-05   -0.74526E-06  1715   0.591E-03    0.207E-02
RMM:   8    -0.128085064262E+04   -0.54506E-05   -0.75346E-06  1619   0.593E-03    0.322E-02
RMM:   9    -0.128085064021E+04    0.24092E-05   -0.40159E-06  1456   0.474E-03    0.111E-02
RMM:  10    -0.128085064125E+04   -0.10413E-05   -0.11439E-06  1344   0.262E-03    0.559E-03
RMM:  11    -0.128085064143E+04   -0.18018E-06   -0.36748E-07  1247   0.160E-03
  84 F= -.12898466E+04 E0= -.12898405E+04  d E =-.119988E-03  mag=    16.9998
 trial-energy change:   -0.000120  1 .order   -0.000122   -0.000186   -0.000059
 step:   0.2704(harm=  0.2704)  dis= 0.00129  next Energy= -1289.846641 (dE=-0.136E-03)
 bond charge predicted
       N       E                     dE             d eps       ncg     rms          rms(c)
DAV:   1    -0.128085060648E+04    0.34770E-04   -0.11751E-02  2328   0.217E-01    0.266E-02
RMM:   2    -0.128085062839E+04   -0.21901E-04   -0.24489E-04  2532   0.288E-02    0.417E-02
RMM:   3    -0.128085063710E+04   -0.87142E-05   -0.30505E-05  2120   0.130E-02    0.816E-02
RMM:   4    -0.128085062448E+04    0.12623E-04   -0.14719E-05  1784   0.777E-03    0.349E-02
RMM:   5    -0.128085062950E+04   -0.50199E-05   -0.55846E-06  1508   0.589E-03    0.130E-02
RMM:   6    -0.128085063182E+04   -0.23250E-05   -0.25111E-06  1433   0.364E-03    0.185E-02
RMM:   7    -0.128085063146E+04    0.35736E-06   -0.21537E-06  1391   0.367E-03
  85 F= -.12898466E+04 E0= -.12898405E+04  d E =-.132557E-03  mag=    16.9998
 curvature:  -0.87 expect dE=-0.758E-03 dE for cont linesearch -0.504E-06
 trial: gam= 0.78664 g(F)=  0.869E-03 g(S)=  0.000E+00 ort = 0.613E-04 (trialstep = 0.202E+00)
 search vector abs. value=  0.498E-02
 bond charge predicted
       N       E                     dE             d eps       ncg     rms          rms(c)
DAV:   1    -0.128085057992E+04    0.51902E-04   -0.50089E-02  2184   0.443E-01    0.579E-02
RMM:   2    -0.128085067518E+04   -0.95263E-04   -0.10496E-03  2508   0.598E-02    0.819E-02
RMM:   3    -0.128085072066E+04   -0.45481E-04   -0.14903E-04  2433   0.280E-02    0.160E-01
RMM:   4    -0.128085068112E+04    0.39544E-04   -0.63466E-05  2345   0.151E-02    0.966E-02
RMM:   5    -0.128085067613E+04    0.49945E-05   -0.25339E-05  1828   0.117E-02    0.257E-02
RMM:   6    -0.128085068791E+04   -0.11789E-04   -0.10245E-05  1679   0.674E-03    0.360E-02
RMM:   7    -0.128085068653E+04    0.13798E-05   -0.68949E-06  1602   0.590E-03    0.190E-02
RMM:   8    -0.128085069073E+04   -0.41924E-05   -0.68515E-06  1598   0.567E-03    0.199E-02
RMM:   9    -0.128085069041E+04    0.32110E-06   -0.30870E-06  1464   0.440E-03
  86 F= -.12898467E+04 E0= -.12898407E+04  d E =-.105565E-03  mag=    16.9998
 trial-energy change:   -0.000106  1 .order   -0.000114   -0.000185   -0.000042
 step:   0.3333(harm=  0.2609)  dis= 0.00169  next Energy= -1289.846755 (dE=-0.117E-03)
 bond charge predicted
       N       E                     dE             d eps       ncg     rms          rms(c)
DAV:   1    -0.128085060166E+04    0.89064E-04   -0.21319E-02  2256   0.289E-01    0.380E-02
RMM:   2    -0.128085063855E+04   -0.36891E-04   -0.44779E-04  2530   0.388E-02    0.453E-02
RMM:   3    -0.128085066404E+04   -0.25484E-04   -0.62315E-05  2346   0.178E-02    0.107E-01
RMM:   4    -0.128085064193E+04    0.22104E-04   -0.24610E-05  1969   0.969E-03    0.587E-02
RMM:   5    -0.128085064307E+04   -0.11396E-05   -0.99929E-06  1582   0.752E-03    0.168E-02
RMM:   6    -0.128085064867E+04   -0.55967E-05   -0.42452E-06  1480   0.442E-03    0.231E-02
RMM:   7    -0.128085064805E+04    0.62519E-06   -0.29466E-06  1407   0.401E-03
  87 F= -.12898467E+04 E0= -.12898407E+04  d E =-.935834E-04  mag=    16.9998
 curvature:   0.35 expect dE= 0.365E-03 dE for cont linesearch  0.473E-05
 ZBRENT: interpolating
 opt :   0.2604  next Energy= -1289.846749 (dE=-0.112E-03)
 bond charge predicted
       N       E                     dE             d eps       ncg     rms          rms(c)
DAV:   1    -0.128085066520E+04   -0.16525E-04   -0.66568E-03  2292   0.162E-01    0.242E-02
RMM:   2    -0.128085068274E+04   -0.17546E-04   -0.15029E-04  2498   0.239E-02    0.514E-02
RMM:   3    -0.128085068158E+04    0.11622E-05   -0.24997E-05  2006   0.112E-02    0.567E-02
RMM:   4    -0.128085067898E+04    0.25989E-05   -0.97333E-06  1624   0.641E-03    0.431E-02
RMM:   5    -0.128085067840E+04    0.58387E-06   -0.43888E-06  1448   0.513E-03
  88 F= -.12898467E+04 E0= -.12898406E+04  d E =-.107111E-03  mag=    16.9998
 curvature:  -0.46 expect dE=-0.277E-03 dE for cont linesearch -0.433E-06
 trial: gam= 0.81784 g(F)=  0.608E-03 g(S)=  0.000E+00 ort =-0.688E-04 (trialstep = 0.213E+00)
 search vector abs. value=  0.383E-02
 bond charge predicted
       N       E                     dE             d eps       ncg     rms          rms(c)
DAV:   1    -0.128085062583E+04    0.53155E-04   -0.41628E-02  2172   0.406E-01    0.502E-02
RMM:   2    -0.128085070632E+04   -0.80491E-04   -0.83371E-04  2509   0.546E-02    0.794E-02
RMM:   3    -0.128085074958E+04   -0.43264E-04   -0.11552E-04  2461   0.245E-02    0.165E-01
RMM:   4    -0.128085070049E+04    0.49091E-04   -0.54572E-05  2277   0.147E-02    0.680E-02
RMM:   5    -0.128085071137E+04   -0.10878E-04   -0.19114E-05  1737   0.100E-02    0.229E-02
RMM:   6    -0.128085071641E+04   -0.50404E-05   -0.60063E-06  1530   0.510E-03    0.235E-02
RMM:   7    -0.128085071686E+04   -0.44819E-06   -0.36043E-06  1447   0.440E-03
  89 F= -.12898468E+04 E0= -.12898407E+04  d E =-.899074E-04  mag=    16.9998
 trial-energy change:   -0.000090  1 .order   -0.000096   -0.000118   -0.000075
 step:   0.5885(harm=  0.5885)  dis= 0.00224  next Energy= -1289.846907 (dE=-0.162E-03)
 bond charge predicted
       N       E                     dE             d eps       ncg     rms          rms(c)
DAV:   1    -0.128085037051E+04    0.34590E-03   -0.12792E-01  2160   0.711E-01    0.881E-02
RMM:   2    -0.128085060175E+04   -0.23124E-03   -0.25407E-03  2510   0.949E-02    0.108E-01
RMM:   3    -0.128085077081E+04   -0.16906E-03   -0.33893E-04  2462   0.425E-02    0.294E-01
RMM:   4    -0.128085059257E+04    0.17824E-03   -0.15416E-04  2578   0.244E-02    0.932E-02
RMM:   5    -0.128085063040E+04   -0.37836E-04   -0.50482E-05  2062   0.162E-02    0.428E-02
RMM:   6    -0.128085064322E+04   -0.12820E-04   -0.18784E-05  1949   0.863E-03    0.441E-02
RMM:   7    -0.128085064604E+04   -0.28130E-05   -0.14836E-05  1869   0.794E-03    0.332E-02
RMM:   8    -0.128085065216E+04   -0.61280E-05   -0.13576E-05  1841   0.779E-03    0.308E-02
RMM:   9    -0.128085065303E+04   -0.86768E-06   -0.70944E-06  1562   0.609E-03
  90 F= -.12898469E+04 E0= -.12898408E+04  d E =-.116300E-03  mag=    16.9998
 curvature:  -2.04 expect dE=-0.184E-02 dE for cont linesearch -0.748E-05
 trial: gam= 1.45848 g(F)=  0.901E-03 g(S)=  0.000E+00 ort =-0.118E-03 (trialstep = 0.127E+00)
 search vector abs. value=  0.870E-02
 bond charge predicted
       N       E                     dE             d eps       ncg     rms          rms(c)
DAV:   1    -0.128085058054E+04    0.71628E-04   -0.32925E-02  2244   0.357E-01    0.461E-02
RMM:   2    -0.128085064565E+04   -0.65114E-04   -0.69348E-04  2508   0.478E-02    0.781E-02
RMM:   3    -0.128085067389E+04   -0.28236E-04   -0.90283E-05  2421   0.217E-02    0.145E-01
RMM:   4    -0.128085063695E+04    0.36932E-04   -0.42527E-05  2200   0.130E-02    0.531E-02
RMM:   5    -0.128085064838E+04   -0.11423E-04   -0.13481E-05  1685   0.869E-03    0.253E-02
RMM:   6    -0.128085065478E+04   -0.63994E-05   -0.70802E-06  1586   0.561E-03    0.328E-02
RMM:   7    -0.128085065373E+04    0.10497E-05   -0.64527E-06  1568   0.574E-03    0.176E-02
RMM:   8    -0.128085065715E+04   -0.34213E-05   -0.44513E-06  1513   0.478E-03    0.208E-02
RMM:   9    -0.128085065617E+04    0.97337E-06   -0.22073E-06  1411   0.379E-03
  91 F= -.12898469E+04 E0= -.12898408E+04  d E =-.540412E-04  mag=    16.9998
 trial-energy change:   -0.000054  1 .order   -0.000061   -0.000092   -0.000029
 step:   0.1848(harm=  0.1848)  dis= 0.00104  next Energy= -1289.846928 (dE=-0.673E-04)
 bond charge predicted
       N       E                     dE             d eps       ncg     rms          rms(c)
DAV:   1    -0.128085062144E+04    0.35710E-04   -0.68311E-03  2328   0.163E-01    0.213E-02
RMM:   2    -0.128085063504E+04   -0.13607E-04   -0.14610E-04  2512   0.221E-02    0.417E-02
RMM:   3    -0.128085063824E+04   -0.31924E-05   -0.18824E-05  1928   0.101E-02    0.648E-02
RMM:   4    -0.128085063163E+04    0.66077E-05   -0.93544E-06  1685   0.650E-03    0.246E-02
RMM:   5    -0.128085063505E+04   -0.34225E-05   -0.30625E-06  1419   0.453E-03    0.114E-02
RMM:   6    -0.128085063674E+04   -0.16837E-05   -0.15906E-06  1353   0.297E-03    0.145E-02
RMM:   7    -0.128085063702E+04   -0.28182E-06   -0.15813E-06  1344   0.298E-03
  92 F= -.12898469E+04 E0= -.12898408E+04  d E =-.580460E-04  mag=    16.9998
 curvature:  -1.10 expect dE=-0.984E-03 dE for cont linesearch -0.504E-09
 trial: gam= 0.69845 g(F)=  0.890E-03 g(S)=  0.000E+00 ort =-0.199E-05 (trialstep = 0.139E+00)
 search vector abs. value=  0.513E-02
 bond charge predicted
       N       E                     dE             d eps       ncg     rms          rms(c)
DAV:   1    -0.128085064389E+04   -0.71539E-05   -0.22150E-02  2232   0.294E-01    0.348E-02
RMM:   2    -0.128085068729E+04   -0.43402E-04   -0.46343E-04  2484   0.401E-02    0.558E-02
RMM:   3    -0.128085070120E+04   -0.13913E-04   -0.57824E-05  2345   0.183E-02    0.106E-01
RMM:   4    -0.128085068322E+04    0.17987E-04   -0.26237E-05  2057   0.101E-02    0.542E-02
RMM:   5    -0.128085068731E+04   -0.40960E-05   -0.98750E-06  1585   0.763E-03    0.166E-02
RMM:   6    -0.128085069164E+04   -0.43238E-05   -0.45893E-06  1506   0.467E-03    0.244E-02
RMM:   7    -0.128085069135E+04    0.29017E-06   -0.35618E-06  1427   0.437E-03
  93 F= -.12898470E+04 E0= -.12898409E+04  d E =-.967631E-04  mag=    16.9998
 trial-energy change:   -0.000097  1 .order   -0.000103   -0.000123   -0.000082
 step:   0.4176(harm=  0.4176)  dis= 0.00184  next Energy= -1289.847105 (dE=-0.186E-03)
 bond charge predicted
       N       E                     dE             d eps       ncg     rms          rms(c)
DAV:   1    -0.128085046704E+04    0.22460E-03   -0.89874E-02  2160   0.593E-01    0.698E-02
RMM:   2    -0.128085063570E+04   -0.16866E-03   -0.18599E-03  2455   0.796E-02    0.881E-02
RMM:   3    -0.128085073737E+04   -0.10168E-03   -0.22615E-04  2403   0.365E-02    0.254E-01
RMM:   4    -0.128085061560E+04    0.12177E-03   -0.10767E-04  2527   0.205E-02    0.814E-02
RMM:   5    -0.128085064817E+04   -0.32569E-04   -0.35973E-05  2013   0.135E-02    0.367E-02
RMM:   6    -0.128085065767E+04   -0.95046E-05   -0.16017E-05  1933   0.807E-03    0.334E-02
RMM:   7    -0.128085066017E+04   -0.24993E-05   -0.13248E-05  1805   0.786E-03    0.352E-02
RMM:   8    -0.128085066189E+04   -0.17136E-05   -0.10190E-05  1625   0.666E-03    0.290E-02
RMM:   9    -0.128085066080E+04    0.10912E-05   -0.35280E-06  1457   0.477E-03    0.895E-03
RMM:  10    -0.128085066139E+04   -0.59468E-06   -0.89427E-07  1287   0.226E-03
  94 F= -.12898471E+04 E0= -.12898410E+04  d E =-.152154E-03  mag=    16.9998
 curvature:  -1.21 expect dE=-0.959E-03 dE for cont linesearch -0.324E-05
 trial: gam= 1.24579 g(F)=  0.796E-03 g(S)=  0.000E+00 ort =-0.117E-03 (trialstep = 0.118E+00)
 search vector abs. value=  0.847E-02
 bond charge predicted
       N       E                     dE             d eps       ncg     rms          rms(c)
DAV:   1    -0.128085061096E+04    0.49830E-04   -0.26168E-02  2244   0.317E-01    0.363E-02
RMM:   2    -0.128085065837E+04   -0.47406E-04   -0.54818E-04  2498   0.418E-02    0.336E-02
RMM:   3    -0.128085068482E+04   -0.26453E-04   -0.59627E-05  2332   0.185E-02    0.114E-01
RMM:   4    -0.128085065175E+04    0.33079E-04   -0.25165E-05  2063   0.989E-03    0.361E-02
RMM:   5    -0.128085066463E+04   -0.12885E-04   -0.84956E-06  1635   0.731E-03    0.195E-02
RMM:   6    -0.128085066865E+04   -0.40232E-05   -0.40631E-06  1514   0.449E-03    0.234E-02
RMM:   7    -0.128085066815E+04    0.50343E-06   -0.38990E-06  1490   0.480E-03
  95 F= -.12898471E+04 E0= -.12898410E+04  d E =-.545450E-04  mag=    16.9998
 trial-energy change:   -0.000055  1 .order   -0.000061   -0.000076   -0.000045
 step:   0.2828(harm=  0.2828)  dis= 0.00162  next Energy= -1289.847163 (dE=-0.918E-04)
 bond charge predicted
       N       E                     dE             d eps       ncg     rms          rms(c)
DAV:   1    -0.128085050763E+04    0.16102E-03   -0.51157E-02  2160   0.444E-01    0.532E-02
RMM:   2    -0.128085061778E+04   -0.11015E-03   -0.10898E-03  2446   0.605E-02    0.912E-02
RMM:   3    -0.128085061978E+04   -0.19968E-05   -0.13522E-04  2399   0.278E-02    0.954E-02
RMM:   4    -0.128085062684E+04   -0.70602E-05   -0.53986E-05  2366   0.139E-02    0.113E-01
RMM:   5    -0.128085060171E+04    0.25125E-04   -0.19544E-05  1785   0.101E-02    0.295E-02
RMM:   6    -0.128085061549E+04   -0.13779E-04   -0.10318E-05  1615   0.683E-03    0.325E-02
RMM:   7    -0.128085061711E+04   -0.16211E-05   -0.74519E-06  1666   0.610E-03    0.246E-02
RMM:   8    -0.128085061936E+04   -0.22490E-05   -0.72953E-06  1592   0.616E-03    0.247E-02
RMM:   9    -0.128085061922E+04    0.14073E-06   -0.35776E-06  1465   0.448E-03
  96 F= -.12898471E+04 E0= -.12898411E+04  d E =-.724554E-04  mag=    16.9998
 curvature:  -1.84 expect dE=-0.198E-02 dE for cont linesearch -0.813E-06
 trial: gam= 1.14136 g(F)=  0.108E-02 g(S)=  0.000E+00 ort =-0.611E-04 (trialstep = 0.107E+00)
 search vector abs. value=  0.120E-01
 bond charge predicted
       N       E                     dE             d eps       ncg     rms          rms(c)
DAV:   1    -0.128085058383E+04    0.35529E-04   -0.31161E-02  2208   0.347E-01    0.389E-02
RMM:   2    -0.128085064822E+04   -0.64391E-04   -0.64210E-04  2484   0.458E-02    0.834E-02
RMM:   3    -0.128085065790E+04   -0.96780E-05   -0.75000E-05  2395   0.204E-02    0.115E-01
RMM:   4    -0.128085063970E+04    0.18201E-04   -0.31822E-05  2153   0.113E-02    0.453E-02
RMM:   5    -0.128085064574E+04   -0.60401E-05   -0.93600E-06  1587   0.721E-03    0.181E-02
RMM:   6    -0.128085065139E+04   -0.56479E-05   -0.47126E-06  1528   0.461E-03    0.251E-02
RMM:   7    -0.128085065102E+04    0.36954E-06   -0.40051E-06  1459   0.480E-03
  97 F= -.12898472E+04 E0= -.12898411E+04  d E =-.825376E-04  mag=    16.9998
 trial-energy change:   -0.000083  1 .order   -0.000092   -0.000107   -0.000076
 step:   0.3657(harm=  0.3657)  dis= 0.00241  next Energy= -1289.847328 (dE=-0.184E-03)
 bond charge predicted
       N       E                     dE             d eps       ncg     rms          rms(c)
DAV:   1    -0.128085019782E+04    0.45356E-03   -0.18374E-01  2160   0.841E-01    0.921E-02
RMM:   2    -0.128085053913E+04   -0.34131E-03   -0.37261E-03  2457   0.109E-01    0.919E-02
RMM:   3    -0.128085070190E+04   -0.16277E-03   -0.41140E-04  2398   0.499E-02    0.276E-01
RMM:   4    -0.128085054826E+04    0.15365E-03   -0.17261E-04  2664   0.252E-02    0.110E-01
RMM:   5    -0.128085057212E+04   -0.23865E-04   -0.52647E-05  2091   0.161E-02    0.481E-02
RMM:   6    -0.128085058719E+04   -0.15067E-04   -0.27054E-05  2040   0.102E-02    0.478E-02
RMM:   7    -0.128085058613E+04    0.10596E-05   -0.20192E-05  1899   0.928E-03    0.340E-02
RMM:   8    -0.128085059603E+04   -0.98998E-05   -0.17720E-05  1860   0.838E-03    0.403E-02
RMM:   9    -0.128085059189E+04    0.41426E-05   -0.75614E-06  1524   0.627E-03    0.180E-02
RMM:  10    -0.128085059240E+04   -0.51031E-06   -0.26839E-06  1425   0.371E-03
  98 F= -.12898473E+04 E0= -.12898412E+04  d E =-.146927E-03  mag=    16.9998
 curvature:  -2.17 expect dE=-0.219E-02 dE for cont linesearch -0.215E-05
 trial: gam= 1.01400 g(F)=  0.101E-02 g(S)=  0.000E+00 ort =-0.109E-03 (trialstep = 0.145E+00)
 search vector abs. value=  0.131E-01
 bond charge predicted
       N       E                     dE             d eps       ncg     rms          rms(c)
DAV:   1    -0.128085048670E+04    0.10518E-03   -0.61974E-02  2256   0.488E-01    0.535E-02
RMM:   2    -0.128085059909E+04   -0.11239E-03   -0.12773E-03  2479   0.633E-02    0.436E-02
RMM:   3    -0.128085065069E+04   -0.51602E-04   -0.12776E-04  2401   0.275E-02    0.150E-01
RMM:   4    -0.128085059807E+04    0.52620E-04   -0.51381E-05  2365   0.135E-02    0.453E-02
RMM:   5    -0.128085061531E+04   -0.17243E-04   -0.15029E-05  1780   0.928E-03    0.295E-02
RMM:   6    -0.128085061928E+04   -0.39626E-05   -0.66198E-06  1663   0.566E-03    0.266E-02
RMM:   7    -0.128085062118E+04   -0.18977E-05   -0.70706E-06  1592   0.609E-03    0.259E-02
RMM:   8    -0.128085062357E+04   -0.23960E-05   -0.48630E-06  1553   0.497E-03    0.183E-02
RMM:   9    -0.128085062317E+04    0.39951E-06   -0.22605E-06  1415   0.386E-03
  99 F= -.12898474E+04 E0= -.12898413E+04  d E =-.100234E-03  mag=    16.9998
 trial-energy change:   -0.000100  1 .order   -0.000105   -0.000130   -0.000081
 step:   0.3836(harm=  0.3836)  dis= 0.00279  next Energy= -1289.847462 (dE=-0.172E-03)
 bond charge predicted
       N       E                     dE             d eps       ncg     rms          rms(c)
DAV:   1    -0.128085019037E+04    0.43320E-03   -0.16808E-01  2160   0.804E-01    0.881E-02
RMM:   2    -0.128085050534E+04   -0.31497E-03   -0.34553E-03  2457   0.104E-01    0.945E-02
RMM:   3    -0.128085070148E+04   -0.19615E-03   -0.38548E-04  2406   0.470E-02    0.317E-01
RMM:   4    -0.128085047876E+04    0.22272E-03   -0.16972E-04  2637   0.253E-02    0.698E-02
RMM:   5    -0.128085053467E+04   -0.55910E-04   -0.42419E-05  2057   0.147E-02    0.506E-02
RMM:   6    -0.128085054411E+04   -0.94377E-05   -0.16043E-05  2024   0.813E-03    0.353E-02
RMM:   7    -0.128085055833E+04   -0.14226E-04   -0.23191E-05  1918   0.969E-03    0.560E-02
RMM:   8    -0.128085055299E+04    0.53438E-05   -0.13954E-05  1717   0.807E-03    0.268E-02
RMM:   9    -0.128085055420E+04   -0.12087E-05   -0.58053E-06  1518   0.550E-03    0.193E-02
RMM:  10    -0.128085055433E+04   -0.13365E-06   -0.18242E-06  1380   0.312E-03
 100 F= -.12898474E+04 E0= -.12898414E+04  d E =-.145548E-03  mag=    16.9998
 curvature:  -2.81 expect dE=-0.389E-02 dE for cont linesearch -0.149E-05
 trial: gam= 1.32871 g(F)=  0.138E-02 g(S)=  0.000E+00 ort =-0.833E-04 (trialstep = 0.104E+00)
 search vector abs. value=  0.243E-01
 bond charge predicted
       N       E                     dE             d eps       ncg     rms          rms(c)
DAV:   1    -0.128085046209E+04    0.92106E-04   -0.59967E-02  2196   0.477E-01    0.519E-02
RMM:   2    -0.128085056922E+04   -0.10713E-03   -0.12126E-03  2457   0.614E-02    0.405E-02
RMM:   3    -0.128085060635E+04   -0.37132E-04   -0.11054E-04  2392   0.260E-02    0.116E-01
RMM:   4    -0.128085057440E+04    0.31952E-04   -0.43801E-05  2319   0.125E-02    0.532E-02
RMM:   5    -0.128085058543E+04   -0.11024E-04   -0.15122E-05  1758   0.883E-03    0.314E-02
RMM:   6    -0.128085058824E+04   -0.28113E-05   -0.65129E-06  1660   0.547E-03    0.223E-02
RMM:   7    -0.128085059187E+04   -0.36287E-05   -0.74281E-06  1593   0.597E-03    0.320E-02
RMM:   8    -0.128085059097E+04    0.89403E-06   -0.39537E-06  1473   0.449E-03
 101 F= -.12898475E+04 E0= -.12898415E+04  d E =-.993089E-04  mag=    16.9998
 trial-energy change:   -0.000099  1 .order   -0.000104   -0.000132   -0.000076
 step:   0.2445(harm=  0.2445)  dis= 0.00246  next Energy= -1289.847592 (dE=-0.156E-03)
 bond charge predicted
       N       E                     dE             d eps       ncg     rms          rms(c)
DAV:   1    -0.128085030418E+04    0.28769E-03   -0.10980E-01  2160   0.646E-01    0.703E-02
RMM:   2    -0.128085050157E+04   -0.19739E-03   -0.22136E-03  2450   0.833E-02    0.596E-02
RMM:   3    -0.128085055597E+04   -0.54408E-04   -0.21573E-04  2401   0.359E-02    0.119E-01
RMM:   4    -0.128085052480E+04    0.31169E-04   -0.80473E-05  2490   0.175E-02    0.788E-02
RMM:   5    -0.128085052756E+04   -0.27549E-05   -0.22013E-05  1898   0.983E-03    0.562E-02
RMM:   6    -0.128085053087E+04   -0.33091E-05   -0.12758E-05  1849   0.763E-03    0.301E-02
RMM:   7    -0.128085053755E+04   -0.66825E-05   -0.14586E-05  1730   0.782E-03    0.370E-02
RMM:   8    -0.128085053795E+04   -0.39439E-06   -0.83515E-06  1617   0.630E-03
 102 F= -.12898476E+04 E0= -.12898415E+04  d E =-.130988E-03  mag=    16.9998
 curvature:  -2.33 expect dE=-0.261E-02 dE for cont linesearch -0.413E-06
 trial: gam= 0.85477 g(F)=  0.112E-02 g(S)=  0.000E+00 ort =-0.656E-04 (trialstep = 0.132E+00)
 search vector abs. value=  0.187E-01
 bond charge predicted
       N       E                     dE             d eps       ncg     rms          rms(c)
DAV:   1    -0.128085040570E+04    0.13186E-03   -0.75499E-02  2184   0.534E-01    0.604E-02
RMM:   2    -0.128085055379E+04   -0.14809E-03   -0.15243E-03  2475   0.695E-02    0.985E-02
RMM:   3    -0.128085061868E+04   -0.64887E-04   -0.18026E-04  2417   0.319E-02    0.218E-01
RMM:   4    -0.128085053660E+04    0.82073E-04   -0.83517E-05  2427   0.182E-02    0.712E-02
RMM:   5    -0.128085055749E+04   -0.20884E-04   -0.25190E-05  1866   0.117E-02    0.272E-02
RMM:   6    -0.128085056692E+04   -0.94348E-05   -0.95468E-06  1804   0.619E-03    0.293E-02
RMM:   7    -0.128085056860E+04   -0.16800E-05   -0.89030E-06  1627   0.658E-03    0.293E-02
RMM:   8    -0.128085057181E+04   -0.32132E-05   -0.77540E-06  1619   0.594E-03    0.273E-02
RMM:   9    -0.128085056999E+04    0.18268E-05   -0.37462E-06  1476   0.477E-03    0.112E-02
RMM:  10    -0.128085057041E+04   -0.42219E-06   -0.97501E-07  1301   0.237E-03
 103 F= -.12898477E+04 E0= -.12898416E+04  d E =-.963689E-04  mag=    16.9998
 trial-energy change:   -0.000096  1 .order   -0.000106   -0.000141   -0.000071
 step:   0.2672(harm=  0.2672)  dis= 0.00239  next Energy= -1289.847710 (dE=-0.142E-03)
 bond charge predicted
       N       E                     dE             d eps       ncg     rms          rms(c)
DAV:   1    -0.128085037075E+04    0.19924E-03   -0.79250E-02  2208   0.546E-01    0.605E-02
RMM:   2    -0.128085051469E+04   -0.14395E-03   -0.15894E-03  2432   0.707E-02    0.532E-02
RMM:   3    -0.128085056026E+04   -0.45568E-04   -0.16412E-04  2376   0.316E-02    0.118E-01
RMM:   4    -0.128085053486E+04    0.25397E-04   -0.62888E-05  2439   0.152E-02    0.869E-02
RMM:   5    -0.128085052595E+04    0.89104E-05   -0.18464E-05  1823   0.965E-03    0.313E-02
RMM:   6    -0.128085053772E+04   -0.11770E-04   -0.10621E-05  1685   0.675E-03    0.349E-02
RMM:   7    -0.128085053629E+04    0.14316E-05   -0.78514E-06  1628   0.626E-03    0.194E-02
RMM:   8    -0.128085054230E+04   -0.60076E-05   -0.72161E-06  1665   0.574E-03    0.311E-02
RMM:   9    -0.128085053929E+04    0.30066E-05   -0.36869E-06  1455   0.471E-03    0.963E-03
RMM:  10    -0.128085054051E+04   -0.12174E-05   -0.10880E-06  1317   0.248E-03    0.795E-03
RMM:  11    -0.128085054056E+04   -0.47876E-07   -0.45058E-07  1249   0.174E-03
 104 F= -.12898477E+04 E0= -.12898417E+04  d E =-.131827E-03  mag=    16.9998
 curvature:  -2.35 expect dE=-0.183E-02 dE for cont linesearch -0.215E-06
 trial: gam= 0.49752 g(F)=  0.778E-03 g(S)=  0.000E+00 ort = 0.414E-04 (trialstep = 0.159E+00)
 search vector abs. value=  0.546E-02
 bond charge predicted
       N       E                     dE             d eps       ncg     rms          rms(c)
DAV:   1    -0.128085053862E+04    0.18943E-05   -0.32246E-02  2244   0.344E-01    0.424E-02
RMM:   2    -0.128085059610E+04   -0.57482E-04   -0.64373E-04  2475   0.461E-02    0.425E-02
RMM:   3    -0.128085063045E+04   -0.34348E-04   -0.77936E-05  2363   0.204E-02    0.125E-01
RMM:   4    -0.128085059325E+04    0.37200E-04   -0.33716E-05  2155   0.113E-02    0.523E-02
RMM:   5    -0.128085060353E+04   -0.10280E-04   -0.12724E-05  1637   0.820E-03    0.183E-02
RMM:   6    -0.128085060730E+04   -0.37733E-05   -0.46012E-06  1505   0.450E-03    0.246E-02
RMM:   7    -0.128085060658E+04    0.71550E-06   -0.34618E-06  1414   0.438E-03
 105 F= -.12898478E+04 E0= -.12898418E+04  d E =-.984640E-04  mag=    16.9998
 trial-energy change:   -0.000098  1 .order   -0.000107   -0.000127   -0.000086
 step:   0.4977(harm=  0.4977)  dis= 0.00249  next Energy= -1289.847898 (dE=-0.199E-03)
 bond charge predicted
       N       E                     dE             d eps       ncg     rms          rms(c)
DAV:   1    -0.128085027712E+04    0.33018E-03   -0.14580E-01  2160   0.732E-01    0.916E-02
RMM:   2    -0.128085056318E+04   -0.28606E-03   -0.29209E-03  2449   0.994E-02    0.118E-01
RMM:   3    -0.128085065330E+04   -0.90115E-04   -0.36953E-04  2402   0.451E-02    0.219E-01
RMM:   4    -0.128085058847E+04    0.64824E-04   -0.16343E-04  2617   0.239E-02    0.161E-01
RMM:   5    -0.128085056381E+04    0.24662E-04   -0.62301E-05  2099   0.174E-02    0.477E-02
RMM:   6    -0.128085058109E+04   -0.17281E-04   -0.23820E-05  1912   0.953E-03    0.487E-02
RMM:   7    -0.128085057981E+04    0.12791E-05   -0.14578E-05  1955   0.780E-03    0.269E-02
RMM:   8    -0.128085058663E+04   -0.68233E-05   -0.15088E-05  1839   0.798E-03    0.329E-02
RMM:   9    -0.128085058510E+04    0.15316E-05   -0.78312E-06  1574   0.626E-03    0.237E-02
RMM:  10    -0.128085058435E+04    0.75520E-06   -0.27602E-06  1454   0.409E-03
 106 F= -.12898478E+04 E0= -.12898418E+04  d E =-.145173E-03  mag=    16.9998
 curvature:  -1.70 expect dE=-0.174E-02 dE for cont linesearch -0.657E-05
 ZBRENT: interpolating
 opt :   0.4263  next Energy= -1289.847849 (dE=-0.150E-03)
 bond charge predicted
       N       E                     dE             d eps       ncg     rms          rms(c)
DAV:   1    -0.128085059417E+04   -0.90666E-05   -0.65265E-03  2352   0.155E-01    0.204E-02
RMM:   2    -0.128085061007E+04   -0.15901E-04   -0.13303E-04  2514   0.217E-02    0.418E-02
RMM:   3    -0.128085060914E+04    0.93353E-06   -0.18240E-05  1918   0.101E-02    0.386E-02
RMM:   4    -0.128085061141E+04   -0.22726E-05   -0.70905E-06  1594   0.558E-03    0.484E-02
RMM:   5    -0.128085060654E+04    0.48656E-05   -0.34168E-06  1432   0.477E-03    0.784E-03
RMM:   6    -0.128085061041E+04   -0.38611E-05   -0.12678E-06  1299   0.275E-03    0.100E-02
RMM:   7    -0.128085061157E+04   -0.11622E-05   -0.97327E-07  1285   0.249E-03    0.787E-03
RMM:   8    -0.128085061253E+04   -0.95810E-06   -0.77922E-07  1267   0.218E-03
 107 F= -.12898479E+04 E0= -.12898418E+04  d E =-.158843E-03  mag=    16.9998
 curvature:  -1.34 expect dE=-0.971E-03 dE for cont linesearch -0.108E-05
 trial: gam= 1.08861 g(F)=  0.723E-03 g(S)=  0.000E+00 ort =-0.664E-04 (trialstep = 0.165E+00)
 search vector abs. value=  0.705E-02
 bond charge predicted
       N       E                     dE             d eps       ncg     rms          rms(c)
DAV:   1    -0.128085055502E+04    0.56544E-04   -0.44659E-02  2292   0.399E-01    0.535E-02
RMM:   2    -0.128085064552E+04   -0.90494E-04   -0.90576E-04  2535   0.541E-02    0.872E-02
RMM:   3    -0.128085068377E+04   -0.38251E-04   -0.11982E-04  2437   0.243E-02    0.169E-01
RMM:   4    -0.128085063446E+04    0.49307E-04   -0.61250E-05  2274   0.151E-02    0.647E-02
RMM:   5    -0.128085064542E+04   -0.10960E-04   -0.20095E-05  1751   0.103E-02    0.247E-02
RMM:   6    -0.128085065301E+04   -0.75852E-05   -0.85524E-06  1636   0.609E-03    0.363E-02
RMM:   7    -0.128085065023E+04    0.27772E-05   -0.63649E-06  1580   0.588E-03    0.160E-02
RMM:   8    -0.128085065470E+04   -0.44695E-05   -0.50026E-06  1526   0.481E-03    0.275E-02
RMM:   9    -0.128085065237E+04    0.23239E-05   -0.26759E-06  1412   0.413E-03    0.679E-03
RMM:  10    -0.128085065338E+04   -0.10047E-05   -0.65660E-07  1261   0.196E-03    0.646E-03
RMM:  11    -0.128085065339E+04   -0.65484E-08   -0.31409E-07  1238   0.149E-03
 108 F= -.12898479E+04 E0= -.12898419E+04  d E =-.809033E-04  mag=    16.9998
 trial-energy change:   -0.000081  1 .order   -0.000079   -0.000107   -0.000051
 step:   0.3147(harm=  0.3147)  dis= 0.00172  next Energy= -1289.847960 (dE=-0.102E-03)
 bond charge predicted
       N       E                     dE             d eps       ncg     rms          rms(c)
DAV:   1    -0.128085055347E+04    0.99913E-04   -0.37099E-02  2220   0.364E-01    0.485E-02
RMM:   2    -0.128085062836E+04   -0.74891E-04   -0.75734E-04  2521   0.494E-02    0.783E-02
RMM:   3    -0.128085065987E+04   -0.31511E-04   -0.99639E-05  2416   0.223E-02    0.154E-01
RMM:   4    -0.128085061821E+04    0.41655E-04   -0.50240E-05  2215   0.137E-02    0.574E-02
RMM:   5    -0.128085062887E+04   -0.10660E-04   -0.16850E-05  1700   0.920E-03    0.221E-02
RMM:   6    -0.128085063497E+04   -0.60972E-05   -0.66362E-06  1605   0.546E-03    0.316E-02
RMM:   7    -0.128085063357E+04    0.13991E-05   -0.57128E-06  1578   0.567E-03    0.187E-02
RMM:   8    -0.128085063629E+04   -0.27149E-05   -0.45539E-06  1527   0.478E-03    0.213E-02
RMM:   9    -0.128085063544E+04    0.84426E-06   -0.23217E-06  1388   0.382E-03
 109 F= -.12898480E+04 E0= -.12898419E+04  d E =-.994688E-04  mag=    16.9998
 curvature:  -1.71 expect dE=-0.214E-02 dE for cont linesearch -0.912E-09
 trial: gam= 1.66424 g(F)=  0.125E-02 g(S)=  0.000E+00 ort = 0.194E-05 (trialstep = 0.660E-01)
 search vector abs. value=  0.208E-01
 bond charge predicted
       N       E                     dE             d eps       ncg     rms          rms(c)
DAV:   1    -0.128085062681E+04    0.94739E-05   -0.21220E-02  2244   0.276E-01    0.357E-02
RMM:   2    -0.128085066995E+04   -0.43132E-04   -0.42964E-04  2516   0.377E-02    0.638E-02
RMM:   3    -0.128085068331E+04   -0.13361E-04   -0.56544E-05  2333   0.169E-02    0.110E-01
RMM:   4    -0.128085066459E+04    0.18714E-04   -0.28499E-05  2004   0.104E-02    0.485E-02
RMM:   5    -0.128085066977E+04   -0.51798E-05   -0.98969E-06  1591   0.743E-03    0.159E-02
RMM:   6    -0.128085067337E+04   -0.35988E-05   -0.37486E-06  1445   0.414E-03    0.215E-02
RMM:   7    -0.128085067347E+04   -0.97571E-07   -0.25322E-06  1379   0.381E-03
 110 F= -.12898480E+04 E0= -.12898420E+04  d E =-.680760E-04  mag=    16.9998
 ZBRENT: can't locate minimum, use default step
 trial-energy change:   -0.000068  1 .order   -0.000074   -0.000083   -0.000064
 step:   0.2640(harm=  0.2951)  dis= 0.00246  next Energy= -1289.848143 (dE=-0.186E-03)
 bond charge predicted
       N       E                     dE             d eps       ncg     rms          rms(c)
DAV:   1    -0.128085024775E+04    0.42563E-03   -0.19103E-01  2160   0.827E-01    0.106E-01
RMM:   2    -0.128085063775E+04   -0.39001E-03   -0.38252E-03  2510   0.113E-01    0.156E-01
RMM:   3    -0.128085077986E+04   -0.14211E-03   -0.49424E-04  2457   0.505E-02    0.300E-01
RMM:   4    -0.128085064044E+04    0.13942E-03   -0.23628E-04  2625   0.290E-02    0.153E-01
RMM:   5    -0.128085063989E+04    0.55172E-06   -0.84728E-05  2143   0.206E-02    0.502E-02
RMM:   6    -0.128085066003E+04   -0.20136E-04   -0.31753E-05  2015   0.108E-02    0.633E-02
RMM:   7    -0.128085065464E+04    0.53868E-05   -0.20205E-05  2026   0.925E-03    0.261E-02
RMM:   8    -0.128085066915E+04   -0.14513E-04   -0.15548E-05  1839   0.818E-03    0.493E-02
RMM:   9    -0.128085066228E+04    0.68746E-05   -0.87695E-06  1583   0.666E-03    0.164E-02
RMM:  10    -0.128085066465E+04   -0.23751E-05   -0.20536E-06  1418   0.346E-03    0.783E-03
RMM:  11    -0.128085066521E+04   -0.55219E-06   -0.80073E-07  1299   0.223E-03
 111 F= -.12898481E+04 E0= -.12898421E+04  d E =-.149817E-03  mag=    16.9998
 curvature:  -2.39 expect dE=-0.158E-02 dE for cont linesearch -0.490E-07
 trial: gam= 0.49860 g(F)=  0.661E-03 g(S)=  0.000E+00 ort =-0.206E-04 (trialstep = 0.106E+00)
 search vector abs. value=  0.581E-02
 bond charge predicted
       N       E                     dE             d eps       ncg     rms          rms(c)
DAV:   1    -0.128085065674E+04    0.79169E-05   -0.14554E-02  2304   0.230E-01    0.279E-02
RMM:   2    -0.128085068396E+04   -0.27226E-04   -0.30743E-04  2537   0.313E-02    0.363E-02
RMM:   3    -0.128085070205E+04   -0.18089E-04   -0.36065E-05  2186   0.139E-02    0.100E-01
RMM:   4    -0.128085067857E+04    0.23482E-04   -0.16379E-05  1859   0.826E-03    0.301E-02
RMM:   5    -0.128085068683E+04   -0.82558E-05   -0.53872E-06  1546   0.605E-03    0.133E-02
RMM:   6    -0.128085068961E+04   -0.27795E-05   -0.20215E-06  1394   0.338E-03    0.119E-02
RMM:   7    -0.128085069062E+04   -0.10146E-05   -0.18950E-06  1418   0.351E-03    0.111E-02
RMM:   8    -0.128085069186E+04   -0.12392E-05   -0.17243E-06  1383   0.307E-03    0.141E-02
RMM:   9    -0.128085069172E+04    0.13587E-06   -0.89993E-07  1288   0.253E-03
 112 F= -.12898482E+04 E0= -.12898421E+04  d E =-.621380E-04  mag=    16.9998
 ZBRENT: can't locate minimum, use default step
 trial-energy change:   -0.000062  1 .order   -0.000062   -0.000069   -0.000054
 step:   0.4225(harm=  0.5006)  dis= 0.00205  next Energy= -1289.848270 (dE=-0.163E-03)
 bond charge predicted
       N       E                     dE             d eps       ncg     rms          rms(c)
DAV:   1    -0.128085037142E+04    0.32045E-03   -0.13090E-01  2160   0.691E-01    0.823E-02
RMM:   2    -0.128085060849E+04   -0.23707E-03   -0.27387E-03  2526   0.928E-02    0.577E-02
RMM:   3    -0.128085071401E+04   -0.10552E-03   -0.25125E-04  2435   0.373E-02    0.201E-01
RMM:   4    -0.128085062084E+04    0.93168E-04   -0.10528E-04  2536   0.188E-02    0.570E-02
RMM:   5    -0.128085065399E+04   -0.33148E-04   -0.29556E-05  1977   0.123E-02    0.542E-02
RMM:   6    -0.128085065235E+04    0.16403E-05   -0.11519E-05  1861   0.710E-03    0.269E-02
RMM:   7    -0.128085066660E+04   -0.14247E-04   -0.18147E-05  1899   0.866E-03    0.509E-02
RMM:   8    -0.128085066038E+04    0.62119E-05   -0.10617E-05  1613   0.705E-03    0.212E-02
RMM:   9    -0.128085066202E+04   -0.16408E-05   -0.43971E-06  1455   0.466E-03    0.151E-02
RMM:  10    -0.128085066231E+04   -0.28994E-06   -0.13902E-06  1372   0.288E-03
 113 F= -.12898482E+04 E0= -.12898422E+04  d E =-.139480E-03  mag=    16.9998
 curvature:  -2.14 expect dE=-0.146E-02 dE for cont linesearch -0.313E-06
 trial: gam= 1.00939 g(F)=  0.682E-03 g(S)=  0.000E+00 ort = 0.291E-04 (trialstep = 0.147E+00)
 search vector abs. value=  0.666E-02
 bond charge predicted
       N       E                     dE             d eps       ncg     rms          rms(c)
DAV:   1    -0.128085060402E+04    0.58010E-04   -0.33622E-02  2244   0.345E-01    0.402E-02
RMM:   2    -0.128085066330E+04   -0.59282E-04   -0.69644E-04  2491   0.450E-02    0.321E-02
RMM:   3    -0.128085068107E+04   -0.17776E-04   -0.64836E-05  2341   0.191E-02    0.594E-02
RMM:   4    -0.128085067280E+04    0.82745E-05   -0.23794E-05  2040   0.965E-03    0.429E-02
RMM:   5    -0.128085067267E+04    0.13025E-06   -0.68302E-06  1582   0.591E-03
 114 F= -.12898483E+04 E0= -.12898422E+04  d E =-.765208E-04  mag=    16.9998
 trial-energy change:   -0.000077  1 .order   -0.000081   -0.000105   -0.000057
 step:   0.3250(harm=  0.3250)  dis= 0.00162  next Energy= -1289.848362 (dE=-0.116E-03)
 bond charge predicted
       N       E                     dE             d eps       ncg     rms          rms(c)
DAV:   1    -0.128085053051E+04    0.14229E-03   -0.48708E-02  2172   0.416E-01    0.546E-02
RMM:   2    -0.128085064720E+04   -0.11670E-03   -0.10387E-03  2443   0.577E-02    0.120E-01
RMM:   3    -0.128085061937E+04    0.27830E-04   -0.13218E-04  2395   0.277E-02    0.773E-02
RMM:   4    -0.128085064438E+04   -0.25000E-04   -0.48727E-05  2305   0.133E-02    0.126E-01
RMM:   5    -0.128085060755E+04    0.36827E-04   -0.20626E-05  1790   0.101E-02    0.310E-02
RMM:   6    -0.128085062721E+04   -0.19660E-04   -0.13321E-05  1686   0.780E-03    0.312E-02
RMM:   7    -0.128085063033E+04   -0.31250E-05   -0.97225E-06  1807   0.639E-03    0.255E-02
RMM:   8    -0.128085063209E+04   -0.17611E-05   -0.67397E-06  1548   0.575E-03    0.240E-02
RMM:   9    -0.128085063223E+04   -0.13140E-06   -0.32491E-06  1457   0.422E-03
 115 F= -.12898484E+04 E0= -.12898423E+04  d E =-.115776E-03  mag=    16.9998
 curvature:  -1.52 expect dE=-0.121E-02 dE for cont linesearch -0.577E-06
 trial: gam= 1.18160 g(F)=  0.797E-03 g(S)=  0.000E+00 ort = 0.502E-04 (trialstep = 0.119E+00)
 search vector abs. value=  0.102E-01
 bond charge predicted
       N       E                     dE             d eps       ncg     rms          rms(c)
DAV:   1    -0.128085056954E+04    0.62551E-04   -0.32870E-02  2172   0.341E-01    0.411E-02
RMM:   2    -0.128085063397E+04   -0.64426E-04   -0.70748E-04  2562   0.455E-02    0.634E-02
RMM:   3    -0.128085066321E+04   -0.29242E-04   -0.81256E-05  2394   0.201E-02    0.144E-01
RMM:   4    -0.128085062469E+04    0.38520E-04   -0.37855E-05  2127   0.119E-02    0.480E-02
RMM:   5    -0.128085063660E+04   -0.11907E-04   -0.11184E-05  1636   0.799E-03    0.198E-02
RMM:   6    -0.128085064303E+04   -0.64321E-05   -0.51955E-06  1539   0.486E-03    0.271E-02
RMM:   7    -0.128085064214E+04    0.89288E-06   -0.45227E-06  1480   0.500E-03
 116 F= -.12898484E+04 E0= -.12898424E+04  d E =-.769066E-04  mag=    16.9998
 trial-energy change:   -0.000077  1 .order   -0.000086   -0.000102   -0.000069
 step:   0.3702(harm=  0.3702)  dis= 0.00202  next Energy= -1289.848521 (dE=-0.159E-03)
 bond charge predicted
       N       E                     dE             d eps       ncg     rms          rms(c)
DAV:   1    -0.128085022663E+04    0.41640E-03   -0.14534E-01  2160   0.717E-01    0.862E-02
RMM:   2    -0.128085050829E+04   -0.28167E-03   -0.31030E-03  2523   0.949E-02    0.911E-02
RMM:   3    -0.128085060221E+04   -0.93917E-04   -0.33820E-04  2444   0.423E-02    0.202E-01
RMM:   4    -0.128085053358E+04    0.68628E-04   -0.13704E-04  2558   0.217E-02    0.137E-01
RMM:   5    -0.128085052296E+04    0.10625E-04   -0.46569E-05  2026   0.150E-02    0.453E-02
RMM:   6    -0.128085054354E+04   -0.20579E-04   -0.25089E-05  1911   0.981E-03    0.558E-02
RMM:   7    -0.128085053898E+04    0.45524E-05   -0.17338E-05  1873   0.841E-03    0.321E-02
RMM:   8    -0.128085055033E+04   -0.11343E-04   -0.16437E-05  1844   0.828E-03    0.446E-02
RMM:   9    -0.128085054632E+04    0.40090E-05   -0.87120E-06  1576   0.663E-03    0.211E-02
RMM:  10    -0.128085054713E+04   -0.81091E-06   -0.27464E-06  1427   0.397E-03
 117 F= -.12898485E+04 E0= -.12898425E+04  d E =-.122762E-03  mag=    16.9998
 curvature:  -2.21 expect dE=-0.339E-02 dE for cont linesearch -0.276E-05
 trial: gam= 2.14195 g(F)=  0.153E-02 g(S)=  0.000E+00 ort =-0.113E-03 (trialstep = 0.361E-01)
 search vector abs. value=  0.479E-01
 bond charge predicted
       N       E                     dE             d eps       ncg     rms          rms(c)
DAV:   1    -0.128085051476E+04    0.31559E-04   -0.14221E-02  2292   0.224E-01    0.269E-02
RMM:   2    -0.128085054193E+04   -0.27174E-04   -0.30138E-04  2555   0.301E-02    0.349E-02
RMM:   3    -0.128085054792E+04   -0.59911E-05   -0.34436E-05  2144   0.134E-02    0.468E-02
RMM:   4    -0.128085054682E+04    0.11066E-05   -0.11529E-05  1758   0.706E-03    0.485E-02
RMM:   5    -0.128085054213E+04    0.46830E-05   -0.40651E-06  1464   0.484E-03    0.136E-02
RMM:   6    -0.128085054666E+04   -0.45296E-05   -0.25258E-06  1424   0.377E-03    0.162E-02
RMM:   7    -0.128085054713E+04   -0.46474E-06   -0.13691E-06  1327   0.301E-03
 118 F= -.12898485E+04 E0= -.12898425E+04  d E =-.401767E-04  mag=    16.9998
 ZBRENT: can't locate minimum, use default step
 trial-energy change:   -0.000040  1 .order   -0.000043   -0.000047   -0.000040
 step:   0.1445(harm=  0.2375)  dis= 0.00176  next Energy= -1289.848639 (dE=-0.153E-03)
 bond charge predicted
       N       E                     dE             d eps       ncg     rms          rms(c)
DAV:   1    -0.128085022250E+04    0.32416E-03   -0.12798E-01  2160   0.671E-01    0.775E-02
RMM:   2    -0.128085047314E+04   -0.25064E-03   -0.26756E-03  2506   0.886E-02    0.950E-02
RMM:   3    -0.128085052837E+04   -0.55230E-04   -0.30011E-04  2420   0.397E-02    0.151E-01
RMM:   4    -0.128085051384E+04    0.14535E-04   -0.11173E-04  2521   0.195E-02    0.156E-01
RMM:   5    -0.128085046668E+04    0.47158E-04   -0.38626E-05  1996   0.136E-02    0.368E-02
RMM:   6    -0.128085049678E+04   -0.30101E-04   -0.21372E-05  1818   0.929E-03    0.495E-02
RMM:   7    -0.128085049470E+04    0.20785E-05   -0.11321E-05  1776   0.720E-03    0.280E-02
RMM:   8    -0.128085050542E+04   -0.10716E-04   -0.12703E-05  1735   0.731E-03    0.427E-02
RMM:   9    -0.128085050124E+04    0.41798E-05   -0.70968E-06  1529   0.600E-03    0.153E-02
RMM:  10    -0.128085050334E+04   -0.21029E-05   -0.23708E-06  1390   0.350E-03    0.157E-02
RMM:  11    -0.128085050311E+04    0.22577E-06   -0.85672E-07  1303   0.236E-03
 119 F= -.12898486E+04 E0= -.12898426E+04  d E =-.116611E-03  mag=    16.9998
 curvature:  -3.46 expect dE=-0.375E-02 dE for cont linesearch -0.128E-04
 ZBRENT: increasing intervall
 opt :   0.3613  next Energy= -1289.848547 (dE=-0.617E-04)
 bond charge predicted
       N       E                     dE             d eps       ncg     rms          rms(c)
DAV:   1    -0.128084907616E+04    0.14272E-02   -0.51279E-01  2160   0.134E+00    0.152E-01
RMM:   2    -0.128085004081E+04   -0.96465E-03   -0.10612E-02  2518   0.175E-01    0.107E-01
RMM:   3    -0.128085030660E+04   -0.26578E-03   -0.98389E-04  2465   0.710E-02    0.266E-01
RMM:   4    -0.128085017835E+04    0.12824E-03   -0.35690E-04  2739   0.328E-02    0.173E-01
RMM:   5    -0.128085016213E+04    0.16222E-04   -0.98645E-05  2197   0.209E-02    0.845E-02
RMM:   6    -0.128085018904E+04   -0.26906E-04   -0.50689E-05  2170   0.142E-02    0.729E-02
RMM:   7    -0.128085019256E+04   -0.35266E-05   -0.44575E-05  2033   0.129E-02    0.642E-02
RMM:   8    -0.128085021118E+04   -0.18617E-04   -0.37502E-05  2069   0.120E-02    0.626E-02
RMM:   9    -0.128085020264E+04    0.85382E-05   -0.19404E-05  1730   0.942E-03    0.282E-02
RMM:  10    -0.128085020502E+04   -0.23787E-05   -0.61997E-06  1550   0.544E-03    0.193E-02
RMM:  11    -0.128085020535E+04   -0.33013E-06   -0.22307E-06  1400   0.357E-03
 120 F= -.12898485E+04 E0= -.12898425E+04  d E =-.592725E-04  mag=    16.9998
 curvature:  14.81 expect dE= 0.395E-01 dE for cont linesearch  0.237E-03
 ZBRENT: bracketing found
 ZBRENT: interpolating
 opt :   0.2149  next Energy= -1289.848617 (dE=-0.131E-03)
 bond charge predicted
       N       E                     dE             d eps       ncg     rms          rms(c)
DAV:   1    -0.128084992552E+04    0.27950E-03   -0.23380E-01  2184   0.907E-01    0.103E-01
RMM:   2    -0.128085035665E+04   -0.43113E-03   -0.48315E-03  2518   0.118E-01    0.721E-02
RMM:   3    -0.128085046363E+04   -0.10698E-03   -0.43725E-04  2452   0.481E-02    0.134E-01
RMM:   4    -0.128085041764E+04    0.45997E-04   -0.15620E-04  2612   0.230E-02    0.794E-02
RMM:   5    -0.128085043152E+04   -0.13888E-04   -0.34909E-05  2013   0.115E-02    0.101E-01
RMM:   6    -0.128085042225E+04    0.92699E-05   -0.26209E-05  1964   0.106E-02    0.545E-02
RMM:   7    -0.128085043044E+04   -0.81843E-05   -0.20722E-05  1841   0.962E-03    0.377E-02
RMM:   8    -0.128085044282E+04   -0.12386E-04   -0.15017E-05  1920   0.803E-03    0.407E-02
RMM:   9    -0.128085043891E+04    0.39129E-05   -0.79254E-06  1576   0.632E-03    0.166E-02
RMM:  10    -0.128085044117E+04   -0.22584E-05   -0.23145E-06  1424   0.363E-03    0.135E-02
RMM:  11    -0.128085044098E+04    0.18879E-06   -0.10600E-06  1344   0.254E-03
 121 F= -.12898486E+04 E0= -.12898426E+04  d E =-.132597E-03  mag=    16.9998
 curvature:  -0.92 expect dE=-0.120E-02 dE for cont linesearch -0.538E-07
 trial: gam= 0.36496 g(F)=  0.130E-02 g(S)=  0.000E+00 ort =-0.528E-04 (trialstep = 0.719E-01)
 search vector abs. value=  0.764E-02
 bond charge predicted
       N       E                     dE             d eps       ncg     rms          rms(c)
DAV:   1    -0.128085048537E+04   -0.44203E-04   -0.92473E-03  2340   0.182E-01    0.225E-02
RMM:   2    -0.128085050092E+04   -0.15544E-04   -0.19486E-04  2520   0.245E-02    0.243E-02
RMM:   3    -0.128085051231E+04   -0.11388E-04   -0.21204E-05  1971   0.110E-02    0.755E-02
RMM:   4    -0.128085049681E+04    0.15496E-04   -0.97310E-06  1701   0.659E-03    0.228E-02
RMM:   5    -0.128085050331E+04   -0.64964E-05   -0.38021E-06  1474   0.506E-03    0.124E-02
RMM:   6    -0.128085050479E+04   -0.14825E-05   -0.18377E-06  1362   0.320E-03    0.143E-02
RMM:   7    -0.128085050450E+04    0.28501E-06   -0.15612E-06  1339   0.316E-03
 122 F= -.12898487E+04 E0= -.12898427E+04  d E =-.815201E-04  mag=    16.9998
 ZBRENT: can't locate minimum, use default step
 trial-energy change:   -0.000082  1 .order   -0.000083   -0.000092   -0.000075
 step:   0.2875(harm=  0.3775)  dis= 0.00134  next Energy= -1289.848860 (dE=-0.242E-03)
 bond charge predicted
       N       E                     dE             d eps       ncg     rms          rms(c)
DAV:   1    -0.128085038834E+04    0.11645E-03   -0.83031E-02  2160   0.546E-01    0.675E-02
RMM:   2    -0.128085054594E+04   -0.15760E-03   -0.17701E-03  2516   0.740E-02    0.889E-02
RMM:   3    -0.128085064033E+04   -0.94390E-04   -0.20173E-04  2433   0.332E-02    0.233E-01
RMM:   4    -0.128085052476E+04    0.11557E-03   -0.99570E-05  2473   0.195E-02    0.613E-02
RMM:   5    -0.128085055479E+04   -0.30033E-04   -0.30076E-05  1931   0.126E-02    0.365E-02
RMM:   6    -0.128085056678E+04   -0.11993E-04   -0.15928E-05  1883   0.818E-03    0.454E-02
RMM:   7    -0.128085056374E+04    0.30387E-05   -0.12287E-05  1745   0.761E-03    0.285E-02
RMM:   8    -0.128085056759E+04   -0.38452E-05   -0.85651E-06  1633   0.638E-03    0.233E-02
RMM:   9    -0.128085056760E+04   -0.15272E-07   -0.38998E-06  1481   0.485E-03
 123 F= -.12898488E+04 E0= -.12898428E+04  d E =-.198579E-03  mag=    16.9998
 curvature:  -1.03 expect dE=-0.104E-02 dE for cont linesearch -0.286E-05
 trial: gam= 0.72470 g(F)=  0.101E-02 g(S)=  0.000E+00 ort = 0.146E-03 (trialstep = 0.115E+00)
 search vector abs. value=  0.524E-02
 bond charge predicted
       N       E                     dE             d eps       ncg     rms          rms(c)
DAV:   1    -0.128085059817E+04   -0.30577E-04   -0.16088E-02  2256   0.240E-01    0.388E-02
RMM:   2    -0.128085065098E+04   -0.52808E-04   -0.39798E-04  2553   0.358E-02    0.124E-01
RMM:   3    -0.128085062188E+04    0.29092E-04   -0.54657E-05  2287   0.163E-02    0.740E-02
RMM:   4    -0.128085063412E+04   -0.12239E-04   -0.25224E-05  1931   0.105E-02    0.408E-02
RMM:   5    -0.128085063275E+04    0.13710E-05   -0.72190E-06  1579   0.666E-03    0.246E-02
RMM:   6    -0.128085063807E+04   -0.53220E-05   -0.77951E-06  1591   0.586E-03    0.375E-02
RMM:   7    -0.128085063389E+04    0.41872E-05   -0.70891E-06  1555   0.599E-03    0.213E-02
RMM:   8    -0.128085063593E+04   -0.20395E-05   -0.33493E-06  1466   0.424E-03    0.203E-02
RMM:   9    -0.128085063528E+04    0.64240E-06   -0.15207E-06  1345   0.316E-03
 124 F= -.12898489E+04 E0= -.12898429E+04  d E =-.806851E-04  mag=    16.9998
 trial-energy change:   -0.000081  1 .order   -0.000085   -0.000129   -0.000040
 step:   0.1675(harm=  0.1675)  dis= 0.00065  next Energy= -1289.848910 (dE=-0.938E-04)
 bond charge predicted
       N       E                     dE             d eps       ncg     rms          rms(c)
DAV:   1    -0.128085062997E+04    0.59593E-05   -0.33508E-03  2328   0.110E-01    0.175E-02
RMM:   2    -0.128085063843E+04   -0.84664E-05   -0.82569E-05  2535   0.163E-02    0.410E-02
RMM:   3    -0.128085063693E+04    0.15010E-05   -0.10651E-05  1673   0.742E-03    0.442E-02
RMM:   4    -0.128085063558E+04    0.13481E-05   -0.53461E-06  1522   0.514E-03    0.178E-02
RMM:   5    -0.128085063698E+04   -0.13932E-05   -0.17498E-06  1358   0.354E-03    0.109E-02
RMM:   6    -0.128085063812E+04   -0.11401E-05   -0.15512E-06  1365   0.289E-03    0.153E-02
RMM:   7    -0.128085063790E+04    0.21271E-06   -0.16832E-06  1355   0.314E-03
 125 F= -.12898489E+04 E0= -.12898429E+04  d E =-.892577E-04  mag=    16.9998
 curvature:  -0.39 expect dE=-0.241E-03 dE for cont linesearch -0.118E-07
 trial: gam= 0.70545 g(F)=  0.615E-03 g(S)=  0.000E+00 ort = 0.126E-04 (trialstep = 0.126E+00)
 search vector abs. value=  0.324E-02
 bond charge predicted
       N       E                     dE             d eps       ncg     rms          rms(c)
DAV:   1    -0.128085066354E+04   -0.25428E-04   -0.12270E-02  2244   0.209E-01    0.304E-02
RMM:   2    -0.128085068532E+04   -0.21772E-04   -0.25071E-04  2606   0.294E-02    0.311E-02
RMM:   3    -0.128085069652E+04   -0.11203E-04   -0.35010E-05  2167   0.131E-02    0.603E-02
RMM:   4    -0.128085068908E+04    0.74442E-05   -0.12557E-05  1698   0.727E-03    0.496E-02
RMM:   5    -0.128085068718E+04    0.18991E-05   -0.52768E-06  1491   0.555E-03    0.148E-02
RMM:   6    -0.128085069037E+04   -0.31924E-05   -0.22460E-06  1389   0.347E-03    0.145E-02
RMM:   7    -0.128085069058E+04   -0.20993E-06   -0.15063E-06  1348   0.301E-03
 126 F= -.12898490E+04 E0= -.12898430E+04  d E =-.618857E-04  mag=    16.9998
 trial-energy change:   -0.000062  1 .order   -0.000065   -0.000078   -0.000052
 step:   0.3753(harm=  0.3753)  dis= 0.00123  next Energy= -1289.849023 (dE=-0.117E-03)
 bond charge predicted
       N       E                     dE             d eps       ncg     rms          rms(c)
DAV:   1    -0.128085060520E+04    0.85170E-04   -0.48581E-02  2196   0.415E-01    0.613E-02
RMM:   2    -0.128085070734E+04   -0.10214E-03   -0.99215E-04  2560   0.586E-02    0.102E-01
RMM:   3    -0.128085075738E+04   -0.50042E-04   -0.15392E-04  2471   0.274E-02    0.195E-01
RMM:   4    -0.128085069286E+04    0.64526E-04   -0.78919E-05  2316   0.171E-02    0.812E-02
RMM:   5    -0.128085070232E+04   -0.94689E-05   -0.27128E-05  1853   0.117E-02    0.247E-02
RMM:   6    -0.128085070996E+04   -0.76306E-05   -0.87590E-06  1656   0.604E-03    0.300E-02
RMM:   7    -0.128085071031E+04   -0.35735E-06   -0.65169E-06  1575   0.573E-03
 127 F= -.12898490E+04 E0= -.12898430E+04  d E =-.999329E-04  mag=    16.9998
 curvature:  -0.97 expect dE=-0.593E-03 dE for cont linesearch -0.165E-09
 trial: gam= 0.88308 g(F)=  0.608E-03 g(S)=  0.000E+00 ort =-0.742E-06 (trialstep = 0.175E+00)
 search vector abs. value=  0.313E-02
 bond charge predicted
       N       E                     dE             d eps       ncg     rms          rms(c)
DAV:   1    -0.128085069770E+04    0.12250E-04   -0.24073E-02  2352   0.288E-01    0.471E-02
RMM:   2    -0.128085078519E+04   -0.87484E-04   -0.55446E-04  2548   0.448E-02    0.123E-01
RMM:   3    -0.128085073981E+04    0.45374E-04   -0.93334E-05  2428   0.211E-02    0.794E-02
RMM:   4    -0.128085075310E+04   -0.13285E-04   -0.37100E-05  2048   0.114E-02    0.932E-02
RMM:   5    -0.128085073994E+04    0.13163E-04   -0.14984E-05  1643   0.849E-03    0.347E-02
RMM:   6    -0.128085074500E+04   -0.50684E-05   -0.71316E-06  1531   0.604E-03    0.206E-02
RMM:   7    -0.128085074703E+04   -0.20249E-05   -0.45170E-06  1508   0.448E-03    0.190E-02
RMM:   8    -0.128085074732E+04   -0.29461E-06   -0.40896E-06  1522   0.476E-03
 128 F= -.12898491E+04 E0= -.12898431E+04  d E =-.673957E-04  mag=    16.9998
 trial-energy change:   -0.000067  1 .order   -0.000074   -0.000107   -0.000042
 step:   0.2882(harm=  0.2882)  dis= 0.00085  next Energy= -1289.849093 (dE=-0.876E-04)
 bond charge predicted
       N       E                     dE             d eps       ncg     rms          rms(c)
DAV:   1    -0.128085071332E+04    0.33705E-04   -0.99268E-03  2340   0.185E-01    0.293E-02
RMM:   2    -0.128085074010E+04   -0.26771E-04   -0.21527E-04  2552   0.279E-02    0.674E-02
RMM:   3    -0.128085073559E+04    0.45095E-05   -0.37303E-05  2143   0.133E-02    0.659E-02
RMM:   4    -0.128085073467E+04    0.91968E-06   -0.14456E-05  1715   0.755E-03    0.538E-02
RMM:   5    -0.128085073137E+04    0.32995E-05   -0.67146E-06  1546   0.638E-03    0.146E-02
RMM:   6    -0.128085073433E+04   -0.29658E-05   -0.23970E-06  1415   0.367E-03    0.132E-02
RMM:   7    -0.128085073519E+04   -0.85285E-06   -0.18897E-06  1386   0.320E-03
 129 F= -.12898491E+04 E0= -.12898431E+04  d E =-.747791E-04  mag=    16.9998
 curvature:  -0.74 expect dE=-0.541E-03 dE for cont linesearch -0.138E-06
 trial: gam= 1.14464 g(F)=  0.728E-03 g(S)=  0.000E+00 ort =-0.242E-04 (trialstep = 0.130E+00)
 search vector abs. value=  0.478E-02
 bond charge predicted
       N       E                     dE             d eps       ncg     rms          rms(c)
DAV:   1    -0.128085071292E+04    0.21417E-04   -0.19130E-02  2220   0.260E-01    0.381E-02
RMM:   2    -0.128085075543E+04   -0.42513E-04   -0.41918E-04  2559   0.370E-02    0.595E-02
RMM:   3    -0.128085075567E+04   -0.23958E-06   -0.58434E-05  2314   0.172E-02    0.527E-02
RMM:   4    -0.128085075539E+04    0.27729E-06   -0.17890E-05  1842   0.850E-03    0.497E-02
RMM:   5    -0.128085075121E+04    0.41841E-05   -0.62932E-06  1517   0.575E-03    0.351E-02
RMM:   6    -0.128085075340E+04   -0.21886E-05   -0.52110E-06  1493   0.500E-03    0.248E-02
RMM:   7    -0.128085075386E+04   -0.46402E-06   -0.40652E-06  1487   0.456E-03
 130 F= -.12898491E+04 E0= -.12898431E+04  d E =-.578604E-04  mag=    16.9998
 trial-energy change:   -0.000058  1 .order   -0.000065   -0.000091   -0.000039
 step:   0.2263(harm=  0.2263)  dis= 0.00088  next Energy= -1289.849160 (dE=-0.793E-04)
 bond charge predicted
       N       E                     dE             d eps       ncg     rms          rms(c)
DAV:   1    -0.128085071085E+04    0.42542E-04   -0.10511E-02  2292   0.194E-01    0.317E-02
RMM:   2    -0.128085074511E+04   -0.34254E-04   -0.25045E-04  2519   0.304E-02    0.771E-02
RMM:   3    -0.128085072779E+04    0.17313E-04   -0.41136E-05  2175   0.149E-02    0.322E-02
RMM:   4    -0.128085073529E+04   -0.74945E-05   -0.11143E-05  1736   0.701E-03    0.494E-02
RMM:   5    -0.128085072960E+04    0.56876E-05   -0.42443E-06  1452   0.484E-03    0.247E-02
RMM:   6    -0.128085073247E+04   -0.28657E-05   -0.32552E-06  1454   0.425E-03    0.181E-02
RMM:   7    -0.128085073348E+04   -0.10125E-05   -0.31361E-06  1470   0.406E-03    0.185E-02
RMM:   8    -0.128085073324E+04    0.23533E-06   -0.24771E-06  1435   0.386E-03
 131 F= -.12898491E+04 E0= -.12898431E+04  d E =-.663385E-04  mag=    16.9998
 curvature:  -0.77 expect dE=-0.547E-03 dE for cont linesearch -0.141E-06
 trial: gam= 0.94933 g(F)=  0.708E-03 g(S)=  0.000E+00 ort =-0.296E-04 (trialstep = 0.144E+00)
 search vector abs. value=  0.496E-02
 bond charge predicted
       N       E                     dE             d eps       ncg     rms          rms(c)
DAV:   1    -0.128085069519E+04    0.38290E-04   -0.23363E-02  2244   0.290E-01    0.380E-02
RMM:   2    -0.128085074198E+04   -0.46796E-04   -0.50927E-04  2547   0.401E-02    0.485E-02
RMM:   3    -0.128085075197E+04   -0.99885E-05   -0.65228E-05  2323   0.189E-02    0.646E-02
RMM:   4    -0.128085074558E+04    0.63888E-05   -0.21686E-05  1929   0.949E-03    0.518E-02
RMM:   5    -0.128085074111E+04    0.44772E-05   -0.60689E-06  1557   0.577E-03    0.250E-02
RMM:   6    -0.128085074547E+04   -0.43642E-05   -0.44324E-06  1484   0.469E-03    0.211E-02
RMM:   7    -0.128085074569E+04   -0.21420E-06   -0.27190E-06  1408   0.388E-03
 132 F= -.12898492E+04 E0= -.12898432E+04  d E =-.639870E-04  mag=    16.9998
 trial-energy change:   -0.000064  1 .order   -0.000071   -0.000098   -0.000044
 step:   0.2603(harm=  0.2603)  dis= 0.00101  next Energy= -1289.849235 (dE=-0.886E-04)
 bond charge predicted
       N       E                     dE             d eps       ncg     rms          rms(c)
DAV:   1    -0.128085068364E+04    0.61835E-04   -0.15321E-02  2232   0.236E-01    0.342E-02
RMM:   2    -0.128085072893E+04   -0.45292E-04   -0.35389E-04  2501   0.355E-02    0.864E-02
RMM:   3    -0.128085071036E+04    0.18571E-04   -0.53812E-05  2284   0.173E-02    0.500E-02
RMM:   4    -0.128085072223E+04   -0.11870E-04   -0.19285E-05  1881   0.841E-03    0.821E-02
RMM:   5    -0.128085070582E+04    0.16413E-04   -0.88257E-06  1607   0.710E-03    0.179E-02
RMM:   6    -0.128085071380E+04   -0.79821E-05   -0.40336E-06  1480   0.463E-03    0.171E-02
RMM:   7    -0.128085071565E+04   -0.18542E-05   -0.30113E-06  1452   0.388E-03    0.185E-02
RMM:   8    -0.128085071568E+04   -0.33178E-07   -0.26369E-06  1444   0.402E-03
 133 F= -.12898492E+04 E0= -.12898432E+04  d E =-.757957E-04  mag=    16.9998
 curvature:  -0.95 expect dE=-0.588E-03 dE for cont linesearch -0.392E-07
 trial: gam= 0.81064 g(F)=  0.620E-03 g(S)=  0.000E+00 ort =-0.143E-04 (trialstep = 0.167E+00)
 search vector abs. value=  0.385E-02
 bond charge predicted
       N       E                     dE             d eps       ncg     rms          rms(c)
DAV:   1    -0.128085067755E+04    0.38104E-04   -0.24687E-02  2220   0.299E-01    0.381E-02
RMM:   2    -0.128085072858E+04   -0.51034E-04   -0.53120E-04  2494   0.402E-02    0.525E-02
RMM:   3    -0.128085074012E+04   -0.11542E-04   -0.64562E-05  2301   0.188E-02    0.904E-02
RMM:   4    -0.128085072930E+04    0.10823E-04   -0.28456E-05  2053   0.101E-02    0.706E-02
RMM:   5    -0.128085072572E+04    0.35780E-05   -0.11403E-05  1672   0.829E-03    0.192E-02
RMM:   6    -0.128085073054E+04   -0.48234E-05   -0.43191E-06  1510   0.471E-03    0.194E-02
RMM:   7    -0.128085073192E+04   -0.13774E-05   -0.32955E-06  1460   0.416E-03    0.162E-02
RMM:   8    -0.128085073304E+04   -0.11159E-05   -0.28177E-06  1445   0.400E-03    0.134E-02
RMM:   9    -0.128085073386E+04   -0.81779E-06   -0.16399E-06  1363   0.309E-03
 134 F= -.12898493E+04 E0= -.12898433E+04  d E =-.809596E-04  mag=    16.9998
 trial-energy change:   -0.000081  1 .order   -0.000084   -0.000102   -0.000066
 step:   0.4837(harm=  0.4837)  dis= 0.00157  next Energy= -1289.849370 (dE=-0.147E-03)
 bond charge predicted
       N       E                     dE             d eps       ncg     rms          rms(c)
DAV:   1    -0.128085046823E+04    0.26480E-03   -0.88857E-02  2160   0.566E-01    0.702E-02
RMM:   2    -0.128085063386E+04   -0.16562E-03   -0.18652E-03  2435   0.735E-02    0.613E-02
RMM:   3    -0.128085074317E+04   -0.10932E-03   -0.20557E-04  2357   0.346E-02    0.231E-01
RMM:   4    -0.128085061673E+04    0.12644E-03   -0.95973E-05  2480   0.190E-02    0.568E-02
RMM:   5    -0.128085065306E+04   -0.36323E-04   -0.27802E-05  1936   0.125E-02    0.351E-02
RMM:   6    -0.128085066165E+04   -0.85929E-05   -0.11409E-05  1812   0.690E-03    0.390E-02
RMM:   7    -0.128085066073E+04    0.91964E-06   -0.98737E-06  1655   0.699E-03
 135 F= -.12898493E+04 E0= -.12898433E+04  d E =-.126745E-03  mag=    16.9998
 curvature:  -1.53 expect dE=-0.180E-02 dE for cont linesearch -0.125E-06
 trial: gam= 1.86081 g(F)=  0.117E-02 g(S)=  0.000E+00 ort = 0.177E-04 (trialstep = 0.609E-01)
 search vector abs. value=  0.146E-01
 bond charge predicted
       N       E                     dE             d eps       ncg     rms          rms(c)
DAV:   1    -0.128085064736E+04    0.14286E-04   -0.12173E-02  2244   0.209E-01    0.347E-02
RMM:   2    -0.128085070894E+04   -0.61578E-04   -0.31508E-04  2530   0.337E-02    0.131E-01
RMM:   3    -0.128085066445E+04    0.44494E-04   -0.56249E-05  2241   0.167E-02    0.793E-02
RMM:   4    -0.128085066920E+04   -0.47555E-05   -0.21684E-05  1850   0.947E-03    0.382E-02
RMM:   5    -0.128085067222E+04   -0.30191E-05   -0.55570E-06  1561   0.581E-03    0.184E-02
RMM:   6    -0.128085067349E+04   -0.12666E-05   -0.26393E-06  1432   0.389E-03    0.173E-02
RMM:   7    -0.128085067575E+04   -0.22618E-05   -0.31712E-06  1470   0.392E-03    0.174E-02
RMM:   8    -0.128085067624E+04   -0.48769E-06   -0.29800E-06  1481   0.412E-03
 136 F= -.12898494E+04 E0= -.12898434E+04  d E =-.633731E-04  mag=    16.9998
 trial-energy change:   -0.000063  1 .order   -0.000062   -0.000073   -0.000051
 step:   0.1998(harm=  0.1998)  dis= 0.00138  next Energy= -1289.849470 (dE=-0.120E-03)
 bond charge predicted
       N       E                     dE             d eps       ncg     rms          rms(c)
DAV:   1    -0.128085047410E+04    0.20165E-03   -0.64085E-02  2184   0.475E-01    0.592E-02
RMM:   2    -0.128085059579E+04   -0.12169E-03   -0.13746E-03  2495   0.617E-02    0.572E-02
RMM:   3    -0.128085064709E+04   -0.51303E-04   -0.14511E-04  2392   0.284E-02    0.152E-01
RMM:   4    -0.128085059797E+04    0.49125E-04   -0.60061E-05  2347   0.143E-02    0.661E-02
RMM:   5    -0.128085060865E+04   -0.10681E-04   -0.19341E-05  1806   0.104E-02    0.363E-02
RMM:   6    -0.128085061599E+04   -0.73448E-05   -0.13294E-05  1764   0.759E-03    0.383E-02
RMM:   7    -0.128085061493E+04    0.10629E-05   -0.12050E-05  1689   0.769E-03    0.283E-02
RMM:   8    -0.128085061832E+04   -0.33903E-05   -0.88643E-06  1597   0.641E-03    0.281E-02
RMM:   9    -0.128085061647E+04    0.18484E-05   -0.36675E-06  1476   0.483E-03    0.122E-02
RMM:  10    -0.128085061689E+04   -0.41248E-06   -0.12442E-06  1336   0.264E-03
 137 F= -.12898495E+04 E0= -.12898434E+04  d E =-.113184E-03  mag=    16.9998
 curvature:  -1.21 expect dE=-0.146E-02 dE for cont linesearch -0.194E-07
 trial: gam= 1.01395 g(F)=  0.121E-02 g(S)=  0.000E+00 ort =-0.153E-04 (trialstep = 0.800E-01)
 search vector abs. value=  0.162E-01
 bond charge predicted
       N       E                     dE             d eps       ncg     rms          rms(c)
DAV:   1    -0.128085057872E+04    0.37756E-04   -0.23334E-02  2256   0.288E-01    0.344E-02
RMM:   2    -0.128085062568E+04   -0.46960E-04   -0.49927E-04  2534   0.381E-02    0.392E-02
RMM:   3    -0.128085063337E+04   -0.76923E-05   -0.57512E-05  2276   0.174E-02    0.489E-02
RMM:   4    -0.128085062851E+04    0.48547E-05   -0.17464E-05  1878   0.849E-03    0.320E-02
RMM:   5    -0.128085062843E+04    0.82495E-07   -0.44184E-06  1500   0.503E-03
 138 F= -.12898495E+04 E0= -.12898436E+04  d E =-.795970E-04  mag=    16.9998
 trial-energy change:   -0.000080  1 .order   -0.000083   -0.000096   -0.000071
 step:   0.3092(harm=  0.3092)  dis= 0.00242  next Energy= -1289.849647 (dE=-0.185E-03)
 bond charge predicted
       N       E                     dE             d eps       ncg     rms          rms(c)
DAV:   1    -0.128085012544E+04    0.50308E-03   -0.19190E-01  2160   0.825E-01    0.989E-02
RMM:   2    -0.128085053563E+04   -0.41019E-03   -0.40526E-03  2475   0.109E-01    0.174E-01
RMM:   3    -0.128085063321E+04   -0.97575E-04   -0.46979E-04  2418   0.498E-02    0.308E-01
RMM:   4    -0.128085052305E+04    0.11015E-03   -0.23377E-04  2622   0.291E-02    0.158E-01
RMM:   5    -0.128085051606E+04    0.69936E-05   -0.79357E-05  2134   0.197E-02    0.428E-02
RMM:   6    -0.128085054486E+04   -0.28797E-04   -0.33404E-05  2080   0.108E-02    0.557E-02
RMM:   7    -0.128085054172E+04    0.31355E-05   -0.24446E-05  1911   0.973E-03    0.361E-02
RMM:   8    -0.128085055009E+04   -0.83686E-05   -0.14687E-05  1824   0.793E-03    0.339E-02
RMM:   9    -0.128085054881E+04    0.12764E-05   -0.74956E-06  1568   0.623E-03    0.238E-02
RMM:  10    -0.128085054871E+04    0.10048E-06   -0.26033E-06  1439   0.381E-03
 139 F= -.12898497E+04 E0= -.12898437E+04  d E =-.194759E-03  mag=    16.9998
 curvature:  -2.09 expect dE=-0.163E-02 dE for cont linesearch -0.227E-05
 trial: gam= 0.49342 g(F)=  0.778E-03 g(S)=  0.000E+00 ort = 0.133E-03 (trialstep = 0.126E+00)
 search vector abs. value=  0.485E-02
 bond charge predicted
       N       E                     dE             d eps       ncg     rms          rms(c)
DAV:   1    -0.128085053319E+04    0.15621E-04   -0.17794E-02  2268   0.252E-01    0.342E-02
RMM:   2    -0.128085056951E+04   -0.36314E-04   -0.40128E-04  2479   0.337E-02    0.416E-02
RMM:   3    -0.128085057632E+04   -0.68166E-05   -0.43748E-05  2170   0.160E-02    0.529E-02
RMM:   4    -0.128085057010E+04    0.62272E-05   -0.14305E-05  1867   0.793E-03    0.203E-02
RMM:   5    -0.128085057473E+04   -0.46346E-05   -0.59525E-06  1548   0.573E-03    0.380E-02
RMM:   6    -0.128085057614E+04   -0.14065E-05   -0.55870E-06  1489   0.490E-03    0.544E-02
RMM:   7    -0.128085056971E+04    0.64251E-05   -0.51937E-06  1463   0.504E-03    0.141E-02
RMM:   8    -0.128085057482E+04   -0.51135E-05   -0.26122E-06  1389   0.366E-03    0.125E-02
RMM:   9    -0.128085057473E+04    0.90367E-07   -0.11312E-06  1309   0.271E-03
 140 F= -.12898497E+04 E0= -.12898437E+04  d E =-.790791E-04  mag=    16.9998
 trial-energy change:   -0.000079  1 .order   -0.000078   -0.000106   -0.000050
 step:   0.2360(harm=  0.2360)  dis= 0.00093  next Energy= -1289.849757 (dE=-0.996E-04)
 bond charge predicted
       N       E                     dE             d eps       ncg     rms          rms(c)
DAV:   1    -0.128085051729E+04    0.57530E-04   -0.13639E-02  2244   0.220E-01    0.295E-02
RMM:   2    -0.128085054377E+04   -0.26471E-04   -0.30700E-04  2491   0.292E-02    0.371E-02
RMM:   3    -0.128085055527E+04   -0.11505E-04   -0.34224E-05  2079   0.139E-02    0.825E-02
RMM:   4    -0.128085054162E+04    0.13650E-04   -0.15029E-05  1833   0.766E-03    0.412E-02
RMM:   5    -0.128085054421E+04   -0.25870E-05   -0.63260E-06  1556   0.646E-03    0.172E-02
RMM:   6    -0.128085054833E+04   -0.41178E-05   -0.50502E-06  1513   0.472E-03    0.271E-02
RMM:   7    -0.128085054585E+04    0.24723E-05   -0.34407E-06  1434   0.438E-03    0.101E-02
RMM:   8    -0.128085054775E+04   -0.18958E-05   -0.18704E-06  1363   0.315E-03    0.137E-02
RMM:   9    -0.128085054731E+04    0.43747E-06   -0.93334E-07  1291   0.261E-03
 141 F= -.12898498E+04 E0= -.12898437E+04  d E =-.981352E-04  mag=    16.9998
 curvature:  -0.68 expect dE=-0.652E-03 dE for cont linesearch -0.266E-07
 trial: gam= 1.38101 g(F)=  0.962E-03 g(S)=  0.000E+00 ort =-0.138E-04 (trialstep = 0.705E-01)
 search vector abs. value=  0.102E-01
 bond charge predicted
       N       E                     dE             d eps       ncg     rms          rms(c)
DAV:   1    -0.128085053607E+04    0.11676E-04   -0.11196E-02  2244   0.202E-01    0.267E-02
RMM:   2    -0.128085055803E+04   -0.21959E-04   -0.25096E-04  2527   0.273E-02    0.308E-02
RMM:   3    -0.128085056466E+04   -0.66282E-05   -0.29569E-05  2072   0.131E-02    0.526E-02
RMM:   4    -0.128085056001E+04    0.46450E-05   -0.11169E-05  1764   0.718E-03    0.467E-02
RMM:   5    -0.128085055726E+04    0.27588E-05   -0.39126E-06  1455   0.489E-03    0.126E-02
RMM:   6    -0.128085056114E+04   -0.38859E-05   -0.24174E-06  1411   0.369E-03    0.177E-02
RMM:   7    -0.128085056070E+04    0.43850E-06   -0.17689E-06  1376   0.339E-03
 142 F= -.12898498E+04 E0= -.12898438E+04  d E =-.526968E-04  mag=    16.9998
 trial-energy change:   -0.000053  1 .order   -0.000056   -0.000066   -0.000045
 step:   0.2162(harm=  0.2162)  dis= 0.00113  next Energy= -1289.849857 (dE=-0.102E-03)
 bond charge predicted
       N       E                     dE             d eps       ncg     rms          rms(c)
DAV:   1    -0.128085041091E+04    0.15024E-03   -0.47817E-02  2172   0.418E-01    0.546E-02
RMM:   2    -0.128085050325E+04   -0.92348E-04   -0.10599E-03  2492   0.561E-02    0.564E-02
RMM:   3    -0.128085053403E+04   -0.30774E-04   -0.12166E-04  2374   0.267E-02    0.113E-01
RMM:   4    -0.128085051103E+04    0.22993E-04   -0.49319E-05  2302   0.140E-02    0.883E-02
RMM:   5    -0.128085050473E+04    0.63040E-05   -0.16845E-05  1754   0.936E-03    0.314E-02
RMM:   6    -0.128085051308E+04   -0.83481E-05   -0.90985E-06  1613   0.650E-03    0.301E-02
RMM:   7    -0.128085051354E+04   -0.45743E-06   -0.74688E-06  1620   0.597E-03
 143 F= -.12898498E+04 E0= -.12898438E+04  d E =-.867504E-04  mag=    16.9998
 curvature:  -1.17 expect dE=-0.831E-03 dE for cont linesearch -0.660E-08
 trial: gam= 0.59091 g(F)=  0.713E-03 g(S)=  0.000E+00 ort = 0.759E-05 (trialstep = 0.996E-01)
 search vector abs. value=  0.427E-02
 bond charge predicted
       N       E                     dE             d eps       ncg     rms          rms(c)
DAV:   1    -0.128085052082E+04   -0.77382E-05   -0.94281E-03  2304   0.185E-01    0.322E-02
RMM:   2    -0.128085057174E+04   -0.50921E-04   -0.25440E-04  2505   0.314E-02    0.113E-01
RMM:   3    -0.128085053042E+04    0.41322E-04   -0.49729E-05  2180   0.158E-02    0.309E-02
RMM:   4    -0.128085054394E+04   -0.13523E-04   -0.12725E-05  1757   0.700E-03    0.632E-02
RMM:   5    -0.128085053401E+04    0.99301E-05   -0.52429E-06  1494   0.537E-03    0.169E-02
RMM:   6    -0.128085053955E+04   -0.55417E-05   -0.27331E-06  1437   0.394E-03    0.148E-02
RMM:   7    -0.128085054101E+04   -0.14635E-05   -0.23089E-06  1423   0.343E-03    0.173E-02
RMM:   8    -0.128085054128E+04   -0.26281E-06   -0.20428E-06  1425   0.349E-03
 144 F= -.12898499E+04 E0= -.12898439E+04  d E =-.561098E-04  mag=    16.9998
 trial-energy change:   -0.000056  1 .order   -0.000059   -0.000071   -0.000046
 step:   0.2820(harm=  0.2820)  dis= 0.00111  next Energy= -1289.849943 (dE=-0.101E-03)
 bond charge predicted
       N       E                     dE             d eps       ncg     rms          rms(c)
DAV:   1    -0.128085045552E+04    0.85494E-04   -0.31772E-02  2220   0.335E-01    0.423E-02
RMM:   2    -0.128085051565E+04   -0.60125E-04   -0.69549E-04  2550   0.456E-02    0.495E-02
RMM:   3    -0.128085053888E+04   -0.23233E-04   -0.84485E-05  2408   0.206E-02    0.104E-01
RMM:   4    -0.128085051937E+04    0.19505E-04   -0.32291E-05  2042   0.107E-02    0.700E-02
RMM:   5    -0.128085051728E+04    0.20897E-05   -0.11600E-05  1649   0.798E-03    0.208E-02
RMM:   6    -0.128085052402E+04   -0.67332E-05   -0.58934E-06  1570   0.532E-03    0.286E-02
RMM:   7    -0.128085052272E+04    0.13009E-05   -0.44757E-06  1498   0.493E-03    0.160E-02
RMM:   8    -0.128085052614E+04   -0.34233E-05   -0.42846E-06  1509   0.439E-03    0.224E-02
RMM:   9    -0.128085052460E+04    0.15419E-05   -0.23967E-06  1400   0.388E-03    0.821E-03
RMM:  10    -0.128085052539E+04   -0.79474E-06   -0.73604E-07  1265   0.205E-03
 145 F= -.12898499E+04 E0= -.12898439E+04  d E =-.921088E-04  mag=    16.9998
 curvature:  -0.84 expect dE=-0.847E-03 dE for cont linesearch -0.333E-07
 trial: gam= 1.36613 g(F)=  0.101E-02 g(S)=  0.000E+00 ort =-0.130E-04 (trialstep = 0.650E-01)
 search vector abs. value=  0.895E-02
 bond charge predicted
       N       E                     dE             d eps       ncg     rms          rms(c)
DAV:   1    -0.128085053285E+04   -0.82481E-05   -0.87629E-03  2268   0.175E-01    0.227E-02
RMM:   2    -0.128085054956E+04   -0.16714E-04   -0.18526E-04  2577   0.233E-02    0.354E-02
RMM:   3    -0.128085055775E+04   -0.81861E-05   -0.21597E-05  1929   0.104E-02    0.756E-02
RMM:   4    -0.128085054508E+04    0.12663E-04   -0.99617E-06  1671   0.666E-03    0.212E-02
RMM:   5    -0.128085055068E+04   -0.55986E-05   -0.33319E-06  1469   0.484E-03    0.135E-02
RMM:   6    -0.128085055275E+04   -0.20674E-05   -0.21595E-06  1429   0.341E-03    0.156E-02
RMM:   7    -0.128085055270E+04    0.46319E-07   -0.20113E-06  1400   0.356E-03
 146 F= -.12898500E+04 E0= -.12898440E+04  d E =-.541776E-04  mag=    16.9998
 trial-energy change:   -0.000054  1 .order   -0.000055   -0.000064   -0.000046
 step:   0.2331(harm=  0.2331)  dis= 0.00140  next Energy= -1289.850050 (dE=-0.115E-03)
 bond charge predicted
       N       E                     dE             d eps       ncg     rms          rms(c)
DAV:   1    -0.128085040274E+04    0.15001E-03   -0.58573E-02  2172   0.453E-01    0.584E-02
RMM:   2    -0.128085051508E+04   -0.11235E-03   -0.12346E-03  2527   0.603E-02    0.802E-02
RMM:   3    -0.128085056209E+04   -0.47003E-04   -0.14408E-04  2430   0.278E-02    0.170E-01
RMM:   4    -0.128085050769E+04    0.54398E-04   -0.65873E-05  2339   0.153E-02    0.750E-02
RMM:   5    -0.128085051953E+04   -0.11843E-04   -0.23915E-05  1827   0.112E-02    0.330E-02
RMM:   6    -0.128085052895E+04   -0.94135E-05   -0.15324E-05  1803   0.800E-03    0.428E-02
RMM:   7    -0.128085052483E+04    0.41168E-05   -0.13083E-05  1745   0.776E-03    0.240E-02
RMM:   8    -0.128085052784E+04   -0.30089E-05   -0.73201E-06  1576   0.594E-03    0.222E-02
RMM:   9    -0.128085052705E+04    0.78537E-06   -0.29193E-06  1425   0.423E-03
 147 F= -.12898500E+04 E0= -.12898440E+04  d E =-.980371E-04  mag=    16.9998
 curvature:  -1.05 expect dE=-0.120E-02 dE for cont linesearch -0.740E-06
 trial: gam= 1.20281 g(F)=  0.114E-02 g(S)=  0.000E+00 ort =-0.793E-04 (trialstep = 0.635E-01)
 search vector abs. value=  0.139E-01
 bond charge predicted
       N       E                     dE             d eps       ncg     rms          rms(c)
DAV:   1    -0.128085051550E+04    0.12334E-04   -0.12942E-02  2304   0.212E-01    0.282E-02
RMM:   2    -0.128085055143E+04   -0.35922E-04   -0.28023E-04  2531   0.293E-02    0.773E-02
RMM:   3    -0.128085053985E+04    0.11580E-04   -0.36864E-05  2102   0.136E-02    0.672E-02
RMM:   4    -0.128085054232E+04   -0.24712E-05   -0.19657E-05  1818   0.860E-03    0.437E-02
RMM:   5    -0.128085054208E+04    0.23773E-06   -0.58770E-06  1497   0.594E-03
 148 F= -.12898501E+04 E0= -.12898441E+04  d E =-.532150E-04  mag=    16.9998
 trial-energy change:   -0.000053  1 .order   -0.000057   -0.000066   -0.000048
 step:   0.2233(harm=  0.2233)  dis= 0.00162  next Energy= -1289.850149 (dE=-0.117E-03)
 bond charge predicted
       N       E                     dE             d eps       ncg     rms          rms(c)
DAV:   1    -0.128085032886E+04    0.21346E-03   -0.82074E-02  2160   0.534E-01    0.677E-02
RMM:   2    -0.128085049638E+04   -0.16752E-03   -0.16814E-03  2527   0.702E-02    0.123E-01
RMM:   3    -0.128085053094E+04   -0.34556E-04   -0.20558E-04  2452   0.321E-02    0.193E-01
RMM:   4    -0.128085048714E+04    0.43803E-04   -0.10623E-04  2424   0.195E-02    0.969E-02
RMM:   5    -0.128085048857E+04   -0.14347E-05   -0.35127E-05  1930   0.130E-02    0.362E-02
RMM:   6    -0.128085049802E+04   -0.94502E-05   -0.15714E-05  1750   0.758E-03    0.419E-02
RMM:   7    -0.128085049687E+04    0.11515E-05   -0.10707E-05  1757   0.671E-03    0.219E-02
RMM:   8    -0.128085050295E+04   -0.60855E-05   -0.88691E-06  1678   0.614E-03    0.298E-02
RMM:   9    -0.128085050137E+04    0.15849E-05   -0.48541E-06  1494   0.520E-03    0.151E-02
RMM:  10    -0.128085050223E+04   -0.85721E-06   -0.14885E-06  1365   0.297E-03
 149 F= -.12898501E+04 E0= -.12898441E+04  d E =-.109408E-03  mag=    16.9998
 curvature:  -1.48 expect dE=-0.131E-02 dE for cont linesearch -0.728E-08
 trial: gam= 0.57245 g(F)=  0.887E-03 g(S)=  0.000E+00 ort = 0.826E-05 (trialstep = 0.954E-01)
 search vector abs. value=  0.545E-02
 bond charge predicted
       N       E                     dE             d eps       ncg     rms          rms(c)
DAV:   1    -0.128085050192E+04   -0.54695E-06   -0.10809E-02  2256   0.193E-01    0.291E-02
RMM:   2    -0.128085052489E+04   -0.22973E-04   -0.25119E-04  2548   0.267E-02    0.438E-02
RMM:   3    -0.128085053448E+04   -0.95915E-05   -0.31798E-05  2058   0.128E-02    0.855E-02
RMM:   4    -0.128085052030E+04    0.14178E-04   -0.15252E-05  1773   0.782E-03    0.412E-02
RMM:   5    -0.128085052398E+04   -0.36729E-05   -0.57069E-06  1552   0.623E-03    0.145E-02
RMM:   6    -0.128085052740E+04   -0.34266E-05   -0.31021E-06  1462   0.395E-03    0.225E-02
RMM:   7    -0.128085052626E+04    0.11391E-05   -0.29121E-06  1445   0.425E-03    0.103E-02
RMM:   8    -0.128085052799E+04   -0.17272E-05   -0.17868E-06  1363   0.305E-03    0.128E-02
RMM:   9    -0.128085052749E+04    0.50188E-06   -0.85500E-07  1290   0.249E-03
 150 F= -.12898502E+04 E0= -.12898442E+04  d E =-.681393E-04  mag=    16.9998
 trial-energy change:   -0.000068  1 .order   -0.000069   -0.000085   -0.000052
 step:   0.2473(harm=  0.2473)  dis= 0.00101  next Energy= -1289.850252 (dE=-0.110E-03)
 bond charge predicted
       N       E                     dE             d eps       ncg     rms          rms(c)
DAV:   1    -0.128085043492E+04    0.93068E-04   -0.27339E-02  2244   0.307E-01    0.452E-02
RMM:   2    -0.128085048610E+04   -0.51178E-04   -0.62531E-04  2506   0.411E-02    0.431E-02
RMM:   3    -0.128085052662E+04   -0.40519E-04   -0.70761E-05  2266   0.195E-02    0.147E-01
RMM:   4    -0.128085047321E+04    0.53412E-04   -0.33060E-05  2093   0.113E-02    0.329E-02
RMM:   5    -0.128085049291E+04   -0.19707E-04   -0.10876E-05  1671   0.811E-03    0.310E-02
RMM:   6    -0.128085049456E+04   -0.16432E-05   -0.53856E-06  1550   0.504E-03    0.271E-02
RMM:   7    -0.128085049605E+04   -0.14883E-05   -0.64074E-06  1571   0.577E-03    0.277E-02
RMM:   8    -0.128085049539E+04    0.65695E-06   -0.32804E-06  1461   0.443E-03
 151 F= -.12898502E+04 E0= -.12898442E+04  d E =-.104228E-03  mag=    16.9998
 curvature:  -0.76 expect dE=-0.870E-03 dE for cont linesearch -0.185E-07
 trial: gam= 1.34617 g(F)=  0.115E-02 g(S)=  0.000E+00 ort = 0.115E-04 (trialstep = 0.620E-01)
 search vector abs. value=  0.111E-01
 bond charge predicted
       N       E                     dE             d eps       ncg     rms          rms(c)
DAV:   1    -0.128085049169E+04    0.43510E-05   -0.93079E-03  2268   0.181E-01    0.257E-02
RMM:   2    -0.128085051656E+04   -0.24868E-04   -0.21416E-04  2596   0.253E-02    0.716E-02
RMM:   3    -0.128085051010E+04    0.64605E-05   -0.27172E-05  2032   0.114E-02    0.620E-02
RMM:   4    -0.128085051029E+04   -0.18837E-06   -0.13177E-05  1723   0.776E-03    0.322E-02
RMM:   5    -0.128085051065E+04   -0.36230E-06   -0.41903E-06  1478   0.532E-03
 152 F= -.12898503E+04 E0= -.12898443E+04  d E =-.569213E-04  mag=    16.9998
 trial-energy change:   -0.000057  1 .order   -0.000060   -0.000072   -0.000048
 step:   0.1809(harm=  0.1809)  dis= 0.00112  next Energy= -1289.850351 (dE=-0.106E-03)
 bond charge predicted
       N       E                     dE             d eps       ncg     rms          rms(c)
DAV:   1    -0.128085040751E+04    0.10278E-03   -0.34309E-02  2160   0.347E-01    0.489E-02
RMM:   2    -0.128085047354E+04   -0.66031E-04   -0.76063E-04  2517   0.478E-02    0.610E-02
RMM:   3    -0.128085048834E+04   -0.14795E-04   -0.94043E-05  2377   0.221E-02    0.935E-02
RMM:   4    -0.128085048123E+04    0.71055E-05   -0.36395E-05  2136   0.115E-02    0.892E-02
RMM:   5    -0.128085046692E+04    0.14313E-04   -0.15620E-05  1725   0.914E-03    0.280E-02
RMM:   6    -0.128085047913E+04   -0.12211E-04   -0.10664E-05  1667   0.715E-03    0.358E-02
RMM:   7    -0.128085047742E+04    0.17109E-05   -0.89082E-06  1676   0.666E-03    0.213E-02
RMM:   8    -0.128085047944E+04   -0.20178E-05   -0.55242E-06  1529   0.534E-03    0.202E-02
RMM:   9    -0.128085047921E+04    0.23194E-06   -0.25052E-06  1421   0.387E-03
 153 F= -.12898504E+04 E0= -.12898443E+04  d E =-.105353E-03  mag=    16.9998
 curvature:  -0.86 expect dE=-0.579E-03 dE for cont linesearch -0.750E-06
 trial: gam= 0.47422 g(F)=  0.676E-03 g(S)=  0.000E+00 ort = 0.984E-04 (trialstep = 0.858E-01)
 search vector abs. value=  0.326E-02
 bond charge predicted
       N       E                     dE             d eps       ncg     rms          rms(c)
DAV:   1    -0.128085048849E+04   -0.90502E-05   -0.54853E-03  2316   0.138E-01    0.179E-02
RMM:   2    -0.128085050114E+04   -0.12650E-04   -0.12258E-04  2547   0.185E-02    0.384E-02
RMM:   3    -0.128085050051E+04    0.63190E-06   -0.14379E-05  1743   0.855E-03    0.473E-02
RMM:   4    -0.128085049899E+04    0.15159E-05   -0.72262E-06  1578   0.553E-03    0.260E-02
RMM:   5    -0.128085049992E+04   -0.93094E-06   -0.25283E-06  1407   0.413E-03
 154 F= -.12898504E+04 E0= -.12898444E+04  d E =-.514827E-04  mag=    16.9998
 trial-energy change:   -0.000051  1 .order   -0.000053   -0.000062   -0.000044
 step:   0.2980(harm=  0.2980)  dis= 0.00124  next Energy= -1289.850459 (dE=-0.108E-03)
 bond charge predicted
       N       E                     dE             d eps       ncg     rms          rms(c)
DAV:   1    -0.128085041246E+04    0.86534E-04   -0.33627E-02  2172   0.339E-01    0.450E-02
RMM:   2    -0.128085048063E+04   -0.68177E-04   -0.73771E-04  2507   0.450E-02    0.748E-02
RMM:   3    -0.128085048355E+04   -0.29187E-05   -0.84044E-05  2347   0.215E-02    0.829E-02
RMM:   4    -0.128085048541E+04   -0.18536E-05   -0.32949E-05  2089   0.109E-02    0.961E-02
RMM:   5    -0.128085046745E+04    0.17961E-04   -0.14022E-05  1692   0.867E-03    0.218E-02
RMM:   6    -0.128085048093E+04   -0.13482E-04   -0.10217E-05  1705   0.654E-03    0.338E-02
RMM:   7    -0.128085047949E+04    0.14378E-05   -0.88394E-06  1601   0.639E-03    0.271E-02
RMM:   8    -0.128085047969E+04   -0.20467E-06   -0.41884E-06  1475   0.459E-03
 155 F= -.12898505E+04 E0= -.12898444E+04  d E =-.107357E-03  mag=    16.9998
 curvature:  -0.67 expect dE=-0.510E-03 dE for cont linesearch -0.591E-06
 trial: gam= 1.16089 g(F)=  0.759E-03 g(S)=  0.000E+00 ort = 0.535E-04 (trialstep = 0.792E-01)
 search vector abs. value=  0.527E-02
 bond charge predicted
       N       E                     dE             d eps       ncg     rms          rms(c)
DAV:   1    -0.128085047580E+04    0.36899E-05   -0.71828E-03  2268   0.158E-01    0.242E-02
RMM:   2    -0.128085049993E+04   -0.24133E-04   -0.18432E-04  2590   0.238E-02    0.690E-02
RMM:   3    -0.128085048835E+04    0.11583E-04   -0.23766E-05  1973   0.109E-02    0.485E-02
RMM:   4    -0.128085049156E+04   -0.32137E-05   -0.96384E-06  1650   0.618E-03    0.368E-02
RMM:   5    -0.128085049066E+04    0.90050E-06   -0.31305E-06  1449   0.464E-03
 156 F= -.12898505E+04 E0= -.12898445E+04  d E =-.463411E-04  mag=    16.9998
 trial-energy change:   -0.000046  1 .order   -0.000050   -0.000065   -0.000034
 step:   0.1680(harm=  0.1680)  dis= 0.00083  next Energy= -1289.850528 (dE=-0.690E-04)
 bond charge predicted
       N       E                     dE             d eps       ncg     rms          rms(c)
DAV:   1    -0.128085045333E+04    0.38232E-04   -0.90407E-03  2232   0.177E-01    0.337E-02
RMM:   2    -0.128085049221E+04   -0.38880E-04   -0.24455E-04  2488   0.288E-02    0.917E-02
RMM:   3    -0.128085046253E+04    0.29678E-04   -0.40194E-05  2104   0.150E-02    0.341E-02
RMM:   4    -0.128085047279E+04   -0.10260E-04   -0.11411E-05  1745   0.652E-03    0.567E-02
RMM:   5    -0.128085046602E+04    0.67720E-05   -0.49193E-06  1471   0.509E-03    0.246E-02
RMM:   6    -0.128085047121E+04   -0.51883E-05   -0.54503E-06  1562   0.538E-03    0.274E-02
RMM:   7    -0.128085047203E+04   -0.81661E-06   -0.63545E-06  1585   0.559E-03
 157 F= -.12898505E+04 E0= -.12898445E+04  d E =-.673808E-04  mag=    16.9998
 curvature:  -0.54 expect dE=-0.302E-03 dE for cont linesearch -0.946E-07
 trial: gam= 0.75068 g(F)=  0.560E-03 g(S)=  0.000E+00 ort = 0.304E-04 (trialstep = 0.970E-01)
 search vector abs. value=  0.358E-02
 bond charge predicted
       N       E                     dE             d eps       ncg     rms          rms(c)
DAV:   1    -0.128085046531E+04    0.58955E-05   -0.69700E-03  2364   0.157E-01    0.224E-02
RMM:   2    -0.128085048616E+04   -0.20848E-04   -0.17065E-04  2617   0.231E-02    0.521E-02
RMM:   3    -0.128085047877E+04    0.73962E-05   -0.23437E-05  1971   0.105E-02    0.368E-02
RMM:   4    -0.128085048421E+04   -0.54425E-05   -0.99289E-06  1629   0.616E-03    0.541E-02
RMM:   5    -0.128085047749E+04    0.67153E-05   -0.40075E-06  1468   0.507E-03    0.120E-02
RMM:   6    -0.128085048120E+04   -0.37072E-05   -0.18313E-06  1354   0.327E-03    0.109E-02
RMM:   7    -0.128085048209E+04   -0.88909E-06   -0.10216E-06  1296   0.237E-03
 158 F= -.12898506E+04 E0= -.12898445E+04  d E =-.462438E-04  mag=    16.9998
 trial-energy change:   -0.000046  1 .order   -0.000049   -0.000056   -0.000041
 step:   0.3498(harm=  0.3498)  dis= 0.00119  next Energy= -1289.850628 (dE=-0.102E-03)
 bond charge predicted
       N       E                     dE             d eps       ncg     rms          rms(c)
DAV:   1    -0.128085032997E+04    0.15123E-03   -0.47574E-02  2208   0.404E-01    0.550E-02
RMM:   2    -0.128085043512E+04   -0.10515E-03   -0.11075E-03  2594   0.554E-02    0.727E-02
RMM:   3    -0.128085044370E+04   -0.85825E-05   -0.13875E-04  2427   0.257E-02    0.817E-02
RMM:   4    -0.128085043718E+04    0.65169E-05   -0.43100E-05  2185   0.128E-02    0.788E-02
RMM:   5    -0.128085042493E+04    0.12252E-04   -0.13089E-05  1678   0.779E-03    0.385E-02
RMM:   6    -0.128085043438E+04   -0.94475E-05   -0.10292E-05  1627   0.697E-03    0.344E-02
RMM:   7    -0.128085043361E+04    0.77062E-06   -0.52823E-06  1563   0.525E-03
 159 F= -.12898506E+04 E0= -.12898447E+04  d E =-.920334E-04  mag=    16.9998
 curvature:  -1.07 expect dE=-0.852E-03 dE for cont linesearch -0.399E-06
 trial: gam= 1.31201 g(F)=  0.793E-03 g(S)=  0.000E+00 ort = 0.364E-04 (trialstep = 0.749E-01)
 search vector abs. value=  0.704E-02
 bond charge predicted
       N       E                     dE             d eps       ncg     rms          rms(c)
DAV:   1    -0.128085042586E+04    0.85164E-05   -0.84948E-03  2352   0.171E-01    0.362E-02
RMM:   2    -0.128085049948E+04   -0.73616E-04   -0.26814E-04  2515   0.319E-02    0.153E-01
RMM:   3    -0.128085042806E+04    0.71421E-04   -0.61651E-05  2202   0.180E-02    0.675E-02
RMM:   4    -0.128085043745E+04   -0.93883E-05   -0.15927E-05  1762   0.791E-03    0.326E-02
RMM:   5    -0.128085044146E+04   -0.40145E-05   -0.44965E-06  1530   0.525E-03    0.191E-02
RMM:   6    -0.128085044208E+04   -0.61816E-06   -0.23836E-06  1425   0.385E-03
 160 F= -.12898507E+04 E0= -.12898447E+04  d E =-.514738E-04  mag=    16.9998
 trial-energy change:   -0.000051  1 .order   -0.000052   -0.000063   -0.000040
 step:   0.2087(harm=  0.2087)  dis= 0.00103  next Energy= -1289.850706 (dE=-0.878E-04)
 bond charge predicted
       N       E                     dE             d eps       ncg     rms          rms(c)
DAV:   1    -0.128085034389E+04    0.97574E-04   -0.27237E-02  2208   0.302E-01    0.441E-02
RMM:   2    -0.128085040940E+04   -0.65513E-04   -0.62459E-04  2511   0.420E-02    0.927E-02
RMM:   3    -0.128085040409E+04    0.53104E-05   -0.78209E-05  2337   0.201E-02    0.102E-01
RMM:   4    -0.128085039567E+04    0.84191E-05   -0.35686E-05  2074   0.112E-02    0.673E-02
RMM:   5    -0.128085039529E+04    0.37697E-06   -0.13030E-05  1682   0.852E-03    0.286E-02
RMM:   6    -0.128085039894E+04   -0.36445E-05   -0.73890E-06  1592   0.605E-03    0.247E-02
RMM:   7    -0.128085040238E+04   -0.34386E-05   -0.88613E-06  1628   0.595E-03    0.314E-02
RMM:   8    -0.128085039972E+04    0.26599E-05   -0.53528E-06  1495   0.532E-03    0.135E-02
RMM:   9    -0.128085040139E+04   -0.16724E-05   -0.21376E-06  1373   0.324E-03    0.131E-02
RMM:  10    -0.128085040097E+04    0.42054E-06   -0.77379E-07  1273   0.238E-03
 161 F= -.12898507E+04 E0= -.12898447E+04  d E =-.871916E-04  mag=    16.9998
 curvature:  -0.87 expect dE=-0.833E-03 dE for cont linesearch -0.522E-07
 trial: gam= 1.16537 g(F)=  0.953E-03 g(S)=  0.000E+00 ort = 0.205E-04 (trialstep = 0.678E-01)
 search vector abs. value=  0.106E-01
 bond charge predicted
       N       E                     dE             d eps       ncg     rms          rms(c)
DAV:   1    -0.128085038525E+04    0.16141E-04   -0.10471E-02  2256   0.187E-01    0.223E-02
RMM:   2    -0.128085040488E+04   -0.19634E-04   -0.22521E-04  2509   0.242E-02    0.280E-02
RMM:   3    -0.128085040980E+04   -0.49193E-05   -0.24197E-05  1954   0.115E-02    0.469E-02
RMM:   4    -0.128085040653E+04    0.32705E-05   -0.94650E-06  1688   0.626E-03    0.420E-02
RMM:   5    -0.128085040481E+04    0.17225E-05   -0.35219E-06  1455   0.484E-03    0.115E-02
RMM:   6    -0.128085040791E+04   -0.31031E-05   -0.19986E-06  1379   0.331E-03    0.141E-02
RMM:   7    -0.128085040785E+04    0.59437E-07   -0.13622E-06  1319   0.290E-03
 162 F= -.12898508E+04 E0= -.12898448E+04  d E =-.565631E-04  mag=    16.9998
 ZBRENT: can't locate minimum, use default step
 trial-energy change:   -0.000057  1 .order   -0.000058   -0.000066   -0.000050
 step:   0.2711(harm=  0.2814)  dis= 0.00184  next Energy= -1289.850843 (dE=-0.137E-03)
 bond charge predicted
       N       E                     dE             d eps       ncg     rms          rms(c)
DAV:   1    -0.128085012278E+04    0.28513E-03   -0.94103E-02  2160   0.560E-01    0.661E-02
RMM:   2    -0.128085030465E+04   -0.18186E-03   -0.20166E-03  2475   0.722E-02    0.811E-02
RMM:   3    -0.128085035343E+04   -0.48781E-04   -0.21697E-04  2397   0.345E-02    0.160E-01
RMM:   4    -0.128085031338E+04    0.40045E-04   -0.92350E-05  2438   0.174E-02    0.113E-01
RMM:   5    -0.128085030557E+04    0.78148E-05   -0.32819E-05  1909   0.127E-02    0.338E-02
RMM:   6    -0.128085031871E+04   -0.13144E-04   -0.16303E-05  1790   0.792E-03    0.437E-02
RMM:   7    -0.128085031629E+04    0.24196E-05   -0.11539E-05  1747   0.704E-03    0.266E-02
RMM:   8    -0.128085032196E+04   -0.56723E-05   -0.11015E-05  1686   0.705E-03    0.321E-02
RMM:   9    -0.128085032049E+04    0.14699E-05   -0.53157E-06  1515   0.533E-03    0.164E-02
RMM:  10    -0.128085032079E+04   -0.29089E-06   -0.20971E-06  1408   0.342E-03
 163 F= -.12898508E+04 E0= -.12898448E+04  d E =-.118508E-03  mag=    16.9998
 curvature:  -1.52 expect dE=-0.188E-02 dE for cont linesearch -0.345E-06
 trial: gam= 1.36302 g(F)=  0.124E-02 g(S)=  0.000E+00 ort =-0.490E-04 (trialstep = 0.553E-01)
 search vector abs. value=  0.207E-01
 bond charge predicted
       N       E                     dE             d eps       ncg     rms          rms(c)
DAV:   1    -0.128085029578E+04    0.24716E-04   -0.13252E-02  2280   0.210E-01    0.246E-02
RMM:   2    -0.128085032125E+04   -0.25470E-04   -0.28573E-04  2560   0.276E-02    0.345E-02
RMM:   3    -0.128085032572E+04   -0.44742E-05   -0.30820E-05  2086   0.123E-02    0.474E-02
RMM:   4    -0.128085032457E+04    0.11575E-05   -0.11434E-05  1701   0.644E-03    0.498E-02
RMM:   5    -0.128085031989E+04    0.46752E-05   -0.42570E-06  1463   0.515E-03    0.117E-02
RMM:   6    -0.128085032416E+04   -0.42650E-05   -0.21083E-06  1400   0.336E-03    0.151E-02
RMM:   7    -0.128085032460E+04   -0.44471E-06   -0.18011E-06  1368   0.316E-03
 164 F= -.12898509E+04 E0= -.12898449E+04  d E =-.563370E-04  mag=    16.9998
 ZBRENT: can't locate minimum, use default step
 trial-energy change:   -0.000056  1 .order   -0.000060   -0.000065   -0.000055
 step:   0.2210(harm=  0.3706)  dis= 0.00222  next Energy= -1289.851040 (dE=-0.217E-03)
 bond charge predicted
       N       E                     dE             d eps       ncg     rms          rms(c)
DAV:   1    -0.128085001949E+04    0.30466E-03   -0.11927E-01  2160   0.630E-01    0.707E-02
RMM:   2    -0.128085024125E+04   -0.22176E-03   -0.25113E-03  2477   0.804E-02    0.795E-02
RMM:   3    -0.128085033805E+04   -0.96797E-04   -0.26500E-04  2402   0.371E-02    0.219E-01
RMM:   4    -0.128085024051E+04    0.97536E-04   -0.11416E-04  2502   0.193E-02    0.830E-02
RMM:   5    -0.128085026013E+04   -0.19616E-04   -0.31498E-05  1946   0.125E-02    0.375E-02
RMM:   6    -0.128085026844E+04   -0.83175E-05   -0.15507E-05  1831   0.783E-03    0.354E-02
RMM:   7    -0.128085027080E+04   -0.23573E-05   -0.13868E-05  1746   0.774E-03    0.337E-02
RMM:   8    -0.128085027523E+04   -0.44243E-05   -0.11976E-05  1667   0.697E-03    0.343E-02
RMM:   9    -0.128085027330E+04    0.19248E-05   -0.55432E-06  1498   0.543E-03    0.143E-02
RMM:  10    -0.128085027402E+04   -0.71432E-06   -0.20390E-06  1385   0.319E-03
 165 F= -.12898510E+04 E0= -.12898450E+04  d E =-.163269E-03  mag=    16.9998
 curvature:  -2.55 expect dE=-0.317E-02 dE for cont linesearch -0.212E-04
 ZBRENT: increasing intervall
 opt :   0.5526  next Energy= -1289.850932 (dE=-0.109E-03)
 bond charge predicted
       N       E                     dE             d eps       ncg     rms          rms(c)
DAV:   1    -0.128084885740E+04    0.14159E-02   -0.47787E-01  2160   0.126E+00    0.140E-01
RMM:   2    -0.128084975635E+04   -0.89895E-03   -0.10045E-02  2480   0.160E-01    0.107E-01
RMM:   3    -0.128085005416E+04   -0.29781E-03   -0.91717E-04  2416   0.697E-02    0.346E-01
RMM:   4    -0.128084981110E+04    0.24306E-03   -0.37960E-04  2727   0.330E-02    0.107E-01
RMM:   5    -0.128084986666E+04   -0.55561E-04   -0.99850E-05  2155   0.214E-02    0.761E-02
RMM:   6    -0.128084986617E+04    0.49236E-06   -0.44383E-05  2161   0.124E-02    0.593E-02
RMM:   7    -0.128084989287E+04   -0.26703E-04   -0.53292E-05  2077   0.141E-02    0.932E-02
RMM:   8    -0.128084987589E+04    0.16977E-04   -0.29151E-05  1980   0.110E-02    0.207E-02
RMM:   9    -0.128084988638E+04   -0.10487E-04   -0.93911E-06  1646   0.681E-03    0.315E-02
RMM:  10    -0.128084988461E+04    0.17668E-05   -0.41262E-06  1495   0.468E-03    0.123E-02
RMM:  11    -0.128084988611E+04   -0.15004E-05   -0.13272E-06  1378   0.282E-03    0.791E-03
RMM:  12    -0.128084988684E+04   -0.72827E-06   -0.55344E-07  1268   0.186E-03
 166 F= -.12898509E+04 E0= -.12898450E+04  d E =-.908654E-04  mag=    16.9997
 curvature:   6.59 expect dE= 0.384E-01 dE for cont linesearch  0.202E-03
 ZBRENT: bracketing found
 ZBRENT: interpolating
 opt :   0.3345  next Energy= -1289.851010 (dE=-0.187E-03)
 bond charge predicted
       N       E                     dE             d eps       ncg     rms          rms(c)
DAV:   1    -0.128084974007E+04    0.14604E-03   -0.20656E-01  2172   0.828E-01    0.923E-02
RMM:   2    -0.128085012368E+04   -0.38361E-03   -0.43260E-03  2480   0.105E-01    0.726E-02
RMM:   3    -0.128085026500E+04   -0.14132E-03   -0.40031E-04  2394   0.464E-02    0.250E-01
RMM:   4    -0.128085014011E+04    0.12489E-03   -0.16883E-04  2611   0.225E-02    0.826E-02
RMM:   5    -0.128085017337E+04   -0.33253E-04   -0.46246E-05  2027   0.155E-02    0.547E-02
RMM:   6    -0.128085018107E+04   -0.77038E-05   -0.25133E-05  1965   0.969E-03    0.528E-02
RMM:   7    -0.128085017988E+04    0.11898E-05   -0.20515E-05  1839   0.897E-03    0.347E-02
RMM:   8    -0.128085018959E+04   -0.97117E-05   -0.14541E-05  1856   0.786E-03    0.348E-02
RMM:   9    -0.128085018704E+04    0.25574E-05   -0.68389E-06  1575   0.609E-03    0.180E-02
RMM:  10    -0.128085018791E+04   -0.87381E-06   -0.26068E-06  1435   0.365E-03
 167 F= -.12898510E+04 E0= -.12898450E+04  d E =-.184986E-03  mag=    16.9997
 curvature:  -0.77 expect dE=-0.170E-02 dE for cont linesearch -0.163E-06
 trial: gam= 1.54152 g(F)=  0.222E-02 g(S)=  0.000E+00 ort =-0.663E-04 (trialstep = 0.449E-01)
 search vector abs. value=  0.513E-01
 bond charge predicted
       N       E                     dE             d eps       ncg     rms          rms(c)
DAV:   1    -0.128085016740E+04    0.19640E-04   -0.21788E-02  2292   0.267E-01    0.315E-02
RMM:   2    -0.128085020647E+04   -0.39074E-04   -0.45626E-04  2498   0.338E-02    0.349E-02
RMM:   3    -0.128085021449E+04   -0.80250E-05   -0.47155E-05  2154   0.158E-02    0.477E-02
RMM:   4    -0.128085020951E+04    0.49819E-05   -0.15832E-05  1839   0.791E-03    0.311E-02
RMM:   5    -0.128085021040E+04   -0.88520E-06   -0.40505E-06  1453   0.477E-03
 168 F= -.12898511E+04 E0= -.12898450E+04  d E =-.825368E-04  mag=    16.9997
 ZBRENT: can't locate minimum, use default step
 trial-energy change:   -0.000083  1 .order   -0.000085   -0.000095   -0.000075
 step:   0.1797(harm=  0.2117)  dis= 0.00269  next Energy= -1289.851232 (dE=-0.224E-03)
 bond charge predicted
       N       E                     dE             d eps       ncg     rms          rms(c)
DAV:   1    -0.128084973690E+04    0.47262E-03   -0.19559E-01  2160   0.800E-01    0.977E-02
RMM:   2    -0.128085013137E+04   -0.39447E-03   -0.41298E-03  2426   0.104E-01    0.168E-01
RMM:   3    -0.128085020407E+04   -0.72695E-04   -0.45097E-04  2383   0.488E-02    0.248E-01
RMM:   4    -0.128085013714E+04    0.66926E-04   -0.20014E-04  2614   0.256E-02    0.158E-01
RMM:   5    -0.128085011593E+04    0.21210E-04   -0.68757E-05  2087   0.181E-02    0.500E-02
RMM:   6    -0.128085014715E+04   -0.31224E-04   -0.45475E-05  2090   0.125E-02    0.766E-02
RMM:   7    -0.128085013306E+04    0.14093E-04   -0.37543E-05  2013   0.126E-02    0.386E-02
RMM:   8    -0.128085014360E+04   -0.10538E-04   -0.16633E-05  1790   0.862E-03    0.368E-02
RMM:   9    -0.128085014000E+04    0.35984E-05   -0.78169E-06  1570   0.638E-03    0.198E-02
RMM:  10    -0.128085014058E+04   -0.57612E-06   -0.26716E-06  1457   0.372E-03
 169 F= -.12898512E+04 E0= -.12898452E+04  d E =-.192806E-03  mag=    16.9997
 curvature:  -2.47 expect dE=-0.479E-02 dE for cont linesearch -0.453E-06
 trial: gam= 0.87115 g(F)=  0.194E-02 g(S)=  0.000E+00 ort = 0.969E-04 (trialstep = 0.719E-01)
 search vector abs. value=  0.410E-01
 bond charge predicted
       N       E                     dE             d eps       ncg     rms          rms(c)
DAV:   1    -0.128085009944E+04    0.40559E-04   -0.44290E-02  2280   0.383E-01    0.474E-02
RMM:   2    -0.128085018810E+04   -0.88655E-04   -0.93579E-04  2462   0.488E-02    0.733E-02
RMM:   3    -0.128085022595E+04   -0.37852E-04   -0.10933E-04  2306   0.233E-02    0.161E-01
RMM:   4    -0.128085017606E+04    0.49890E-04   -0.56451E-05  2255   0.142E-02    0.499E-02
RMM:   5    -0.128085018874E+04   -0.12677E-04   -0.15168E-05  1703   0.911E-03    0.183E-02
RMM:   6    -0.128085019576E+04   -0.70264E-05   -0.56248E-06  1616   0.481E-03    0.263E-02
RMM:   7    -0.128085019593E+04   -0.16499E-06   -0.43911E-06  1508   0.495E-03
 170 F= -.12898513E+04 E0= -.12898454E+04  d E =-.132624E-03  mag=    16.9997
 ZBRENT: can't locate minimum, use default step
 trial-energy change:   -0.000133  1 .order   -0.000138   -0.000145   -0.000131
 step:   0.2875(harm=  0.7173)  dis= 0.00365  next Energy= -1289.851926 (dE=-0.724E-03)
 bond charge predicted
       N       E                     dE             d eps       ncg     rms          rms(c)
DAV:   1    -0.128084936078E+04    0.83498E-03   -0.39784E-01  2160   0.115E+00    0.140E-01
RMM:   2    -0.128085011798E+04   -0.75720E-03   -0.82792E-03  2395   0.144E-01    0.131E-01
RMM:   3    -0.128085042219E+04   -0.30421E-03   -0.90266E-04  2334   0.715E-02    0.355E-01
RMM:   4    -0.128085016907E+04    0.25312E-03   -0.38806E-04  2685   0.371E-02    0.189E-01
RMM:   5    -0.128085017434E+04   -0.52694E-05   -0.11299E-04  2166   0.237E-02    0.671E-02
RMM:   6    -0.128085020403E+04   -0.29696E-04   -0.48303E-05  2093   0.135E-02    0.743E-02
RMM:   7    -0.128085019792E+04    0.61141E-05   -0.34502E-05  2038   0.120E-02    0.461E-02
RMM:   8    -0.128085021928E+04   -0.21364E-04   -0.34966E-05  2038   0.118E-02    0.585E-02
RMM:   9    -0.128085021269E+04    0.65906E-05   -0.17472E-05  1757   0.907E-03    0.272E-02
RMM:  10    -0.128085021496E+04   -0.22728E-05   -0.62603E-06  1554   0.566E-03    0.192E-02
RMM:  11    -0.128085021576E+04   -0.79867E-06   -0.24734E-06  1433   0.376E-03
 171 F= -.12898516E+04 E0= -.12898457E+04  d E =-.384178E-03  mag=    16.9997
 curvature:  -4.05 expect dE=-0.458E-02 dE for cont linesearch -0.463E-04
 ZBRENT: increasing intervall
 opt :   0.7188  next Energy= -1289.851392 (dE=-0.191E-03)
 bond charge predicted
       N       E                     dE             d eps       ncg     rms          rms(c)
DAV:   1    -0.128084615291E+04    0.40621E-02   -0.15948E+00  2160   0.230E+00    0.279E-01
RMM:   2    -0.128084927082E+04   -0.31179E-02   -0.33183E-02  2401   0.287E-01    0.266E-01
RMM:   3    -0.128085096517E+04   -0.16943E-02   -0.37016E-03  2346   0.142E-01    0.839E-01
RMM:   4    -0.128084931861E+04    0.16466E-02   -0.16470E-03  2762   0.753E-02    0.220E-01
RMM:   5    -0.128084949605E+04   -0.17744E-03   -0.39110E-04  2317   0.417E-02    0.127E-01
RMM:   6    -0.128084957408E+04   -0.78028E-04   -0.15940E-04  2442   0.226E-02    0.155E-01
RMM:   7    -0.128084955181E+04    0.22271E-04   -0.13387E-04  2310   0.234E-02    0.116E-01
RMM:   8    -0.128084959782E+04   -0.46016E-04   -0.10245E-04  2310   0.197E-02    0.100E-01
RMM:   9    -0.128084958177E+04    0.16055E-04   -0.58102E-05  2049   0.157E-02    0.558E-02
RMM:  10    -0.128084958791E+04   -0.61451E-05   -0.15698E-05  1731   0.816E-03    0.305E-02
RMM:  11    -0.128084958858E+04   -0.67192E-06   -0.69127E-06  1543   0.607E-03
 172 F= -.12898514E+04 E0= -.12898455E+04  d E =-.220044E-03  mag=    16.9997
 curvature:  16.91 expect dE= 0.138E+00 dE for cont linesearch  0.789E-03
 ZBRENT: bracketing found
 ZBRENT: interpolating
 opt :   0.4303  next Energy= -1289.851634 (dE=-0.433E-03)
 bond charge predicted
       N       E                     dE             d eps       ncg     rms          rms(c)
DAV:   1    -0.128084857502E+04    0.10129E-02   -0.71351E-01  2160   0.154E+00    0.185E-01
RMM:   2    -0.128084995825E+04   -0.13832E-02   -0.14785E-02  2391   0.192E-01    0.190E-01
RMM:   3    -0.128085081336E+04   -0.85511E-03   -0.16621E-03  2339   0.956E-02    0.753E-01
RMM:   4    -0.128084982588E+04    0.98748E-03   -0.83698E-04  2723   0.546E-02    0.190E-01
RMM:   5    -0.128085003697E+04   -0.21109E-03   -0.24770E-04  2243   0.360E-02    0.858E-02
RMM:   6    -0.128085009924E+04   -0.62273E-04   -0.88519E-05  2297   0.176E-02    0.101E-01
RMM:   7    -0.128085008193E+04    0.17310E-04   -0.60877E-05  2184   0.154E-02    0.610E-02
RMM:   8    -0.128085011995E+04   -0.38020E-04   -0.55689E-05  2157   0.144E-02    0.701E-02
RMM:   9    -0.128085010798E+04    0.11974E-04   -0.27592E-05  1880   0.113E-02    0.401E-02
RMM:  10    -0.128085011096E+04   -0.29845E-05   -0.11606E-05  1630   0.694E-03    0.307E-02
RMM:  11    -0.128085010968E+04    0.12817E-05   -0.37109E-06  1455   0.460E-03    0.173E-02
RMM:  12    -0.128085011063E+04   -0.94435E-06   -0.15059E-06  1388   0.277E-03
 173 F= -.12898516E+04 E0= -.12898457E+04  d E =-.432354E-03  mag=    16.9997
 curvature:  -1.05 expect dE=-0.248E-02 dE for cont linesearch -0.496E-10
 trial: gam= 1.38710 g(F)=  0.237E-02 g(S)=  0.000E+00 ort = 0.139E-05 (trialstep = 0.724E-01)
 search vector abs. value=  0.813E-01
 bond charge predicted
       N       E                     dE             d eps       ncg     rms          rms(c)
DAV:   1    -0.128084996166E+04    0.14802E-03   -0.89195E-02  2244   0.538E-01    0.613E-02
RMM:   2    -0.128085012695E+04   -0.16529E-03   -0.18208E-03  2411   0.671E-02    0.869E-02
RMM:   3    -0.128085020505E+04   -0.78102E-04   -0.19606E-04  2331   0.323E-02    0.211E-01
RMM:   4    -0.128085011279E+04    0.92262E-04   -0.88525E-05  2427   0.176E-02    0.599E-02
RMM:   5    -0.128085013693E+04   -0.24141E-04   -0.21850E-05  1831   0.106E-02    0.323E-02
RMM:   6    -0.128085014660E+04   -0.96705E-05   -0.11121E-05  1731   0.641E-03    0.366E-02
RMM:   7    -0.128085014585E+04    0.75311E-06   -0.10657E-05  1616   0.669E-03    0.261E-02
RMM:   8    -0.128085015066E+04   -0.48063E-05   -0.65599E-06  1588   0.535E-03    0.254E-02
RMM:   9    -0.128085014916E+04    0.14990E-05   -0.33551E-06  1416   0.445E-03    0.116E-02
RMM:  10    -0.128085015010E+04   -0.94601E-06   -0.11663E-06  1323   0.248E-03
 174 F= -.12898518E+04 E0= -.12898458E+04  d E =-.150441E-03  mag=    16.9997
 ZBRENT: can't locate minimum, use default step
 trial-energy change:   -0.000150  1 .order   -0.000153   -0.000172   -0.000135
 step:   0.2898(harm=  0.3377)  dis= 0.00569  next Energy= -1289.852034 (dE=-0.400E-03)
 bond charge predicted
       N       E                     dE             d eps       ncg     rms          rms(c)
DAV:   1    -0.128084829854E+04    0.18506E-02   -0.80334E-01  2160   0.161E+00    0.184E-01
RMM:   2    -0.128084982227E+04   -0.15237E-02   -0.16455E-02  2402   0.201E-01    0.194E-01
RMM:   3    -0.128085065088E+04   -0.82861E-03   -0.17170E-03  2360   0.960E-02    0.614E-01
RMM:   4    -0.128084979509E+04    0.85580E-03   -0.76489E-04  2740   0.511E-02    0.121E-01
RMM:   5    -0.128084996229E+04   -0.16721E-03   -0.17086E-04  2237   0.283E-02    0.101E-01
RMM:   6    -0.128084999627E+04   -0.33980E-04   -0.87664E-05  2304   0.180E-02    0.111E-01
RMM:   7    -0.128085000835E+04   -0.12075E-04   -0.88990E-05  2185   0.194E-02    0.107E-01
RMM:   8    -0.128085000537E+04    0.29790E-05   -0.46079E-05  2053   0.140E-02    0.506E-02
RMM:   9    -0.128085001714E+04   -0.11771E-04   -0.22995E-05  1816   0.101E-02    0.565E-02
RMM:  10    -0.128085001097E+04    0.61658E-05   -0.77417E-06  1584   0.634E-03    0.148E-02
RMM:  11    -0.128085001488E+04   -0.39053E-05   -0.31765E-06  1453   0.389E-03    0.191E-02
RMM:  12    -0.128085001484E+04    0.35783E-07   -0.12785E-06  1361   0.282E-03
 175 F= -.12898520E+04 E0= -.12898460E+04  d E =-.348060E-03  mag=    16.9997
 curvature:  -5.60 expect dE=-0.284E-01 dE for cont linesearch -0.714E-08
 trial: gam= 2.05146 g(F)=  0.507E-02 g(S)=  0.000E+00 ort =-0.102E-04 (trialstep = 0.271E-01)
 search vector abs. value=  0.347E+00
 bond charge predicted
       N       E                     dE             d eps       ncg     rms          rms(c)
DAV:   1    -0.128084994637E+04    0.68506E-04   -0.53927E-02  2232   0.417E-01    0.466E-02
RMM:   2    -0.128085004384E+04   -0.97463E-04   -0.10914E-03  2412   0.519E-02    0.472E-02
RMM:   3    -0.128085007220E+04   -0.28364E-04   -0.10998E-04  2296   0.246E-02    0.915E-02
RMM:   4    -0.128085005394E+04    0.18265E-04   -0.42144E-05  2243   0.123E-02    0.567E-02
RMM:   5    -0.128085005310E+04    0.83126E-06   -0.92000E-06  1670   0.692E-03
 176 F= -.12898521E+04 E0= -.12898461E+04  d E =-.127153E-03  mag=    16.9997
 ZBRENT: can't locate minimum, use default step
 trial-energy change:   -0.000127  1 .order   -0.000134   -0.000137   -0.000130
 step:   0.1086(harm=  0.5378)  dis= 0.00453  next Energy= -1289.853340 (dE=-0.136E-02)
 bond charge predicted
       N       E                     dE             d eps       ncg     rms          rms(c)
DAV:   1    -0.128084911847E+04    0.93547E-03   -0.48373E-01  2160   0.125E+00    0.139E-01
RMM:   2    -0.128085000125E+04   -0.88279E-03   -0.96830E-03  2399   0.155E-01    0.141E-01
RMM:   3    -0.128085038624E+04   -0.38498E-03   -0.98530E-04  2354   0.736E-02    0.413E-01
RMM:   4    -0.128085003060E+04    0.35563E-03   -0.42339E-04  2705   0.374E-02    0.138E-01
RMM:   5    -0.128085008734E+04   -0.56736E-04   -0.11139E-04  2200   0.243E-02    0.737E-02
RMM:   6    -0.128085011121E+04   -0.23869E-04   -0.57325E-05  2170   0.143E-02    0.757E-02
RMM:   7    -0.128085011693E+04   -0.57238E-05   -0.52003E-05  2103   0.148E-02    0.690E-02
RMM:   8    -0.128085012821E+04   -0.11281E-04   -0.39553E-05  2019   0.128E-02    0.477E-02
RMM:   9    -0.128085012539E+04    0.28189E-05   -0.16727E-05  1703   0.915E-03    0.318E-02
RMM:  10    -0.128085012557E+04   -0.18095E-06   -0.65238E-06  1546   0.556E-03
 177 F= -.12898524E+04 E0= -.12898466E+04  d E =-.466353E-03  mag=    16.9997
 curvature:  -5.43 expect dE=-0.132E-01 dE for cont linesearch -0.193E-03
 ZBRENT: increasing intervall
 opt :   0.2714  next Energy= -1289.852811 (dE=-0.829E-03)
 bond charge predicted
       N       E                     dE             d eps       ncg     rms          rms(c)
DAV:   1    -0.128084580108E+04    0.43243E-02   -0.19381E+00  2160   0.250E+00    0.275E-01
RMM:   2    -0.128084946065E+04   -0.36596E-02   -0.38989E-02  2404   0.309E-01    0.257E-01
RMM:   3    -0.128085126878E+04   -0.18081E-02   -0.39166E-03  2352   0.146E-01    0.850E-01
RMM:   4    -0.128084954084E+04    0.17279E-02   -0.16859E-03  2762   0.751E-02    0.163E-01
RMM:   5    -0.128084984128E+04   -0.30044E-03   -0.35663E-04  2345   0.412E-02    0.159E-01
RMM:   6    -0.128084987519E+04   -0.33914E-04   -0.18359E-04  2412   0.259E-02    0.159E-01
RMM:   7    -0.128084989152E+04   -0.16320E-04   -0.17964E-04  2307   0.269E-02    0.131E-01
RMM:   8    -0.128084989617E+04   -0.46581E-05   -0.97482E-05  2247   0.193E-02    0.830E-02
RMM:   9    -0.128084991048E+04   -0.14308E-04   -0.48227E-05  2020   0.143E-02    0.799E-02
RMM:  10    -0.128084990151E+04    0.89735E-05   -0.18702E-05  1725   0.923E-03    0.240E-02
RMM:  11    -0.128084990907E+04   -0.75605E-05   -0.79754E-06  1585   0.620E-03    0.286E-02
RMM:  12    -0.128084990912E+04   -0.50422E-07   -0.32413E-06  1476   0.420E-03
 178 F= -.12898528E+04 E0= -.12898469E+04  d E =-.783649E-03  mag=    16.9997
 curvature: -10.21 expect dE=-0.384E-01 dE for cont linesearch -0.450E-05
 trial: gam= 0.74421 g(F)=  0.376E-02 g(S)=  0.000E+00 ort = 0.391E-03 (trialstep = 0.760E-01)
 search vector abs. value=  0.197E+00
 bond charge predicted
       N       E                     dE             d eps       ncg     rms          rms(c)
DAV:   1    -0.128084949290E+04    0.41617E-03   -0.23719E-01  2232   0.874E-01    0.989E-02
RMM:   2    -0.128084992464E+04   -0.43175E-03   -0.48078E-03  2397   0.108E-01    0.645E-02
RMM:   3    -0.128085001138E+04   -0.86738E-04   -0.39538E-04  2337   0.469E-02    0.112E-01
RMM:   4    -0.128084998169E+04    0.29688E-04   -0.15734E-04  2594   0.219E-02    0.545E-02
RMM:   5    -0.128085000628E+04   -0.24590E-04   -0.32331E-05  1974   0.119E-02    0.112E-01
RMM:   6    -0.128084998344E+04    0.22840E-04   -0.24801E-05  1881   0.951E-03    0.592E-02
RMM:   7    -0.128084999484E+04   -0.11391E-04   -0.22120E-05  1843   0.101E-02    0.352E-02
RMM:   8    -0.128085000640E+04   -0.11568E-04   -0.14664E-05  1825   0.751E-03    0.326E-02
RMM:   9    -0.128085000499E+04    0.14151E-05   -0.71952E-06  1556   0.610E-03    0.185E-02
RMM:  10    -0.128085000701E+04   -0.20199E-05   -0.33744E-06  1450   0.395E-03    0.135E-02
RMM:  11    -0.128085000784E+04   -0.83536E-06   -0.11737E-06  1342   0.281E-03
 179 F= -.12898531E+04 E0= -.12898472E+04  d E =-.305045E-03  mag=    16.9997
 ZBRENT: can't locate minimum, use default step
 trial-energy change:   -0.000305  1 .order   -0.000294   -0.000308   -0.000280
 step:   0.3040(harm=  0.8373)  dis= 0.00900  next Energy= -1289.854460 (dE=-0.169E-02)
 bond charge predicted
       N       E                     dE             d eps       ncg     rms          rms(c)
DAV:   1    -0.128084548961E+04    0.45174E-02   -0.21329E+00  2160   0.262E+00    0.296E-01
RMM:   2    -0.128084953390E+04   -0.40443E-02   -0.43157E-02  2396   0.323E-01    0.250E-01
RMM:   3    -0.128085134467E+04   -0.18108E-02   -0.41990E-03  2342   0.153E-01    0.829E-01
RMM:   4    -0.128084967953E+04    0.16651E-02   -0.18052E-03  2761   0.777E-02    0.193E-01
RMM:   5    -0.128084992252E+04   -0.24298E-03   -0.41242E-04  2318   0.430E-02    0.147E-01
RMM:   6    -0.128084997446E+04   -0.51945E-04   -0.18554E-04  2425   0.253E-02    0.158E-01
RMM:   7    -0.128084998772E+04   -0.13263E-04   -0.17866E-04  2325   0.276E-02    0.142E-01
RMM:   8    -0.128085000520E+04   -0.17473E-04   -0.11131E-04  2303   0.210E-02    0.930E-02
RMM:   9    -0.128085000593E+04   -0.73348E-06   -0.58932E-05  2042   0.160E-02    0.710E-02
RMM:  10    -0.128085000647E+04   -0.54225E-06   -0.17299E-05  1741   0.865E-03    0.279E-02
RMM:  11    -0.128085001043E+04   -0.39541E-05   -0.80255E-06  1551   0.631E-03    0.261E-02
RMM:  12    -0.128085001161E+04   -0.11855E-05   -0.35635E-06  1481   0.421E-03    0.137E-02
RMM:  13    -0.128085001262E+04   -0.10051E-05   -0.16648E-06  1371   0.299E-03    0.785E-03
RMM:  14    -0.128085001459E+04   -0.19708E-05   -0.91099E-07  1316   0.209E-03    0.111E-02
RMM:  15    -0.128085001554E+04   -0.95298E-06   -0.63448E-07  1260   0.196E-03
 180 F= -.12898537E+04 E0= -.12898479E+04  d E =-.932388E-03  mag=    16.9997
 curvature: -10.36 expect dE=-0.452E-01 dE for cont linesearch -0.155E-03
 ZBRENT: increasing intervall
 opt :   0.7600  next Energy= -1289.853584 (dE=-0.818E-03)
 bond charge predicted
       N       E                     dE             d eps       ncg     rms          rms(c)
DAV:   1    -0.128083073943E+04    0.19275E-01   -0.85354E+00  2160   0.524E+00    0.595E-01
RMM:   2    -0.128084723731E+04   -0.16498E-01   -0.17335E-01  2398   0.649E-01    0.496E-01
RMM:   3    -0.128085360232E+04   -0.63650E-02   -0.16795E-02  2338   0.304E-01    0.136E+00
RMM:   4    -0.128084831314E+04    0.52892E-02   -0.69336E-03  2761   0.151E-01    0.362E-01
RMM:   5    -0.128084867161E+04   -0.35847E-03   -0.14488E-03  2393   0.780E-02    0.281E-01
RMM:   6    -0.128084877674E+04   -0.10513E-03   -0.67015E-04  2475   0.468E-02    0.325E-01
RMM:   7    -0.128084895219E+04   -0.17546E-03   -0.74329E-04  2392   0.552E-02    0.336E-01
RMM:   8    -0.128084880811E+04    0.14408E-03   -0.47266E-04  2399   0.452E-02    0.164E-01
RMM:   9    -0.128084890007E+04   -0.91957E-04   -0.24056E-04  2329   0.317E-02    0.177E-01
RMM:  10    -0.128084883190E+04    0.68174E-04   -0.96483E-05  2179   0.197E-02    0.425E-02
RMM:  11    -0.128084885904E+04   -0.27145E-04   -0.37991E-05  1916   0.123E-02    0.562E-02
RMM:  12    -0.128084885562E+04    0.34212E-05   -0.14369E-05  1663   0.801E-03    0.317E-02
RMM:  13    -0.128084885758E+04   -0.19645E-05   -0.69214E-06  1534   0.572E-03    0.158E-02
RMM:  14    -0.128084886326E+04   -0.56755E-05   -0.32751E-06  1503   0.397E-03    0.186E-02
RMM:  15    -0.128084886569E+04   -0.24258E-05   -0.22268E-06  1437   0.345E-03    0.109E-02
RMM:  16    -0.128084886961E+04   -0.39211E-05   -0.95190E-07  1305   0.219E-03    0.407E-03
RMM:  17    -0.128084887297E+04   -0.33646E-05   -0.41814E-07  1245   0.134E-03    0.401E-03
RMM:  18    -0.128084887439E+04   -0.14153E-05   -0.28694E-07  1161   0.112E-03    0.437E-03
RMM:  19    -0.128084887567E+04   -0.12883E-05   -0.17654E-07  1089   0.873E-04    0.279E-03
RMM:  20    -0.128084887842E+04   -0.27460E-05   -0.15991E-07  1059   0.726E-04    0.208E-03
RMM:  21    -0.128084888111E+04   -0.26865E-05   -0.16172E-07  1061   0.769E-04    0.241E-03
RMM:  22    -0.128084888286E+04   -0.17562E-05   -0.13003E-07   960   0.650E-04    0.193E-03
RMM:  23    -0.128084888422E+04   -0.13592E-05   -0.77338E-08   874   0.525E-04    0.103E-03
RMM:  24    -0.128084888513E+04   -0.90405E-06   -0.55355E-08   808   0.435E-04
 181 F= -.12898538E+04 E0= -.12898480E+04  d E =-.104506E-02  mag=    16.9997
 curvature:   7.62 expect dE= 0.201E+00 dE for cont linesearch  0.836E-04
 ZBRENT: bracketing found
 ZBRENT: interpolating
 opt :   0.5496  next Energy= -1289.853965 (dE=-0.120E-02)
 bond charge predicted
       N       E                     dE             d eps       ncg     rms          rms(c)
DAV:   1    -0.128084574614E+04    0.31381E-02   -0.18157E+00  2160   0.242E+00    0.273E-01
RMM:   2    -0.128084919251E+04   -0.34464E-02   -0.36822E-02  2390   0.297E-01    0.223E-01
RMM:   3    -0.128085101126E+04   -0.18187E-02   -0.35064E-03  2344   0.140E-01    0.109E+00
RMM:   4    -0.128084894336E+04    0.20679E-02   -0.16922E-03  2747   0.766E-02    0.193E-01
RMM:   5    -0.128084949383E+04   -0.55047E-03   -0.46931E-04  2302   0.480E-02    0.139E-01
RMM:   6    -0.128084957172E+04   -0.77888E-04   -0.17571E-04  2417   0.251E-02    0.140E-01
RMM:   7    -0.128084958097E+04   -0.92499E-05   -0.15709E-04  2290   0.253E-02    0.132E-01
RMM:   8    -0.128084960057E+04   -0.19598E-04   -0.97291E-05  2279   0.193E-02    0.776E-02
RMM:   9    -0.128084960233E+04   -0.17594E-05   -0.48439E-05  2020   0.145E-02    0.620E-02
RMM:  10    -0.128084960443E+04   -0.21003E-05   -0.15034E-05  1719   0.815E-03    0.372E-02
RMM:  11    -0.128084960430E+04    0.12582E-06   -0.67020E-06  1546   0.597E-03
 182 F= -.12898540E+04 E0= -.12898481E+04  d E =-.119010E-02  mag=    16.9997
 curvature: -14.08 expect dE=-0.184E+00 dE for cont linesearch -0.158E-05
 trial: gam= 3.68420 g(F)=  0.131E-01 g(S)=  0.000E+00 ort = 0.149E-03 (trialstep = 0.125E-01)
 search vector abs. value=  0.268E+01
 bond charge predicted
       N       E                     dE             d eps       ncg     rms          rms(c)
DAV:   1    -0.128084946345E+04    0.14098E-03   -0.86966E-02  2268   0.530E-01    0.592E-02
RMM:   2    -0.128084961798E+04   -0.15453E-03   -0.17559E-03  2395   0.652E-02    0.486E-02
RMM:   3    -0.128084966479E+04   -0.46818E-04   -0.16162E-04  2304   0.304E-02    0.120E-01
RMM:   4    -0.128084963281E+04    0.31988E-04   -0.64427E-05  2373   0.149E-02    0.701E-02
RMM:   5    -0.128084963455E+04   -0.17477E-05   -0.15595E-05  1790   0.920E-03    0.334E-02
RMM:   6    -0.128084964081E+04   -0.62585E-05   -0.85978E-06  1643   0.619E-03    0.247E-02
RMM:   7    -0.128084964327E+04   -0.24583E-05   -0.82667E-06  1685   0.628E-03    0.196E-02
RMM:   8    -0.128084964798E+04   -0.47123E-05   -0.68855E-06  1627   0.553E-03    0.258E-02
RMM:   9    -0.128084964616E+04    0.18203E-05   -0.34729E-06  1447   0.452E-03    0.105E-02
RMM:  10    -0.128084964681E+04   -0.65059E-06   -0.12256E-06  1324   0.249E-03
 183 F= -.12898541E+04 E0= -.12898483E+04  d E =-.168759E-03  mag=    16.9997
 ZBRENT: can't locate minimum, use default step
 trial-energy change:   -0.000169  1 .order   -0.000169   -0.000170   -0.000168
 step:   0.0500(harm=  0.7566)  dis= 0.00549  next Energy= -1289.859108 (dE=-0.515E-02)
 bond charge predicted
       N       E                     dE             d eps       ncg     rms          rms(c)
DAV:   1    -0.128084803254E+04    0.16136E-02   -0.78315E-01  2160   0.159E+00    0.178E-01
RMM:   2    -0.128084948861E+04   -0.14561E-02   -0.15907E-02  2385   0.195E-01    0.143E-01
RMM:   3    -0.128085016644E+04   -0.67783E-03   -0.14958E-03  2351   0.913E-02    0.531E-01
RMM:   4    -0.128084950662E+04    0.65982E-03   -0.64945E-04  2743   0.465E-02    0.104E-01
RMM:   5    -0.128084965820E+04   -0.15157E-03   -0.14121E-04  2212   0.262E-02    0.103E-01
RMM:   6    -0.128084967285E+04   -0.14652E-04   -0.67289E-05  2223   0.158E-02    0.918E-02
RMM:   7    -0.128084969054E+04   -0.17694E-04   -0.74416E-05  2134   0.169E-02    0.855E-02
RMM:   8    -0.128084969372E+04   -0.31790E-05   -0.41325E-05  2072   0.126E-02    0.513E-02
RMM:   9    -0.128084969935E+04   -0.56288E-05   -0.19126E-05  1776   0.930E-03    0.482E-02
RMM:  10    -0.128084969782E+04    0.15347E-05   -0.67337E-06  1575   0.598E-03    0.154E-02
RMM:  11    -0.128084970072E+04   -0.29087E-05   -0.28574E-06  1463   0.393E-03    0.162E-02
RMM:  12    -0.128084970067E+04    0.53413E-07   -0.11139E-06  1351   0.265E-03
 184 F= -.12898546E+04 E0= -.12898488E+04  d E =-.601700E-03  mag=    16.9997
 curvature:  -7.33 expect dE=-0.672E-01 dE for cont linesearch -0.281E-03
 ZBRENT: increasing intervall
 opt :   0.1251  next Energy= -1289.855076 (dE=-0.112E-02)
 bond charge predicted
       N       E                     dE             d eps       ncg     rms          rms(c)
DAV:   1    -0.128084285273E+04    0.68480E-02   -0.31345E+00  2160   0.318E+00    0.357E-01
RMM:   2    -0.128084878492E+04   -0.59322E-02   -0.63703E-02  2382   0.391E-01    0.247E-01
RMM:   3    -0.128085067658E+04   -0.18917E-02   -0.54826E-03  2340   0.176E-01    0.802E-01
RMM:   4    -0.128084915607E+04    0.15205E-02   -0.22995E-03  2772   0.841E-02    0.190E-01
RMM:   5    -0.128084949451E+04   -0.33843E-03   -0.49278E-04  2335   0.485E-02    0.212E-01
RMM:   6    -0.128084946114E+04    0.33364E-04   -0.26582E-04  2416   0.312E-02    0.178E-01
RMM:   7    -0.128084954632E+04   -0.85177E-04   -0.30125E-04  2358   0.345E-02    0.178E-01
RMM:   8    -0.128084950323E+04    0.43086E-04   -0.16597E-04  2365   0.258E-02    0.877E-02
RMM:   9    -0.128084953664E+04   -0.33404E-04   -0.65996E-05  2103   0.163E-02    0.902E-02
RMM:  10    -0.128084952501E+04    0.11627E-04   -0.25568E-05  1787   0.105E-02    0.257E-02
RMM:  11    -0.128084953412E+04   -0.91120E-05   -0.10212E-05  1595   0.680E-03    0.339E-02
RMM:  12    -0.128084953284E+04    0.12829E-05   -0.40322E-06  1502   0.465E-03    0.141E-02
RMM:  13    -0.128084953494E+04   -0.20981E-05   -0.19108E-06  1423   0.306E-03    0.973E-03
RMM:  14    -0.128084953717E+04   -0.22342E-05   -0.12156E-06  1342   0.248E-03    0.111E-02
RMM:  15    -0.128084953827E+04   -0.10996E-05   -0.82403E-07  1292   0.210E-03    0.565E-03
RMM:  16    -0.128084953976E+04   -0.14924E-05   -0.38189E-07  1231   0.140E-03    0.276E-03
RMM:  17    -0.128084954090E+04   -0.11386E-05   -0.19270E-07  1141   0.900E-04    0.251E-03
RMM:  18    -0.128084954159E+04   -0.68848E-06   -0.12709E-07  1042   0.724E-04
 185 F= -.12898552E+04 E0= -.12898494E+04  d E =-.120224E-02  mag=    16.9997
 curvature: -13.50 expect dE=-0.111E+00 dE for cont linesearch -0.148E-03
 ZBRENT: increasing intervall
 opt :   0.2752  next Energy= -1289.855264 (dE=-0.131E-02)
 bond charge predicted
       N       E                     dE             d eps       ncg     rms          rms(c)
DAV:   1    -0.128082128803E+04    0.28253E-01   -0.12540E+01  2160   0.636E+00    0.718E-01
RMM:   2    -0.128084562674E+04   -0.24339E-01   -0.25674E-01  2378   0.788E-01    0.541E-01
RMM:   3    -0.128085376208E+04   -0.81353E-02   -0.23536E-02  2333   0.361E-01    0.148E+00
RMM:   4    -0.128084738826E+04    0.63738E-02   -0.95517E-03  2771   0.175E-01    0.367E-01
RMM:   5    -0.128084802707E+04   -0.63881E-03   -0.17965E-03  2407   0.875E-02    0.353E-01
RMM:   6    -0.128084795505E+04    0.72026E-04   -0.10040E-03  2455   0.597E-02    0.323E-01
RMM:   7    -0.128084854275E+04   -0.58770E-03   -0.11783E-03  2435   0.679E-02    0.474E-01
RMM:   8    -0.128084803509E+04    0.50766E-03   -0.80620E-04  2427   0.592E-02    0.203E-01
RMM:   9    -0.128084815451E+04   -0.11942E-03   -0.24331E-04  2384   0.322E-02    0.165E-01
RMM:  10    -0.128084812436E+04    0.30149E-04   -0.10943E-04  2225   0.211E-02    0.746E-02
RMM:  11    -0.128084814687E+04   -0.22518E-04   -0.41224E-05  1969   0.132E-02    0.484E-02
RMM:  12    -0.128084814604E+04    0.83309E-06   -0.15454E-05  1689   0.825E-03    0.339E-02
RMM:  13    -0.128084815121E+04   -0.51695E-05   -0.81954E-06  1593   0.605E-03    0.252E-02
RMM:  14    -0.128084815741E+04   -0.61957E-05   -0.49805E-06  1562   0.493E-03    0.180E-02
RMM:  15    -0.128084816162E+04   -0.42114E-05   -0.25693E-06  1447   0.352E-03    0.140E-02
RMM:  16    -0.128084816531E+04   -0.36940E-05   -0.13719E-06  1347   0.270E-03    0.649E-03
RMM:  17    -0.128084817048E+04   -0.51683E-05   -0.66773E-07  1293   0.174E-03    0.693E-03
RMM:  18    -0.128084817255E+04   -0.20654E-05   -0.43135E-07  1205   0.144E-03    0.559E-03
RMM:  19    -0.128084817399E+04   -0.14406E-05   -0.25594E-07  1119   0.103E-03    0.329E-03
RMM:  20    -0.128084817579E+04   -0.18032E-05   -0.16165E-07  1068   0.783E-04    0.235E-03
RMM:  21    -0.128084817908E+04   -0.32905E-05   -0.17619E-07  1059   0.751E-04    0.292E-03
RMM:  22    -0.128084818207E+04   -0.29908E-05   -0.16867E-07  1038   0.766E-04    0.400E-03
RMM:  23    -0.128084818393E+04   -0.18619E-05   -0.13226E-07   960   0.648E-04    0.189E-03
RMM:  24    -0.128084818524E+04   -0.13083E-05   -0.87161E-08   860   0.534E-04    0.107E-03
RMM:  25    -0.128084818644E+04   -0.11984E-05   -0.69457E-08   831   0.435E-04    0.934E-04
RMM:  26    -0.128084818730E+04   -0.85693E-06   -0.50284E-08   790   0.413E-04
 186 F= -.12898553E+04 E0= -.12898497E+04  d E =-.137276E-02  mag=    16.9997
 curvature:  -9.68 expect dE=-0.230E+00 dE for cont linesearch -0.467E-04
 ZBRENT: bracketing found
 ZBRENT: interpolating
 opt :   0.2154  next Energy= -1289.855436 (dE=-0.148E-02)
 bond charge predicted
       N       E                     dE             d eps       ncg     rms          rms(c)
DAV:   1    -0.128084464910E+04    0.35373E-02   -0.19910E+00  2160   0.253E+00    0.285E-01
RMM:   2    -0.128084843081E+04   -0.37817E-02   -0.40609E-02  2380   0.311E-01    0.218E-01
RMM:   3    -0.128085032776E+04   -0.18969E-02   -0.36907E-03  2344   0.144E-01    0.111E+00
RMM:   4    -0.128084817533E+04    0.21524E-02   -0.17535E-03  2752   0.778E-02    0.166E-01
RMM:   5    -0.128084881513E+04   -0.63980E-03   -0.44582E-04  2317   0.478E-02    0.174E-01
RMM:   6    -0.128084884115E+04   -0.26021E-04   -0.18038E-04  2416   0.266E-02    0.132E-01
RMM:   7    -0.128084891895E+04   -0.77801E-04   -0.20682E-04  2300   0.278E-02    0.159E-01
RMM:   8    -0.128084888199E+04    0.36956E-04   -0.12009E-04  2299   0.216E-02    0.700E-02
RMM:   9    -0.128084890287E+04   -0.20880E-04   -0.50156E-05  2028   0.147E-02    0.762E-02
RMM:  10    -0.128084889921E+04    0.36622E-05   -0.18233E-05  1725   0.909E-03    0.370E-02
RMM:  11    -0.128084890076E+04   -0.15462E-05   -0.75582E-06  1560   0.617E-03    0.238E-02
RMM:  12    -0.128084890119E+04   -0.43363E-06   -0.29713E-06  1466   0.389E-03
 187 F= -.12898554E+04 E0= -.12898497E+04  d E =-.147817E-02  mag=    16.9997
 curvature: -22.31 expect dE=-0.329E+00 dE for cont linesearch -0.640E-05
 trial: gam= 0.98681 g(F)=  0.147E-01 g(S)=  0.000E+00 ort = 0.878E-03 (trialstep = 0.531E-01)
 search vector abs. value=  0.263E+01
 bond charge predicted
       N       E                     dE             d eps       ncg     rms          rms(c)
DAV:   1    -0.128084588363E+04    0.30171E-02   -0.15389E+00  2160   0.222E+00    0.242E-01
RMM:   2    -0.128084876417E+04   -0.28805E-02   -0.31049E-02  2379   0.272E-01    0.206E-01
RMM:   3    -0.128085008598E+04   -0.13218E-02   -0.29767E-03  2342   0.128E-01    0.725E-01
RMM:   4    -0.128084883425E+04    0.12517E-02   -0.12658E-03  2766   0.645E-02    0.125E-01
RMM:   5    -0.128084909589E+04   -0.26164E-03   -0.24896E-04  2313   0.342E-02    0.161E-01
RMM:   6    -0.128084907811E+04    0.17782E-04   -0.12803E-04  2354   0.217E-02    0.110E-01
RMM:   7    -0.128084915017E+04   -0.72067E-04   -0.12932E-04  2424   0.220E-02    0.124E-01
RMM:   8    -0.128084912356E+04    0.26613E-04   -0.80593E-05  2193   0.183E-02    0.852E-02
RMM:   9    -0.128084912623E+04   -0.26689E-05   -0.32607E-05  1941   0.119E-02    0.507E-02
RMM:  10    -0.128084912958E+04   -0.33517E-05   -0.12107E-05  1624   0.757E-03    0.256E-02
RMM:  11    -0.128084913303E+04   -0.34448E-05   -0.54106E-06  1514   0.509E-03    0.199E-02
RMM:  12    -0.128084913284E+04    0.18443E-06   -0.17808E-06  1390   0.326E-03
 188 F= -.12898562E+04 E0= -.12898505E+04  d E =-.751437E-03  mag=    16.9997
 ZBRENT: can't locate minimum, use default step
 trial-energy change:   -0.000751  1 .order   -0.000755   -0.000828   -0.000681
 step:   0.2124(harm=  0.2996)  dis= 0.02365  next Energy= -1289.857770 (dE=-0.234E-02)
 bond charge predicted
       N       E                     dE             d eps       ncg     rms          rms(c)
DAV:   1    -0.128082008416E+04    0.29049E-01   -0.13863E+01  2172   0.667E+00    0.732E-01
RMM:   2    -0.128084638783E+04   -0.26304E-01   -0.27833E-01  2388   0.820E-01    0.503E-01
RMM:   3    -0.128085346923E+04   -0.70814E-02   -0.23917E-02  2352   0.360E-01    0.138E+00
RMM:   4    -0.128084848684E+04    0.49824E-02   -0.98362E-03  2785   0.168E-01    0.318E-01
RMM:   5    -0.128084928567E+04   -0.79884E-03   -0.15995E-03  2405   0.863E-02    0.414E-01
RMM:   6    -0.128084915213E+04    0.13354E-03   -0.12409E-03  2475   0.685E-02    0.378E-01
RMM:   7    -0.128084963480E+04   -0.48267E-03   -0.12004E-03  2453   0.675E-02    0.433E-01
RMM:   8    -0.128084917207E+04    0.46273E-03   -0.73264E-04  2444   0.550E-02    0.213E-01
RMM:   9    -0.128084926361E+04   -0.91543E-04   -0.23968E-04  2371   0.299E-02    0.146E-01
RMM:  10    -0.128084926452E+04   -0.91054E-06   -0.12182E-04  2202   0.215E-02    0.869E-02
RMM:  11    -0.128084927521E+04   -0.10694E-04   -0.41988E-05  1981   0.130E-02    0.713E-02
RMM:  12    -0.128084927047E+04    0.47382E-05   -0.17345E-05  1674   0.843E-03    0.300E-02
RMM:  13    -0.128084927974E+04   -0.92661E-05   -0.76249E-06  1601   0.595E-03    0.278E-02
RMM:  14    -0.128084928578E+04   -0.60430E-05   -0.46687E-06  1550   0.471E-03    0.259E-02
RMM:  15    -0.128084928710E+04   -0.13160E-05   -0.22575E-06  1441   0.347E-03    0.118E-02
RMM:  16    -0.128084929260E+04   -0.54974E-05   -0.11974E-06  1348   0.237E-03    0.986E-03
RMM:  17    -0.128084929822E+04   -0.56201E-05   -0.10458E-06  1335   0.222E-03    0.103E-02
RMM:  18    -0.128084930159E+04   -0.33756E-05   -0.82257E-07  1300   0.205E-03    0.877E-03
RMM:  19    -0.128084930396E+04   -0.23677E-05   -0.44711E-07  1192   0.152E-03    0.478E-03
RMM:  20    -0.128084930528E+04   -0.13175E-05   -0.24542E-07  1121   0.103E-03    0.290E-03
RMM:  21    -0.128084930727E+04   -0.19959E-05   -0.15247E-07  1059   0.738E-04    0.390E-03
RMM:  22    -0.128084930980E+04   -0.25238E-05   -0.14471E-07  1009   0.683E-04    0.369E-03
RMM:  23    -0.128084931210E+04   -0.22996E-05   -0.13128E-07   975   0.656E-04    0.161E-03
RMM:  24    -0.128084931531E+04   -0.32129E-05   -0.13654E-07   971   0.537E-04    0.154E-03
RMM:  25    -0.128084931664E+04   -0.13321E-05   -0.10227E-07   928   0.543E-04    0.126E-03
RMM:  26    -0.128084931809E+04   -0.14469E-05   -0.65901E-08   823   0.417E-04    0.683E-04
RMM:  27    -0.128084931942E+04   -0.13315E-05   -0.61174E-08   795   0.405E-04    0.723E-04
RMM:  28    -0.128084932145E+04   -0.20289E-05   -0.78875E-08   882   0.407E-04    0.504E-04
RMM:  29    -0.128084932306E+04   -0.16096E-05   -0.86688E-08   910   0.425E-04    0.387E-04
RMM:  30    -0.128084932395E+04   -0.89473E-06   -0.66914E-08   790   0.375E-04
 189 F= -.12898579E+04 E0= -.12898524E+04  d E =-.250434E-02  mag=    16.9996
 curvature: -22.09 expect dE=-0.307E+00 dE for cont linesearch -0.628E-03
 ZBRENT: increasing intervall
 opt :   0.5309  next Energy= -1289.859358 (dE=-0.392E-02)
 bond charge predicted
       N       E                     dE             d eps       ncg     rms          rms(c)
DAV:   1    -0.128073053518E+04    0.11879E+00   -0.55502E+01  2196   0.133E+01    0.151E+00
RMM:   2    -0.128083651555E+04   -0.10598E+00   -0.11144E+00  2395   0.167E+00    0.102E+00
RMM:   3    -0.128086124644E+04   -0.24731E-01   -0.99221E-02  2361   0.713E-01    0.225E+00
RMM:   4    -0.128084598798E+04    0.15258E-01   -0.37344E-02  2763   0.339E-01    0.686E-01
RMM:   5    -0.128084812994E+04   -0.21420E-02   -0.65491E-03  2451   0.161E-01    0.112E+00
RMM:   6    -0.128084641255E+04    0.17174E-02   -0.46672E-03  2451   0.133E-01    0.655E-01
RMM:   7    -0.128084829755E+04   -0.18850E-02   -0.52520E-03  2414   0.146E-01    0.859E-01
RMM:   8    -0.128084682632E+04    0.14712E-02   -0.31544E-03  2434   0.116E-01    0.394E-01
RMM:   9    -0.128084705652E+04   -0.23020E-03   -0.12588E-03  2413   0.699E-02    0.319E-01
RMM:  10    -0.128084691468E+04    0.14184E-03   -0.55640E-04  2393   0.485E-02    0.192E-01
RMM:  11    -0.128084692460E+04   -0.99133E-05   -0.18744E-04  2299   0.277E-02    0.139E-01
RMM:  12    -0.128084690739E+04    0.17208E-04   -0.81509E-05  2094   0.178E-02    0.528E-02
RMM:  13    -0.128084694689E+04   -0.39499E-04   -0.33014E-05  1985   0.118E-02    0.736E-02
RMM:  14    -0.128084695230E+04   -0.54133E-05   -0.16837E-05  1799   0.853E-03    0.498E-02
RMM:  15    -0.128084695788E+04   -0.55815E-05   -0.81137E-06  1604   0.607E-03    0.248E-02
RMM:  16    -0.128084697445E+04   -0.16567E-04   -0.46308E-06  1547   0.435E-03    0.187E-02
RMM:  17    -0.128084698774E+04   -0.13289E-04   -0.33121E-06  1476   0.390E-03    0.151E-02
RMM:  18    -0.128084700009E+04   -0.12348E-04   -0.28427E-06  1462   0.354E-03    0.197E-02
RMM:  19    -0.128084700770E+04   -0.76115E-05   -0.17250E-06  1401   0.291E-03    0.106E-02
RMM:  20    -0.128084701184E+04   -0.41464E-05   -0.72602E-07  1296   0.182E-03    0.605E-03
RMM:  21    -0.128084701490E+04   -0.30525E-05   -0.40219E-07  1184   0.136E-03    0.690E-03
RMM:  22    -0.128084701831E+04   -0.34086E-05   -0.31931E-07  1145   0.116E-03    0.551E-03
RMM:  23    -0.128084702707E+04   -0.87692E-05   -0.37798E-07  1144   0.105E-03    0.266E-03
RMM:  24    -0.128084703445E+04   -0.73709E-05   -0.36497E-07  1134   0.102E-03    0.387E-03
RMM:  25    -0.128084704064E+04   -0.61904E-05   -0.30306E-07  1081   0.940E-04    0.186E-03
RMM:  26    -0.128084704594E+04   -0.53074E-05   -0.26194E-07  1053   0.714E-04    0.145E-03
RMM:  27    -0.128084704927E+04   -0.33281E-05   -0.17415E-07   986   0.650E-04    0.110E-03
RMM:  28    -0.128084705453E+04   -0.52551E-05   -0.22988E-07  1041   0.589E-04    0.130E-03
RMM:  29    -0.128084706041E+04   -0.58838E-05   -0.28087E-07  1101   0.638E-04    0.688E-04
RMM:  30    -0.128084706383E+04   -0.34193E-05   -0.23687E-07  1043   0.595E-04    0.501E-04
RMM:  31    -0.128084706622E+04   -0.23871E-05   -0.17385E-07   951   0.529E-04    0.413E-04
RMM:  32    -0.128084706830E+04   -0.20802E-05   -0.16034E-07   923   0.506E-04    0.357E-04
RMM:  33    -0.128084706995E+04   -0.16497E-05   -0.14858E-07   959   0.493E-04    0.342E-04
RMM:  34    -0.128084707103E+04   -0.10881E-05   -0.11600E-07   915   0.461E-04    0.233E-04
RMM:  35    -0.128084707165E+04   -0.61614E-06   -0.89556E-08   821   0.413E-04
 190 F= -.12898588E+04 E0= -.12898535E+04  d E =-.336688E-02  mag=    16.9994
 curvature: -49.95 expect dE=-0.263E+01 dE for cont linesearch -0.301E-03
 ZBRENT: bracketing found
 ZBRENT: interpolating
 opt :   0.4305  next Energy= -1289.859001 (dE=-0.357E-02)
 bond charge predicted
       N       E                     dE             d eps       ncg     rms          rms(c)
DAV:   1    -0.128083655613E+04    0.10515E-01   -0.55070E+00  2160   0.420E+00    0.463E-01
RMM:   2    -0.128084703744E+04   -0.10481E-01   -0.11136E-01  2368   0.514E-01    0.328E-01
RMM:   3    -0.128085122457E+04   -0.41871E-02   -0.97458E-03  2340   0.234E-01    0.166E+00
RMM:   4    -0.128084684470E+04    0.43799E-02   -0.44629E-03  2779   0.119E-01    0.257E-01
RMM:   5    -0.128084816602E+04   -0.13213E-02   -0.11090E-03  2347   0.759E-02    0.306E-01
RMM:   6    -0.128084807993E+04    0.86089E-04   -0.47948E-04  2471   0.429E-02    0.195E-01
RMM:   7    -0.128084830992E+04   -0.22999E-03   -0.53692E-04  2467   0.443E-02    0.245E-01
RMM:   8    -0.128084817850E+04    0.13142E-03   -0.32001E-04  2432   0.358E-02    0.118E-01
RMM:   9    -0.128084821591E+04   -0.37409E-04   -0.13055E-04  2200   0.227E-02    0.121E-01
RMM:  10    -0.128084819965E+04    0.16257E-04   -0.47434E-05  2001   0.145E-02    0.524E-02
RMM:  11    -0.128084820695E+04   -0.72911E-05   -0.16153E-05  1676   0.851E-03    0.335E-02
RMM:  12    -0.128084821004E+04   -0.30924E-05   -0.79922E-06  1594   0.626E-03    0.275E-02
RMM:  13    -0.128084821026E+04   -0.22243E-06   -0.40196E-06  1502   0.460E-03
 191 F= -.12898590E+04 E0= -.12898536E+04  d E =-.352710E-02  mag=    16.9995
 curvature: -33.16 expect dE=-0.117E+01 dE for cont linesearch -0.338E-04
 trial: gam= 2.18155 g(F)=  0.353E-01 g(S)=  0.000E+00 ort = 0.164E-02 (trialstep = 0.269E-01)
 search vector abs. value=  0.126E+02
 bond charge predicted
       N       E                     dE             d eps       ncg     rms          rms(c)
DAV:   1    -0.128084458071E+04    0.36293E-02   -0.19000E+00  2172   0.247E+00    0.268E-01
RMM:   2    -0.128084815935E+04   -0.35786E-02   -0.38108E-02  2359   0.301E-01    0.254E-01
RMM:   3    -0.128084969689E+04   -0.15375E-02   -0.37358E-03  2341   0.144E-01    0.761E-01
RMM:   4    -0.128084826202E+04    0.14349E-02   -0.15509E-03  2758   0.726E-02    0.162E-01
RMM:   5    -0.128084848878E+04   -0.22676E-03   -0.32229E-04  2314   0.384E-02    0.140E-01
RMM:   6    -0.128084852568E+04   -0.36901E-04   -0.16048E-04  2401   0.232E-02    0.140E-01
RMM:   7    -0.128084855424E+04   -0.28557E-04   -0.16212E-04  2278   0.250E-02    0.133E-01
RMM:   8    -0.128084855479E+04   -0.55314E-06   -0.98631E-05  2246   0.192E-02    0.769E-02
RMM:   9    -0.128084856432E+04   -0.95273E-05   -0.46520E-05  2007   0.140E-02    0.606E-02
RMM:  10    -0.128084856254E+04    0.17771E-05   -0.14344E-05  1685   0.805E-03    0.168E-02
RMM:  11    -0.128084856682E+04   -0.42750E-05   -0.50966E-06  1510   0.498E-03    0.233E-02
RMM:  12    -0.128084856562E+04    0.11936E-05   -0.25667E-06  1422   0.356E-03    0.125E-02
RMM:  13    -0.128084856593E+04   -0.31084E-06   -0.10184E-06  1337   0.242E-03
 192 F= -.12898599E+04 E0= -.12898545E+04  d E =-.927863E-03  mag=    16.9995
 trial-energy change:   -0.000928  1 .order   -0.000923   -0.001046   -0.000801
 step:   0.0908(harm=  0.1151)  dis= 0.02208  next Energy= -1289.860900 (dE=-0.194E-02)
 bond charge predicted
       N       E                     dE             d eps       ncg     rms          rms(c)
DAV:   1    -0.128082623096E+04    0.22335E-01   -0.10690E+01  2160   0.584E+00    0.640E-01
RMM:   2    -0.128084668305E+04   -0.20452E-01   -0.21601E-01  2361   0.718E-01    0.482E-01
RMM:   3    -0.128085303965E+04   -0.63566E-02   -0.19309E-02  2330   0.329E-01    0.132E+00
RMM:   4    -0.128084813994E+04    0.48997E-02   -0.78525E-03  2778   0.158E-01    0.306E-01
RMM:   5    -0.128084877812E+04   -0.63819E-03   -0.14790E-03  2409   0.805E-02    0.336E-01
RMM:   6    -0.128084867672E+04    0.10140E-03   -0.91389E-04  2462   0.585E-02    0.317E-01
RMM:   7    -0.128084907059E+04   -0.39387E-03   -0.93192E-04  2402   0.606E-02    0.404E-01
RMM:   8    -0.128084871020E+04    0.36039E-03   -0.62379E-04  2394   0.518E-02    0.167E-01
RMM:   9    -0.128084883294E+04   -0.12274E-03   -0.21447E-04  2358   0.293E-02    0.165E-01
RMM:  10    -0.128084878847E+04    0.44471E-04   -0.96253E-05  2184   0.200E-02    0.533E-02
RMM:  11    -0.128084881064E+04   -0.22171E-04   -0.28580E-05  1883   0.109E-02    0.459E-02
RMM:  12    -0.128084880899E+04    0.16492E-05   -0.12540E-05  1640   0.755E-03    0.330E-02
RMM:  13    -0.128084881188E+04   -0.28844E-05   -0.68429E-06  1574   0.565E-03    0.180E-02
RMM:  14    -0.128084881608E+04   -0.42003E-05   -0.34256E-06  1501   0.410E-03    0.178E-02
RMM:  15    -0.128084881707E+04   -0.99729E-06   -0.15907E-06  1386   0.290E-03
 193 F= -.12898615E+04 E0= -.12898562E+04  d E =-.252799E-02  mag=    16.9994
 curvature: -17.19 expect dE=-0.359E+00 dE for cont linesearch -0.373E-03
 ZBRENT: increasing intervall
 opt :   0.2184  next Energy= -1289.861906 (dE=-0.295E-02)
 bond charge predicted
       N       E                     dE             d eps       ncg     rms          rms(c)
DAV:   1    -0.128075876115E+04    0.90055E-01   -0.42817E+01  2196   0.117E+01    0.132E+00
RMM:   2    -0.128083906482E+04   -0.80304E-01   -0.84281E-01  2387   0.145E+00    0.947E-01
RMM:   3    -0.128085937779E+04   -0.20313E-01   -0.76223E-02  2342   0.638E-01    0.203E+00
RMM:   4    -0.128084607155E+04    0.13306E-01   -0.29197E-02  2768   0.306E-01    0.659E-01
RMM:   5    -0.128084695286E+04   -0.88131E-03   -0.55187E-03  2424   0.150E-01    0.745E-01
RMM:   6    -0.128084653420E+04    0.41866E-03   -0.34966E-03  2451   0.112E-01    0.620E-01
RMM:   7    -0.128084704497E+04   -0.51077E-03   -0.36667E-03  2436   0.121E-01    0.706E-01
RMM:   8    -0.128084651094E+04    0.53403E-03   -0.22192E-03  2431   0.949E-02    0.352E-01
RMM:   9    -0.128084671784E+04   -0.20690E-03   -0.11348E-03  2362   0.697E-02    0.339E-01
RMM:  10    -0.128084648525E+04    0.23259E-03   -0.41792E-04  2371   0.434E-02    0.113E-01
RMM:  11    -0.128084656078E+04   -0.75529E-04   -0.14468E-04  2257   0.242E-02    0.128E-01
RMM:  12    -0.128084653158E+04    0.29193E-04   -0.60449E-05  2049   0.157E-02    0.457E-02
RMM:  13    -0.128084655664E+04   -0.25060E-04   -0.30005E-05  1901   0.104E-02    0.437E-02
RMM:  14    -0.128084656479E+04   -0.81455E-05   -0.12582E-05  1723   0.743E-03    0.364E-02
RMM:  15    -0.128084656915E+04   -0.43654E-05   -0.62847E-06  1577   0.540E-03    0.189E-02
RMM:  16    -0.128084657951E+04   -0.10360E-04   -0.33996E-06  1497   0.388E-03    0.179E-02
RMM:  17    -0.128084659191E+04   -0.12397E-04   -0.30729E-06  1491   0.371E-03    0.198E-02
RMM:  18    -0.128084660040E+04   -0.84913E-05   -0.27004E-06  1450   0.351E-03    0.153E-02
RMM:  19    -0.128084660735E+04   -0.69504E-05   -0.12262E-06  1356   0.252E-03    0.975E-03
RMM:  20    -0.128084660996E+04   -0.26018E-05   -0.61918E-07  1259   0.172E-03    0.675E-03
RMM:  21    -0.128084661292E+04   -0.29683E-05   -0.42667E-07  1170   0.136E-03    0.803E-03
RMM:  22    -0.128084661712E+04   -0.41934E-05   -0.34686E-07  1136   0.120E-03    0.632E-03
RMM:  23    -0.128084662394E+04   -0.68180E-05   -0.35955E-07  1139   0.105E-03    0.382E-03
RMM:  24    -0.128084662810E+04   -0.41637E-05   -0.26896E-07  1092   0.101E-03    0.372E-03
RMM:  25    -0.128084663468E+04   -0.65861E-05   -0.30569E-07  1068   0.774E-04    0.155E-03
RMM:  26    -0.128084663869E+04   -0.40095E-05   -0.19730E-07  1021   0.726E-04    0.142E-03
RMM:  27    -0.128084664292E+04   -0.42233E-05   -0.20117E-07   995   0.610E-04    0.100E-03
RMM:  28    -0.128084664765E+04   -0.47303E-05   -0.20411E-07  1044   0.587E-04    0.907E-04
RMM:  29    -0.128084665269E+04   -0.50370E-05   -0.27594E-07  1073   0.578E-04    0.581E-04
RMM:  30    -0.128084665564E+04   -0.29569E-05   -0.22199E-07  1006   0.569E-04    0.399E-04
RMM:  31    -0.128084665753E+04   -0.18843E-05   -0.16239E-07   912   0.492E-04    0.356E-04
RMM:  32    -0.128084665953E+04   -0.20075E-05   -0.16055E-07   946   0.492E-04    0.267E-04
RMM:  33    -0.128084666071E+04   -0.11728E-05   -0.12366E-07   893   0.462E-04    0.271E-04
RMM:  34    -0.128084666132E+04   -0.61831E-06   -0.89733E-08   822   0.426E-04
 194 F= -.12898620E+04 E0= -.12898569E+04  d E =-.302103E-02  mag=    16.9992
 curvature: -19.23 expect dE=-0.674E+00 dE for cont linesearch -0.282E-03
 ZBRENT: bracketing found
 ZBRENT: interpolating
 opt :   0.1608  next Energy= -1289.862373 (dE=-0.341E-02)
 bond charge predicted
       N       E                     dE             d eps       ncg     rms          rms(c)
DAV:   1    -0.128082985418E+04    0.16807E-01   -0.87048E+00  2160   0.530E+00    0.581E-01
RMM:   2    -0.128084643684E+04   -0.16583E-01   -0.17527E-01  2351   0.644E-01    0.423E-01
RMM:   3    -0.128085344495E+04   -0.70081E-02   -0.15287E-02  2325   0.296E-01    0.225E+00
RMM:   4    -0.128084570119E+04    0.77438E-02   -0.72322E-03  2772   0.157E-01    0.341E-01
RMM:   5    -0.128084805394E+04   -0.23528E-02   -0.19539E-03  2358   0.997E-02    0.371E-01
RMM:   6    -0.128084795947E+04    0.94476E-04   -0.76234E-04  2470   0.544E-02    0.246E-01
RMM:   7    -0.128084833258E+04   -0.37311E-03   -0.88853E-04  2391   0.581E-02    0.352E-01
RMM:   8    -0.128084803612E+04    0.29646E-03   -0.50876E-04  2416   0.452E-02    0.107E-01
RMM:   9    -0.128084815857E+04   -0.12245E-03   -0.18571E-04  2282   0.273E-02    0.157E-01
RMM:  10    -0.128084811465E+04    0.43917E-04   -0.80972E-05  2133   0.186E-02    0.681E-02
RMM:  11    -0.128084812300E+04   -0.83424E-05   -0.25818E-05  1820   0.104E-02    0.441E-02
RMM:  12    -0.128084812195E+04    0.10523E-05   -0.11692E-05  1652   0.735E-03    0.256E-02
RMM:  13    -0.128084812546E+04   -0.35128E-05   -0.56131E-06  1558   0.521E-03    0.219E-02
RMM:  14    -0.128084812679E+04   -0.13306E-05   -0.31213E-06  1471   0.399E-03    0.155E-02
RMM:  15    -0.128084812825E+04   -0.14589E-05   -0.17065E-06  1397   0.306E-03    0.100E-02
RMM:  16    -0.128084812963E+04   -0.13863E-05   -0.79056E-07  1290   0.206E-03    0.897E-03
RMM:  17    -0.128084813092E+04   -0.12852E-05   -0.65087E-07  1267   0.184E-03    0.953E-03
RMM:  18    -0.128084813196E+04   -0.10388E-05   -0.43321E-07  1209   0.148E-03    0.516E-03
RMM:  19    -0.128084813302E+04   -0.10626E-05   -0.23390E-07  1124   0.100E-03    0.323E-03
RMM:  20    -0.128084813362E+04   -0.59690E-06   -0.13212E-07  1049   0.744E-04
 195 F= -.12898623E+04 E0= -.12898571E+04  d E =-.330778E-02  mag=    16.9993
 curvature: -26.64 expect dE=-0.630E+00 dE for cont linesearch -0.214E-04
 trial: gam= 0.27535 g(F)=  0.236E-01 g(S)=  0.000E+00 ort = 0.317E-02 (trialstep = 0.537E-01)
 search vector abs. value=  0.977E+00
 bond charge predicted
       N       E                     dE             d eps       ncg     rms          rms(c)
DAV:   1    -0.128084767871E+04    0.45431E-03   -0.59432E-01  2208   0.138E+00    0.158E-01
RMM:   2    -0.128084880314E+04   -0.11244E-02   -0.12178E-02  2352   0.170E-01    0.155E-01
RMM:   3    -0.128084927529E+04   -0.47215E-03   -0.12616E-03  2326   0.837E-02    0.438E-01
RMM:   4    -0.128084882314E+04    0.45215E-03   -0.53957E-04  2714   0.425E-02    0.132E-01
RMM:   5    -0.128084888458E+04   -0.61441E-04   -0.13379E-04  2162   0.242E-02    0.736E-02
RMM:   6    -0.128084890900E+04   -0.24419E-04   -0.53603E-05  2195   0.130E-02    0.786E-02
RMM:   7    -0.128084891569E+04   -0.66879E-05   -0.51944E-05  2086   0.148E-02    0.783E-02
RMM:   8    -0.128084892579E+04   -0.10097E-04   -0.39145E-05  2041   0.126E-02    0.559E-02
RMM:   9    -0.128084892301E+04    0.27737E-05   -0.18748E-05  1753   0.952E-03    0.292E-02
RMM:  10    -0.128084892501E+04   -0.19935E-05   -0.52770E-06  1549   0.514E-03    0.180E-02
RMM:  11    -0.128084892506E+04   -0.52583E-07   -0.22537E-06  1429   0.367E-03
 196 F= -.12898634E+04 E0= -.12898582E+04  d E =-.110321E-02  mag=    16.9993
 trial-energy change:   -0.001103  1 .order   -0.001106   -0.001316   -0.000895
 step:   0.1677(harm=  0.1677)  dis= 0.01072  next Energy= -1289.864324 (dE=-0.206E-02)
 bond charge predicted
       N       E                     dE             d eps       ncg     rms          rms(c)
DAV:   1    -0.128084359625E+04    0.53288E-02   -0.26793E+00  2160   0.294E+00    0.337E-01
RMM:   2    -0.128084876039E+04   -0.51641E-02   -0.55005E-02  2354   0.362E-01    0.302E-01
RMM:   3    -0.128085054513E+04   -0.17847E-02   -0.55704E-03  2327   0.176E-01    0.773E-01
RMM:   4    -0.128084905269E+04    0.14924E-02   -0.22692E-03  2767   0.865E-02    0.285E-01
RMM:   5    -0.128084912633E+04   -0.73642E-04   -0.55168E-04  2329   0.474E-02    0.165E-01
RMM:   6    -0.128084917679E+04   -0.50464E-04   -0.23383E-04  2478   0.262E-02    0.169E-01
RMM:   7    -0.128084918999E+04   -0.13193E-04   -0.23437E-04  2365   0.306E-02    0.163E-01
RMM:   8    -0.128084922894E+04   -0.38951E-04   -0.19043E-04  2371   0.269E-02    0.138E-01
RMM:   9    -0.128084919493E+04    0.34009E-04   -0.95793E-05  2183   0.206E-02    0.591E-02
RMM:  10    -0.128084920409E+04   -0.91605E-05   -0.26260E-05  1870   0.101E-02    0.325E-02
RMM:  11    -0.128084920441E+04   -0.31664E-06   -0.86169E-06  1574   0.653E-03
 197 F= -.12898643E+04 E0= -.12898591E+04  d E =-.204028E-02  mag=    16.9993
 curvature:  -3.34 expect dE=-0.299E-01 dE for cont linesearch -0.220E-06
 trial: gam= 0.39139 g(F)=  0.893E-02 g(S)=  0.000E+00 ort =-0.254E-03 (trialstep = 0.765E-01)
 search vector abs. value=  0.158E+00
 bond charge predicted
       N       E                     dE             d eps       ncg     rms          rms(c)
DAV:   1    -0.128084920134E+04    0.27465E-05   -0.19650E-01  2244   0.811E-01    0.101E-01
RMM:   2    -0.128084959427E+04   -0.39292E-03   -0.42224E-03  2494   0.104E-01    0.110E-01
RMM:   3    -0.128084969100E+04   -0.96733E-04   -0.46122E-04  2407   0.502E-02    0.179E-01
RMM:   4    -0.128084960732E+04    0.83680E-04   -0.15979E-04  2597   0.251E-02    0.595E-02
RMM:   5    -0.128084963244E+04   -0.25122E-04   -0.34535E-05  2024   0.122E-02    0.928E-02
RMM:   6    -0.128084962835E+04    0.40975E-05   -0.24574E-05  1885   0.950E-03    0.645E-02
RMM:   7    -0.128084962838E+04   -0.32502E-07   -0.19192E-05  1870   0.949E-03    0.320E-02
RMM:   8    -0.128084964529E+04   -0.16911E-04   -0.18289E-05  1882   0.875E-03    0.500E-02
RMM:   9    -0.128084964073E+04    0.45551E-05   -0.93393E-06  1611   0.681E-03    0.176E-02
RMM:  10    -0.128084964355E+04   -0.28140E-05   -0.32441E-06  1463   0.425E-03    0.106E-02
RMM:  11    -0.128084964460E+04   -0.10556E-05   -0.10392E-06  1327   0.253E-03    0.920E-03
RMM:  12    -0.128084964484E+04   -0.23785E-06   -0.52821E-07  1262   0.183E-03
 198 F= -.12898649E+04 E0= -.12898597E+04  d E =-.611168E-03  mag=    16.9993
 trial-energy change:   -0.000611  1 .order   -0.000597   -0.000676   -0.000518
 step:   0.1847(harm=  0.3279)  dis= 0.00445  next Energy= -1289.865327 (dE=-0.102E-02)
 bond charge predicted
       N       E                     dE             d eps       ncg     rms          rms(c)
DAV:   1    -0.128084911743E+04    0.52718E-03   -0.39255E-01  2160   0.115E+00    0.138E-01
RMM:   2    -0.128084985226E+04   -0.73483E-03   -0.83027E-03  2490   0.145E-01    0.884E-02
RMM:   3    -0.128085001730E+04   -0.16504E-03   -0.71081E-04  2402   0.616E-02    0.200E-01
RMM:   4    -0.128084994632E+04    0.70976E-04   -0.27770E-04  2690   0.283E-02    0.128E-01
RMM:   5    -0.128084994410E+04    0.22177E-05   -0.66710E-05  2094   0.172E-02    0.737E-02
RMM:   6    -0.128084995238E+04   -0.82739E-05   -0.34035E-05  2063   0.117E-02    0.560E-02
RMM:   7    -0.128084996404E+04   -0.11663E-04   -0.34807E-05  1994   0.123E-02    0.629E-02
RMM:   8    -0.128084996671E+04   -0.26710E-05   -0.21407E-05  1981   0.962E-03    0.225E-02
RMM:   9    -0.128084997168E+04   -0.49711E-05   -0.86221E-06  1608   0.650E-03    0.266E-02
RMM:  10    -0.128084997102E+04    0.66121E-06   -0.36868E-06  1471   0.435E-03
 199 F= -.12898655E+04 E0= -.12898603E+04  d E =-.117780E-02  mag=    16.9993
 curvature:  -1.99 expect dE=-0.639E-02 dE for cont linesearch -0.180E-03
 ZBRENT: increasing intervall
 opt :   0.4010  next Energy= -1289.865660 (dE=-0.135E-02)
 bond charge predicted
       N       E                     dE             d eps       ncg     rms          rms(c)
DAV:   1    -0.128084622039E+04    0.37513E-02   -0.15701E+00  2160   0.229E+00    0.276E-01
RMM:   2    -0.128084924297E+04   -0.30226E-02   -0.33157E-02  2492   0.289E-01    0.180E-01
RMM:   3    -0.128084989223E+04   -0.64926E-03   -0.29138E-03  2402   0.125E-01    0.405E-01
RMM:   4    -0.128084958726E+04    0.30497E-03   -0.11218E-03  2761   0.582E-02    0.252E-01
RMM:   5    -0.128084957353E+04    0.13732E-04   -0.27076E-04  2311   0.338E-02    0.157E-01
RMM:   6    -0.128084958842E+04   -0.14893E-04   -0.14747E-04  2368   0.240E-02    0.126E-01
RMM:   7    -0.128084959763E+04   -0.92103E-05   -0.13441E-04  2310   0.239E-02    0.114E-01
RMM:   8    -0.128084962425E+04   -0.26618E-04   -0.95489E-05  2344   0.195E-02    0.767E-02
RMM:   9    -0.128084962048E+04    0.37668E-05   -0.47919E-05  2012   0.149E-02    0.567E-02
RMM:  10    -0.128084962084E+04   -0.35705E-06   -0.18592E-05  1725   0.895E-03    0.312E-02
RMM:  11    -0.128084962153E+04   -0.69034E-06   -0.62748E-06  1543   0.599E-03
 200 F= -.12898656E+04 E0= -.12898605E+04  d E =-.130617E-02  mag=    16.9993
 curvature:  -1.91 expect dE=-0.142E-01 dE for cont linesearch -0.735E-04
 ZBRENT: bracketing found
 ZBRENT: interpolating
 opt :   0.3156  next Energy= -1289.865720 (dE=-0.141E-02)
 bond charge predicted
       N       E                     dE             d eps       ncg     rms          rms(c)
DAV:   1    -0.128084939383E+04    0.22701E-03   -0.24422E-01  2256   0.902E-01    0.108E-01
RMM:   2    -0.128084985166E+04   -0.45783E-03   -0.51309E-03  2467   0.114E-01    0.839E-02
RMM:   3    -0.128084996174E+04   -0.11008E-03   -0.48710E-04  2381   0.520E-02    0.152E-01
RMM:   4    -0.128084989652E+04    0.65223E-04   -0.18254E-04  2619   0.255E-02    0.564E-02
RMM:   5    -0.128084991529E+04   -0.18777E-04   -0.36712E-05  2044   0.129E-02    0.642E-02
RMM:   6    -0.128084991878E+04   -0.34870E-05   -0.23420E-05  1947   0.960E-03    0.786E-02
RMM:   7    -0.128084991283E+04    0.59493E-05   -0.17631E-05  1737   0.847E-03    0.562E-02
RMM:   8    -0.128084992651E+04   -0.13677E-04   -0.19114E-05  1934   0.895E-03    0.409E-02
RMM:   9    -0.128084992465E+04    0.18569E-05   -0.90311E-06  1599   0.675E-03    0.181E-02
RMM:  10    -0.128084992725E+04   -0.26025E-05   -0.29222E-06  1466   0.397E-03    0.144E-02
RMM:  11    -0.128084992719E+04    0.61060E-07   -0.12422E-06  1346   0.283E-03
 201 F= -.12898657E+04 E0= -.12898606E+04  d E =-.142384E-02  mag=    16.9993
 curvature:  -2.74 expect dE=-0.119E-01 dE for cont linesearch -0.940E-07
 trial: gam= 0.44829 g(F)=  0.435E-02 g(S)=  0.000E+00 ort =-0.737E-04 (trialstep = 0.124E+00)
 search vector abs. value=  0.361E-01
 bond charge predicted
       N       E                     dE             d eps       ncg     rms          rms(c)
DAV:   1    -0.128084996138E+04   -0.34125E-04   -0.12575E-01  2256   0.650E-01    0.825E-02
RMM:   2    -0.128085019053E+04   -0.22915E-03   -0.26415E-03  2560   0.834E-02    0.704E-02
RMM:   3    -0.128085027854E+04   -0.88006E-04   -0.27838E-04  2440   0.371E-02    0.158E-01
RMM:   4    -0.128085021903E+04    0.59505E-04   -0.11082E-04  2442   0.195E-02    0.924E-02
RMM:   5    -0.128085022431E+04   -0.52745E-05   -0.31974E-05  1948   0.122E-02    0.454E-02
RMM:   6    -0.128085023385E+04   -0.95436E-05   -0.17404E-05  1837   0.833E-03    0.460E-02
RMM:   7    -0.128085023152E+04    0.23309E-05   -0.14063E-05  1767   0.796E-03    0.285E-02
RMM:   8    -0.128085023825E+04   -0.67352E-05   -0.10551E-05  1774   0.674E-03    0.247E-02
RMM:   9    -0.128085023783E+04    0.42673E-06   -0.49662E-06  1526   0.528E-03
 202 F= -.12898662E+04 E0= -.12898611E+04  d E =-.449597E-03  mag=    16.9993
 trial-energy change:   -0.000450  1 .order   -0.000457   -0.000537   -0.000377
 step:   0.4180(harm=  0.4180)  dis= 0.00574  next Energy= -1289.866635 (dE=-0.902E-03)
 bond charge predicted
       N       E                     dE             d eps       ncg     rms          rms(c)
DAV:   1    -0.128084870144E+04    0.15368E-02   -0.70124E-01  2160   0.153E+00    0.195E-01
RMM:   2    -0.128085005678E+04   -0.13553E-02   -0.14795E-02  2571   0.197E-01    0.148E-01
RMM:   3    -0.128085038340E+04   -0.32661E-03   -0.14510E-03  2482   0.840E-02    0.240E-01
RMM:   4    -0.128085021760E+04    0.16580E-03   -0.53992E-04  2689   0.416E-02    0.117E-01
RMM:   5    -0.128085027994E+04   -0.62342E-04   -0.12436E-04  2266   0.224E-02    0.184E-01
RMM:   6    -0.128085024954E+04    0.30407E-04   -0.94951E-05  2247   0.179E-02    0.132E-01
RMM:   7    -0.128085023825E+04    0.11291E-04   -0.84395E-05  2201   0.191E-02    0.749E-02
RMM:   8    -0.128085026518E+04   -0.26937E-04   -0.46940E-05  2120   0.139E-02    0.587E-02
RMM:   9    -0.128085026111E+04    0.40762E-05   -0.23762E-05  1803   0.105E-02    0.346E-02
RMM:  10    -0.128085026281E+04   -0.16998E-05   -0.61506E-06  1591   0.569E-03    0.188E-02
RMM:  11    -0.128085026385E+04   -0.10402E-05   -0.29013E-06  1457   0.396E-03    0.163E-02
RMM:  12    -0.128085026464E+04   -0.79181E-06   -0.10735E-06  1341   0.261E-03
 203 F= -.12898665E+04 E0= -.12898615E+04  d E =-.803482E-03  mag=    16.9993
 curvature:  -1.75 expect dE=-0.115E-01 dE for cont linesearch -0.120E-04
 trial: gam= 1.61587 g(F)=  0.655E-02 g(S)=  0.000E+00 ort =-0.499E-03 (trialstep = 0.666E-01)
 search vector abs. value=  0.993E-01
 bond charge predicted
       N       E                     dE             d eps       ncg     rms          rms(c)
DAV:   1    -0.128085022265E+04    0.41198E-04   -0.10316E-01  2256   0.590E-01    0.778E-02
RMM:   2    -0.128085040351E+04   -0.18086E-03   -0.21247E-03  2554   0.746E-02    0.587E-02
RMM:   3    -0.128085047208E+04   -0.68570E-04   -0.19742E-04  2433   0.317E-02    0.114E-01
RMM:   4    -0.128085043698E+04    0.35102E-04   -0.77064E-05  2357   0.163E-02    0.465E-02
RMM:   5    -0.128085045966E+04   -0.22680E-04   -0.23454E-05  1913   0.964E-03    0.908E-02
RMM:   6    -0.128085044216E+04    0.17504E-04   -0.15783E-05  1784   0.838E-03    0.290E-02
RMM:   7    -0.128085045716E+04   -0.15008E-04   -0.16070E-05  1780   0.848E-03    0.388E-02
RMM:   8    -0.128085045589E+04    0.12717E-05   -0.80429E-06  1626   0.656E-03    0.226E-02
RMM:   9    -0.128085045661E+04   -0.71844E-06   -0.32588E-06  1472   0.440E-03
 204 F= -.12898669E+04 E0= -.12898618E+04  d E =-.318644E-03  mag=    16.9993
 trial-energy change:   -0.000319  1 .order   -0.000316   -0.000383   -0.000250
 step:   0.1925(harm=  0.1925)  dis= 0.00423  next Energy= -1289.867089 (dE=-0.553E-03)
 bond charge predicted
       N       E                     dE             d eps       ncg     rms          rms(c)
DAV:   1    -0.128084959368E+04    0.86222E-03   -0.36757E-01  2160   0.111E+00    0.146E-01
RMM:   2    -0.128085026204E+04   -0.66836E-03   -0.75534E-03  2556   0.141E-01    0.103E-01
RMM:   3    -0.128085047097E+04   -0.20893E-03   -0.66301E-04  2479   0.581E-02    0.212E-01
RMM:   4    -0.128085037397E+04    0.96997E-04   -0.25905E-04  2649   0.291E-02    0.123E-01
RMM:   5    -0.128085040040E+04   -0.26427E-04   -0.81519E-05  2137   0.183E-02    0.109E-01
RMM:   6    -0.128085038938E+04    0.11019E-04   -0.50501E-05  2093   0.144E-02    0.566E-02
RMM:   7    -0.128085041275E+04   -0.23372E-04   -0.52956E-05  2075   0.146E-02    0.739E-02
RMM:   8    -0.128085040840E+04    0.43532E-05   -0.28294E-05  1965   0.110E-02    0.429E-02
RMM:   9    -0.128085040731E+04    0.10930E-05   -0.11059E-05  1622   0.750E-03    0.216E-02
RMM:  10    -0.128085040972E+04   -0.24109E-05   -0.42099E-06  1505   0.464E-03    0.163E-02
RMM:  11    -0.128085041031E+04   -0.58756E-06   -0.16601E-06  1410   0.322E-03
 205 F= -.12898670E+04 E0= -.12898620E+04  d E =-.511025E-03  mag=    16.9993
 curvature:  -1.66 expect dE=-0.716E-02 dE for cont linesearch -0.519E-05
 trial: gam= 0.54028 g(F)=  0.430E-02 g(S)=  0.000E+00 ort =-0.557E-03 (trialstep = 0.918E-01)
 search vector abs. value=  0.327E-01
 bond charge predicted
       N       E                     dE             d eps       ncg     rms          rms(c)
DAV:   1    -0.128085047789E+04   -0.68176E-04   -0.64446E-02  2244   0.469E-01    0.716E-02
RMM:   2    -0.128085059330E+04   -0.11541E-03   -0.13947E-03  2541   0.606E-02    0.570E-02
RMM:   3    -0.128085070323E+04   -0.10993E-03   -0.16773E-04  2415   0.285E-02    0.208E-01
RMM:   4    -0.128085058773E+04    0.11550E-03   -0.75787E-05  2310   0.167E-02    0.361E-02
RMM:   5    -0.128085062162E+04   -0.33891E-04   -0.18643E-05  1772   0.961E-03    0.347E-02
RMM:   6    -0.128085062618E+04   -0.45578E-05   -0.74422E-06  1637   0.601E-03    0.288E-02
RMM:   7    -0.128085063204E+04   -0.58586E-05   -0.98998E-06  1664   0.687E-03    0.369E-02
RMM:   8    -0.128085063101E+04    0.10302E-05   -0.65873E-06  1586   0.581E-03    0.194E-02
RMM:   9    -0.128085063241E+04   -0.14069E-05   -0.24146E-06  1428   0.372E-03    0.149E-02
RMM:  10    -0.128085063304E+04   -0.62808E-06   -0.89770E-07  1295   0.238E-03
 206 F= -.12898674E+04 E0= -.12898623E+04  d E =-.317093E-03  mag=    16.9993
 trial-energy change:   -0.000317  1 .order   -0.000315   -0.000367   -0.000263
 step:   0.3235(harm=  0.3235)  dis= 0.00403  next Energy= -1289.867695 (dE=-0.647E-03)
 bond charge predicted
       N       E                     dE             d eps       ncg     rms          rms(c)
DAV:   1    -0.128084973678E+04    0.89563E-03   -0.41061E-01  2160   0.118E+00    0.181E-01
RMM:   2    -0.128085053472E+04   -0.79793E-03   -0.89085E-03  2542   0.153E-01    0.133E-01
RMM:   3    -0.128085097054E+04   -0.43582E-03   -0.97757E-04  2455   0.701E-02    0.376E-01
RMM:   4    -0.128085060635E+04    0.36419E-03   -0.41126E-04  2646   0.379E-02    0.130E-01
RMM:   5    -0.128085066693E+04   -0.60582E-04   -0.11318E-04  2176   0.229E-02    0.849E-02
RMM:   6    -0.128085067746E+04   -0.10537E-04   -0.47034E-05  2106   0.132E-02    0.777E-02
RMM:   7    -0.128085068227E+04   -0.48031E-05   -0.51237E-05  2077   0.146E-02    0.667E-02
RMM:   8    -0.128085069124E+04   -0.89727E-05   -0.31414E-05  2041   0.116E-02    0.430E-02
RMM:   9    -0.128085069203E+04   -0.79355E-06   -0.13617E-05  1666   0.812E-03    0.322E-02
RMM:  10    -0.128085069294E+04   -0.90192E-06   -0.51897E-06  1533   0.515E-03
 207 F= -.12898677E+04 E0= -.12898626E+04  d E =-.614595E-03  mag=    16.9993
 curvature:  -1.32 expect dE=-0.548E-02 dE for cont linesearch -0.860E-06
 trial: gam= 0.95717 g(F)=  0.415E-02 g(S)=  0.000E+00 ort =-0.146E-03 (trialstep = 0.134E+00)
 search vector abs. value=  0.338E-01
 bond charge predicted
       N       E                     dE             d eps       ncg     rms          rms(c)
DAV:   1    -0.128085067625E+04    0.15786E-04   -0.14491E-01  2244   0.710E-01    0.960E-02
RMM:   2    -0.128085093700E+04   -0.26075E-03   -0.29741E-03  2529   0.928E-02    0.848E-02
RMM:   3    -0.128085107394E+04   -0.13694E-03   -0.35659E-04  2448   0.421E-02    0.199E-01
RMM:   4    -0.128085098690E+04    0.87041E-04   -0.13978E-04  2544   0.214E-02    0.102E-01
RMM:   5    -0.128085098508E+04    0.18138E-05   -0.39579E-05  1973   0.136E-02    0.435E-02
RMM:   6    -0.128085099884E+04   -0.13754E-04   -0.17217E-05  1863   0.805E-03    0.438E-02
RMM:   7    -0.128085099999E+04   -0.11536E-05   -0.14393E-05  1720   0.766E-03    0.363E-02
RMM:   8    -0.128085100908E+04   -0.90908E-05   -0.12493E-05  1836   0.705E-03    0.332E-02
RMM:   9    -0.128085100664E+04    0.24401E-05   -0.61071E-06  1535   0.568E-03    0.148E-02
RMM:  10    -0.128085100905E+04   -0.24066E-05   -0.19686E-06  1399   0.316E-03    0.122E-02
RMM:  11    -0.128085100964E+04   -0.58879E-06   -0.83005E-07  1307   0.232E-03
 208 F= -.12898681E+04 E0= -.12898631E+04  d E =-.422447E-03  mag=    16.9993
 trial-energy change:   -0.000422  1 .order   -0.000421   -0.000536   -0.000306
 step:   0.3110(harm=  0.3110)  dis= 0.00385  next Energy= -1289.868286 (dE=-0.624E-03)
 bond charge predicted
       N       E                     dE             d eps       ncg     rms          rms(c)
DAV:   1    -0.128085049252E+04    0.51653E-03   -0.25613E-01  2160   0.944E-01    0.126E-01
RMM:   2    -0.128085095153E+04   -0.45902E-03   -0.52237E-03  2530   0.123E-01    0.106E-01
RMM:   3    -0.128085126467E+04   -0.31313E-03   -0.60129E-04  2454   0.547E-02    0.336E-01
RMM:   4    -0.128085099040E+04    0.27426E-03   -0.25515E-04  2646   0.295E-02    0.693E-02
RMM:   5    -0.128085104979E+04   -0.59381E-04   -0.64332E-05  2087   0.174E-02    0.650E-02
RMM:   6    -0.128085105172E+04   -0.19338E-05   -0.25843E-05  2024   0.101E-02    0.464E-02
RMM:   7    -0.128085106849E+04   -0.16773E-04   -0.32378E-05  1968   0.115E-02    0.649E-02
RMM:   8    -0.128085106517E+04    0.33273E-05   -0.22569E-05  1932   0.984E-03    0.357E-02
RMM:   9    -0.128085106580E+04   -0.63873E-06   -0.89433E-06  1597   0.672E-03
 209 F= -.12898683E+04 E0= -.12898634E+04  d E =-.618654E-03  mag=    16.9993
 curvature:  -1.31 expect dE=-0.513E-02 dE for cont linesearch -0.476E-06
 trial: gam= 0.91726 g(F)=  0.392E-02 g(S)=  0.000E+00 ort = 0.111E-03 (trialstep = 0.169E+00)
 search vector abs. value=  0.326E-01
 bond charge predicted
       N       E                     dE             d eps       ncg     rms          rms(c)
DAV:   1    -0.128085097718E+04    0.87988E-04   -0.23092E-01  2232   0.896E-01    0.116E-01
RMM:   2    -0.128085142161E+04   -0.44444E-03   -0.45974E-03  2500   0.114E-01    0.161E-01
RMM:   3    -0.128085165671E+04   -0.23509E-03   -0.59662E-04  2424   0.551E-02    0.329E-01
RMM:   4    -0.128085143100E+04    0.22571E-03   -0.26574E-04  2641   0.306E-02    0.101E-01
RMM:   5    -0.128085146186E+04   -0.30861E-04   -0.68083E-05  2087   0.181E-02    0.533E-02
RMM:   6    -0.128085148355E+04   -0.21697E-04   -0.32133E-05  2041   0.107E-02    0.617E-02
RMM:   7    -0.128085148105E+04    0.25029E-05   -0.27559E-05  1985   0.106E-02    0.403E-02
RMM:   8    -0.128085149352E+04   -0.12473E-04   -0.21173E-05  1929   0.921E-03    0.382E-02
RMM:   9    -0.128085149188E+04    0.16400E-05   -0.91933E-06  1606   0.684E-03    0.217E-02
RMM:  10    -0.128085149311E+04   -0.12285E-05   -0.32401E-06  1477   0.409E-03    0.113E-02
RMM:  11    -0.128085149426E+04   -0.11510E-05   -0.10277E-06  1328   0.259E-03    0.793E-03
RMM:  12    -0.128085149520E+04   -0.93663E-06   -0.50882E-07  1252   0.171E-03
 210 F= -.12898688E+04 E0= -.12898639E+04  d E =-.519599E-03  mag=    16.9993
 trial-energy change:   -0.000520  1 .order   -0.000518   -0.000679   -0.000356
 step:   0.3551(harm=  0.3551)  dis= 0.00486  next Energy= -1289.868994 (dE=-0.713E-03)
 bond charge predicted
       N       E                     dE             d eps       ncg     rms          rms(c)
DAV:   1    -0.128085099145E+04    0.50282E-03   -0.28032E-01  2160   0.987E-01    0.126E-01
RMM:   2    -0.128085151383E+04   -0.52239E-03   -0.55669E-03  2501   0.125E-01    0.139E-01
RMM:   3    -0.128085179545E+04   -0.28162E-03   -0.69274E-04  2434   0.588E-02    0.329E-01
RMM:   4    -0.128085154972E+04    0.24573E-03   -0.29926E-04  2647   0.320E-02    0.119E-01
RMM:   5    -0.128085157861E+04   -0.28892E-04   -0.81933E-05  2115   0.193E-02    0.551E-02
RMM:   6    -0.128085159849E+04   -0.19874E-04   -0.37378E-05  2060   0.114E-02    0.691E-02
RMM:   7    -0.128085159374E+04    0.47472E-05   -0.31207E-05  2030   0.113E-02    0.428E-02
RMM:   8    -0.128085160809E+04   -0.14345E-04   -0.22511E-05  1947   0.937E-03    0.439E-02
RMM:   9    -0.128085160519E+04    0.28953E-05   -0.10028E-05  1602   0.698E-03    0.195E-02
RMM:  10    -0.128085160726E+04   -0.20649E-05   -0.26757E-06  1433   0.369E-03    0.127E-02
RMM:  11    -0.128085160795E+04   -0.68995E-06   -0.10602E-06  1333   0.247E-03
 211 F= -.12898690E+04 E0= -.12898641E+04  d E =-.731212E-03  mag=    16.9993
 curvature:  -1.44 expect dE=-0.392E-02 dE for cont linesearch -0.886E-06
 trial: gam= 0.70275 g(F)=  0.273E-02 g(S)=  0.000E+00 ort = 0.142E-03 (trialstep = 0.206E+00)
 search vector abs. value=  0.190E-01
 bond charge predicted
       N       E                     dE             d eps       ncg     rms          rms(c)
DAV:   1    -0.128085159816E+04    0.90981E-05   -0.19367E-01  2160   0.844E-01    0.112E-01
RMM:   2    -0.128085195678E+04   -0.35862E-03   -0.39721E-03  2528   0.108E-01    0.924E-02
RMM:   3    -0.128085210895E+04   -0.15217E-03   -0.45442E-04  2444   0.481E-02    0.196E-01
RMM:   4    -0.128085201351E+04    0.95440E-04   -0.17202E-04  2590   0.250E-02    0.124E-01
RMM:   5    -0.128085200988E+04    0.36295E-05   -0.51348E-05  2060   0.145E-02    0.526E-02
RMM:   6    -0.128085202716E+04   -0.17283E-04   -0.25822E-05  2002   0.986E-03    0.572E-02
RMM:   7    -0.128085202577E+04    0.13935E-05   -0.20557E-05  1888   0.955E-03    0.399E-02
RMM:   8    -0.128085203848E+04   -0.12712E-04   -0.17887E-05  1892   0.872E-03    0.428E-02
RMM:   9    -0.128085203568E+04    0.28037E-05   -0.84735E-06  1562   0.647E-03    0.169E-02
RMM:  10    -0.128085203770E+04   -0.20194E-05   -0.21537E-06  1403   0.339E-03    0.113E-02
RMM:  11    -0.128085203821E+04   -0.51515E-06   -0.78810E-07  1288   0.225E-03
 212 F= -.12898695E+04 E0= -.12898645E+04  d E =-.454262E-03  mag=    16.9993
 trial-energy change:   -0.000454  1 .order   -0.000450   -0.000583   -0.000318
 step:   0.4545(harm=  0.4545)  dis= 0.00363  next Energy= -1289.869654 (dE=-0.642E-03)
 bond charge predicted
       N       E                     dE             d eps       ncg     rms          rms(c)
DAV:   1    -0.128085156176E+04    0.47594E-03   -0.28069E-01  2160   0.102E+00    0.135E-01
RMM:   2    -0.128085208339E+04   -0.52163E-03   -0.57461E-03  2522   0.130E-01    0.108E-01
RMM:   3    -0.128085230159E+04   -0.21819E-03   -0.65173E-04  2450   0.579E-02    0.234E-01
RMM:   4    -0.128085216395E+04    0.13764E-03   -0.24769E-04  2656   0.299E-02    0.144E-01
RMM:   5    -0.128085215989E+04    0.40530E-05   -0.74153E-05  2119   0.173E-02    0.632E-02
RMM:   6    -0.128085218045E+04   -0.20557E-04   -0.35739E-05  2058   0.115E-02    0.658E-02
RMM:   7    -0.128085217872E+04    0.17323E-05   -0.29333E-05  1989   0.113E-02    0.479E-02
RMM:   8    -0.128085219384E+04   -0.15118E-04   -0.23452E-05  1982   0.987E-03    0.492E-02
RMM:   9    -0.128085218916E+04    0.46790E-05   -0.10977E-05  1612   0.741E-03    0.186E-02
RMM:  10    -0.128085219212E+04   -0.29656E-05   -0.28637E-06  1475   0.390E-03    0.134E-02
RMM:  11    -0.128085219265E+04   -0.52753E-06   -0.11593E-06  1346   0.263E-03
 213 F= -.12898696E+04 E0= -.12898647E+04  d E =-.637133E-03  mag=    16.9994
 curvature:  -1.53 expect dE=-0.632E-02 dE for cont linesearch -0.101E-06
 trial: gam= 1.59685 g(F)=  0.413E-02 g(S)=  0.000E+00 ort =-0.355E-04 (trialstep = 0.927E-01)
 search vector abs. value=  0.525E-01
 bond charge predicted
       N       E                     dE             d eps       ncg     rms          rms(c)
DAV:   1    -0.128085223987E+04   -0.47748E-04   -0.10638E-01  2208   0.630E-01    0.816E-02
RMM:   2    -0.128085242455E+04   -0.18468E-03   -0.22133E-03  2499   0.810E-02    0.559E-02
RMM:   3    -0.128085249453E+04   -0.69978E-04   -0.20053E-04  2437   0.335E-02    0.128E-01
RMM:   4    -0.128085245747E+04    0.37059E-04   -0.78959E-05  2439   0.158E-02    0.559E-02
RMM:   5    -0.128085247577E+04   -0.18301E-04   -0.23873E-05  1899   0.110E-02    0.627E-02
RMM:   6    -0.128085246865E+04    0.71172E-05   -0.14481E-05  1789   0.828E-03    0.293E-02
RMM:   7    -0.128085248397E+04   -0.15313E-04   -0.19521E-05  1811   0.884E-03    0.485E-02
RMM:   8    -0.128085247847E+04    0.54956E-05   -0.97385E-06  1625   0.699E-03    0.184E-02
RMM:   9    -0.128085248048E+04   -0.20073E-05   -0.29947E-06  1457   0.408E-03    0.125E-02
RMM:  10    -0.128085248167E+04   -0.11896E-05   -0.93572E-07  1296   0.247E-03    0.616E-03
RMM:  11    -0.128085248220E+04   -0.53505E-06   -0.40615E-07  1249   0.162E-03
 214 F= -.12898699E+04 E0= -.12898650E+04  d E =-.287378E-03  mag=    16.9994
 trial-energy change:   -0.000287  1 .order   -0.000285   -0.000377   -0.000193
 step:   0.1901(harm=  0.1901)  dis= 0.00250  next Energy= -1289.870036 (dE=-0.387E-03)
 bond charge predicted
       N       E                     dE             d eps       ncg     rms          rms(c)
DAV:   1    -0.128085232184E+04    0.15983E-03   -0.11755E-01  2196   0.662E-01    0.854E-02
RMM:   2    -0.128085252459E+04   -0.20275E-03   -0.24419E-03  2492   0.851E-02    0.559E-02
RMM:   3    -0.128085258123E+04   -0.56649E-04   -0.20950E-04  2452   0.340E-02    0.815E-02
RMM:   4    -0.128085257263E+04    0.86094E-05   -0.81328E-05  2438   0.155E-02    0.613E-02
RMM:   5    -0.128085258656E+04   -0.13931E-04   -0.24201E-05  1909   0.102E-02    0.883E-02
RMM:   6    -0.128085256790E+04    0.18656E-04   -0.17327E-05  1804   0.903E-03    0.284E-02
RMM:   7    -0.128085259072E+04   -0.22824E-04   -0.21480E-05  1851   0.906E-03    0.578E-02
RMM:   8    -0.128085258164E+04    0.90879E-05   -0.10542E-05  1610   0.707E-03    0.165E-02
RMM:   9    -0.128085258501E+04   -0.33769E-05   -0.30354E-06  1448   0.394E-03    0.163E-02
RMM:  10    -0.128085258568E+04   -0.66208E-06   -0.11073E-06  1319   0.265E-03
 215 F= -.12898700E+04 E0= -.12898651E+04  d E =-.388316E-03  mag=    16.9994
 curvature:  -1.22 expect dE=-0.319E-02 dE for cont linesearch -0.174E-07
 trial: gam= 0.57393 g(F)=  0.260E-02 g(S)=  0.000E+00 ort = 0.273E-04 (trialstep = 0.112E+00)
 search vector abs. value=  0.199E-01
 bond charge predicted
       N       E                     dE             d eps       ncg     rms          rms(c)
DAV:   1    -0.128085271259E+04   -0.12758E-03   -0.61157E-02  2232   0.485E-01    0.559E-02
RMM:   2    -0.128085281758E+04   -0.10498E-03   -0.12437E-03  2508   0.615E-02    0.488E-02
RMM:   3    -0.128085287382E+04   -0.56241E-04   -0.13291E-04  2417   0.275E-02    0.141E-01
RMM:   4    -0.128085282511E+04    0.48706E-04   -0.53467E-05  2316   0.136E-02    0.394E-02
RMM:   5    -0.128085284004E+04   -0.14933E-04   -0.15182E-05  1736   0.894E-03    0.326E-02
RMM:   6    -0.128085284288E+04   -0.28365E-05   -0.90275E-06  1718   0.635E-03    0.298E-02
RMM:   7    -0.128085284412E+04   -0.12385E-05   -0.80828E-06  1610   0.643E-03    0.228E-02
RMM:   8    -0.128085284695E+04   -0.28271E-05   -0.40449E-06  1517   0.463E-03    0.148E-02
RMM:   9    -0.128085284725E+04   -0.30657E-06   -0.17907E-06  1399   0.348E-03
 216 F= -.12898703E+04 E0= -.12898654E+04  d E =-.244712E-03  mag=    16.9994
 trial-energy change:   -0.000245  1 .order   -0.000247   -0.000294   -0.000200
 step:   0.3526(harm=  0.3526)  dis= 0.00321  next Energy= -1289.870499 (dE=-0.462E-03)
 bond charge predicted
       N       E                     dE             d eps       ncg     rms          rms(c)
DAV:   1    -0.128085245790E+04    0.38905E-03   -0.28101E-01  2160   0.104E+00    0.119E-01
RMM:   2    -0.128085296403E+04   -0.50613E-03   -0.56920E-03  2488   0.132E-01    0.102E-01
RMM:   3    -0.128085318227E+04   -0.21824E-03   -0.60819E-04  2435   0.588E-02    0.267E-01
RMM:   4    -0.128085301751E+04    0.16476E-03   -0.24049E-04  2690   0.283E-02    0.942E-02
RMM:   5    -0.128085304777E+04   -0.30260E-04   -0.65523E-05  2099   0.175E-02    0.717E-02
RMM:   6    -0.128085305259E+04   -0.48167E-05   -0.37811E-05  2112   0.121E-02    0.612E-02
RMM:   7    -0.128085305638E+04   -0.37888E-05   -0.36310E-05  1982   0.121E-02    0.554E-02
RMM:   8    -0.128085306091E+04   -0.45329E-05   -0.19968E-05  1940   0.929E-03    0.333E-02
RMM:   9    -0.128085305948E+04    0.14317E-05   -0.73872E-06  1565   0.623E-03    0.166E-02
RMM:  10    -0.128085306131E+04   -0.18320E-05   -0.25517E-06  1440   0.359E-03    0.137E-02
RMM:  11    -0.128085306190E+04   -0.59350E-06   -0.11603E-06  1357   0.267E-03
 217 F= -.12898705E+04 E0= -.12898656E+04  d E =-.422650E-03  mag=    16.9994
 curvature:  -1.34 expect dE=-0.385E-02 dE for cont linesearch -0.272E-05
 trial: gam= 1.18479 g(F)=  0.287E-02 g(S)=  0.000E+00 ort =-0.201E-03 (trialstep = 0.105E+00)
 search vector abs. value=  0.304E-01
 bond charge predicted
       N       E                     dE             d eps       ncg     rms          rms(c)
DAV:   1    -0.128085313543E+04   -0.74118E-04   -0.82040E-02  2256   0.563E-01    0.612E-02
RMM:   2    -0.128085328368E+04   -0.14826E-03   -0.16419E-03  2470   0.704E-02    0.651E-02
RMM:   3    -0.128085334115E+04   -0.57465E-04   -0.18533E-04  2404   0.321E-02    0.144E-01
RMM:   4    -0.128085329539E+04    0.45758E-04   -0.75003E-05  2427   0.160E-02    0.681E-02
RMM:   5    -0.128085330214E+04   -0.67534E-05   -0.21783E-05  1776   0.102E-02    0.287E-02
RMM:   6    -0.128085331027E+04   -0.81317E-05   -0.11421E-05  1739   0.647E-03    0.397E-02
RMM:   7    -0.128085330914E+04    0.11328E-05   -0.88596E-06  1651   0.637E-03    0.230E-02
RMM:   8    -0.128085331580E+04   -0.66534E-05   -0.74772E-06  1604   0.567E-03    0.249E-02
RMM:   9    -0.128085331475E+04    0.10429E-05   -0.32623E-06  1430   0.448E-03    0.102E-02
RMM:  10    -0.128085331570E+04   -0.94776E-06   -0.11090E-06  1322   0.243E-03
 218 F= -.12898707E+04 E0= -.12898659E+04  d E =-.228226E-03  mag=    16.9994
 trial-energy change:   -0.000228  1 .order   -0.000223   -0.000277   -0.000170
 step:   0.2120(harm=  0.2722)  dis= 0.00235  next Energy= -1289.870779 (dE=-0.320E-03)
 bond charge predicted
       N       E                     dE             d eps       ncg     rms          rms(c)
DAV:   1    -0.128085326936E+04    0.45393E-04   -0.84545E-02  2184   0.572E-01    0.622E-02
RMM:   2    -0.128085342106E+04   -0.15170E-03   -0.16932E-03  2483   0.715E-02    0.731E-02
RMM:   3    -0.128085348697E+04   -0.65916E-04   -0.19197E-04  2411   0.329E-02    0.166E-01
RMM:   4    -0.128085342546E+04    0.61513E-04   -0.80430E-05  2443   0.168E-02    0.611E-02
RMM:   5    -0.128085343820E+04   -0.12746E-04   -0.21375E-05  1805   0.106E-02    0.305E-02
RMM:   6    -0.128085344661E+04   -0.84079E-05   -0.11936E-05  1761   0.695E-03    0.394E-02
RMM:   7    -0.128085344456E+04    0.20542E-05   -0.89054E-06  1672   0.665E-03    0.196E-02
RMM:   8    -0.128085345060E+04   -0.60429E-05   -0.51413E-06  1596   0.482E-03    0.188E-02
RMM:   9    -0.128085345037E+04    0.23236E-06   -0.24857E-06  1403   0.386E-03
 219 F= -.12898708E+04 E0= -.12898660E+04  d E =-.336671E-03  mag=    16.9994
 curvature:  -1.37 expect dE=-0.237E-02 dE for cont linesearch -0.139E-04
 ZBRENT: increasing intervall
 opt :   0.4256  next Energy= -1289.870689 (dE=-0.230E-03)
 bond charge predicted
       N       E                     dE             d eps       ncg     rms          rms(c)
DAV:   1    -0.128085264704E+04    0.80356E-03   -0.33817E-01  2160   0.114E+00    0.124E-01
RMM:   2    -0.128085327606E+04   -0.62902E-03   -0.67337E-03  2456   0.143E-01    0.146E-01
RMM:   3    -0.128085353072E+04   -0.25466E-03   -0.77611E-04  2404   0.666E-02    0.324E-01
RMM:   4    -0.128085330341E+04    0.22732E-03   -0.32638E-04  2713   0.336E-02    0.116E-01
RMM:   5    -0.128085332967E+04   -0.26268E-04   -0.84777E-05  2120   0.198E-02    0.609E-02
RMM:   6    -0.128085335541E+04   -0.25738E-04   -0.45850E-05  2140   0.128E-02    0.808E-02
RMM:   7    -0.128085334379E+04    0.11623E-04   -0.34711E-05  2046   0.121E-02    0.443E-02
RMM:   8    -0.128085336183E+04   -0.18042E-04   -0.23398E-05  2010   0.970E-03    0.462E-02
RMM:   9    -0.128085335688E+04    0.49521E-05   -0.10222E-05  1583   0.689E-03    0.161E-02
RMM:  10    -0.128085336008E+04   -0.32043E-05   -0.30312E-06  1444   0.384E-03    0.162E-02
RMM:  11    -0.128085335999E+04    0.88519E-07   -0.13771E-06  1363   0.285E-03
 220 F= -.12898707E+04 E0= -.12898658E+04  d E =-.193094E-03  mag=    16.9994
 curvature:  10.48 expect dE= 0.702E-01 dE for cont linesearch  0.108E-02
 ZBRENT: bracketing found
 ZBRENT: interpolating
 opt :   0.2632  next Energy= -1289.870811 (dE=-0.351E-03)
 bond charge predicted
       N       E                     dE             d eps       ncg     rms          rms(c)
DAV:   1    -0.128085306030E+04    0.29979E-03   -0.19547E-01  2160   0.869E-01    0.941E-02
RMM:   2    -0.128085341691E+04   -0.35661E-03   -0.38864E-03  2465   0.108E-01    0.104E-01
RMM:   3    -0.128085358019E+04   -0.16328E-03   -0.43566E-04  2408   0.500E-02    0.277E-01
RMM:   4    -0.128085341963E+04    0.16056E-03   -0.18806E-04  2644   0.258E-02    0.910E-02
RMM:   5    -0.128085345448E+04   -0.34850E-04   -0.53153E-05  2030   0.163E-02    0.463E-02
RMM:   6    -0.128085347293E+04   -0.18448E-04   -0.27633E-05  2064   0.977E-03    0.600E-02
RMM:   7    -0.128085346743E+04    0.54960E-05   -0.20429E-05  1926   0.909E-03    0.318E-02
RMM:   8    -0.128085348017E+04   -0.12738E-04   -0.14283E-05  1855   0.754E-03    0.281E-02
RMM:   9    -0.128085347860E+04    0.15714E-05   -0.62279E-06  1534   0.565E-03    0.170E-02
RMM:  10    -0.128085347890E+04   -0.30700E-06   -0.20504E-06  1403   0.325E-03
 221 F= -.12898708E+04 E0= -.12898660E+04  d E =-.352557E-03  mag=    16.9994
 curvature:  -0.14 expect dE=-0.334E-03 dE for cont linesearch -0.628E-07
 trial: gam= 0.73081 g(F)=  0.241E-02 g(S)=  0.000E+00 ort =-0.117E-03 (trialstep = 0.137E+00)
 search vector abs. value=  0.184E-01
 bond charge predicted
       N       E                     dE             d eps       ncg     rms          rms(c)
DAV:   1    -0.128085360442E+04   -0.12583E-03   -0.78828E-02  2268   0.553E-01    0.698E-02
RMM:   2    -0.128085374575E+04   -0.14133E-03   -0.16766E-03  2504   0.706E-02    0.525E-02
RMM:   3    -0.128085380755E+04   -0.61800E-04   -0.17237E-04  2415   0.316E-02    0.142E-01
RMM:   4    -0.128085375507E+04    0.52481E-04   -0.67202E-05  2393   0.163E-02    0.551E-02
RMM:   5    -0.128085376829E+04   -0.13215E-04   -0.17392E-05  1802   0.927E-03    0.403E-02
RMM:   6    -0.128085377039E+04   -0.20967E-05   -0.85258E-06  1679   0.631E-03    0.272E-02
RMM:   7    -0.128085377464E+04   -0.42542E-05   -0.98170E-06  1659   0.699E-03    0.302E-02
RMM:   8    -0.128085377659E+04   -0.19502E-05   -0.63970E-06  1629   0.569E-03    0.190E-02
RMM:   9    -0.128085377656E+04    0.30093E-07   -0.27589E-06  1439   0.412E-03
 222 F= -.12898711E+04 E0= -.12898662E+04  d E =-.257095E-03  mag=    16.9994
 trial-energy change:   -0.000257  1 .order   -0.000262   -0.000317   -0.000207
 step:   0.3918(harm=  0.3918)  dis= 0.00293  next Energy= -1289.871267 (dE=-0.455E-03)
 bond charge predicted
       N       E                     dE             d eps       ncg     rms          rms(c)
DAV:   1    -0.128085339032E+04    0.38627E-03   -0.27394E-01  2172   0.103E+00    0.132E-01
RMM:   2    -0.128085390724E+04   -0.51692E-03   -0.58543E-03  2485   0.132E-01    0.105E-01
RMM:   3    -0.128085415889E+04   -0.25165E-03   -0.64205E-04  2409   0.611E-02    0.305E-01
RMM:   4    -0.128085393011E+04    0.22878E-03   -0.26108E-04  2695   0.320E-02    0.960E-02
RMM:   5    -0.128085397753E+04   -0.47421E-04   -0.64612E-05  2113   0.175E-02    0.754E-02
RMM:   6    -0.128085397893E+04   -0.14032E-05   -0.28428E-05  2091   0.106E-02    0.452E-02
RMM:   7    -0.128085399808E+04   -0.19143E-04   -0.36395E-05  2010   0.122E-02    0.651E-02
RMM:   8    -0.128085399367E+04    0.44025E-05   -0.20788E-05  1941   0.991E-03    0.314E-02
RMM:   9    -0.128085399626E+04   -0.25891E-05   -0.85382E-06  1591   0.638E-03    0.242E-02
RMM:  10    -0.128085399633E+04   -0.67274E-07   -0.25852E-06  1441   0.391E-03
 223 F= -.12898712E+04 E0= -.12898664E+04  d E =-.400602E-03  mag=    16.9994
 curvature:  -1.56 expect dE=-0.232E-02 dE for cont linesearch -0.446E-05
 trial: gam= 0.74696 g(F)=  0.149E-02 g(S)=  0.000E+00 ort =-0.230E-03 (trialstep = 0.188E+00)
 search vector abs. value=  0.114E-01
 bond charge predicted
       N       E                     dE             d eps       ncg     rms          rms(c)
DAV:   1    -0.128085403954E+04   -0.43273E-04   -0.94149E-02  2256   0.600E-01    0.644E-02
RMM:   2    -0.128085420963E+04   -0.17010E-03   -0.19068E-03  2441   0.753E-02    0.674E-02
RMM:   3    -0.128085424578E+04   -0.36148E-04   -0.20762E-04  2369   0.348E-02    0.942E-02
RMM:   4    -0.128085422378E+04    0.21999E-04   -0.69493E-05  2459   0.158E-02    0.375E-02
RMM:   5    -0.128085423154E+04   -0.77583E-05   -0.16766E-05  1775   0.882E-03    0.463E-02
RMM:   6    -0.128085423619E+04   -0.46477E-05   -0.12051E-05  1721   0.683E-03    0.607E-02
RMM:   7    -0.128085422929E+04    0.69000E-05   -0.96409E-06  1600   0.656E-03    0.298E-02
RMM:   8    -0.128085423887E+04   -0.95791E-05   -0.97772E-06  1645   0.661E-03    0.332E-02
RMM:   9    -0.128085423696E+04    0.19069E-05   -0.46290E-06  1488   0.520E-03    0.109E-02
RMM:  10    -0.128085423867E+04   -0.17123E-05   -0.13282E-06  1352   0.273E-03    0.972E-03
RMM:  11    -0.128085423933E+04   -0.66030E-06   -0.62330E-07  1266   0.204E-03
 224 F= -.12898714E+04 E0= -.12898666E+04  d E =-.191563E-03  mag=    16.9994
 trial-energy change:   -0.000192  1 .order   -0.000193   -0.000248   -0.000138
 step:   0.4242(harm=  0.4242)  dis= 0.00272  next Energy= -1289.871493 (dE=-0.280E-03)
 bond charge predicted
       N       E                     dE             d eps       ncg     rms          rms(c)
DAV:   1    -0.128085407528E+04    0.16339E-03   -0.14933E-01  2160   0.755E-01    0.794E-02
RMM:   2    -0.128085433720E+04   -0.26192E-03   -0.29948E-03  2427   0.939E-02    0.639E-02
RMM:   3    -0.128085440214E+04   -0.64939E-04   -0.30481E-04  2372   0.418E-02    0.107E-01
RMM:   4    -0.128085437086E+04    0.31280E-04   -0.10848E-04  2548   0.190E-02    0.633E-02
RMM:   5    -0.128085437861E+04   -0.77544E-05   -0.24974E-05  1912   0.101E-02    0.681E-02
RMM:   6    -0.128085437764E+04    0.96858E-06   -0.16492E-05  1864   0.819E-03    0.435E-02
RMM:   7    -0.128085438165E+04   -0.40029E-05   -0.16530E-05  1818   0.869E-03    0.396E-02
RMM:   8    -0.128085438616E+04   -0.45159E-05   -0.12502E-05  1808   0.753E-03    0.298E-02
RMM:   9    -0.128085438594E+04    0.22000E-06   -0.52945E-06  1530   0.533E-03
 225 F= -.12898715E+04 E0= -.12898667E+04  d E =-.272912E-03  mag=    16.9994
 curvature:  -1.84 expect dE=-0.424E-02 dE for cont linesearch -0.534E-06
 trial: gam= 1.33286 g(F)=  0.230E-02 g(S)=  0.000E+00 ort = 0.576E-04 (trialstep = 0.118E+00)
 search vector abs. value=  0.228E-01
 bond charge predicted
       N       E                     dE             d eps       ncg     rms          rms(c)
DAV:   1    -0.128085448069E+04   -0.94530E-04   -0.76545E-02  2232   0.541E-01    0.572E-02
RMM:   2    -0.128085461282E+04   -0.13212E-03   -0.15219E-03  2416   0.664E-02    0.554E-02
RMM:   3    -0.128085465125E+04   -0.38434E-04   -0.15632E-04  2354   0.306E-02    0.100E-01
RMM:   4    -0.128085462780E+04    0.23452E-04   -0.56493E-05  2374   0.145E-02    0.562E-02
RMM:   5    -0.128085463296E+04   -0.51567E-05   -0.15537E-05  1778   0.840E-03    0.438E-02
RMM:   6    -0.128085463713E+04   -0.41777E-05   -0.12044E-05  1694   0.716E-03    0.375E-02
RMM:   7    -0.128085463689E+04    0.24768E-06   -0.96318E-06  1692   0.676E-03
 226 F= -.12898717E+04 E0= -.12898669E+04  d E =-.208532E-03  mag=    16.9994
 trial-energy change:   -0.000209  1 .order   -0.000226   -0.000281   -0.000170
 step:   0.2999(harm=  0.2999)  dis= 0.00257  next Energy= -1289.871843 (dE=-0.357E-03)
 bond charge predicted
       N       E                     dE             d eps       ncg     rms          rms(c)
DAV:   1    -0.128085442328E+04    0.21385E-03   -0.18114E-01  2160   0.832E-01    0.888E-02
RMM:   2    -0.128085474190E+04   -0.31862E-03   -0.35943E-03  2377   0.103E-01    0.963E-02
RMM:   3    -0.128085480483E+04   -0.62925E-04   -0.37146E-04  2350   0.485E-02    0.133E-01
RMM:   4    -0.128085476857E+04    0.36260E-04   -0.13415E-04  2620   0.220E-02    0.616E-02
RMM:   5    -0.128085478452E+04   -0.15951E-04   -0.33739E-05  2017   0.117E-02    0.896E-02
RMM:   6    -0.128085477639E+04    0.81247E-05   -0.25298E-05  1911   0.971E-03    0.638E-02
RMM:   7    -0.128085478265E+04   -0.62538E-05   -0.28017E-05  2023   0.110E-02    0.496E-02
RMM:   8    -0.128085478501E+04   -0.23675E-05   -0.18996E-05  1834   0.907E-03    0.346E-02
RMM:   9    -0.128085478799E+04   -0.29737E-05   -0.80232E-06  1588   0.635E-03    0.262E-02
RMM:  10    -0.128085478725E+04    0.74015E-06   -0.31388E-06  1455   0.430E-03
 227 F= -.12898718E+04 E0= -.12898670E+04  d E =-.292950E-03  mag=    16.9994
 curvature:  -1.44 expect dE=-0.316E-02 dE for cont linesearch -0.538E-05
 trial: gam= 1.19020 g(F)=  0.220E-02 g(S)=  0.000E+00 ort =-0.292E-03 (trialstep = 0.104E+00)
 search vector abs. value=  0.338E-01
 bond charge predicted
       N       E                     dE             d eps       ncg     rms          rms(c)
DAV:   1    -0.128085481704E+04   -0.29048E-04   -0.85259E-02  2220   0.572E-01    0.609E-02
RMM:   2    -0.128085496315E+04   -0.14611E-03   -0.16825E-03  2411   0.703E-02    0.572E-02
RMM:   3    -0.128085500173E+04   -0.38583E-04   -0.17148E-04  2362   0.321E-02    0.845E-02
RMM:   4    -0.128085498258E+04    0.19153E-04   -0.59513E-05  2405   0.148E-02    0.368E-02
RMM:   5    -0.128085499069E+04   -0.81120E-05   -0.14270E-05  1754   0.818E-03    0.504E-02
RMM:   6    -0.128085499429E+04   -0.35989E-05   -0.11350E-05  1680   0.653E-03    0.583E-02
RMM:   7    -0.128085498896E+04    0.53314E-05   -0.10838E-05  1685   0.738E-03    0.239E-02
RMM:   8    -0.128085499906E+04   -0.10106E-04   -0.81331E-06  1641   0.623E-03    0.279E-02
RMM:   9    -0.128085499742E+04    0.16419E-05   -0.33731E-06  1465   0.467E-03    0.813E-03
RMM:  10    -0.128085499913E+04   -0.17080E-05   -0.11390E-06  1309   0.246E-03    0.827E-03
RMM:  11    -0.128085499981E+04   -0.68072E-06   -0.44635E-07  1247   0.178E-03
 228 F= -.12898719E+04 E0= -.12898672E+04  d E =-.160830E-03  mag=    16.9994
 trial-energy change:   -0.000161  1 .order   -0.000160   -0.000193   -0.000126
 step:   0.3021(harm=  0.3021)  dis= 0.00325  next Energy= -1289.872058 (dE=-0.280E-03)
 bond charge predicted
       N       E                     dE             d eps       ncg     rms          rms(c)
DAV:   1    -0.128085457856E+04    0.42057E-03   -0.30798E-01  2160   0.109E+00    0.114E-01
RMM:   2    -0.128085510481E+04   -0.52626E-03   -0.60332E-03  2419   0.132E-01    0.808E-02
RMM:   3    -0.128085521746E+04   -0.11265E-03   -0.51316E-04  2384   0.559E-02    0.122E-01
RMM:   4    -0.128085518924E+04    0.28228E-04   -0.19368E-04  2677   0.247E-02    0.838E-02
RMM:   5    -0.128085520936E+04   -0.20125E-04   -0.48883E-05  2104   0.137E-02    0.110E-01
RMM:   6    -0.128085519460E+04    0.14765E-04   -0.35368E-05  2037   0.121E-02    0.572E-02
RMM:   7    -0.128085520991E+04   -0.15318E-04   -0.38518E-05  2006   0.128E-02    0.585E-02
RMM:   8    -0.128085521254E+04   -0.26290E-05   -0.19266E-05  1898   0.934E-03    0.328E-02
RMM:   9    -0.128085521305E+04   -0.51003E-06   -0.72626E-06  1572   0.612E-03
 229 F= -.12898721E+04 E0= -.12898673E+04  d E =-.274656E-03  mag=    16.9994
 curvature:  -2.76 expect dE=-0.807E-02 dE for cont linesearch -0.145E-05
 trial: gam= 0.91688 g(F)=  0.293E-02 g(S)=  0.000E+00 ort = 0.133E-03 (trialstep = 0.144E+00)
 search vector abs. value=  0.316E-01
 bond charge predicted
       N       E                     dE             d eps       ncg     rms          rms(c)
DAV:   1    -0.128085526338E+04   -0.50835E-04   -0.15013E-01  2208   0.753E-01    0.906E-02
RMM:   2    -0.128085553120E+04   -0.26782E-03   -0.31115E-03  2432   0.956E-02    0.819E-02
RMM:   3    -0.128085562312E+04   -0.91927E-04   -0.33548E-04  2383   0.442E-02    0.159E-01
RMM:   4    -0.128085555942E+04    0.63707E-04   -0.12594E-04  2575   0.216E-02    0.746E-02
RMM:   5    -0.128085557519E+04   -0.15776E-04   -0.34240E-05  2026   0.119E-02    0.776E-02
RMM:   6    -0.128085557436E+04    0.83113E-06   -0.24798E-05  1941   0.103E-02    0.495E-02
RMM:   7    -0.128085557622E+04   -0.18617E-05   -0.19783E-05  1850   0.946E-03    0.313E-02
RMM:   8    -0.128085558480E+04   -0.85735E-05   -0.14913E-05  1756   0.812E-03    0.335E-02
RMM:   9    -0.128085558325E+04    0.15496E-05   -0.62577E-06  1547   0.598E-03    0.161E-02
RMM:  10    -0.128085558468E+04   -0.14354E-05   -0.21443E-06  1403   0.339E-03    0.106E-02
RMM:  11    -0.128085558617E+04   -0.14891E-05   -0.68875E-07  1275   0.222E-03    0.483E-03
RMM:  12    -0.128085558738E+04   -0.12049E-05   -0.29739E-07  1249   0.133E-03    0.463E-03
RMM:  13    -0.128085558839E+04   -0.10140E-05   -0.17297E-07  1232   0.998E-04    0.282E-03
RMM:  14    -0.128085558962E+04   -0.12258E-05   -0.11252E-07  1197   0.754E-04    0.269E-03
RMM:  15    -0.128085559070E+04   -0.10863E-05   -0.10244E-07  1108   0.706E-04    0.310E-03
RMM:  16    -0.128085559209E+04   -0.13886E-05   -0.88133E-08  1058   0.670E-04    0.164E-03
RMM:  17    -0.128085559295E+04   -0.85820E-06   -0.52535E-08   878   0.510E-04
 230 F= -.12898723E+04 E0= -.12898676E+04  d E =-.291702E-03  mag=    16.9994
 trial-energy change:   -0.000292  1 .order   -0.000285   -0.000439   -0.000131
 step:   0.1952(harm=  0.2047)  dis= 0.00210  next Energy= -1289.872369 (dE=-0.315E-03)
 bond charge predicted
       N       E                     dE             d eps       ncg     rms          rms(c)
DAV:   1    -0.128085561404E+04   -0.21949E-04   -0.19239E-02  2256   0.269E-01    0.318E-02
RMM:   2    -0.128085564455E+04   -0.30507E-04   -0.39517E-04  2425   0.339E-02    0.224E-02
RMM:   3    -0.128085565490E+04   -0.10354E-04   -0.36343E-05  2131   0.150E-02    0.363E-02
RMM:   4    -0.128085565133E+04    0.35764E-05   -0.13057E-05  1888   0.726E-03    0.182E-02
RMM:   5    -0.128085565524E+04   -0.39112E-05   -0.47311E-06  1526   0.524E-03    0.348E-02
RMM:   6    -0.128085565247E+04    0.27650E-05   -0.30785E-06  1420   0.398E-03    0.202E-02
RMM:   7    -0.128085565462E+04   -0.21503E-05   -0.28354E-06  1454   0.403E-03    0.151E-02
RMM:   8    -0.128085565621E+04   -0.15864E-05   -0.16808E-06  1360   0.309E-03    0.103E-02
RMM:   9    -0.128085565649E+04   -0.27732E-06   -0.83035E-07  1277   0.242E-03
 231 F= -.12898724E+04 E0= -.12898676E+04  d E =-.323510E-03  mag=    16.9994
 curvature:  -1.03 expect dE=-0.112E-02 dE for cont linesearch -0.223E-05
 ZBRENT: extrapolating
 opt :   0.2159  next Energy= -1289.872380 (dE=-0.326E-03)
 bond charge predicted
       N       E                     dE             d eps       ncg     rms          rms(c)
DAV:   1    -0.128085566411E+04   -0.79054E-05   -0.31112E-03  2292   0.109E-01    0.134E-02
RMM:   2    -0.128085566960E+04   -0.54879E-05   -0.65891E-05  2384   0.141E-02    0.173E-02
RMM:   3    -0.128085567123E+04   -0.16300E-05   -0.77219E-06  1664   0.688E-03    0.242E-02
RMM:   4    -0.128085567056E+04    0.67205E-06   -0.27490E-06  1425   0.386E-03    0.182E-02
RMM:   5    -0.128085567058E+04   -0.22199E-07   -0.11295E-06  1285   0.276E-03
 232 F= -.12898724E+04 E0= -.12898676E+04  d E =-.324788E-03  mag=    16.9994
 curvature:  -1.25 expect dE=-0.171E-02 dE for cont linesearch -0.566E-06
 trial: gam= 0.59383 g(F)=  0.137E-02 g(S)=  0.000E+00 ort =-0.119E-03 (trialstep = 0.158E+00)
 search vector abs. value=  0.124E-01
 bond charge predicted
       N       E                     dE             d eps       ncg     rms          rms(c)
DAV:   1    -0.128085575971E+04   -0.89152E-04   -0.70819E-02  2160   0.519E-01    0.605E-02
RMM:   2    -0.128085588973E+04   -0.13002E-03   -0.14235E-03  2438   0.666E-02    0.843E-02
RMM:   3    -0.128085591359E+04   -0.23857E-04   -0.17219E-04  2379   0.313E-02    0.110E-01
RMM:   4    -0.128085590524E+04    0.83498E-05   -0.66995E-05  2403   0.156E-02    0.940E-02
RMM:   5    -0.128085589244E+04    0.12799E-04   -0.21636E-05  1826   0.102E-02    0.308E-02
RMM:   6    -0.128085590359E+04   -0.11157E-04   -0.12190E-05  1693   0.709E-03    0.413E-02
RMM:   7    -0.128085590172E+04    0.18754E-05   -0.84735E-06  1739   0.629E-03    0.185E-02
RMM:   8    -0.128085590912E+04   -0.74035E-05   -0.78984E-06  1570   0.593E-03    0.288E-02
RMM:   9    -0.128085590731E+04    0.18101E-05   -0.36049E-06  1426   0.457E-03    0.805E-03
RMM:  10    -0.128085590866E+04   -0.13462E-05   -0.94962E-07  1291   0.233E-03    0.767E-03
RMM:  11    -0.128085590891E+04   -0.25049E-06   -0.43291E-07  1251   0.171E-03
 233 F= -.12898725E+04 E0= -.12898678E+04  d E =-.168333E-03  mag=    16.9994
 trial-energy change:   -0.000168  1 .order   -0.000166   -0.000205   -0.000128
 step:   0.4185(harm=  0.4185)  dis= 0.00286  next Energy= -1289.872650 (dE=-0.272E-03)
 bond charge predicted
       N       E                     dE             d eps       ncg     rms          rms(c)
DAV:   1    -0.128085571107E+04    0.19759E-03   -0.19193E-01  2160   0.854E-01    0.979E-02
RMM:   2    -0.128085604520E+04   -0.33414E-03   -0.37993E-03  2435   0.108E-01    0.874E-02
RMM:   3    -0.128085616779E+04   -0.12259E-03   -0.42885E-04  2379   0.493E-02    0.174E-01
RMM:   4    -0.128085609744E+04    0.70351E-04   -0.16126E-04  2642   0.240E-02    0.114E-01
RMM:   5    -0.128085609122E+04    0.62179E-05   -0.44567E-05  2029   0.139E-02    0.466E-02
RMM:   6    -0.128085610678E+04   -0.15557E-04   -0.22254E-05  2038   0.905E-03    0.503E-02
RMM:   7    -0.128085610734E+04   -0.56304E-06   -0.19379E-05  1875   0.905E-03    0.432E-02
RMM:   8    -0.128085611737E+04   -0.10026E-04   -0.16695E-05  1871   0.835E-03    0.418E-02
RMM:   9    -0.128085611372E+04    0.36488E-05   -0.75782E-06  1552   0.620E-03    0.140E-02
RMM:  10    -0.128085611612E+04   -0.23965E-05   -0.18974E-06  1430   0.326E-03    0.952E-03
RMM:  11    -0.128085611677E+04   -0.64920E-06   -0.75926E-07  1285   0.222E-03
 234 F= -.12898726E+04 E0= -.12898679E+04  d E =-.260264E-03  mag=    16.9994
 curvature:  -1.99 expect dE=-0.259E-02 dE for cont linesearch -0.619E-06
 trial: gam= 0.89765 g(F)=  0.130E-02 g(S)=  0.000E+00 ort =-0.619E-04 (trialstep = 0.210E+00)
 search vector abs. value=  0.111E-01
 bond charge predicted
       N       E                     dE             d eps       ncg     rms          rms(c)
DAV:   1    -0.128085614497E+04   -0.28858E-04   -0.11507E-01  2160   0.658E-01    0.766E-02
RMM:   2    -0.128085633867E+04   -0.19369E-03   -0.22451E-03  2433   0.829E-02    0.686E-02
RMM:   3    -0.128085640473E+04   -0.66064E-04   -0.25273E-04  2377   0.378E-02    0.106E-01
RMM:   4    -0.128085637043E+04    0.34299E-04   -0.87137E-05  2498   0.182E-02    0.518E-02
RMM:   5    -0.128085638031E+04   -0.98796E-05   -0.21723E-05  1864   0.952E-03    0.659E-02
RMM:   6    -0.128085638111E+04   -0.79600E-06   -0.16634E-05  1845   0.809E-03    0.526E-02
RMM:   7    -0.128085637951E+04    0.15980E-05   -0.14030E-05  1777   0.824E-03    0.295E-02
RMM:   8    -0.128085638768E+04   -0.81701E-05   -0.96659E-06  1682   0.672E-03    0.295E-02
RMM:   9    -0.128085638670E+04    0.97853E-06   -0.45992E-06  1505   0.514E-03
 235 F= -.12898728E+04 E0= -.12898681E+04  d E =-.180884E-03  mag=    16.9994
 trial-energy change:   -0.000181  1 .order   -0.000190   -0.000261   -0.000120
 step:   0.3883(harm=  0.3883)  dis= 0.00253  next Energy= -1289.872880 (dE=-0.241E-03)
 bond charge predicted
       N       E                     dE             d eps       ncg     rms          rms(c)
DAV:   1    -0.128085632120E+04    0.66476E-04   -0.82420E-02  2208   0.558E-01    0.657E-02
RMM:   2    -0.128085646185E+04   -0.14065E-03   -0.16173E-03  2422   0.708E-02    0.710E-02
RMM:   3    -0.128085650967E+04   -0.47814E-04   -0.19801E-04  2370   0.334E-02    0.106E-01
RMM:   4    -0.128085648618E+04    0.23486E-04   -0.65023E-05  2407   0.158E-02    0.625E-02
RMM:   5    -0.128085648437E+04    0.18095E-05   -0.17500E-05  1806   0.873E-03    0.439E-02
RMM:   6    -0.128085649228E+04   -0.79085E-05   -0.13578E-05  1743   0.755E-03    0.465E-02
RMM:   7    -0.128085648973E+04    0.25525E-05   -0.10109E-05  1703   0.692E-03    0.210E-02
RMM:   8    -0.128085649765E+04   -0.79222E-05   -0.80732E-06  1635   0.602E-03    0.289E-02
RMM:   9    -0.128085649617E+04    0.14796E-05   -0.38513E-06  1469   0.482E-03    0.851E-03
RMM:  10    -0.128085649786E+04   -0.16947E-05   -0.98210E-07  1294   0.241E-03    0.868E-03
RMM:  11    -0.128085649823E+04   -0.36848E-06   -0.46536E-07  1254   0.180E-03
 236 F= -.12898729E+04 E0= -.12898681E+04  d E =-.216607E-03  mag=    16.9994
 curvature:  -1.74 expect dE=-0.298E-02 dE for cont linesearch -0.188E-05
 trial: gam= 1.35417 g(F)=  0.171E-02 g(S)=  0.000E+00 ort =-0.110E-03 (trialstep = 0.125E+00)
 search vector abs. value=  0.218E-01
 bond charge predicted
       N       E                     dE             d eps       ncg     rms          rms(c)
DAV:   1    -0.128085653470E+04   -0.36836E-04   -0.79035E-02  2160   0.546E-01    0.662E-02
RMM:   2    -0.128085666041E+04   -0.12571E-03   -0.15668E-03  2398   0.691E-02    0.471E-02
RMM:   3    -0.128085671418E+04   -0.53768E-04   -0.14823E-04  2341   0.301E-02    0.110E-01
RMM:   4    -0.128085668541E+04    0.28773E-04   -0.57603E-05  2408   0.137E-02    0.451E-02
RMM:   5    -0.128085669975E+04   -0.14346E-04   -0.17450E-05  1847   0.982E-03    0.496E-02
RMM:   6    -0.128085669694E+04    0.28155E-05   -0.11020E-05  1762   0.738E-03    0.265E-02
RMM:   7    -0.128085670592E+04   -0.89817E-05   -0.14282E-05  1764   0.796E-03    0.383E-02
RMM:   8    -0.128085670471E+04    0.12057E-05   -0.73544E-06  1566   0.601E-03    0.197E-02
RMM:   9    -0.128085670509E+04   -0.38010E-06   -0.30648E-06  1455   0.420E-03
 237 F= -.12898730E+04 E0= -.12898682E+04  d E =-.131653E-03  mag=    16.9994
 trial-energy change:   -0.000132  1 .order   -0.000136   -0.000196   -0.000076
 step:   0.2881(harm=  0.2053)  dis= 0.00265  next Energy= -1289.873027 (dE=-0.171E-03)
 bond charge predicted
       N       E                     dE             d eps       ncg     rms          rms(c)
DAV:   1    -0.128085649515E+04    0.20957E-03   -0.13301E-01  2172   0.708E-01    0.865E-02
RMM:   2    -0.128085671747E+04   -0.22232E-03   -0.26492E-03  2405   0.900E-02    0.746E-02
RMM:   3    -0.128085683393E+04   -0.11646E-03   -0.28746E-04  2359   0.416E-02    0.195E-01
RMM:   4    -0.128085674519E+04    0.88742E-04   -0.11555E-04  2564   0.205E-02    0.721E-02
RMM:   5    -0.128085676742E+04   -0.22228E-04   -0.32038E-05  1982   0.125E-02    0.510E-02
RMM:   6    -0.128085677160E+04   -0.41856E-05   -0.16427E-05  1982   0.816E-03    0.419E-02
RMM:   7    -0.128085677816E+04   -0.65580E-05   -0.20236E-05  1824   0.881E-03    0.490E-02
RMM:   8    -0.128085677846E+04   -0.30366E-06   -0.90810E-06  1678   0.662E-03
 238 F= -.12898730E+04 E0= -.12898682E+04  d E =-.106960E-03  mag=    16.9994
 curvature:   0.11 expect dE= 0.286E-03 dE for cont linesearch  0.215E-05
 ZBRENT: interpolating
 opt :   0.2038  next Energy= -1289.873011 (dE=-0.155E-03)
 bond charge predicted
       N       E                     dE             d eps       ncg     rms          rms(c)
DAV:   1    -0.128085669153E+04    0.86629E-04   -0.35841E-02  2256   0.368E-01    0.468E-02
RMM:   2    -0.128085676860E+04   -0.77069E-04   -0.72952E-04  2459   0.486E-02    0.901E-02
RMM:   3    -0.128085676620E+04    0.24061E-05   -0.98950E-05  2363   0.230E-02    0.703E-02
RMM:   4    -0.128085677344E+04   -0.72493E-05   -0.32311E-05  2117   0.110E-02    0.755E-02
RMM:   5    -0.128085676053E+04    0.12913E-04   -0.10443E-05  1636   0.745E-03    0.192E-02
RMM:   6    -0.128085677110E+04   -0.10570E-04   -0.60707E-06  1633   0.521E-03    0.244E-02
RMM:   7    -0.128085677253E+04   -0.14332E-05   -0.59709E-06  1589   0.571E-03    0.241E-02
RMM:   8    -0.128085677445E+04   -0.19104E-05   -0.38638E-06  1488   0.450E-03    0.159E-02
RMM:   9    -0.128085677475E+04   -0.30836E-06   -0.17021E-06  1390   0.340E-03
 239 F= -.12898730E+04 E0= -.12898683E+04  d E =-.154102E-03  mag=    16.9994
 curvature:  -1.22 expect dE=-0.154E-02 dE for cont linesearch -0.142E-05
 trial: gam= 0.67426 g(F)=  0.126E-02 g(S)=  0.000E+00 ort =-0.159E-03 (trialstep = 0.141E+00)
 search vector abs. value=  0.110E-01
 bond charge predicted
       N       E                     dE             d eps       ncg     rms          rms(c)
DAV:   1    -0.128085686838E+04   -0.93934E-04   -0.49697E-02  2256   0.436E-01    0.541E-02
RMM:   2    -0.128085694711E+04   -0.78732E-04   -0.99027E-04  2430   0.552E-02    0.439E-02
RMM:   3    -0.128085700321E+04   -0.56102E-04   -0.10950E-04  2337   0.251E-02    0.139E-01
RMM:   4    -0.128085695102E+04    0.52189E-04   -0.44900E-05  2273   0.130E-02    0.308E-02
RMM:   5    -0.128085696850E+04   -0.17479E-04   -0.11555E-05  1717   0.789E-03    0.303E-02
RMM:   6    -0.128085697007E+04   -0.15642E-05   -0.53893E-06  1603   0.529E-03    0.198E-02
RMM:   7    -0.128085697509E+04   -0.50261E-05   -0.71594E-06  1583   0.593E-03    0.305E-02
RMM:   8    -0.128085697450E+04    0.59692E-06   -0.44663E-06  1498   0.487E-03
 240 F= -.12898731E+04 E0= -.12898684E+04  d E =-.137673E-03  mag=    16.9994
 trial-energy change:   -0.000138  1 .order   -0.000141   -0.000163   -0.000119
 step:   0.5225(harm=  0.5225)  dis= 0.00327  next Energy= -1289.873311 (dE=-0.302E-03)
 bond charge predicted
       N       E                     dE             d eps       ncg     rms          rms(c)
DAV:   1    -0.128085641446E+04    0.56064E-03   -0.36236E-01  2160   0.118E+00    0.147E-01
RMM:   2    -0.128085704865E+04   -0.63420E-03   -0.72610E-03  2429   0.149E-01    0.103E-01
RMM:   3    -0.128085731326E+04   -0.26461E-03   -0.71955E-04  2381   0.652E-02    0.272E-01
RMM:   4    -0.128085713919E+04    0.17406E-03   -0.29173E-04  2728   0.318E-02    0.895E-02
RMM:   5    -0.128085719100E+04   -0.51810E-04   -0.71872E-05  2139   0.183E-02    0.101E-01
RMM:   6    -0.128085717525E+04    0.15756E-04   -0.36371E-05  2073   0.125E-02    0.431E-02
RMM:   7    -0.128085721825E+04   -0.43006E-04   -0.50765E-05  2156   0.145E-02    0.902E-02
RMM:   8    -0.128085719934E+04    0.18917E-04   -0.29916E-05  1975   0.115E-02    0.336E-02
RMM:   9    -0.128085720346E+04   -0.41254E-05   -0.92783E-06  1594   0.659E-03    0.151E-02
RMM:  10    -0.128085720507E+04   -0.16089E-05   -0.26672E-06  1460   0.380E-03    0.141E-02
RMM:  11    -0.128085720523E+04   -0.15683E-06   -0.11824E-06  1339   0.257E-03
 241 F= -.12898732E+04 E0= -.12898685E+04  d E =-.199694E-03  mag=    16.9994
 curvature:  -2.48 expect dE=-0.721E-02 dE for cont linesearch -0.398E-04
 ZBRENT: interpolating
 opt :   0.3959  next Energy= -1289.873236 (dE=-0.226E-03)
 bond charge predicted
       N       E                     dE             d eps       ncg     rms          rms(c)
DAV:   1    -0.128085709121E+04    0.11386E-03   -0.39938E-02  2268   0.390E-01    0.484E-02
RMM:   2    -0.128085715362E+04   -0.62408E-04   -0.79017E-04  2409   0.493E-02    0.338E-02
RMM:   3    -0.128085718256E+04   -0.28942E-04   -0.78650E-05  2314   0.217E-02    0.666E-02
RMM:   4    -0.128085717023E+04    0.12331E-04   -0.29137E-05  2128   0.104E-02    0.223E-02
RMM:   5    -0.128085717939E+04   -0.91537E-05   -0.72231E-06  1663   0.615E-03    0.486E-02
RMM:   6    -0.128085717370E+04    0.56891E-05   -0.47263E-06  1473   0.477E-03    0.188E-02
RMM:   7    -0.128085718152E+04   -0.78251E-05   -0.62168E-06  1564   0.557E-03    0.281E-02
RMM:   8    -0.128085718127E+04    0.24885E-06   -0.36517E-06  1471   0.456E-03
 242 F= -.12898732E+04 E0= -.12898686E+04  d E =-.231909E-03  mag=    16.9994
 curvature:  -1.66 expect dE=-0.271E-02 dE for cont linesearch -0.140E-05
 trial: gam= 1.29934 g(F)=  0.163E-02 g(S)=  0.000E+00 ort =-0.965E-04 (trialstep = 0.106E+00)
 search vector abs. value=  0.199E-01
 bond charge predicted
       N       E                     dE             d eps       ncg     rms          rms(c)
DAV:   1    -0.128085727380E+04   -0.92276E-04   -0.51275E-02  2256   0.443E-01    0.510E-02
RMM:   2    -0.128085736096E+04   -0.87157E-04   -0.10087E-03  2443   0.561E-02    0.614E-02
RMM:   3    -0.128085740571E+04   -0.44753E-04   -0.12543E-04  2355   0.263E-02    0.134E-01
RMM:   4    -0.128085736480E+04    0.40909E-04   -0.50724E-05  2284   0.136E-02    0.520E-02
RMM:   5    -0.128085737360E+04   -0.87977E-05   -0.14001E-05  1710   0.858E-03    0.237E-02
RMM:   6    -0.128085737900E+04   -0.54008E-05   -0.66564E-06  1644   0.538E-03    0.284E-02
RMM:   7    -0.128085737850E+04    0.50350E-06   -0.57298E-06  1567   0.555E-03
 243 F= -.12898734E+04 E0= -.12898686E+04  d E =-.131109E-03  mag=    16.9994
 trial-energy change:   -0.000131  1 .order   -0.000136   -0.000160   -0.000113
 step:   0.3594(harm=  0.3594)  dis= 0.00276  next Energy= -1289.873512 (dE=-0.271E-03)
 bond charge predicted
       N       E                     dE             d eps       ncg     rms          rms(c)
DAV:   1    -0.128085695174E+04    0.42726E-03   -0.29256E-01  2160   0.106E+00    0.124E-01
RMM:   2    -0.128085750444E+04   -0.55271E-03   -0.58164E-03  2380   0.136E-01    0.151E-01
RMM:   3    -0.128085763018E+04   -0.12574E-03   -0.72470E-04  2349   0.652E-02    0.212E-01
RMM:   4    -0.128085756715E+04    0.63027E-04   -0.27593E-04  2707   0.315E-02    0.165E-01
RMM:   5    -0.128085753128E+04    0.35876E-04   -0.74947E-05  2115   0.178E-02    0.682E-02
RMM:   6    -0.128085755879E+04   -0.27519E-04   -0.43740E-05  2084   0.127E-02    0.777E-02
RMM:   7    -0.128085754925E+04    0.95485E-05   -0.29374E-05  2064   0.109E-02    0.373E-02
RMM:   8    -0.128085757619E+04   -0.26941E-04   -0.31010E-05  2042   0.109E-02    0.683E-02
RMM:   9    -0.128085756426E+04    0.11929E-04   -0.15765E-05  1667   0.834E-03    0.188E-02
RMM:  10    -0.128085756851E+04   -0.42524E-05   -0.39478E-06  1497   0.452E-03    0.158E-02
RMM:  11    -0.128085756861E+04   -0.10136E-06   -0.14662E-06  1353   0.290E-03
 244 F= -.12898734E+04 E0= -.12898687E+04  d E =-.162130E-03  mag=    16.9994
 curvature:  -2.37 expect dE=-0.569E-02 dE for cont linesearch -0.536E-04
 ZBRENT: interpolating
 opt :   0.2614  next Energy= -1289.873436 (dE=-0.195E-03)
 bond charge predicted
       N       E                     dE             d eps       ncg     rms          rms(c)
DAV:   1    -0.128085745177E+04    0.11674E-03   -0.43821E-02  2244   0.410E-01    0.470E-02
RMM:   2    -0.128085752245E+04   -0.70680E-04   -0.85756E-04  2382   0.517E-02    0.395E-02
RMM:   3    -0.128085754953E+04   -0.27085E-04   -0.96517E-05  2284   0.238E-02    0.635E-02
RMM:   4    -0.128085753884E+04    0.10691E-04   -0.34090E-05  2195   0.112E-02    0.362E-02
RMM:   5    -0.128085754084E+04   -0.20007E-05   -0.75851E-06  1610   0.625E-03    0.348E-02
RMM:   6    -0.128085754210E+04   -0.12536E-05   -0.51776E-06  1562   0.499E-03    0.256E-02
RMM:   7    -0.128085754411E+04   -0.20091E-05   -0.48216E-06  1519   0.513E-03    0.200E-02
RMM:   8    -0.128085754758E+04   -0.34784E-05   -0.43209E-06  1524   0.443E-03    0.174E-02
RMM:   9    -0.128085754729E+04    0.29895E-06   -0.21209E-06  1417   0.374E-03
 245 F= -.12898734E+04 E0= -.12898687E+04  d E =-.202440E-03  mag=    16.9994
 curvature:  -1.46 expect dE=-0.164E-02 dE for cont linesearch -0.139E-05
 trial: gam= 0.74497 g(F)=  0.113E-02 g(S)=  0.000E+00 ort =-0.138E-03 (trialstep = 0.137E+00)
 search vector abs. value=  0.120E-01
 bond charge predicted
       N       E                     dE             d eps       ncg     rms          rms(c)
DAV:   1    -0.128085763096E+04   -0.83374E-04   -0.51575E-02  2244   0.442E-01    0.491E-02
RMM:   2    -0.128085771438E+04   -0.83426E-04   -0.10072E-03  2412   0.554E-02    0.380E-02
RMM:   3    -0.128085774481E+04   -0.30425E-04   -0.10179E-04  2309   0.246E-02    0.768E-02
RMM:   4    -0.128085772830E+04    0.16503E-04   -0.37760E-05  2208   0.118E-02    0.388E-02
RMM:   5    -0.128085773401E+04   -0.57061E-05   -0.97388E-06  1680   0.713E-03    0.376E-02
RMM:   6    -0.128085773511E+04   -0.11035E-05   -0.68208E-06  1620   0.566E-03    0.253E-02
RMM:   7    -0.128085773651E+04   -0.13986E-05   -0.63335E-06  1573   0.574E-03    0.195E-02
RMM:   8    -0.128085773930E+04   -0.27859E-05   -0.45442E-06  1522   0.471E-03    0.187E-02
RMM:   9    -0.128085773860E+04    0.69571E-06   -0.19798E-06  1407   0.370E-03
 246 F= -.12898736E+04 E0= -.12898688E+04  d E =-.117074E-03  mag=    16.9994
 trial-energy change:   -0.000117  1 .order   -0.000117   -0.000141   -0.000093
 step:   0.4061(harm=  0.4061)  dis= 0.00293  next Energy= -1289.873652 (dE=-0.208E-03)
 bond charge predicted
       N       E                     dE             d eps       ncg     rms          rms(c)
DAV:   1    -0.128085750608E+04    0.23322E-03   -0.19870E-01  2160   0.868E-01    0.969E-02
RMM:   2    -0.128085784634E+04   -0.34026E-03   -0.39056E-03  2402   0.109E-01    0.700E-02
RMM:   3    -0.128085794485E+04   -0.98502E-04   -0.37939E-04  2366   0.473E-02    0.128E-01
RMM:   4    -0.128085790286E+04    0.41991E-04   -0.14390E-04  2619   0.216E-02    0.566E-02
RMM:   5    -0.128085792726E+04   -0.24406E-04   -0.35577E-05  2014   0.119E-02    0.965E-02
RMM:   6    -0.128085791532E+04    0.11944E-04   -0.25889E-05  1982   0.984E-03    0.579E-02
RMM:   7    -0.128085792065E+04   -0.53346E-05   -0.24548E-05  1872   0.990E-03    0.411E-02
RMM:   8    -0.128085792847E+04   -0.78166E-05   -0.14361E-05  1832   0.789E-03    0.287E-02
RMM:   9    -0.128085792752E+04    0.95135E-06   -0.55526E-06  1533   0.550E-03
 247 F= -.12898736E+04 E0= -.12898689E+04  d E =-.159589E-03  mag=    16.9994
 curvature:  -2.37 expect dE=-0.342E-02 dE for cont linesearch -0.101E-04
 ZBRENT: interpolating
 opt :   0.3390  next Energy= -1289.873611 (dE=-0.167E-03)
 bond charge predicted
       N       E                     dE             d eps       ncg     rms          rms(c)
DAV:   1    -0.128085787861E+04    0.49858E-04   -0.12380E-02  2268   0.217E-01    0.255E-02
RMM:   2    -0.128085790212E+04   -0.23510E-04   -0.24836E-04  2450   0.283E-02    0.433E-02
RMM:   3    -0.128085790310E+04   -0.98073E-06   -0.30420E-05  2091   0.130E-02    0.371E-02
RMM:   4    -0.128085790188E+04    0.12261E-05   -0.88294E-06  1767   0.614E-03    0.132E-02
RMM:   5    -0.128085790318E+04   -0.13047E-05   -0.23846E-06  1415   0.402E-03    0.118E-02
RMM:   6    -0.128085790440E+04   -0.12175E-05   -0.20611E-06  1367   0.333E-03    0.159E-02
RMM:   7    -0.128085790437E+04    0.26601E-07   -0.17442E-06  1348   0.323E-03
 248 F= -.12898736E+04 E0= -.12898689E+04  d E =-.172971E-03  mag=    16.9994
 curvature:  -1.78 expect dE=-0.180E-02 dE for cont linesearch -0.241E-05
 trial: gam= 0.90814 g(F)=  0.101E-02 g(S)=  0.000E+00 ort =-0.127E-03 (trialstep = 0.177E+00)
 search vector abs. value=  0.107E-01
 bond charge predicted
       N       E                     dE             d eps       ncg     rms          rms(c)
DAV:   1    -0.128085793837E+04   -0.33969E-04   -0.74178E-02  2196   0.533E-01    0.661E-02
RMM:   2    -0.128085809815E+04   -0.15979E-03   -0.15486E-03  2447   0.699E-02    0.143E-01
RMM:   3    -0.128085811066E+04   -0.12508E-04   -0.20054E-04  2411   0.322E-02    0.152E-01
RMM:   4    -0.128085807767E+04    0.32997E-04   -0.69133E-05  2389   0.165E-02    0.419E-02
RMM:   5    -0.128085809021E+04   -0.12547E-04   -0.17368E-05  1756   0.934E-03    0.370E-02
RMM:   6    -0.128085809387E+04   -0.36547E-05   -0.10078E-05  1793   0.666E-03    0.307E-02
RMM:   7    -0.128085809757E+04   -0.36982E-05   -0.10721E-05  1670   0.707E-03    0.338E-02
RMM:   8    -0.128085809829E+04   -0.72766E-06   -0.59327E-06  1558   0.555E-03
 249 F= -.12898737E+04 E0= -.12898690E+04  d E =-.116723E-03  mag=    16.9994
 trial-energy change:   -0.000117  1 .order   -0.000120   -0.000159   -0.000081
 step:   0.3615(harm=  0.3615)  dis= 0.00201  next Energy= -1289.873778 (dE=-0.162E-03)
 bond charge predicted
       N       E                     dE             d eps       ncg     rms          rms(c)
DAV:   1    -0.128085801685E+04    0.80711E-04   -0.79644E-02  2172   0.553E-01    0.676E-02
RMM:   2    -0.128085816055E+04   -0.14370E-03   -0.16613E-03  2461   0.720E-02    0.664E-02
RMM:   3    -0.128085820885E+04   -0.48291E-04   -0.20004E-04  2395   0.336E-02    0.112E-01
RMM:   4    -0.128085817652E+04    0.32329E-04   -0.70222E-05  2397   0.163E-02    0.450E-02
RMM:   5    -0.128085818598E+04   -0.94601E-05   -0.16421E-05  1783   0.853E-03    0.592E-02
RMM:   6    -0.128085818471E+04    0.12659E-05   -0.11557E-05  1681   0.693E-03    0.432E-02
RMM:   7    -0.128085818660E+04   -0.18851E-05   -0.10815E-05  1648   0.712E-03    0.280E-02
RMM:   8    -0.128085819315E+04   -0.65528E-05   -0.79500E-06  1685   0.600E-03    0.259E-02
RMM:   9    -0.128085819185E+04    0.12976E-05   -0.41012E-06  1486   0.484E-03    0.135E-02
RMM:  10    -0.128085819252E+04   -0.66808E-06   -0.12406E-06  1331   0.275E-03
 250 F= -.12898737E+04 E0= -.12898691E+04  d E =-.130533E-03  mag=    16.9994
 curvature:  -2.15 expect dE=-0.422E-02 dE for cont linesearch -0.802E-05
 ZBRENT: interpolating
 opt :   0.3055  next Energy= -1289.873753 (dE=-0.136E-03)
 bond charge predicted
       N       E                     dE             d eps       ncg     rms          rms(c)
DAV:   1    -0.128085816000E+04    0.31854E-04   -0.73992E-03  2280   0.168E-01    0.202E-02
RMM:   2    -0.128085817206E+04   -0.12062E-04   -0.15203E-04  2507   0.218E-02    0.205E-02
RMM:   3    -0.128085817719E+04   -0.51277E-05   -0.17092E-05  1882   0.983E-03    0.376E-02
RMM:   4    -0.128085817375E+04    0.34329E-05   -0.62411E-06  1631   0.551E-03    0.229E-02
RMM:   5    -0.128085817432E+04   -0.56955E-06   -0.19091E-06  1347   0.346E-03
 251 F= -.12898738E+04 E0= -.12898691E+04  d E =-.136817E-03  mag=    16.9994
 curvature:  -1.50 expect dE=-0.212E-02 dE for cont linesearch -0.260E-06
 trial: gam= 1.38777 g(F)=  0.142E-02 g(S)=  0.000E+00 ort =-0.430E-04 (trialstep = 0.991E-01)
 search vector abs. value=  0.218E-01
 bond charge predicted
       N       E                     dE             d eps       ncg     rms          rms(c)
DAV:   1    -0.128085822963E+04   -0.55876E-04   -0.48117E-02  2172   0.431E-01    0.533E-02
RMM:   2    -0.128085831950E+04   -0.89868E-04   -0.98881E-04  2404   0.552E-02    0.630E-02
RMM:   3    -0.128085835799E+04   -0.38492E-04   -0.12417E-04  2310   0.274E-02    0.126E-01
RMM:   4    -0.128085832442E+04    0.33571E-04   -0.49168E-05  2279   0.142E-02    0.661E-02
RMM:   5    -0.128085832570E+04   -0.12773E-05   -0.14479E-05  1729   0.897E-03    0.238E-02
RMM:   6    -0.128085833252E+04   -0.68204E-05   -0.65088E-06  1603   0.549E-03    0.257E-02
RMM:   7    -0.128085833208E+04    0.43726E-06   -0.50550E-06  1562   0.530E-03
 252 F= -.12898739E+04 E0= -.12898692E+04  d E =-.107482E-03  mag=    16.9994
 trial-energy change:   -0.000107  1 .order   -0.000115   -0.000134   -0.000096
 step:   0.3438(harm=  0.3438)  dis= 0.00284  next Energy= -1289.873987 (dE=-0.233E-03)
 bond charge predicted
       N       E                     dE             d eps       ncg     rms          rms(c)
DAV:   1    -0.128085788721E+04    0.44531E-03   -0.29184E-01  2160   0.106E+00    0.128E-01
RMM:   2    -0.128085842900E+04   -0.54179E-03   -0.59504E-03  2387   0.136E-01    0.132E-01
RMM:   3    -0.128085860334E+04   -0.17434E-03   -0.70825E-04  2352   0.653E-02    0.239E-01
RMM:   4    -0.128085848135E+04    0.12199E-03   -0.27041E-04  2705   0.326E-02    0.125E-01
RMM:   5    -0.128085847876E+04    0.25922E-05   -0.64647E-05  2109   0.166E-02    0.773E-02
RMM:   6    -0.128085849750E+04   -0.18737E-04   -0.41840E-05  2049   0.128E-02    0.686E-02
RMM:   7    -0.128085849733E+04    0.16185E-06   -0.37603E-05  2029   0.125E-02    0.479E-02
RMM:   8    -0.128085851430E+04   -0.16961E-04   -0.29818E-05  2011   0.111E-02    0.585E-02
RMM:   9    -0.128085850598E+04    0.83195E-05   -0.13554E-05  1667   0.815E-03    0.202E-02
RMM:  10    -0.128085850913E+04   -0.31537E-05   -0.42495E-06  1501   0.472E-03    0.130E-02
RMM:  11    -0.128085850990E+04   -0.77156E-06   -0.14782E-06  1385   0.292E-03
 253 F= -.12898739E+04 E0= -.12898692E+04  d E =-.160514E-03  mag=    16.9994
 curvature:  -2.77 expect dE=-0.516E-02 dE for cont linesearch -0.198E-04
 ZBRENT: interpolating
 opt :   0.2728  next Energy= -1289.873928 (dE=-0.175E-03)
 bond charge predicted
       N       E                     dE             d eps       ncg     rms          rms(c)
DAV:   1    -0.128085843779E+04    0.71343E-04   -0.24664E-02  2256   0.308E-01    0.364E-02
RMM:   2    -0.128085847804E+04   -0.40252E-04   -0.49666E-04  2406   0.389E-02    0.298E-02
RMM:   3    -0.128085849495E+04   -0.16908E-04   -0.52690E-05  2203   0.175E-02    0.577E-02
RMM:   4    -0.128085848489E+04    0.10056E-04   -0.19391E-05  1980   0.843E-03    0.178E-02
RMM:   5    -0.128085849035E+04   -0.54611E-05   -0.49033E-06  1547   0.531E-03    0.294E-02
RMM:   6    -0.128085848931E+04    0.10427E-05   -0.32301E-06  1430   0.396E-03    0.259E-02
RMM:   7    -0.128085849073E+04   -0.14187E-05   -0.36295E-06  1467   0.430E-03    0.154E-02
RMM:   8    -0.128085849292E+04   -0.21898E-05   -0.21756E-06  1406   0.340E-03    0.971E-03
RMM:   9    -0.128085849300E+04   -0.86846E-07   -0.99107E-07  1298   0.260E-03
 254 F= -.12898739E+04 E0= -.12898692E+04  d E =-.179949E-03  mag=    16.9994
 curvature:  -1.96 expect dE=-0.222E-02 dE for cont linesearch -0.936E-06
 trial: gam= 0.79671 g(F)=  0.113E-02 g(S)=  0.000E+00 ort =-0.102E-03 (trialstep = 0.134E+00)
 search vector abs. value=  0.148E-01
 bond charge predicted
       N       E                     dE             d eps       ncg     rms          rms(c)
DAV:   1    -0.128085852926E+04   -0.36342E-04   -0.61013E-02  2220   0.486E-01    0.526E-02
RMM:   2    -0.128085862964E+04   -0.10039E-03   -0.12062E-03  2408   0.615E-02    0.409E-02
RMM:   3    -0.128085866419E+04   -0.34546E-04   -0.12305E-04  2339   0.273E-02    0.833E-02
RMM:   4    -0.128085864568E+04    0.18513E-04   -0.46076E-05  2301   0.127E-02    0.364E-02
RMM:   5    -0.128085865220E+04   -0.65191E-05   -0.10549E-05  1707   0.724E-03    0.432E-02
RMM:   6    -0.128085865178E+04    0.41737E-06   -0.70015E-06  1602   0.565E-03
 255 F= -.12898740E+04 E0= -.12898693E+04  d E =-.111099E-03  mag=    16.9994
 trial-energy change:   -0.000111  1 .order   -0.000119   -0.000140   -0.000098
 step:   0.4473(harm=  0.4473)  dis= 0.00309  next Energy= -1289.874168 (dE=-0.235E-03)
 bond charge predicted
       N       E                     dE             d eps       ncg     rms          rms(c)
DAV:   1    -0.128085810477E+04    0.54743E-03   -0.33315E-01  2160   0.114E+00    0.125E-01
RMM:   2    -0.128085872393E+04   -0.61916E-03   -0.66519E-03  2396   0.146E-01    0.141E-01
RMM:   3    -0.128085885210E+04   -0.12817E-03   -0.77533E-04  2367   0.673E-02    0.198E-01
RMM:   4    -0.128085878309E+04    0.69012E-04   -0.28323E-04  2732   0.318E-02    0.143E-01
RMM:   5    -0.128085876342E+04    0.19669E-04   -0.67146E-05  2118   0.164E-02    0.772E-02
RMM:   6    -0.128085879295E+04   -0.29536E-04   -0.49988E-05  2118   0.132E-02    0.908E-02
RMM:   7    -0.128085877811E+04    0.14846E-04   -0.41589E-05  2134   0.126E-02    0.423E-02
RMM:   8    -0.128085880567E+04   -0.27561E-04   -0.35097E-05  2068   0.116E-02    0.641E-02
RMM:   9    -0.128085879365E+04    0.12022E-04   -0.15614E-05  1660   0.837E-03    0.178E-02
RMM:  10    -0.128085879796E+04   -0.43140E-05   -0.39696E-06  1501   0.446E-03    0.176E-02
RMM:  11    -0.128085879803E+04   -0.65498E-07   -0.15633E-06  1371   0.294E-03
 256 F= -.12898741E+04 E0= -.12898693E+04  d E =-.145010E-03  mag=    16.9994
 curvature:  -3.16 expect dE=-0.565E-02 dE for cont linesearch -0.400E-04
 ZBRENT: interpolating
 opt :   0.3311  next Energy= -1289.874104 (dE=-0.170E-03)
 bond charge predicted
       N       E                     dE             d eps       ncg     rms          rms(c)
DAV:   1    -0.128085868760E+04    0.11036E-03   -0.45867E-02  2244   0.421E-01    0.457E-02
RMM:   2    -0.128085876375E+04   -0.76151E-04   -0.90561E-04  2403   0.533E-02    0.366E-02
RMM:   3    -0.128085879373E+04   -0.29975E-04   -0.93772E-05  2304   0.238E-02    0.843E-02
RMM:   4    -0.128085877702E+04    0.16702E-04   -0.36228E-05  2223   0.111E-02    0.413E-02
RMM:   5    -0.128085878006E+04   -0.30350E-05   -0.88054E-06  1625   0.706E-03    0.266E-02
RMM:   6    -0.128085878368E+04   -0.36172E-05   -0.52497E-06  1553   0.483E-03    0.240E-02
RMM:   7    -0.128085878509E+04   -0.14144E-05   -0.51702E-06  1494   0.507E-03    0.187E-02
RMM:   8    -0.128085878815E+04   -0.30579E-05   -0.38974E-06  1506   0.427E-03    0.168E-02
RMM:   9    -0.128085878769E+04    0.46286E-06   -0.17787E-06  1361   0.338E-03
 257 F= -.12898741E+04 E0= -.12898694E+04  d E =-.176461E-03  mag=    16.9994
 curvature:  -1.99 expect dE=-0.180E-02 dE for cont linesearch -0.145E-05
 trial: gam= 0.82967 g(F)=  0.907E-03 g(S)=  0.000E+00 ort =-0.104E-03 (trialstep = 0.173E+00)
 search vector abs. value=  0.109E-01
 bond charge predicted
       N       E                     dE             d eps       ncg     rms          rms(c)
DAV:   1    -0.128085878638E+04    0.17632E-05   -0.76372E-02  2232   0.538E-01    0.600E-02
RMM:   2    -0.128085891195E+04   -0.12556E-03   -0.15206E-03  2410   0.686E-02    0.460E-02
RMM:   3    -0.128085895205E+04   -0.40104E-04   -0.15358E-04  2358   0.300E-02    0.814E-02
RMM:   4    -0.128085893436E+04    0.17692E-04   -0.55717E-05  2351   0.138E-02    0.391E-02
RMM:   5    -0.128085894311E+04   -0.87555E-05   -0.14757E-05  1762   0.819E-03    0.609E-02
RMM:   6    -0.128085893613E+04    0.69791E-05   -0.99205E-06  1697   0.661E-03    0.281E-02
RMM:   7    -0.128085894272E+04   -0.65853E-05   -0.94505E-06  1617   0.664E-03    0.288E-02
RMM:   8    -0.128085894452E+04   -0.17993E-05   -0.60709E-06  1587   0.536E-03    0.166E-02
RMM:   9    -0.128085894450E+04    0.15963E-07   -0.23966E-06  1416   0.385E-03
 258 F= -.12898742E+04 E0= -.12898695E+04  d E =-.944581E-04  mag=    16.9994
 trial-energy change:   -0.000094  1 .order   -0.000095   -0.000142   -0.000047
 step:   0.2587(harm=  0.2587)  dis= 0.00156  next Energy= -1289.874216 (dE=-0.106E-03)
 bond charge predicted
       N       E                     dE             d eps       ncg     rms          rms(c)
DAV:   1    -0.128085893953E+04    0.49906E-05   -0.18450E-02  2232   0.265E-01    0.307E-02
RMM:   2    -0.128085897135E+04   -0.31822E-04   -0.37676E-04  2426   0.348E-02    0.438E-02
RMM:   3    -0.128085897846E+04   -0.71106E-05   -0.46493E-05  2202   0.161E-02    0.515E-02
RMM:   4    -0.128085897499E+04    0.34736E-05   -0.14889E-05  1887   0.744E-03    0.247E-02
RMM:   5    -0.128085897582E+04   -0.83073E-06   -0.38772E-06  1466   0.479E-03
 259 F= -.12898742E+04 E0= -.12898696E+04  d E =-.950041E-04  mag=    16.9994
 curvature:  -1.72 expect dE=-0.148E-02 dE for cont linesearch -0.163E-05
 trial: gam= 1.02966 g(F)=  0.861E-03 g(S)=  0.000E+00 ort =-0.102E-03 (trialstep = 0.170E+00)
 search vector abs. value=  0.122E-01
 bond charge predicted
       N       E                     dE             d eps       ncg     rms          rms(c)
DAV:   1    -0.128085897117E+04    0.38123E-05   -0.81001E-02  2160   0.558E-01    0.675E-02
RMM:   2    -0.128085913201E+04   -0.16083E-03   -0.16504E-03  2411   0.741E-02    0.106E-01
RMM:   3    -0.128085915359E+04   -0.21584E-04   -0.21801E-04  2382   0.347E-02    0.136E-01
RMM:   4    -0.128085914231E+04    0.11287E-04   -0.89097E-05  2461   0.172E-02    0.997E-02
RMM:   5    -0.128085912428E+04    0.18024E-04   -0.27881E-05  1894   0.118E-02    0.341E-02
RMM:   6    -0.128085913758E+04   -0.13303E-04   -0.13463E-05  1691   0.723E-03    0.413E-02
RMM:   7    -0.128085913981E+04   -0.22224E-05   -0.10475E-05  1864   0.662E-03    0.215E-02
RMM:   8    -0.128085914792E+04   -0.81102E-05   -0.10299E-05  1640   0.668E-03    0.317E-02
RMM:   9    -0.128085914557E+04    0.23507E-05   -0.42761E-06  1495   0.498E-03    0.905E-03
RMM:  10    -0.128085914666E+04   -0.10942E-05   -0.13830E-06  1343   0.275E-03    0.738E-03
RMM:  11    -0.128085914691E+04   -0.24942E-06   -0.49937E-07  1257   0.180E-03
 260 F= -.12898743E+04 E0= -.12898696E+04  d E =-.104741E-03  mag=    16.9994
 trial-energy change:   -0.000105  1 .order   -0.000102   -0.000129   -0.000076
 step:   0.4172(harm=  0.4172)  dis= 0.00282  next Energy= -1289.874363 (dE=-0.158E-03)
 bond charge predicted
       N       E                     dE             d eps       ncg     rms          rms(c)
DAV:   1    -0.128085891974E+04    0.22692E-03   -0.17142E-01  2160   0.812E-01    0.935E-02
RMM:   2    -0.128085922003E+04   -0.30030E-03   -0.34134E-03  2443   0.104E-01    0.762E-02
RMM:   3    -0.128085936967E+04   -0.14964E-03   -0.37983E-04  2414   0.456E-02    0.218E-01
RMM:   4    -0.128085924565E+04    0.12403E-03   -0.15153E-04  2641   0.232E-02    0.688E-02
RMM:   5    -0.128085927549E+04   -0.29841E-04   -0.37343E-05  1969   0.130E-02    0.467E-02
RMM:   6    -0.128085928476E+04   -0.92720E-05   -0.17744E-05  1979   0.789E-03    0.483E-02
RMM:   7    -0.128085928640E+04   -0.16433E-05   -0.17333E-05  1759   0.830E-03    0.382E-02
RMM:   8    -0.128085929433E+04   -0.79279E-05   -0.11824E-05  1850   0.701E-03    0.258E-02
RMM:   9    -0.128085929423E+04    0.98371E-07   -0.48733E-06  1513   0.504E-03
 261 F= -.12898744E+04 E0= -.12898696E+04  d E =-.155348E-03  mag=    16.9994
 curvature:  -3.38 expect dE=-0.324E-02 dE for cont linesearch -0.490E-06
 trial: gam= 0.86118 g(F)=  0.958E-03 g(S)=  0.000E+00 ort = 0.421E-04 (trialstep = 0.219E+00)
 search vector abs. value=  0.101E-01
 bond charge predicted
       N       E                     dE             d eps       ncg     rms          rms(c)
DAV:   1    -0.128085918470E+04    0.10963E-03   -0.11410E-01  2160   0.660E-01    0.852E-02
RMM:   2    -0.128085942459E+04   -0.23989E-03   -0.24473E-03  2472   0.876E-02    0.119E-01
RMM:   3    -0.128085947252E+04   -0.47929E-04   -0.31867E-04  2409   0.410E-02    0.178E-01
RMM:   4    -0.128085943382E+04    0.38702E-04   -0.13894E-04  2560   0.220E-02    0.124E-01
RMM:   5    -0.128085941590E+04    0.17916E-04   -0.49507E-05  2003   0.151E-02    0.396E-02
RMM:   6    -0.128085943430E+04   -0.18396E-04   -0.23334E-05  1943   0.940E-03    0.587E-02
RMM:   7    -0.128085942687E+04    0.74292E-05   -0.15838E-05  1828   0.851E-03    0.297E-02
RMM:   8    -0.128085943758E+04   -0.10713E-04   -0.13061E-05  1742   0.736E-03    0.407E-02
RMM:   9    -0.128085943381E+04    0.37723E-05   -0.64395E-06  1543   0.597E-03    0.131E-02
RMM:  10    -0.128085943602E+04   -0.22088E-05   -0.17812E-06  1401   0.317E-03    0.124E-02
RMM:  11    -0.128085943592E+04    0.97214E-07   -0.77335E-07  1286   0.229E-03
 262 F= -.12898744E+04 E0= -.12898697E+04  d E =-.827666E-04  mag=    16.9994
 trial-energy change:   -0.000083  1 .order   -0.000090   -0.000218    0.000039
 step:   0.1811(harm=  0.1862)  dis= 0.00112  next Energy= -1289.874446 (dE=-0.862E-04)
 bond charge predicted
       N       E                     dE             d eps       ncg     rms          rms(c)
DAV:   1    -0.128085942265E+04    0.13374E-04   -0.34865E-03  2304   0.115E-01    0.149E-02
RMM:   2    -0.128085942869E+04   -0.60401E-05   -0.72762E-05  2451   0.151E-02    0.163E-02
RMM:   3    -0.128085943099E+04   -0.23051E-05   -0.91445E-06  1686   0.719E-03    0.262E-02
RMM:   4    -0.128085943018E+04    0.80927E-06   -0.32600E-06  1430   0.405E-03    0.221E-02
RMM:   5    -0.128085942929E+04    0.89060E-06   -0.14389E-06  1316   0.302E-03
 263 F= -.12898744E+04 E0= -.12898697E+04  d E =-.864419E-04  mag=    16.9994
 curvature:  -0.92 expect dE=-0.414E-03 dE for cont linesearch -0.152E-07
 trial: gam= 0.46939 g(F)=  0.448E-03 g(S)=  0.000E+00 ort = 0.129E-04 (trialstep = 0.212E+00)
 search vector abs. value=  0.269E-02
 bond charge predicted
       N       E                     dE             d eps       ncg     rms          rms(c)
DAV:   1    -0.128085944609E+04   -0.15909E-04   -0.28255E-02  2220   0.336E-01    0.425E-02
RMM:   2    -0.128085949766E+04   -0.51566E-04   -0.59759E-04  2457   0.447E-02    0.429E-02
RMM:   3    -0.128085952016E+04   -0.22507E-04   -0.73451E-05  2338   0.208E-02    0.827E-02
RMM:   4    -0.128085950230E+04    0.17864E-04   -0.26938E-05  2083   0.108E-02    0.455E-02
RMM:   5    -0.128085950475E+04   -0.24463E-05   -0.80654E-06  1628   0.671E-03    0.236E-02
RMM:   6    -0.128085950817E+04   -0.34287E-05   -0.45286E-06  1526   0.473E-03    0.235E-02
RMM:   7    -0.128085950754E+04    0.63093E-06   -0.36446E-06  1474   0.467E-03
 264 F= -.12898745E+04 E0= -.12898698E+04  d E =-.635687E-04  mag=    16.9994
 trial-energy change:   -0.000064  1 .order   -0.000070   -0.000096   -0.000043
 step:   0.3858(harm=  0.3858)  dis= 0.00118  next Energy= -1289.874534 (dE=-0.875E-04)
 bond charge predicted
       N       E                     dE             d eps       ncg     rms          rms(c)
DAV:   1    -0.128085948841E+04    0.19767E-04   -0.18895E-02  2244   0.275E-01    0.374E-02
RMM:   2    -0.128085953564E+04   -0.47232E-04   -0.42498E-04  2471   0.392E-02    0.789E-02
RMM:   3    -0.128085952323E+04    0.12413E-04   -0.61512E-05  2357   0.186E-02    0.438E-02
RMM:   4    -0.128085952683E+04   -0.36055E-05   -0.17103E-05  1931   0.847E-03    0.291E-02
RMM:   5    -0.128085952638E+04    0.45107E-06   -0.49246E-06  1553   0.544E-03
 265 F= -.12898745E+04 E0= -.12898697E+04  d E =-.703362E-04  mag=    16.9994
 curvature:  -1.14 expect dE=-0.608E-03 dE for cont linesearch -0.184E-05
 trial: gam= 1.34646 g(F)=  0.532E-03 g(S)=  0.000E+00 ort =-0.658E-04 (trialstep = 0.127E+00)
 search vector abs. value=  0.523E-02
 bond charge predicted
       N       E                     dE             d eps       ncg     rms          rms(c)
DAV:   1    -0.128085953706E+04   -0.10229E-04   -0.20657E-02  2172   0.286E-01    0.392E-02
RMM:   2    -0.128085961768E+04   -0.80624E-04   -0.45625E-04  2469   0.406E-02    0.159E-01
RMM:   3    -0.128085955692E+04    0.60767E-04   -0.72836E-05  2363   0.193E-02    0.551E-02
RMM:   4    -0.128085957865E+04   -0.21736E-04   -0.28309E-05  2024   0.111E-02    0.444E-02
RMM:   5    -0.128085957644E+04    0.22174E-05   -0.73765E-06  1565   0.627E-03    0.227E-02
RMM:   6    -0.128085957974E+04   -0.33074E-05   -0.57784E-06  1539   0.524E-03    0.237E-02
RMM:   7    -0.128085958298E+04   -0.32315E-05   -0.61982E-06  1624   0.509E-03    0.212E-02
RMM:   8    -0.128085958255E+04    0.42217E-06   -0.39018E-06  1465   0.467E-03
 266 F= -.12898746E+04 E0= -.12898698E+04  d E =-.455586E-04  mag=    16.9994
 trial-energy change:   -0.000046  1 .order   -0.000046   -0.000056   -0.000035
 step:   0.3445(harm=  0.3445)  dis= 0.00144  next Energy= -1289.874593 (dE=-0.763E-04)
 bond charge predicted
       N       E                     dE             d eps       ncg     rms          rms(c)
DAV:   1    -0.128085947737E+04    0.10560E-03   -0.60920E-02  2160   0.490E-01    0.548E-02
RMM:   2    -0.128085958058E+04   -0.10321E-03   -0.12204E-03  2489   0.626E-02    0.481E-02
RMM:   3    -0.128085961653E+04   -0.35948E-04   -0.12745E-04  2432   0.272E-02    0.887E-02
RMM:   4    -0.128085959813E+04    0.18396E-04   -0.45296E-05  2296   0.129E-02    0.432E-02
RMM:   5    -0.128085960338E+04   -0.52416E-05   -0.11172E-05  1702   0.722E-03    0.458E-02
RMM:   6    -0.128085960401E+04   -0.63360E-06   -0.94216E-06  1676   0.656E-03
 267 F= -.12898746E+04 E0= -.12898698E+04  d E =-.487431E-04  mag=    16.9994
 curvature:  -2.03 expect dE=-0.201E-02 dE for cont linesearch -0.226E-05
 trial: gam= 1.70065 g(F)=  0.990E-03 g(S)=  0.000E+00 ort =-0.762E-04 (trialstep = 0.562E-01)
 search vector abs. value=  0.159E-01
 bond charge predicted
       N       E                     dE             d eps       ncg     rms          rms(c)
DAV:   1    -0.128085962861E+04   -0.25237E-04   -0.12013E-02  2244   0.221E-01    0.342E-02
RMM:   2    -0.128085968634E+04   -0.57726E-04   -0.29899E-04  2518   0.345E-02    0.116E-01
RMM:   3    -0.128085964124E+04    0.45097E-04   -0.55607E-05  2266   0.165E-02    0.285E-02
RMM:   4    -0.128085965172E+04   -0.10482E-04   -0.13154E-05  1756   0.714E-03    0.281E-02
RMM:   5    -0.128085965155E+04    0.17261E-06   -0.36179E-06  1461   0.467E-03
 268 F= -.12898746E+04 E0= -.12898699E+04  d E =-.398875E-04  mag=    16.9994
 trial-energy change:   -0.000040  1 .order   -0.000042   -0.000048   -0.000035
 step:   0.2017(harm=  0.2017)  dis= 0.00148  next Energy= -1289.874652 (dE=-0.868E-04)
 bond charge predicted
       N       E                     dE             d eps       ncg     rms          rms(c)
DAV:   1    -0.128085955068E+04    0.10104E-03   -0.81509E-02  2160   0.567E-01    0.669E-02
RMM:   2    -0.128085974005E+04   -0.18937E-03   -0.16585E-03  2449   0.740E-02    0.174E-01
RMM:   3    -0.128085970699E+04    0.33058E-04   -0.20844E-04  2415   0.336E-02    0.130E-01
RMM:   4    -0.128085970673E+04    0.26607E-06   -0.68510E-05  2420   0.163E-02    0.482E-02
RMM:   5    -0.128085971395E+04   -0.72248E-05   -0.16813E-05  1759   0.896E-03    0.388E-02
RMM:   6    -0.128085972300E+04   -0.90490E-05   -0.13952E-05  1977   0.718E-03    0.377E-02
RMM:   7    -0.128085972560E+04   -0.25985E-05   -0.13781E-05  1715   0.765E-03    0.328E-02
RMM:   8    -0.128085972740E+04   -0.18025E-05   -0.61077E-06  1558   0.554E-03    0.131E-02
RMM:   9    -0.128085972766E+04   -0.25610E-06   -0.22344E-06  1408   0.364E-03
 269 F= -.12898747E+04 E0= -.12898699E+04  d E =-.961319E-04  mag=    16.9994
 curvature:  -1.86 expect dE=-0.841E-03 dE for cont linesearch -0.345E-05
 ZBRENT: extrapolating
 opt :   0.2573  next Energy= -1289.874667 (dE=-0.101E-03)
 bond charge predicted
       N       E                     dE             d eps       ncg     rms          rms(c)
DAV:   1    -0.128085971055E+04    0.16851E-04   -0.11871E-02  2292   0.217E-01    0.252E-02
RMM:   2    -0.128085973267E+04   -0.22115E-04   -0.24309E-04  2482   0.283E-02    0.400E-02
RMM:   3    -0.128085973653E+04   -0.38604E-05   -0.30579E-05  2112   0.132E-02    0.472E-02
RMM:   4    -0.128085973500E+04    0.15246E-05   -0.10389E-05  1789   0.665E-03    0.383E-02
RMM:   5    -0.128085973278E+04    0.22243E-05   -0.33447E-06  1450   0.472E-03    0.101E-02
RMM:   6    -0.128085973637E+04   -0.35934E-05   -0.16092E-06  1356   0.295E-03    0.116E-02
RMM:   7    -0.128085973709E+04   -0.71574E-06   -0.16647E-06  1339   0.319E-03
 270 F= -.12898747E+04 E0= -.12898699E+04  d E =-.979651E-04  mag=    16.9994
 curvature:  -2.57 expect dE=-0.125E-02 dE for cont linesearch -0.128E-07
 trial: gam= 0.19507 g(F)=  0.486E-03 g(S)=  0.000E+00 ort = 0.890E-05 (trialstep = 0.964E-01)
 search vector abs. value=  0.109E-02
 bond charge predicted
       N       E                     dE             d eps       ncg     rms          rms(c)
DAV:   1    -0.128085977183E+04   -0.35461E-04   -0.22252E-03  2256   0.960E-02    0.177E-02
RMM:   2    -0.128085978049E+04   -0.86592E-05   -0.68083E-05  2584   0.160E-02    0.358E-02
RMM:   3    -0.128085977659E+04    0.38994E-05   -0.11318E-05  1710   0.805E-03    0.225E-02
RMM:   4    -0.128085977735E+04   -0.76016E-06   -0.38168E-06  1500   0.466E-03    0.191E-02
RMM:   5    -0.128085977670E+04    0.65252E-06   -0.14472E-06  1331   0.314E-03
 271 F= -.12898747E+04 E0= -.12898699E+04  d E =-.386754E-04  mag=    16.9994
 trial-energy change:   -0.000039  1 .order   -0.000039   -0.000047   -0.000031
 step:   0.2798(harm=  0.2798)  dis= 0.00063  next Energy= -1289.874732 (dE=-0.683E-04)
 reached required accuracy - stopping structural energy minimisation
