O  C  H  Co Li
 1.0000000000000000
    25.9869300222800774    0.0014776472087939   -0.0002841704448074
    12.9947443186480527   22.5035161465627063   -0.0005769115704474
    -0.0000740905812471   -0.0001328080293999    6.8098320633878924
 O   C   H   Co  Li 
  60  75  18  18   3
Direct
  0.0588617134013075  0.2483675215387579  0.3278043654848271
  0.0311740071881093  0.2898986070077493  0.9335396718657351
  0.1077847317419678  0.2583012099981276  0.7279302901497220
  0.3917846480949637  0.5816023037013041  0.6705814172120909
  0.6957530564831866  0.0535470529209598  0.3262206987928593
  0.6831429206935351  0.0244126554539057  0.9353005163200757
  0.6398021938673799  0.1001894715794774  0.7253424533351904
  0.0333031136007149  0.3904416821733643  0.6628553257420051
  0.2477425997862179  0.6959491174990825  0.3355640563274754
  0.2898322427233012  0.6823043818672191  0.9431967122865818
  0.2589809679350594  0.6370429590575719  0.7357376569578588
  0.5809460572618843  0.0263022660983472  0.6616912612982426
  0.3049140266264440  0.0447565766132394  0.4051114794780913
  0.2283963256583599  0.0757112191985686  0.6109147919010033
  0.6259147626840401  0.3551422415702711  0.6958788981995515
  0.5596394722768085  0.4004123926955532  0.9385478299066297
  0.2769706254939886  0.0859042911307940  0.0109651946030673
  0.6880343476314325  0.2872718172433636  0.3491702947694956
  0.8201660382341679  0.1617680704619853  0.9404440754155119
 -0.0147621789666236  0.6384377394397786  0.7401976591254045
  0.0316797488022139  0.5621356304220829  0.9463814941503985
  0.6474934237947372  0.2682903577842384  0.0013179122984880
  0.0454921581228919  0.6513678678231857  0.4070929111203247
  0.0758172208135379  0.6970969605458323  0.6147462038740108
  0.3776195267418028  0.9834796693914983  0.7390184398100903
  0.4090354452275650  0.0285144942944126  0.9452547600115130
  0.0868843386248060  0.6387745387937680  0.0143048174615506
  0.6951203158890831  0.9519045397132108  0.6019098801800866
  0.7715168595707812  0.9216839831960476  0.3960486133951945
  0.3623110284228948  0.6236728560187399  0.2786774744768352
  0.4383788450385863  0.5908670441077138  0.0701149477616633
  0.7234967299325901  0.9102682286219372  0.9959585256275320
  0.3485835683048620  0.6960514218799647  0.6107599233999039
  0.3039247634748221  0.7717083979332106  0.4009369779840846
  0.0203605395276897  0.3621675124427868  0.2673197606415278
  0.9736112161099688  0.4389003589935754  0.0630981800808964
  0.3625600083197278  0.7244541029357024  1.0011399957330920
  0.9593111756096765  0.3507616565627327  0.6010863770816858
  0.9260675851284146  0.3085868797877521  0.3890940178388189
  0.6225648760438235  0.0123701466448363  0.2686669649945139
  0.5911493909783603  0.9675000238515410  0.0617559139844266
  0.9159894652824109  0.3639977683324160  0.9926126125152592
  0.9436849672015869  0.7529610847514354  0.6800263173344863
  0.9722767987706507  0.7116835433849105  0.0736100880360727
  0.8960669163459698  0.7414821531265638  0.2800669321833821
  0.6020199935098838  0.4095803731345102  0.3370201832738353
  0.3033827653417865  0.9432450526005167  0.6798645362241892
  0.3163903241758420  0.9719700153203753  0.0724876988919999
  0.3614323775724603  0.8959266373594232  0.2806067525823053
  0.9725978897356158  0.6099449460407044  0.3463044229251353
  0.7502639396645735  0.3147088060362502  0.6532763822693822
  0.6949102276720190  0.3481809021740324  0.0084530215489762
  0.7419867418017687  0.3624123357210532  0.2620820396577689
  0.4189814767735900  0.9700072935542493  0.3451741087497197
  0.6710151055139210  0.4522939054741835  0.6013643505685570
  0.6089837299502124  0.5517955730855912  0.5745332607508741
  0.6969741276158500  0.5067727151387049  0.4061850612091275
  0.7083690275557952  0.2202211344004310  0.5895514460593166
  0.8340914430064684  0.1994781576264049  0.3594481919406017
  0.8692700434255070  0.0972209183412936  0.3941587807272491
  0.1107172558951413  0.2100080862460008  0.2419299709710458
  0.1528871815074823  0.1649667638979131  0.3632407001243688
  0.0871008426359211  0.2555242542388660  0.8946045224804197
  0.1263575465388719  0.2116706073225353  0.0409869320572950
  0.4425520145893020  0.5417342530313137  0.5832784341102748
  0.4846890223108381  0.4959297692780383  0.7029400876158501
  0.6846030976838944  0.1043305276508492  0.2383932636094910
  0.6892910956410356  0.1459890025497722  0.3563778176348933
  0.6629023019462984  0.0798079107396022  0.8927690314790199
  0.6684823412317015  0.1191548253791273  0.0362216527185161
  0.0186584291978950  0.4425888926697977  0.5769606921425393
  0.0204277867321225  0.4853625448852082  0.6982958568868931
  0.2098948106031787  0.6819522496589095  0.2490301850550872
  0.1649316604354143  0.6842650853132968  0.3693513092128852
  0.2558287956867243  0.6605360977772595  0.9028679976432445
  0.2118286737771463  0.6647891040848956  0.0478386653547591
  0.5427682727363513  0.0125605136780287  0.5759050687703026
  0.4978261481761805  0.0152726717914350  0.6973195450171081
  0.2490116361887313  0.0787161040508504  0.4442587905286696
  0.2095165365663607  0.1225221989227074  0.2978780181314328
  0.5764422597759414  0.3983159288568195  0.7612006564779483
  0.5381736540123011  0.4486730565816776  0.6275577959965604
  0.2251286588674033  0.1241678528470397  0.0969374846755852
  0.1829684018127498  0.1692012942790742  0.9755627734186464
  0.6912934470059118  0.2386022574553548  0.4152755305253470
  0.6787817852921564  0.2010972673614572  0.2849017439275721
  0.0080917648646222  0.5824284684271619  0.7794491499245814
  0.0048984120699227  0.5423542330037476  0.6329891730006487
  0.6604224865427030  0.2166286445433165  0.0856667229082899
  0.6561797657644833  0.1748345068835733  0.9667958530832919
  0.0790964943766258  0.6735971069238186  0.4476550962571584
  0.1228680257445003  0.6697809482836155  0.3023660905272309
  0.4117795409528154  0.0051929870234791  0.7782770815308975
  0.4555147254354856  0.0009387205516419  0.6318624473130515
  0.1247424454213903  0.6527384052616882  0.1011127076916629
  0.1696807559167820  0.6504298708032140  0.9807396561010793
  0.7511119734676796  0.9185677819619469  0.5630895729543387
  0.7912211557523594  0.8753642632341898  0.7095256811177213
  0.4175186719467915  0.5877497397274777  0.2364265282693226
  0.4559065084422471  0.5417122002268099  0.3787257234975672
  0.7758259599763754  0.8731651572735027  0.9102836093259521
  0.8188417289105411  0.8288680683158012  0.0317111498934051
  0.3270448637273482  0.7516897397778238  0.5686029371797573
  0.3309574087520006  0.7916715150302130  0.7132396655120125
  0.9976021695222111  0.4182454196027134  0.2294521671224745
  1.0011395130019956  0.4580475346091025  0.3760610826138402
  0.3480618132758693  0.7764872152733037  0.9144263109609994
  0.3497372014932787  0.8194248465623232  0.0348497094626293
  0.9234598000198084  0.3315833263251740  0.5572732226431346
  0.8781012401723288  0.3380036280527668  0.6987235943209018
  0.5883132604610529  0.9908100676449406  0.2288169175931506
  0.5444717427875772  0.9952272827896443  0.3750225447918445
  0.8770286709850911  0.3523133190152640  0.9023701622722995
  0.8312645075200353  0.3545659014823237  0.0179545648100180
  0.8913637862001383  0.7900327950952524  0.7657017519779402
  0.8483524273168929  0.8342902169343321  0.6442632190515541
  0.9162498414350347  0.7447460379396845  0.1129324480908691
  0.8759910911521568  0.7878386185178902  0.9664785056356219
  0.5507414576626524  0.4492900997582431  0.4223175956803659
  0.5095025368152603  0.4957271937934853  0.3050008919700259
  0.3177317088813137  0.8912793144338507  0.7665638727484315
  0.3159915641868584  0.8483510362449330  0.6461264575737697
  0.3382705671357562  0.9161785753877376  0.1131400092977871
  0.3347032925554361  0.8761457698594797  0.9678444070890129
  0.9874065175257769  0.5577745200711441  0.4321664756479868
  0.9856794687551911  0.5150202200481488  0.3107519058865397
  0.7883695730857935  0.3290924655384373  0.7411861870753079
  0.8343200204629404  0.3262023210087834  0.6261720937596303
  0.7386025116225268  0.3525853261432882  0.0763059921496509
  0.7862224104264540  0.3447016205110320  0.9437828917111406
  0.4571883884874608  0.9836745641696264  0.4309375524916710
  0.5021638149521827  0.9809132133488000  0.3095558638809920
  0.6578345219976177  0.5080131606613397  0.5191789714041852
  0.8514234086151872  0.1480168203809590  0.3777719715707747
  0.7787448252422795  0.2074583609144836  0.9072415648779243
  0.1398535372224247  0.1633862003490586  0.5143616157299986
  0.4721830798352632  0.4947150453752591  0.8549306479813413
  0.7032642834757248  0.1334296962865337  0.5082791949983070
  0.0351900435937756  0.4725380367928042  0.8494194161661488
  0.1630628580414067  0.6987410285460829  0.5208139898064299
  0.4962402823854034  0.0298486450972328  0.8484886097007961
  0.1960149157728977  0.1707511967288634  0.8244431964660355
  0.6417236732529145  0.1873188621352274  0.8151902609961622
  0.1715316373248190  0.6359800119102266  0.8292659120602291
  0.8061124455374516  0.8267805542371004  0.1828254522961777
  0.3641271636087657  0.8070082099281852  0.1864739006934750
  0.8316868062893652  0.3652168614448835  0.1724223708406415
  0.8610745642236107  0.8363649276784537  0.4931398892831435
  0.5209012851730224  0.4961680074443423  0.1510983121745359
  0.3015828049969374  0.8607741982899303  0.4945286292600087
  0.9709466040760092  0.5278720451042974  0.1596380817723973
  0.8392869583830861  0.3105284842617160  0.4746467213488327
  0.5037958463219485  0.9662918249364539  0.1584239307710341
  0.3134372691319606  0.6397425641197126  0.5289777228929786
  0.0514032853471859  0.3135368683828278  0.5188156994338807
  0.6391700385034215  0.0448408297924076  0.5180986712809572
  0.0210771415215948  0.6950801587229530  0.8227832082256106
  0.3539045999605416  0.0271238864855284  0.1537416423182191
  0.2848629459579774  0.0206765746345958  0.8202920138892265
  0.6222030751805113  0.3464764645394005  0.1330690780964653
  0.7105654525778261  0.2725080251005429  0.8185729569691795
  0.0290113158764462  0.6191460459631998  0.1553816996462638
  0.6463048006032551  0.9691326939316400  0.8530648902186552
  0.9823161032070601  0.3070497403185075  0.1822129700431402
  0.3823984746876525  0.6468411750818187  0.8611128579711091
  0.7148474599519847  0.9756803242555198  0.1867849546642521
  0.9758652909526824  0.3823342896863976  0.8540709889266261
  0.3061089908977039  0.7149860109370711  0.1927738577485636
  0.6708215046240580  0.3806899907337567  0.5159959579675145
  0.9531207219056800  0.6872791427895591  0.4889553894689425
  0.3601163968325771  0.9520778701793441  0.4886458468831614
  0.7449392726701253  0.4256186676437405  0.4157012825131650
  0.5877699239323225  0.5040635179911258  0.7079331525573949
  0.7658042117764492  0.2828393476471699  0.3917305408171289
