O  C  H  Co Li                          
   1.00000000000000     
    25.9869300222800774    0.0014776472087939   -0.0002841704448074
    12.9947443186480527   22.5035161465627063   -0.0005769115704474
    -0.0000740905812471   -0.0001328080293999    6.8098320633878924
   O    C    H    Co   Li
    60    75    18    18     3
Direct
  0.0610863151237472  0.2471123424064653  0.3279653428071910
  0.0352212331885254  0.2878589856703338  0.9494497792170172
  0.1077873798062272  0.2516575936685153  0.7308426653471788
  0.3898284128146552  0.5877409023635612  0.6535794062264302
  0.6860280317530573  0.0645851499349231  0.3219942237170990
  0.6647780618933559  0.0402719497956172  0.9639086806448219
  0.6357457797048550  0.1075930474645327  0.7247933264162899
  0.0331939721537881  0.3877350177535472  0.6574136778377466
  0.2490243790918351  0.6894826470934591  0.3258313620795574
  0.2949497874835280  0.6681819568694766  0.9653636783093764
  0.2551334191131493  0.6392055599667271  0.7309263473047769
  0.5889711228833406  0.0197855899919081  0.6561133265111442
  0.3069796351272167  0.0376420979206187  0.3895973884157559
  0.2370681062988258  0.0696559559059887  0.6205654752452261
  0.6255817895662152  0.3625363155052802  0.7022315026577531
  0.5612986775869198  0.4134637291393848  0.9401772596653122
  0.2791333951480427  0.0787357646611449  0.0122807707400221
  0.6905614975654688  0.2908633234049687  0.3524416605985043
  0.8071050082616762  0.1747348646416279  0.9864443665999875
  0.9870336323142959  0.6367495916466566  0.7193825882825118
  0.0251539694760794  0.5647015247668847  0.9421668010775105
  0.6357311057567974  0.2826383937251368  0.0152370478273036
  0.0389273329553066  0.6546450962171179  0.3885628038112862
  0.0708431559696747  0.6932159993831911  0.6169547007293084
  0.3770848374401225  0.9873566312832640  0.7192028932396821
  0.4129467276816242  0.0232831093587968  0.9428102946982665
  0.0799419704240885  0.6423573949054173  0.0084200581419970
  0.7068644208020096  0.9681187089384177  0.6302380737775967
  0.7737787275179303  0.9291233200246988  0.3897219053542345
  0.3659157593018144  0.6350475995389706  0.2984079755362964
  0.4327536062724294  0.5936200095504238  0.0575928228203459
  0.7310733474343940  0.9233186962720403  0.9869638671417793
  0.3278508017592710  0.7051505315388163  0.6296990380841252
  0.2981121442477758  0.7737558730733939  0.3936841916042316
  0.0197043498860414  0.3583537961135222  0.2812003476785374
  0.9811520471320861  0.4305463025743834  0.0589553367155986
  0.3510305091220604  0.7281723367125614 -0.0130115180279306
  0.9683862979311398  0.3399093299824600  0.6122559792828586
  0.9351626719693491  0.3029783238477142  0.3814435055476535
  0.6348063469430185 -0.0013335960038698  0.2982297926165035
  0.5958678562298392  0.9705600590908379  0.0585939982767216
  0.9258684668047296  0.3533273616458913  0.9913951359276629
  0.9455512465308626  0.7479107437002458  0.6748448062277052
  0.9709738444917072  0.7071931120684022  0.0515236730618478
  0.8987645719769607  0.7437401311431002  0.2717083357234664
  0.6022558165870220  0.4112012315823363  0.3410057286783665
  0.3084756456834215  0.9442449160587892  0.6774184005707253
  0.3241591018075227  0.9694688457592610  0.0530369058831738
  0.3591118078405933  0.8975673638117954  0.2743518268236216
  0.9739942391736001  0.6073575026570537  0.3432647975445385
  0.7555799903602229  0.3095902566931828  0.6568065264363848
  0.6930774391900451  0.3633901336041370  0.0034247405420058
  0.7520624064374815  0.3502392203513102  0.2615861593355808
  0.4195908634001971  0.9726863360434491  0.3444570086231106
  0.6872304249307297  0.4350459984633098  0.6078727364561051
  0.6162261685382944  0.5306873481147248  0.6270603657179215
  0.6753949550340710  0.4961292595898883  0.3532910333677310
  0.6828841584956369  0.2401452383118776  0.6088245350941124
  0.8318802211610620  0.1861061579663045  0.4171150059678050
  0.8492518365481642  0.0889300255305506  0.3874259298834415
  0.1130259838782544  0.2052868263840245  0.2470861498032618
  0.1555570119958783  0.1605322282402364  0.3686304919836685
  0.0895673126392760  0.2496887419316819  0.9020223768438470
  0.1284455148098556  0.2047918414265833  0.0455181409381458
  0.4407583873174384  0.5455475521514210  0.5723164974485074
  0.4816347591610000  0.4990979236516424  0.6911979308114314
  0.6741158008473022  0.1168144677371624  0.2420960267431047
  0.6790142737253092  0.1580354093458406  0.3612993400797535
  0.6519199144616876  0.0920303250160215  0.9009830543990639
  0.6571225350505098  0.1327904262122496  0.0416113975687180
  0.0187141995870419  0.4403727012004622  0.5760203231470646
  0.0184124298833968  0.4843163954267029  0.6963013592899721
  0.2078683857695253  0.6786592368720157  0.2472733224974915
  0.1626996332196893  0.6815032035640113  0.3677387756723410
  0.2548223676197126  0.6567404167493300  0.9055756426677714
  0.2079720118132048  0.6638542032922005  0.0450885083903269
  0.5484236159081325  0.0082364313395431  0.5763486223794432
  0.5033262857412725  0.0111499555016121  0.6968663746102479
  0.2534994588509958  0.0727392734792928  0.4465103728079848
  0.2117826891657036  0.1171417970894992  0.3019219106005626
  0.5759898862917594  0.4071718763438739  0.7601289292255146
  0.5356904702269589  0.4533985557063201  0.6190503902900432
  0.2269239838772229  0.1169518324140942  0.0977076963871719
  0.1841014511584384  0.1613136331246838  0.9777868375725244
  0.6799056107785016  0.2505585071416469  0.4282058772445539
  0.6680411018713582  0.2132644419514590  0.2912931766303988
  0.0055290525964071  0.5827787975380735  0.7693454653805495
  0.0036125414557903  0.5405925584305299  0.6269377968010682
  0.6492707937118556  0.2299653888977128  0.0936184859365203
  0.6443048040453461  0.1887194470860730  0.9738682338033161
  0.0740852340728988  0.6732060629069059  0.4436970343461481
  0.1187394131877098  0.6698866304267563  0.2993236856710191
  0.4141920980578420  0.0037824608337801  0.7700282760896122
  0.4596095195183716 -0.0006833033076731  0.6278841701462816
  0.1187717696932532  0.6553996832625973  0.0945965615432253
  0.1638334991442319  0.6529913773745308  0.9754620908273750
  0.7580886031311369  0.9285001797753381  0.5657346976824028
  0.7983694171311803  0.8816478740534234  0.7052038237148555
  0.4160979871293608  0.5938239853671913  0.2335867099724409
  0.4554175313787143  0.5454244674709727  0.3698720335834220
  0.7826187461440083  0.8819630757948079  0.9069859212598906
  0.8236388168774288  0.8362429417937716  0.0272986054520034
  0.3161918104388852  0.7565447429240284  0.5682305590791679
  0.3236675866942203  0.7963216803554879  0.7066264426478279
  0.0011263201134716  0.4124017334450462  0.2314470457136823
  0.0032691794611173  0.4545398598812979  0.3735139248043930
  0.3397142898974698  0.7802364152716722  0.9078929348803840
  0.3437391099409874  0.8215763743598474  0.0285877908439376
  0.9326707665938635  0.3224545847950992  0.5554133499855054
  0.8871121709521951  0.3271450103608635  0.6978935720636079
  0.5951941675789103  0.9869546424068107  0.2345246130215720
  0.5486938912649019  0.9930520492445563  0.3742389393514368
  0.8862002839341028  0.3424151002253504  0.9018935291641248
  0.8385030401433176  0.3478676042070690  0.0139388097203778
  0.8944013561249109  0.7906826574716181  0.7565789333801884
  0.8533403982073220  0.8367900014122263  0.6360652921316511
  0.9169427074076826  0.7457438658008237  0.1003877979709468
  0.8785085182095516  0.7913707326319170  0.9581298143629647
  0.5499394013542628  0.4532457388004829  0.4170178640942641
  0.5091870834452418  0.4995343298624820  0.2975965685726857
  0.3175222703761295  0.8927968247070681  0.7587107065695917
  0.3129278703583127  0.8515728165927242  0.6379235065197282
  0.3394742362233873  0.9155205708432083  0.1024992903856812
  0.3328431792017377  0.8768068269223050  0.9600449738202068
  0.9882863075528698  0.5547733314397068  0.4244079767716085
  0.9884783049891537  0.5108396156390089  0.3041776603954843
  0.7948486636987997  0.3221548424803528  0.7395192478737223
  0.8428236968283999  0.3162965929545067  0.6268110757084978
  0.7434443265590770  0.3512842888098481  0.0743905795912272
  0.7927757164970362  0.3397178129233495  0.9398862489444376
  0.4598874912159771  0.9844022707597293  0.4254985031054904
  0.5048119753803280  0.9817274432237625  0.3046781850013908
  0.6566437042389481  0.4918366509831452  0.5207103206344044
  0.8402162716952836  0.1373607435467642  0.4007742055169507
  0.7659218766172361  0.2184422025728856  0.9310346685278212
  0.1446684657533508  0.1603596869653062  0.5232510095623667
  0.4707507180268548  0.4991306754901829  0.8458696254660911
  0.6922303753231206  0.1462118249337153  0.5141683020966558
  0.0300375890887208  0.4738780013743573  0.8507418254374192
  0.1625881557099136  0.6925022375090937  0.5224081874734975
  0.5028917712261746  0.0226517260790096  0.8510675326602041
  0.1951982330906459  0.1616882140279162  0.8236683599266341
  0.6309587461406271  0.2006945735538787  0.8211367222471627
  0.1641623094853370  0.6416987117445442  0.8211403119018157
  0.8123182166653476  0.8359267560292432  0.1813194713740754
  0.3558224627580511  0.8101797148662837  0.1822953600378616
  0.8383343960124405  0.3590325765372608  0.1685135027112287
  0.8645443304164196  0.8371982042229130  0.4819407187035268
  0.5198593700176972  0.5000217586623242  0.1431347180323677
  0.3009848874864899  0.8629185159314597  0.4840778058866497
  0.9768276995883280  0.5213445440623319  0.1497942411875831
  0.8466434727158616  0.3026302893624128  0.4730166849814315
  0.5054217128370413  0.9700856275244384  0.1505424599797582
  0.3081846893810686  0.6432086157552894  0.5291390380034980
  0.0537127619458480  0.3092703373838203  0.5293359878088287
  0.6430081143866090  0.0463738060165859  0.5258506924916292
  0.0160163950868068  0.6963997272004432  0.8246436817618232
  0.3583537581405661  0.0220832384492797  0.1440167741691467
  0.2893571152266255  0.0147271610477664  0.8272354270562661
  0.6239781850416356  0.3560601383006008  0.1232723453690646
  0.7034099088617375  0.2816142280703193  0.8297125812240014
  0.0232379490397946  0.6203207520179960  0.1430287270012792
  0.6504456221226811  0.9765029136426284  0.8591244432348198
  0.9907078210561787  0.2984828191324269  0.1761693914230379
  0.3762729479260541  0.6473130746530398  0.8554847560388479
  0.7126361271185101  0.9844363417468889  0.1920992821452085
  0.9837843977349392  0.3750170818659974  0.8568975928714545
  0.3037953346824653  0.7163658687560834  0.1917377990518717
  0.6764253448526171  0.3696467956210992  0.4982411372128400
  0.9532839492548202  0.6861328872273461  0.4717817210577295
  0.3619557391184999  0.9523015566411009  0.4738941559547366
  0.7432323336480785  0.4211572759510546  0.3942759950568013
  0.6406035923786219  0.4748541072739462  0.8366186971048668
  0.7720761585001739  0.2739986957217070  0.3996232106956236
 
  0.00000000E+00  0.00000000E+00  0.00000000E+00
  0.00000000E+00  0.00000000E+00  0.00000000E+00
  0.00000000E+00  0.00000000E+00  0.00000000E+00
  0.00000000E+00  0.00000000E+00  0.00000000E+00
  0.00000000E+00  0.00000000E+00  0.00000000E+00
  0.00000000E+00  0.00000000E+00  0.00000000E+00
  0.00000000E+00  0.00000000E+00  0.00000000E+00
  0.00000000E+00  0.00000000E+00  0.00000000E+00
  0.00000000E+00  0.00000000E+00  0.00000000E+00
  0.00000000E+00  0.00000000E+00  0.00000000E+00
  0.00000000E+00  0.00000000E+00  0.00000000E+00
  0.00000000E+00  0.00000000E+00  0.00000000E+00
  0.00000000E+00  0.00000000E+00  0.00000000E+00
  0.00000000E+00  0.00000000E+00  0.00000000E+00
  0.00000000E+00  0.00000000E+00  0.00000000E+00
  0.00000000E+00  0.00000000E+00  0.00000000E+00
  0.00000000E+00  0.00000000E+00  0.00000000E+00
  0.00000000E+00  0.00000000E+00  0.00000000E+00
  0.00000000E+00  0.00000000E+00  0.00000000E+00
  0.00000000E+00  0.00000000E+00  0.00000000E+00
  0.00000000E+00  0.00000000E+00  0.00000000E+00
  0.00000000E+00  0.00000000E+00  0.00000000E+00
  0.00000000E+00  0.00000000E+00  0.00000000E+00
  0.00000000E+00  0.00000000E+00  0.00000000E+00
  0.00000000E+00  0.00000000E+00  0.00000000E+00
  0.00000000E+00  0.00000000E+00  0.00000000E+00
  0.00000000E+00  0.00000000E+00  0.00000000E+00
  0.00000000E+00  0.00000000E+00  0.00000000E+00
  0.00000000E+00  0.00000000E+00  0.00000000E+00
  0.00000000E+00  0.00000000E+00  0.00000000E+00
  0.00000000E+00  0.00000000E+00  0.00000000E+00
  0.00000000E+00  0.00000000E+00  0.00000000E+00
  0.00000000E+00  0.00000000E+00  0.00000000E+00
  0.00000000E+00  0.00000000E+00  0.00000000E+00
  0.00000000E+00  0.00000000E+00  0.00000000E+00
  0.00000000E+00  0.00000000E+00  0.00000000E+00
  0.00000000E+00  0.00000000E+00  0.00000000E+00
  0.00000000E+00  0.00000000E+00  0.00000000E+00
  0.00000000E+00  0.00000000E+00  0.00000000E+00
  0.00000000E+00  0.00000000E+00  0.00000000E+00
  0.00000000E+00  0.00000000E+00  0.00000000E+00
  0.00000000E+00  0.00000000E+00  0.00000000E+00
  0.00000000E+00  0.00000000E+00  0.00000000E+00
  0.00000000E+00  0.00000000E+00  0.00000000E+00
  0.00000000E+00  0.00000000E+00  0.00000000E+00
  0.00000000E+00  0.00000000E+00  0.00000000E+00
  0.00000000E+00  0.00000000E+00  0.00000000E+00
  0.00000000E+00  0.00000000E+00  0.00000000E+00
  0.00000000E+00  0.00000000E+00  0.00000000E+00
  0.00000000E+00  0.00000000E+00  0.00000000E+00
  0.00000000E+00  0.00000000E+00  0.00000000E+00
  0.00000000E+00  0.00000000E+00  0.00000000E+00
  0.00000000E+00  0.00000000E+00  0.00000000E+00
  0.00000000E+00  0.00000000E+00  0.00000000E+00
  0.00000000E+00  0.00000000E+00  0.00000000E+00
  0.00000000E+00  0.00000000E+00  0.00000000E+00
  0.00000000E+00  0.00000000E+00  0.00000000E+00
  0.00000000E+00  0.00000000E+00  0.00000000E+00
  0.00000000E+00  0.00000000E+00  0.00000000E+00
  0.00000000E+00  0.00000000E+00  0.00000000E+00
  0.00000000E+00  0.00000000E+00  0.00000000E+00
  0.00000000E+00  0.00000000E+00  0.00000000E+00
  0.00000000E+00  0.00000000E+00  0.00000000E+00
  0.00000000E+00  0.00000000E+00  0.00000000E+00
  0.00000000E+00  0.00000000E+00  0.00000000E+00
  0.00000000E+00  0.00000000E+00  0.00000000E+00
  0.00000000E+00  0.00000000E+00  0.00000000E+00
  0.00000000E+00  0.00000000E+00  0.00000000E+00
  0.00000000E+00  0.00000000E+00  0.00000000E+00
  0.00000000E+00  0.00000000E+00  0.00000000E+00
  0.00000000E+00  0.00000000E+00  0.00000000E+00
  0.00000000E+00  0.00000000E+00  0.00000000E+00
  0.00000000E+00  0.00000000E+00  0.00000000E+00
  0.00000000E+00  0.00000000E+00  0.00000000E+00
  0.00000000E+00  0.00000000E+00  0.00000000E+00
  0.00000000E+00  0.00000000E+00  0.00000000E+00
  0.00000000E+00  0.00000000E+00  0.00000000E+00
  0.00000000E+00  0.00000000E+00  0.00000000E+00
  0.00000000E+00  0.00000000E+00  0.00000000E+00
  0.00000000E+00  0.00000000E+00  0.00000000E+00
  0.00000000E+00  0.00000000E+00  0.00000000E+00
  0.00000000E+00  0.00000000E+00  0.00000000E+00
  0.00000000E+00  0.00000000E+00  0.00000000E+00
  0.00000000E+00  0.00000000E+00  0.00000000E+00
  0.00000000E+00  0.00000000E+00  0.00000000E+00
  0.00000000E+00  0.00000000E+00  0.00000000E+00
  0.00000000E+00  0.00000000E+00  0.00000000E+00
  0.00000000E+00  0.00000000E+00  0.00000000E+00
  0.00000000E+00  0.00000000E+00  0.00000000E+00
  0.00000000E+00  0.00000000E+00  0.00000000E+00
  0.00000000E+00  0.00000000E+00  0.00000000E+00
  0.00000000E+00  0.00000000E+00  0.00000000E+00
  0.00000000E+00  0.00000000E+00  0.00000000E+00
  0.00000000E+00  0.00000000E+00  0.00000000E+00
  0.00000000E+00  0.00000000E+00  0.00000000E+00
  0.00000000E+00  0.00000000E+00  0.00000000E+00
  0.00000000E+00  0.00000000E+00  0.00000000E+00
  0.00000000E+00  0.00000000E+00  0.00000000E+00
  0.00000000E+00  0.00000000E+00  0.00000000E+00
  0.00000000E+00  0.00000000E+00  0.00000000E+00
  0.00000000E+00  0.00000000E+00  0.00000000E+00
  0.00000000E+00  0.00000000E+00  0.00000000E+00
  0.00000000E+00  0.00000000E+00  0.00000000E+00
  0.00000000E+00  0.00000000E+00  0.00000000E+00
  0.00000000E+00  0.00000000E+00  0.00000000E+00
  0.00000000E+00  0.00000000E+00  0.00000000E+00
  0.00000000E+00  0.00000000E+00  0.00000000E+00
  0.00000000E+00  0.00000000E+00  0.00000000E+00
  0.00000000E+00  0.00000000E+00  0.00000000E+00
  0.00000000E+00  0.00000000E+00  0.00000000E+00
  0.00000000E+00  0.00000000E+00  0.00000000E+00
  0.00000000E+00  0.00000000E+00  0.00000000E+00
  0.00000000E+00  0.00000000E+00  0.00000000E+00
  0.00000000E+00  0.00000000E+00  0.00000000E+00
  0.00000000E+00  0.00000000E+00  0.00000000E+00
  0.00000000E+00  0.00000000E+00  0.00000000E+00
  0.00000000E+00  0.00000000E+00  0.00000000E+00
  0.00000000E+00  0.00000000E+00  0.00000000E+00
  0.00000000E+00  0.00000000E+00  0.00000000E+00
  0.00000000E+00  0.00000000E+00  0.00000000E+00
  0.00000000E+00  0.00000000E+00  0.00000000E+00
  0.00000000E+00  0.00000000E+00  0.00000000E+00
  0.00000000E+00  0.00000000E+00  0.00000000E+00
  0.00000000E+00  0.00000000E+00  0.00000000E+00
  0.00000000E+00  0.00000000E+00  0.00000000E+00
  0.00000000E+00  0.00000000E+00  0.00000000E+00
  0.00000000E+00  0.00000000E+00  0.00000000E+00
  0.00000000E+00  0.00000000E+00  0.00000000E+00
  0.00000000E+00  0.00000000E+00  0.00000000E+00
  0.00000000E+00  0.00000000E+00  0.00000000E+00
  0.00000000E+00  0.00000000E+00  0.00000000E+00
  0.00000000E+00  0.00000000E+00  0.00000000E+00
  0.00000000E+00  0.00000000E+00  0.00000000E+00
  0.00000000E+00  0.00000000E+00  0.00000000E+00
  0.00000000E+00  0.00000000E+00  0.00000000E+00
  0.00000000E+00  0.00000000E+00  0.00000000E+00
  0.00000000E+00  0.00000000E+00  0.00000000E+00
  0.00000000E+00  0.00000000E+00  0.00000000E+00
  0.00000000E+00  0.00000000E+00  0.00000000E+00
  0.00000000E+00  0.00000000E+00  0.00000000E+00
  0.00000000E+00  0.00000000E+00  0.00000000E+00
  0.00000000E+00  0.00000000E+00  0.00000000E+00
  0.00000000E+00  0.00000000E+00  0.00000000E+00
  0.00000000E+00  0.00000000E+00  0.00000000E+00
  0.00000000E+00  0.00000000E+00  0.00000000E+00
  0.00000000E+00  0.00000000E+00  0.00000000E+00
  0.00000000E+00  0.00000000E+00  0.00000000E+00
  0.00000000E+00  0.00000000E+00  0.00000000E+00
  0.00000000E+00  0.00000000E+00  0.00000000E+00
  0.00000000E+00  0.00000000E+00  0.00000000E+00
  0.00000000E+00  0.00000000E+00  0.00000000E+00
  0.00000000E+00  0.00000000E+00  0.00000000E+00
  0.00000000E+00  0.00000000E+00  0.00000000E+00
  0.00000000E+00  0.00000000E+00  0.00000000E+00
  0.00000000E+00  0.00000000E+00  0.00000000E+00
  0.00000000E+00  0.00000000E+00  0.00000000E+00
  0.00000000E+00  0.00000000E+00  0.00000000E+00
  0.00000000E+00  0.00000000E+00  0.00000000E+00
  0.00000000E+00  0.00000000E+00  0.00000000E+00
  0.00000000E+00  0.00000000E+00  0.00000000E+00
  0.00000000E+00  0.00000000E+00  0.00000000E+00
  0.00000000E+00  0.00000000E+00  0.00000000E+00
  0.00000000E+00  0.00000000E+00  0.00000000E+00
  0.00000000E+00  0.00000000E+00  0.00000000E+00
  0.00000000E+00  0.00000000E+00  0.00000000E+00
  0.00000000E+00  0.00000000E+00  0.00000000E+00
  0.00000000E+00  0.00000000E+00  0.00000000E+00
  0.00000000E+00  0.00000000E+00  0.00000000E+00
  0.00000000E+00  0.00000000E+00  0.00000000E+00
  0.00000000E+00  0.00000000E+00  0.00000000E+00
  0.00000000E+00  0.00000000E+00  0.00000000E+00
  0.00000000E+00  0.00000000E+00  0.00000000E+00
  0.00000000E+00  0.00000000E+00  0.00000000E+00
  0.00000000E+00  0.00000000E+00  0.00000000E+00
