O  C  H  Co Li                          
   1.00000000000000     
    25.9869300222800774    0.0014776472087939   -0.0002841704448074
    12.9947443186480527   22.5035161465627063   -0.0005769115704474
    -0.0000740905812471   -0.0001328080293999    6.8098320633878924
   O    C    H    Co   Li
    58    74    18    18     2
Direct
  0.0617307764525817  0.2522726760436675  0.3192213148304990
  0.0380722054551772  0.2967819242793749  0.9565109539696868
  0.1067826941692642  0.2573505761815522  0.7223998564804585
  0.3944333767846760  0.5846726396105417  0.6602125397100813
  0.6889257786179229  0.0608301215800398  0.3223563497187157
  0.6684907525192059  0.0361501585872520  0.9602678295583089
  0.6388581392926234  0.1046724626495270  0.7250127291139434
  0.0242679710612636  0.3921003769113829  0.6522240737918347
  0.2549656795737594  0.6863130568326633  0.3246662888744484
  0.3002595684265590  0.6647194286992419  0.9652134060498955
  0.2599459515174834  0.6374288011961780  0.7275657907101508
  0.5875637805114100  0.0217530429661403  0.6548443927377660
  0.2997351744619959  0.0327017359973394  0.3709600117497622
  0.2319362632741813  0.0739540446242332  0.6088231710547843
  0.6279136020274567  0.3567554325578035  0.7038509651550167
  0.5629195539293161  0.4061304605550898  0.9438685092641039
  0.2767424471737179  0.0794435618038402  0.0137947324848911
  0.6819113068871557  0.2942111626436922  0.3599475331950419
  0.6994659471982183  0.2288825460414470  0.6026258757169560
  0.0028221235874822  0.6312441425505827  0.7047718418655196
  0.0322464392230671  0.5624697672830130  0.9399132277018132
  0.6464221642767255  0.2748296836488059  0.0100324943770764
  0.0354269858133654  0.6680221387045031  0.3720813577838999
  0.0755414276533259  0.6963403327180686  0.6083238832324567
  0.3704226204539609 -0.0005349947114836  0.7061194490425710
  0.4100108592752520  0.0288244344952890  0.9407900924501124
  0.0811272632456021  0.6459590067665176  0.0139461428793480
  0.7032291358059235  0.9652868993630597  0.6272873943538456
  0.7718018803083945  0.9259506102621172  0.3925787968573052
  0.3713846455815179  0.6307677916821491  0.2998920009357400
  0.4387564710614428  0.5891384181619467  0.0619852614640576
  0.7273948121291370  0.9205917137093071  0.9898870402401558
  0.3352485171265209  0.7012412508838511  0.6320615753372374
  0.3066623454255885  0.7692736006795776  0.3954940471143299
  0.0039504698696598  0.3681580705418804  0.2902988176485842
  0.9751828037570288  0.4364738898763784  0.0549105492402800
  0.3560221352947746  0.7254108989488705  0.9925383400646066
  0.9678089442786715  0.3321043453852141  0.6241752138895352
  0.9251944956421942  0.3080365569740682  0.3845395044583824
  0.6319922171019433  0.0017144906853027  0.2926639005643573
  0.5933525484881480  0.9716392163662487  0.0580559569388008
  0.9218359320223852  0.3553204973992935  0.9836098560348686
  0.9416703715363131  0.7474895384407283  0.6811161730349429
  0.9650041155063380  0.7006372542240931  0.0374831683660209
  0.8973861473981020  0.7416178501162984  0.2760031674026519
  0.6055100584021275  0.4082658026517264  0.3434922093123849
  0.3131946847212836  0.9405288101932729  0.6808673147025357
  0.3371836766948070  0.9635031442196013  0.0386569150864486
  0.3661994685422255  0.8950476776165390  0.2748862830584649
  0.9788859246421068  0.6085903687337546  0.3461777243846536
  0.7487935326230266  0.3132599088789887  0.6783757599348557
  0.6984134454405644  0.3446326043712323  0.0267980085549081
  0.7410709088990132  0.3672748974480555  0.2713814351935588
  0.4158089446070133  0.9777976408606812  0.3470501192926944
  0.6727230645751110  0.4407203878399018  0.6245056889182409
  0.6134271426217101  0.5393706111374285  0.5982238211868971
  0.7020957859639995  0.4944250494936714  0.4388836829074457
  0.8209468251267815  0.1729708219633325  0.9956604161029057
  0.1134003438584542  0.2108051583927524  0.2400532977922668
  0.1543786626553034  0.1652093102555644  0.3617579069451888
  0.0898254936061186  0.2570115079772933  0.8969711227714708
  0.1290551786212924  0.2106026841440144  0.0383757431442350
  0.4450232091120299  0.5421851792848422  0.5792594758225597
  0.4855635306099315  0.4952618075533009  0.6979278900084516
  0.6788694981918922  0.1122258603531425  0.2417109955863611
  0.6845461067348451  0.1530826263104211  0.3609782767194294
  0.6561144493651090  0.0879140729535360  0.8998028567301640
  0.6629552291321213  0.1275576349495616  0.0401315789738448
  0.0135259642073322  0.4440556530827219  0.5730287991341485
  0.0174724813144328  0.4853488720996911  0.6945330812224287
  0.2133770664575233  0.6763968381845546  0.2446203332678830
  0.1675737516447537  0.6811452236272441  0.3649085552297204
  0.2599642401674764  0.6538617044060683  0.9031071009486029
  0.2131939738058646  0.6612121855770512  0.0428056940418319
  0.5465891680060513  0.0109691344231100  0.5750526094045250
  0.5012011958000088  0.0149653384982969  0.6959602888776093
  0.2489096047340101  0.0733360950415210  0.4329903783103075
  0.2092925742386215  0.1204201557777964  0.2935183705358272
  0.5791551427226898  0.4004297583523880  0.7641394847265123
  0.5395618606012436  0.4488561380908220  0.6256226027045084
  0.2249150847939487  0.1204579202396524  0.0922543863573712
  0.1839870133384080  0.1659521175655424  0.9703188124263967
  0.6855089853687111  0.2462509264558763  0.4270175843326286
  0.6746850258529733  0.2077087417251384  0.2908237060662516
  0.0142251758946050  0.5799329299299799  0.7654238667976240
  0.0066225613355444  0.5405390448984567  0.6261047059834700
  0.6574484523800205  0.2233709510210063  0.0909948784400595
  0.6523262541516169  0.1824284135499740  0.9706918422766438
  0.0756547703465260  0.6790341249098791  0.4334243621472367
  0.1227250686297908  0.6713751765161351  0.2946820622881809
  0.4102742665244737  0.0112396025612260  0.7661648496396480
  0.4569248329540915  0.0041987487098783  0.6267377082350570
  0.1226027177993614  0.6560536808687158  0.0930031372202912
  0.1684431805994714  0.6513325390464111  0.9726461502967524
  0.7548974701131771  0.9256028176629915  0.5672632413887292
  0.7942199881184968  0.8790344911300982  0.7082139887716331
  0.4218308339435955  0.5895066950947797  0.2371640570509324
  0.4599999257009285  0.5417668730245656  0.3767597277567005
  0.7787501718172360  0.8790815109842215  0.9100580895629904
  0.8197248033433128  0.8331746280488282  0.0308641151310580
  0.3235569427144469  0.7527513016794415  0.5706278856370139
  0.3303882107711444  0.7924147783411957  0.7107722500991240
  0.9919214272190244  0.4199003265447804  0.2301207449495921
  0.9982472643205356  0.4595866566989598  0.3714853280187860
  0.3456455770503399  0.7771221909152539  0.9124238065363814
  0.3501133578095006  0.8183375115274995  0.0326966886094375
  0.9265826835666167  0.3229445230110206  0.5612636306859528
  0.8797903240953358  0.3306413387319831  0.7019198783607374
  0.5928105183771991  0.9889723794245920  0.2327537275078294
  0.5465869720135298  0.9954196623623035  0.3734567451262604
  0.8802007288577655  0.3458664915919881  0.9030490935086752
  0.8340684742395260  0.3510091783045018  0.0233829421794451
  0.8898815691993702  0.7886253450335677  0.7602236642734342
  0.8489576428675967  0.8343021237033014  0.6390830628049953
  0.9141673063981509  0.7412151685000775  0.1001537879965746
  0.8744752471106786  0.7884129468276450  0.9615667346112231
  0.5540275660467935  0.4491775453396613  0.4234217532671672
  0.5134627234422245  0.4958579970818323  0.3052834608385849
  0.3241874165037980  0.8886449030673618  0.7611452661223127
  0.3198544520184004  0.8473331084304485  0.6409344946504197
  0.3481420339796162  0.9124180423542937  0.1003999508170242
  0.3399462581634172  0.8731384315328045  0.9625379609640305
  0.9906536835078513  0.5563355156134686  0.4250514540239302
  0.9869909758205787  0.5149039337284482  0.3033905624224302
  0.7892076027018012  0.3247972009359495  0.7555038934444680
  0.8350222965410682  0.3200590980213592  0.6341644581672861
  0.7403503661038084  0.3515059354062143  0.0947116181385849
  0.7889107926211010  0.3414744951210500  0.9566229649227581
  0.4569853516602798  0.9885574498912977  0.4253725262376963
  0.5024559645969073  0.9844111258825072  0.3044185680731846
  0.6621843896208260  0.4949971919561335  0.5454541942029720
  0.7776486548450935  0.2114792483761320  0.9314961996352896
  0.1427504200544898  0.1650532266298848  0.5155238468652226
  0.4740807959620673  0.4947594404859138  0.8516959960455089
  0.6973843415827189  0.1412974231640090  0.5140045258224213
  0.0293315018644680  0.4738571009378291  0.8483215597313264
  0.1671951035349671  0.6928003497382110  0.5189552866135392
  0.5007832586158262  0.0267834728458219  0.8498322561354873
  0.1957177955979181  0.1661263141523467  0.8166388760303959
  0.6400930382500547  0.1940816946041477  0.8171043390539099
  0.1688981065357826  0.6396573429384956  0.8185425024354896
  0.8081787838158434  0.8328649265889497  0.1846344436270803
  0.3620601889348810  0.8069984054512398  0.1865282274157476
  0.8351431586807619  0.3622488958620311  0.1769707148071309
  0.8604742856427319  0.8347439933493075  0.4853108131929199
  0.5244566763039382  0.4962712095570485  0.1511371563738418
  0.3079983935463055  0.8585714084030766  0.4869375825417150
  0.9749754973317941  0.5264427989841167  0.1496793515262003
  0.8369932726734676  0.3051382424424677  0.4827388217901128
  0.5031776472088562  0.9723044844592816  0.1506645384117953
  0.3149732630728987  0.6413085158760899  0.5286519825826419
  0.0479767202233145  0.3125635196601361  0.5216616916480330
  0.6431821045269394  0.0457839764033575  0.5244085009268592
  0.0224265265347123  0.6926174399541687  0.8086240347866703
  0.3576217186166578  0.0243313209374216  0.1421854797585891
  0.2888979730224325  0.0208426638304459  0.8116662504434128
  0.6233714347008095  0.3513340083317714  0.1350166729676030
  0.7107333863879755  0.2733020664277016  0.8246929375483212
  0.0267046949758244  0.6194242772084438  0.1439449872283001
  0.6479107889855601  0.9760748444557944  0.8583496487911614
  0.9827355826923857  0.3088599161051627  0.1873920622045721
  0.3801359528409439  0.6458481565093305  0.8626678299536058
  0.7127467139584778  0.9812999740972527  0.1928289478985614
  0.9786934960106970  0.3776657454810954  0.8552474778500073
  0.3106543930296282  0.7102936323161024  0.1954103838497342
  0.6818250102640490  0.3672934963600900  0.5019788730425971
  0.9542442004782503  0.6889624566455964  0.4789591310299908
  0.3613711789247039  0.9513165873236415  0.4787864037127649
  0.7563422248191896  0.4155699073759740  0.4424328115095983
  0.5980860163812423  0.4937313886823228  0.7648606825058691
 
  0.00000000E+00  0.00000000E+00  0.00000000E+00
  0.00000000E+00  0.00000000E+00  0.00000000E+00
  0.00000000E+00  0.00000000E+00  0.00000000E+00
  0.00000000E+00  0.00000000E+00  0.00000000E+00
  0.00000000E+00  0.00000000E+00  0.00000000E+00
  0.00000000E+00  0.00000000E+00  0.00000000E+00
  0.00000000E+00  0.00000000E+00  0.00000000E+00
  0.00000000E+00  0.00000000E+00  0.00000000E+00
  0.00000000E+00  0.00000000E+00  0.00000000E+00
  0.00000000E+00  0.00000000E+00  0.00000000E+00
  0.00000000E+00  0.00000000E+00  0.00000000E+00
  0.00000000E+00  0.00000000E+00  0.00000000E+00
  0.00000000E+00  0.00000000E+00  0.00000000E+00
  0.00000000E+00  0.00000000E+00  0.00000000E+00
  0.00000000E+00  0.00000000E+00  0.00000000E+00
  0.00000000E+00  0.00000000E+00  0.00000000E+00
  0.00000000E+00  0.00000000E+00  0.00000000E+00
  0.00000000E+00  0.00000000E+00  0.00000000E+00
  0.00000000E+00  0.00000000E+00  0.00000000E+00
  0.00000000E+00  0.00000000E+00  0.00000000E+00
  0.00000000E+00  0.00000000E+00  0.00000000E+00
  0.00000000E+00  0.00000000E+00  0.00000000E+00
  0.00000000E+00  0.00000000E+00  0.00000000E+00
  0.00000000E+00  0.00000000E+00  0.00000000E+00
  0.00000000E+00  0.00000000E+00  0.00000000E+00
  0.00000000E+00  0.00000000E+00  0.00000000E+00
  0.00000000E+00  0.00000000E+00  0.00000000E+00
  0.00000000E+00  0.00000000E+00  0.00000000E+00
  0.00000000E+00  0.00000000E+00  0.00000000E+00
  0.00000000E+00  0.00000000E+00  0.00000000E+00
  0.00000000E+00  0.00000000E+00  0.00000000E+00
  0.00000000E+00  0.00000000E+00  0.00000000E+00
  0.00000000E+00  0.00000000E+00  0.00000000E+00
  0.00000000E+00  0.00000000E+00  0.00000000E+00
  0.00000000E+00  0.00000000E+00  0.00000000E+00
  0.00000000E+00  0.00000000E+00  0.00000000E+00
  0.00000000E+00  0.00000000E+00  0.00000000E+00
  0.00000000E+00  0.00000000E+00  0.00000000E+00
  0.00000000E+00  0.00000000E+00  0.00000000E+00
  0.00000000E+00  0.00000000E+00  0.00000000E+00
  0.00000000E+00  0.00000000E+00  0.00000000E+00
  0.00000000E+00  0.00000000E+00  0.00000000E+00
  0.00000000E+00  0.00000000E+00  0.00000000E+00
  0.00000000E+00  0.00000000E+00  0.00000000E+00
  0.00000000E+00  0.00000000E+00  0.00000000E+00
  0.00000000E+00  0.00000000E+00  0.00000000E+00
  0.00000000E+00  0.00000000E+00  0.00000000E+00
  0.00000000E+00  0.00000000E+00  0.00000000E+00
  0.00000000E+00  0.00000000E+00  0.00000000E+00
  0.00000000E+00  0.00000000E+00  0.00000000E+00
  0.00000000E+00  0.00000000E+00  0.00000000E+00
  0.00000000E+00  0.00000000E+00  0.00000000E+00
  0.00000000E+00  0.00000000E+00  0.00000000E+00
  0.00000000E+00  0.00000000E+00  0.00000000E+00
  0.00000000E+00  0.00000000E+00  0.00000000E+00
  0.00000000E+00  0.00000000E+00  0.00000000E+00
  0.00000000E+00  0.00000000E+00  0.00000000E+00
  0.00000000E+00  0.00000000E+00  0.00000000E+00
  0.00000000E+00  0.00000000E+00  0.00000000E+00
  0.00000000E+00  0.00000000E+00  0.00000000E+00
  0.00000000E+00  0.00000000E+00  0.00000000E+00
  0.00000000E+00  0.00000000E+00  0.00000000E+00
  0.00000000E+00  0.00000000E+00  0.00000000E+00
  0.00000000E+00  0.00000000E+00  0.00000000E+00
  0.00000000E+00  0.00000000E+00  0.00000000E+00
  0.00000000E+00  0.00000000E+00  0.00000000E+00
  0.00000000E+00  0.00000000E+00  0.00000000E+00
  0.00000000E+00  0.00000000E+00  0.00000000E+00
  0.00000000E+00  0.00000000E+00  0.00000000E+00
  0.00000000E+00  0.00000000E+00  0.00000000E+00
  0.00000000E+00  0.00000000E+00  0.00000000E+00
  0.00000000E+00  0.00000000E+00  0.00000000E+00
  0.00000000E+00  0.00000000E+00  0.00000000E+00
  0.00000000E+00  0.00000000E+00  0.00000000E+00
  0.00000000E+00  0.00000000E+00  0.00000000E+00
  0.00000000E+00  0.00000000E+00  0.00000000E+00
  0.00000000E+00  0.00000000E+00  0.00000000E+00
  0.00000000E+00  0.00000000E+00  0.00000000E+00
  0.00000000E+00  0.00000000E+00  0.00000000E+00
  0.00000000E+00  0.00000000E+00  0.00000000E+00
  0.00000000E+00  0.00000000E+00  0.00000000E+00
  0.00000000E+00  0.00000000E+00  0.00000000E+00
  0.00000000E+00  0.00000000E+00  0.00000000E+00
  0.00000000E+00  0.00000000E+00  0.00000000E+00
  0.00000000E+00  0.00000000E+00  0.00000000E+00
  0.00000000E+00  0.00000000E+00  0.00000000E+00
  0.00000000E+00  0.00000000E+00  0.00000000E+00
  0.00000000E+00  0.00000000E+00  0.00000000E+00
  0.00000000E+00  0.00000000E+00  0.00000000E+00
  0.00000000E+00  0.00000000E+00  0.00000000E+00
  0.00000000E+00  0.00000000E+00  0.00000000E+00
  0.00000000E+00  0.00000000E+00  0.00000000E+00
  0.00000000E+00  0.00000000E+00  0.00000000E+00
  0.00000000E+00  0.00000000E+00  0.00000000E+00
  0.00000000E+00  0.00000000E+00  0.00000000E+00
  0.00000000E+00  0.00000000E+00  0.00000000E+00
  0.00000000E+00  0.00000000E+00  0.00000000E+00
  0.00000000E+00  0.00000000E+00  0.00000000E+00
  0.00000000E+00  0.00000000E+00  0.00000000E+00
  0.00000000E+00  0.00000000E+00  0.00000000E+00
  0.00000000E+00  0.00000000E+00  0.00000000E+00
  0.00000000E+00  0.00000000E+00  0.00000000E+00
  0.00000000E+00  0.00000000E+00  0.00000000E+00
  0.00000000E+00  0.00000000E+00  0.00000000E+00
  0.00000000E+00  0.00000000E+00  0.00000000E+00
  0.00000000E+00  0.00000000E+00  0.00000000E+00
  0.00000000E+00  0.00000000E+00  0.00000000E+00
  0.00000000E+00  0.00000000E+00  0.00000000E+00
  0.00000000E+00  0.00000000E+00  0.00000000E+00
  0.00000000E+00  0.00000000E+00  0.00000000E+00
  0.00000000E+00  0.00000000E+00  0.00000000E+00
  0.00000000E+00  0.00000000E+00  0.00000000E+00
  0.00000000E+00  0.00000000E+00  0.00000000E+00
  0.00000000E+00  0.00000000E+00  0.00000000E+00
  0.00000000E+00  0.00000000E+00  0.00000000E+00
  0.00000000E+00  0.00000000E+00  0.00000000E+00
  0.00000000E+00  0.00000000E+00  0.00000000E+00
  0.00000000E+00  0.00000000E+00  0.00000000E+00
  0.00000000E+00  0.00000000E+00  0.00000000E+00
  0.00000000E+00  0.00000000E+00  0.00000000E+00
  0.00000000E+00  0.00000000E+00  0.00000000E+00
  0.00000000E+00  0.00000000E+00  0.00000000E+00
  0.00000000E+00  0.00000000E+00  0.00000000E+00
  0.00000000E+00  0.00000000E+00  0.00000000E+00
  0.00000000E+00  0.00000000E+00  0.00000000E+00
  0.00000000E+00  0.00000000E+00  0.00000000E+00
  0.00000000E+00  0.00000000E+00  0.00000000E+00
  0.00000000E+00  0.00000000E+00  0.00000000E+00
  0.00000000E+00  0.00000000E+00  0.00000000E+00
  0.00000000E+00  0.00000000E+00  0.00000000E+00
  0.00000000E+00  0.00000000E+00  0.00000000E+00
  0.00000000E+00  0.00000000E+00  0.00000000E+00
  0.00000000E+00  0.00000000E+00  0.00000000E+00
  0.00000000E+00  0.00000000E+00  0.00000000E+00
  0.00000000E+00  0.00000000E+00  0.00000000E+00
  0.00000000E+00  0.00000000E+00  0.00000000E+00
  0.00000000E+00  0.00000000E+00  0.00000000E+00
  0.00000000E+00  0.00000000E+00  0.00000000E+00
  0.00000000E+00  0.00000000E+00  0.00000000E+00
  0.00000000E+00  0.00000000E+00  0.00000000E+00
  0.00000000E+00  0.00000000E+00  0.00000000E+00
  0.00000000E+00  0.00000000E+00  0.00000000E+00
  0.00000000E+00  0.00000000E+00  0.00000000E+00
  0.00000000E+00  0.00000000E+00  0.00000000E+00
  0.00000000E+00  0.00000000E+00  0.00000000E+00
  0.00000000E+00  0.00000000E+00  0.00000000E+00
  0.00000000E+00  0.00000000E+00  0.00000000E+00
  0.00000000E+00  0.00000000E+00  0.00000000E+00
  0.00000000E+00  0.00000000E+00  0.00000000E+00
  0.00000000E+00  0.00000000E+00  0.00000000E+00
  0.00000000E+00  0.00000000E+00  0.00000000E+00
  0.00000000E+00  0.00000000E+00  0.00000000E+00
  0.00000000E+00  0.00000000E+00  0.00000000E+00
  0.00000000E+00  0.00000000E+00  0.00000000E+00
  0.00000000E+00  0.00000000E+00  0.00000000E+00
  0.00000000E+00  0.00000000E+00  0.00000000E+00
  0.00000000E+00  0.00000000E+00  0.00000000E+00
  0.00000000E+00  0.00000000E+00  0.00000000E+00
  0.00000000E+00  0.00000000E+00  0.00000000E+00
  0.00000000E+00  0.00000000E+00  0.00000000E+00
  0.00000000E+00  0.00000000E+00  0.00000000E+00
  0.00000000E+00  0.00000000E+00  0.00000000E+00
  0.00000000E+00  0.00000000E+00  0.00000000E+00
  0.00000000E+00  0.00000000E+00  0.00000000E+00
  0.00000000E+00  0.00000000E+00  0.00000000E+00
  0.00000000E+00  0.00000000E+00  0.00000000E+00
  0.00000000E+00  0.00000000E+00  0.00000000E+00
  0.00000000E+00  0.00000000E+00  0.00000000E+00
  0.00000000E+00  0.00000000E+00  0.00000000E+00
  0.00000000E+00  0.00000000E+00  0.00000000E+00
