 running on   24 total cores
 distrk:  each k-point on   24 cores,    1 groups
 distr:  one band on   12 cores,    2 groups
 using from now: INCAR     
 vasp.5.4.4.18Apr17-6-g9f103f2a35 (build May 21 2019 18:34:56) complex          
  
 POSCAR found type information on POSCAR  O  C  H  Co Li
 POSCAR found :  5 types and     170 ions

 ----------------------------------------------------------------------------- 
|                                                                             |
|           W    W    AA    RRRRR   N    N  II  N    N   GGGG   !!!           |
|           W    W   A  A   R    R  NN   N  II  NN   N  G    G  !!!           |
|           W    W  A    A  R    R  N N  N  II  N N  N  G       !!!           |
|           W WW W  AAAAAA  RRRRR   N  N N  II  N  N N  G  GGG   !            |
|           WW  WW  A    A  R   R   N   NN  II  N   NN  G    G                |
|           W    W  A    A  R    R  N    N  II  N    N   GGGG   !!!           |
|                                                                             |
|      For optimal performance we recommend to set                            |
|        NCORE= 4 - approx SQRT( number of cores)                             |
|      NCORE specifies how many cores store one orbital (NPAR=cpu/NCORE).     |
|      This setting can  greatly improve the performance of VASP for DFT.     |
|      The default,   NCORE=1            might be grossly inefficient         |
|      on modern multi-core architectures or massively parallel machines.     |
|      Do your own testing !!!!                                               |
|      Unfortunately you need to use the default for GW and RPA calculations. |
|      (for HF NCORE is supported but not extensively tested yet)             |
|                                                                             |
 ----------------------------------------------------------------------------- 

 LDA part: xc-table for Pade appr. of Perdew
 POSCAR found type information on POSCAR  O  C  H  Co Li
 POSCAR found :  5 types and     170 ions
 POSCAR, INCAR and KPOINTS ok, starting setup
 FFT: planning ...
 WAVECAR not read
 WARNING: random wavefunctions but no delay for mixing, default for NELMDL
 entering main loop
       N       E                     dE             d eps       ncg     rms          rms(c)
DAV:   1     0.890450517916E+04    0.89045E+04   -0.35341E+05  2112   0.137E+03
DAV:   2     0.807363406907E+03   -0.80971E+04   -0.73003E+04  2496   0.424E+02
DAV:   3    -0.128691838865E+04   -0.20943E+04   -0.19831E+04  3456   0.215E+02
DAV:   4    -0.144732658655E+04   -0.16041E+03   -0.14890E+03  3248   0.673E+01
DAV:   5    -0.145642210827E+04   -0.90955E+01   -0.84098E+01  3520   0.151E+01    0.161E+02
RMM:   6    -0.196561383912E+04   -0.50919E+03   -0.35203E+03  2865   0.134E+02    0.528E+02
RMM:   7    -0.173056640164E+04    0.23505E+03   -0.25980E+02  2126   0.457E+01    0.326E+02
RMM:   8    -0.129209820395E+04    0.43847E+03   -0.56327E+02  2341   0.472E+01    0.115E+02
RMM:   9    -0.140580893869E+04   -0.11371E+03   -0.14020E+02  2333   0.233E+01    0.172E+02
RMM:  10    -0.146825614446E+04   -0.62447E+02   -0.87800E+01  2303   0.199E+01    0.189E+02
RMM:  11    -0.133484435626E+04    0.13341E+03   -0.58376E+01  2149   0.170E+01    0.124E+02
RMM:  12    -0.140829717548E+04   -0.73453E+02   -0.67352E+01  2148   0.182E+01    0.139E+02
RMM:  13    -0.134579852690E+04    0.62499E+02   -0.69988E+01  2158   0.178E+01    0.135E+02
RMM:  14    -0.125999640299E+04    0.85802E+02   -0.55404E+01  2294   0.151E+01    0.104E+02
RMM:  15    -0.125503861846E+04    0.49578E+01   -0.47711E+01  2208   0.145E+01    0.102E+02
RMM:  16    -0.125921662276E+04   -0.41780E+01   -0.39635E+01  2273   0.130E+01    0.107E+02
RMM:  17    -0.122750092772E+04    0.31716E+02   -0.25287E+01  2244   0.107E+01    0.898E+01
RMM:  18    -0.120986126718E+04    0.17640E+02   -0.14043E+01  2283   0.752E+00    0.588E+01
RMM:  19    -0.121617118802E+04   -0.63099E+01   -0.99740E+00  2262   0.626E+00    0.753E+01
RMM:  20    -0.121018263969E+04    0.59885E+01   -0.62702E+00  2262   0.532E+00    0.525E+01
RMM:  21    -0.120630493382E+04    0.38777E+01   -0.16167E+00  2280   0.266E+00    0.451E+01
RMM:  22    -0.120569600187E+04    0.60893E+00   -0.95646E-01  2321   0.189E+00    0.381E+01
RMM:  23    -0.121054073413E+04   -0.48447E+01   -0.22841E+00  2230   0.297E+00    0.497E+01
RMM:  24    -0.120762828931E+04    0.29124E+01   -0.14117E+00  2228   0.246E+00    0.363E+01
RMM:  25    -0.120789770896E+04   -0.26942E+00   -0.25656E-01  2261   0.103E+00    0.362E+01
RMM:  26    -0.120817624844E+04   -0.27854E+00   -0.16993E-01  2315   0.781E-01    0.383E+01
RMM:  27    -0.120824027487E+04   -0.64026E-01   -0.10305E-01  2245   0.588E-01    0.394E+01
RMM:  28    -0.120816553702E+04    0.74738E-01   -0.28723E-02  2365   0.322E-01    0.396E+01
RMM:  29    -0.120823423948E+04   -0.68702E-01   -0.36612E-02  2254   0.363E-01    0.405E+01
RMM:  30    -0.120823591727E+04   -0.16778E-02   -0.19611E-02  2213   0.299E-01    0.404E+01
RMM:  31    -0.120893843229E+04   -0.70252E+00   -0.20164E-01  2226   0.823E-01    0.419E+01
RMM:  32    -0.120935484168E+04   -0.41641E+00   -0.41444E-01  2245   0.124E+00    0.375E+01
RMM:  33    -0.120950686984E+04   -0.15203E+00   -0.11637E-01  2182   0.792E-01    0.372E+01
RMM:  34    -0.120948180869E+04    0.25061E-01   -0.33789E-02  2525   0.359E-01    0.374E+01
RMM:  35    -0.120987883946E+04   -0.39703E+00   -0.26628E-01  2249   0.943E-01    0.407E+01
RMM:  36    -0.120998686581E+04   -0.10803E+00   -0.16306E-01  2235   0.926E-01    0.363E+01
RMM:  37    -0.121320417544E+04   -0.32173E+01   -0.78362E-01  2215   0.160E+00    0.399E+01
RMM:  38    -0.121380533905E+04   -0.60116E+00   -0.19753E-01  2264   0.904E-01    0.366E+01
RMM:  39    -0.121442815400E+04   -0.62281E+00   -0.32814E-01  2285   0.107E+00    0.383E+01
RMM:  40    -0.121469081462E+04   -0.26266E+00   -0.97057E-02  2238   0.656E-01    0.377E+01
RMM:  41    -0.121466076224E+04    0.30052E-01   -0.22127E-02  2671   0.236E-01    0.376E+01
RMM:  42    -0.121476021844E+04   -0.99456E-01   -0.83434E-02  2204   0.568E-01    0.365E+01
RMM:  43    -0.121420647155E+04    0.55375E+00   -0.84869E-02  2265   0.618E-01    0.355E+01
RMM:  44    -0.121403916993E+04    0.16730E+00   -0.49350E-02  2390   0.410E-01    0.358E+01
RMM:  45    -0.121318651634E+04    0.85265E+00   -0.15129E-01  2229   0.726E-01    0.342E+01
RMM:  46    -0.121280638966E+04    0.38013E+00   -0.40634E-01  2276   0.121E+00    0.333E+01
RMM:  47    -0.121353197313E+04   -0.72558E+00   -0.39431E-01  2276   0.118E+00    0.313E+01
RMM:  48    -0.121402194032E+04   -0.48997E+00   -0.57446E-01  2374   0.128E+00    0.316E+01
RMM:  49    -0.121396463525E+04    0.57305E-01   -0.45309E-01  2353   0.114E+00    0.302E+01
RMM:  50    -0.121612542708E+04   -0.21608E+01   -0.18812E+00  2214   0.247E+00    0.394E+01
RMM:  51    -0.122023568425E+04   -0.41103E+01   -0.39974E+00  2202   0.395E+00    0.509E+01
RMM:  52    -0.122188389728E+04   -0.16482E+01   -0.17789E+00  2357   0.249E+00    0.451E+01
RMM:  53    -0.122288440869E+04   -0.10005E+01   -0.73993E-01  2393   0.153E+00    0.393E+01
RMM:  54    -0.122411528076E+04   -0.12309E+01   -0.46962E-01  2384   0.118E+00    0.377E+01
RMM:  55    -0.122702923329E+04   -0.29140E+01   -0.11173E+00  2187   0.186E+00    0.383E+01
RMM:  56    -0.123326460419E+04   -0.62354E+01   -0.25222E+00  2392   0.288E+00    0.531E+01
RMM:  57    -0.123220239226E+04    0.10622E+01   -0.49330E+00  2229   0.432E+00    0.419E+01
RMM:  58    -0.123284828385E+04   -0.64589E+00   -0.93416E-01  2382   0.175E+00    0.403E+01
RMM:  59    -0.123309868281E+04   -0.25040E+00   -0.59212E-01  2299   0.137E+00    0.373E+01
RMM:  60    -0.123387228450E+04   -0.77360E+00   -0.11297E+00  2158   0.202E+00    0.396E+01
RMM:  61    -0.123482782592E+04   -0.95554E+00   -0.14359E+00  2233   0.244E+00    0.459E+01
RMM:  62    -0.123339399904E+04    0.14338E+01   -0.78957E-01  2139   0.191E+00    0.414E+01
RMM:  63    -0.123234618661E+04    0.10478E+01   -0.49486E-01  2258   0.141E+00    0.424E+01
RMM:  64    -0.123150810198E+04    0.83808E+00   -0.19672E-01  2383   0.883E-01    0.418E+01
RMM:  65    -0.123132976885E+04    0.17833E+00   -0.50058E-02  2635   0.401E-01    0.416E+01
RMM:  66    -0.123483930446E+04   -0.35095E+01   -0.14613E+00  2116   0.243E+00    0.433E+01
RMM:  67    -0.123577533367E+04   -0.93603E+00   -0.84035E-01  2167   0.199E+00    0.384E+01
RMM:  68    -0.123566327401E+04    0.11206E+00   -0.25189E-01  2231   0.107E+00    0.382E+01
RMM:  69    -0.123603413725E+04   -0.37086E+00   -0.19779E-01  2238   0.900E-01    0.422E+01
RMM:  70    -0.123633054574E+04   -0.29641E+00   -0.95553E-02  2256   0.673E-01    0.426E+01
RMM:  71    -0.123818802762E+04   -0.18575E+01   -0.87949E+00  2115   0.556E+00    0.413E+01
RMM:  72    -0.123673445458E+04    0.14536E+01   -0.24217E+00  2187   0.326E+00    0.348E+01
RMM:  73    -0.123739354192E+04   -0.65909E+00   -0.78398E-01  2470   0.164E+00    0.338E+01
RMM:  74    -0.123880017330E+04   -0.14066E+01   -0.48268E-01  2197   0.136E+00    0.340E+01
RMM:  75    -0.123886764385E+04   -0.67471E-01   -0.42501E-01  2321   0.128E+00    0.328E+01
RMM:  76    -0.124059406039E+04   -0.17264E+01   -0.12107E+00  2262   0.225E+00    0.327E+01
RMM:  77    -0.124124135645E+04   -0.64730E+00   -0.70901E-01  2280   0.174E+00    0.350E+01
RMM:  78    -0.124098351475E+04    0.25784E+00   -0.39409E-01  2228   0.132E+00    0.298E+01
RMM:  79    -0.124096979622E+04    0.13719E-01   -0.18721E-01  2294   0.900E-01    0.287E+01
RMM:  80    -0.124126196650E+04   -0.29217E+00   -0.12557E-01  2292   0.623E-01    0.258E+01
RMM:  81    -0.124184019861E+04   -0.57823E+00   -0.90703E-01  2241   0.186E+00    0.241E+01
RMM:  82    -0.124258155040E+04   -0.74135E+00   -0.47785E-01  2187   0.146E+00    0.182E+01
RMM:  83    -0.124321178390E+04   -0.63023E+00   -0.15873E-01  2383   0.820E-01    0.232E+01
RMM:  84    -0.124326548870E+04   -0.53705E-01   -0.61580E-02  2392   0.459E-01    0.221E+01
RMM:  85    -0.124321766544E+04    0.47823E-01   -0.11347E-02  2592   0.168E-01    0.219E+01
RMM:  86    -0.124417186918E+04   -0.95420E+00   -0.33008E-01  2244   0.114E+00    0.292E+01
RMM:  87    -0.124428201741E+04   -0.11015E+00   -0.30677E-01  2216   0.117E+00    0.271E+01
RMM:  88    -0.124439514120E+04   -0.11312E+00   -0.83795E-02  2212   0.695E-01    0.268E+01
RMM:  89    -0.124460829117E+04   -0.21315E+00   -0.65732E-02  2223   0.506E-01    0.264E+01
RMM:  90    -0.124462974047E+04   -0.21449E-01   -0.33751E-02  2200   0.429E-01    0.264E+01
RMM:  91    -0.124540601179E+04   -0.77627E+00   -0.43039E-01  2265   0.132E+00    0.281E+01
RMM:  92    -0.124534264479E+04    0.63367E-01   -0.18447E-01  2203   0.100E+00    0.285E+01
RMM:  93    -0.124518104387E+04    0.16160E+00   -0.84015E-02  2329   0.562E-01    0.243E+01
RMM:  94    -0.124547237226E+04   -0.29133E+00   -0.41321E-02  2212   0.399E-01    0.243E+01
RMM:  95    -0.124567584005E+04   -0.20347E+00   -0.36036E-02  2307   0.322E-01    0.230E+01
RMM:  96    -0.124632272926E+04   -0.64689E+00   -0.29272E-01  2159   0.103E+00    0.242E+01
RMM:  97    -0.124674462815E+04   -0.42190E+00   -0.24429E-01  2297   0.977E-01    0.216E+01
RMM:  98    -0.124707020660E+04   -0.32558E+00   -0.20632E-01  2399   0.850E-01    0.245E+01
RMM:  99    -0.124705686036E+04    0.13346E-01   -0.10629E-01  2308   0.629E-01    0.226E+01
RMM: 100    -0.124705542052E+04    0.14398E-02   -0.10879E-01  2331   0.608E-01    0.182E+01
RMM: 101    -0.124836181382E+04   -0.13064E+01   -0.44681E-01  2181   0.128E+00    0.200E+01
RMM: 102    -0.124795956953E+04    0.40224E+00   -0.23990E-01  2299   0.105E+00    0.176E+01
RMM: 103    -0.124848080738E+04   -0.52124E+00   -0.95188E-02  2322   0.603E-01    0.205E+01
RMM: 104    -0.124841030358E+04    0.70504E-01   -0.41011E-02  2388   0.382E-01    0.193E+01
RMM: 105    -0.124847098765E+04   -0.60684E-01   -0.26260E-02  2386   0.302E-01    0.186E+01
RMM: 106    -0.124866317315E+04   -0.19219E+00   -0.62649E-01  2208   0.159E+00    0.272E+01
RMM: 107    -0.124808407900E+04    0.57909E+00   -0.30290E-01  2259   0.115E+00    0.183E+01
RMM: 108    -0.124844401411E+04   -0.35994E+00   -0.18069E-01  2279   0.876E-01    0.194E+01
RMM: 109    -0.124853493456E+04   -0.90920E-01   -0.63798E-02  2322   0.511E-01    0.208E+01
RMM: 110    -0.124855038446E+04   -0.15450E-01   -0.17930E-02  2640   0.239E-01    0.209E+01
RMM: 111    -0.125135746882E+04   -0.28071E+01   -0.41739E-01  2216   0.128E+00    0.361E+01
RMM: 112    -0.125064711838E+04    0.71035E+00   -0.20095E-01  2204   0.105E+00    0.346E+01
RMM: 113    -0.124968846784E+04    0.95865E+00   -0.96142E-02  2448   0.563E-01    0.285E+01
RMM: 114    -0.124982541348E+04   -0.13695E+00   -0.13396E-01  2210   0.720E-01    0.258E+01
RMM: 115    -0.124974214478E+04    0.83269E-01   -0.23981E-01  2260   0.100E+00    0.202E+01
RMM: 116    -0.125017687020E+04   -0.43473E+00   -0.13368E-01  2261   0.767E-01    0.179E+01
RMM: 117    -0.125063929232E+04   -0.46242E+00   -0.11086E-01  2317   0.625E-01    0.169E+01
RMM: 118    -0.125116917144E+04   -0.52988E+00   -0.10004E-01  2426   0.521E-01    0.180E+01
RMM: 119    -0.125142024855E+04   -0.25108E+00   -0.63696E-02  2266   0.511E-01    0.193E+01
RMM: 120    -0.125144194633E+04   -0.21698E-01   -0.30743E-02  2568   0.322E-01
   1 F= -.12599751E+04 E0= -.12599474E+04  d E =-.125998E+04  mag=    21.9533
 curvature:   0.00 expect dE= 0.000E+00 dE for cont linesearch  0.000E+00
 trial: gam= 0.00000 g(F)=  0.498E+00 g(S)=  0.000E+00 ort = 0.000E+00 (trialstep = 0.100E+01)
 search vector abs. value=  0.498E+00
 bond charge predicted
       N       E                     dE             d eps       ncg     rms          rms(c)
DAV:   1    -0.125242545557E+04   -0.10052E+01   -0.17122E+02  2288   0.263E+01    0.285E+01
RMM:   2    -0.133954658892E+04   -0.87121E+02   -0.85655E+01  2179   0.176E+01    0.142E+02
RMM:   3    -0.127489145010E+04    0.64655E+02   -0.34296E+01  2127   0.145E+01    0.713E+01
RMM:   4    -0.126187809315E+04    0.13013E+02   -0.81828E+00  2174   0.709E+00    0.533E+01
RMM:   5    -0.126091525633E+04    0.96284E+00   -0.85694E+00  2222   0.616E+00    0.596E+01
RMM:   6    -0.125444854126E+04    0.64667E+01   -0.55742E+00  2324   0.461E+00    0.398E+01
RMM:   7    -0.125302724976E+04    0.14213E+01   -0.35633E+00  2290   0.384E+00    0.264E+01
RMM:   8    -0.125288015235E+04    0.14710E+00   -0.20806E+00  2329   0.283E+00    0.209E+01
RMM:   9    -0.125253083515E+04    0.34932E+00   -0.96203E-01  2297   0.218E+00    0.147E+01
RMM:  10    -0.125276803354E+04   -0.23720E+00   -0.68459E-01  2306   0.173E+00    0.144E+01
RMM:  11    -0.125264902201E+04    0.11901E+00   -0.36765E-01  2288   0.133E+00    0.102E+01
RMM:  12    -0.125267090009E+04   -0.21878E-01   -0.31302E-01  2289   0.113E+00    0.109E+01
RMM:  13    -0.125269285325E+04   -0.21953E-01   -0.20530E-01  2239   0.943E-01    0.732E+00
RMM:  14    -0.125279428298E+04   -0.10143E+00   -0.16268E-01  2335   0.819E-01    0.971E+00
RMM:  15    -0.125292852133E+04   -0.13424E+00   -0.15486E-01  2309   0.798E-01    0.121E+01
RMM:  16    -0.125295181527E+04   -0.23294E-01   -0.15642E-01  2320   0.795E-01    0.903E+00
RMM:  17    -0.125291898286E+04    0.32832E-01   -0.16218E-01  2256   0.867E-01    0.712E+00
RMM:  18    -0.125289197787E+04    0.27005E-01   -0.86506E-02  2354   0.609E-01    0.534E+00
RMM:  19    -0.125292069873E+04   -0.28721E-01   -0.49580E-02  2395   0.416E-01    0.246E+00
RMM:  20    -0.125299507569E+04   -0.74377E-01   -0.28674E-02  2308   0.329E-01    0.351E+00
RMM:  21    -0.125302717861E+04   -0.32103E-01   -0.14833E-02  2336   0.255E-01    0.398E+00
RMM:  22    -0.125304915264E+04   -0.21974E-01   -0.60585E-03  2446   0.142E-01    0.471E+00
RMM:  23    -0.125305346608E+04   -0.43134E-02   -0.17502E-03  2583   0.679E-02    0.457E+00
RMM:  24    -0.125308675992E+04   -0.33294E-01   -0.83968E-03  2282   0.158E-01    0.302E+00
RMM:  25    -0.125315973077E+04   -0.72971E-01   -0.20623E-02  2317   0.261E-01    0.194E+00
RMM:  26    -0.125326833763E+04   -0.10861E+00   -0.22571E-02  2401   0.268E-01    0.354E+00
RMM:  27    -0.125332029637E+04   -0.51959E-01   -0.11060E-02  2350   0.210E-01    0.372E+00
RMM:  28    -0.125335277677E+04   -0.32480E-01   -0.64892E-03  2388   0.153E-01    0.244E+00
RMM:  29    -0.125339647999E+04   -0.43703E-01   -0.67917E-03  2481   0.150E-01    0.947E-01
RMM:  30    -0.125344112252E+04   -0.44643E-01   -0.48869E-03  2368   0.141E-01    0.131E+00
RMM:  31    -0.125350009665E+04   -0.58974E-01   -0.35619E-03  2303   0.108E-01    0.793E-01
RMM:  32    -0.125356200706E+04   -0.61910E-01   -0.32918E-03  2499   0.824E-02    0.784E-01
RMM:  33    -0.125363207366E+04   -0.70067E-01   -0.30322E-03  2381   0.793E-02    0.937E-01
RMM:  34    -0.125367282805E+04   -0.40754E-01   -0.20843E-03  2673   0.601E-02    0.294E-01
RMM:  35    -0.125372473302E+04   -0.51905E-01   -0.21531E-03  2406   0.519E-02    0.328E-01
RMM:  36    -0.125376260363E+04   -0.37871E-01   -0.20058E-03  2582   0.522E-02    0.280E-01
RMM:  37    -0.125379087663E+04   -0.28273E-01   -0.16370E-03  2462   0.387E-02    0.512E-01
RMM:  38    -0.125380718441E+04   -0.16308E-01   -0.11190E-03  2582   0.389E-02    0.291E-01
RMM:  39    -0.125381560777E+04   -0.84234E-02   -0.56962E-04  2547   0.231E-02    0.118E-01
RMM:  40    -0.125382300193E+04   -0.73942E-02   -0.54317E-04  2472   0.239E-02    0.989E-02
RMM:  41    -0.125382642258E+04   -0.34207E-02   -0.34079E-04  2526   0.178E-02    0.428E-02
RMM:  42    -0.125382773876E+04   -0.13162E-02   -0.13369E-04  2343   0.119E-02    0.338E-02
RMM:  43    -0.125382830749E+04   -0.56873E-03   -0.63014E-05  2199   0.773E-03    0.190E-02
RMM:  44    -0.125382852765E+04   -0.22015E-03   -0.24863E-05  2020   0.572E-03    0.272E-02
RMM:  45    -0.125382859945E+04   -0.71807E-04   -0.10477E-05  1793   0.400E-03    0.109E-02
RMM:  46    -0.125382862869E+04   -0.29239E-04   -0.50146E-06  1597   0.297E-03    0.680E-03
RMM:  47    -0.125382865366E+04   -0.24974E-04   -0.23752E-06  1401   0.231E-03    0.142E-02
RMM:  48    -0.125382866505E+04   -0.11382E-04   -0.11058E-06  1291   0.177E-03    0.117E-02
RMM:  49    -0.125382868354E+04   -0.18490E-04   -0.10547E-06  1286   0.139E-03    0.333E-03
RMM:  50    -0.125382869646E+04   -0.12927E-04   -0.62020E-07  1225   0.123E-03    0.423E-03
RMM:  51    -0.125382871202E+04   -0.15553E-04   -0.76550E-07  1210   0.103E-03    0.211E-03
RMM:  52    -0.125382872791E+04   -0.15890E-04   -0.60800E-07  1158   0.104E-03    0.260E-03
RMM:  53    -0.125382873903E+04   -0.11123E-04   -0.60034E-07  1095   0.840E-04    0.228E-03
RMM:  54    -0.125382874871E+04   -0.96829E-05   -0.49768E-07  1098   0.876E-04    0.215E-03
RMM:  55    -0.125382875542E+04   -0.67081E-05   -0.42761E-07  1016   0.726E-04    0.171E-03
RMM:  56    -0.125382876132E+04   -0.59033E-05   -0.40407E-07  1052   0.757E-04    0.371E-04
RMM:  57    -0.125382876472E+04   -0.33994E-05   -0.33263E-07  1002   0.661E-04    0.120E-03
RMM:  58    -0.125382876657E+04   -0.18474E-05   -0.25369E-07   954   0.632E-04    0.407E-04
RMM:  59    -0.125382876786E+04   -0.12948E-05   -0.19630E-07   835   0.533E-04    0.515E-04
RMM:  60    -0.125382876883E+04   -0.96447E-06   -0.16808E-07   873   0.524E-04
   2 F= -.12623390E+04 E0= -.12623234E+04  d E =-.236383E+01  mag=    20.7677
 trial-energy change:   -2.363825  1 .order    0.071536   -0.498226    0.641298
 step:   0.4372(harm=  0.4372)  dis= 0.02100  next Energy= -1260.084055 (dE=-0.109E+00)
 bond charge predicted
       N       E                     dE             d eps       ncg     rms          rms(c)
DAV:   1    -0.125394098814E+04   -0.11222E+00   -0.52849E+01  2208   0.141E+01    0.600E+00
RMM:   2    -0.125880942371E+04   -0.48684E+01   -0.20953E+00  2416   0.284E+00    0.504E+01
RMM:   3    -0.125488587570E+04    0.39235E+01   -0.20720E+00  2281   0.273E+00    0.132E+01
RMM:   4    -0.125432944674E+04    0.55643E+00   -0.60808E-01  2386   0.148E+00    0.847E+00
RMM:   5    -0.125440591981E+04   -0.76473E-01   -0.13906E-01  2380   0.803E-01    0.110E+01
RMM:   6    -0.125430292369E+04    0.10300E+00   -0.84117E-02  2313   0.610E-01    0.926E+00
RMM:   7    -0.125424775515E+04    0.55169E-01   -0.63853E-02  2379   0.492E-01    0.705E+00
RMM:   8    -0.125417958776E+04    0.68167E-01   -0.11171E-01  2268   0.684E-01    0.575E+00
RMM:   9    -0.125412446383E+04    0.55124E-01   -0.63977E-02  2350   0.528E-01    0.467E+00
RMM:  10    -0.125410644141E+04    0.18022E-01   -0.40097E-02  2346   0.395E-01    0.393E+00
RMM:  11    -0.125408865611E+04    0.17785E-01   -0.14689E-02  2457   0.241E-01    0.279E+00
RMM:  12    -0.125408506355E+04    0.35926E-02   -0.55094E-03  2507   0.139E-01    0.245E+00
RMM:  13    -0.125408363659E+04    0.14270E-02   -0.20269E-03  2627   0.759E-02    0.227E+00
RMM:  14    -0.125408378290E+04   -0.14631E-03   -0.82634E-04  2468   0.503E-02    0.218E+00
RMM:  15    -0.125408505787E+04   -0.12750E-02   -0.18904E-03  2356   0.770E-02    0.211E+00
RMM:  16    -0.125407830933E+04    0.67485E-02   -0.83559E-03  2386   0.163E-01    0.222E+00
RMM:  17    -0.125407026932E+04    0.80400E-02   -0.41577E-03  2408   0.122E-01    0.242E+00
RMM:  18    -0.125407154750E+04   -0.12782E-02   -0.22237E-03  2315   0.928E-02    0.200E+00
RMM:  19    -0.125407366230E+04   -0.21148E-02   -0.19519E-03  2420   0.772E-02    0.204E+00
RMM:  20    -0.125407748055E+04   -0.38183E-02   -0.30180E-03  2346   0.105E-01    0.174E+00
RMM:  21    -0.125408089115E+04   -0.34106E-02   -0.20735E-03  2454   0.831E-02    0.178E+00
RMM:  22    -0.125408381729E+04   -0.29261E-02   -0.16600E-03  2437   0.743E-02    0.169E+00
RMM:  23    -0.125408798205E+04   -0.41648E-02   -0.98981E-04  2506   0.530E-02    0.173E+00
RMM:  24    -0.125409126158E+04   -0.32795E-02   -0.77580E-04  2389   0.469E-02    0.165E+00
RMM:  25    -0.125409675957E+04   -0.54980E-02   -0.18022E-03  2303   0.683E-02    0.142E+00
RMM:  26    -0.125409810936E+04   -0.13498E-02   -0.14434E-03  2512   0.600E-02    0.140E+00
RMM:  27    -0.125409990375E+04   -0.17944E-02   -0.30972E-03  2393   0.887E-02    0.144E+00
RMM:  28    -0.125410174357E+04   -0.18398E-02   -0.38136E-03  2521   0.913E-02    0.170E+00
RMM:  29    -0.125410189521E+04   -0.15164E-03   -0.16957E-03  2663   0.536E-02    0.187E+00
RMM:  30    -0.125410169133E+04    0.20388E-03   -0.18651E-04  2304   0.208E-02    0.186E+00
RMM:  31    -0.125410363246E+04   -0.19411E-02   -0.74276E-04  2237   0.432E-02    0.185E+00
RMM:  32    -0.125410727289E+04   -0.36404E-02   -0.24967E-03  2422   0.754E-02    0.243E+00
RMM:  33    -0.125410666306E+04    0.60983E-03   -0.88724E-04  2332   0.542E-02    0.238E+00
RMM:  34    -0.125410679920E+04   -0.13614E-03   -0.99458E-04  2139   0.541E-02    0.243E+00
RMM:  35    -0.125410597883E+04    0.82038E-03   -0.32572E-04  2276   0.279E-02    0.258E+00
RMM:  36    -0.125411093806E+04   -0.49592E-02   -0.10150E-03  2135   0.503E-02    0.338E+00
RMM:  37    -0.125410834615E+04    0.25919E-02   -0.76005E-04  2117   0.509E-02    0.337E+00
RMM:  38    -0.125410692314E+04    0.14230E-02   -0.15254E-04  2120   0.215E-02    0.375E+00
RMM:  39    -0.125410196439E+04    0.49587E-02   -0.25660E-04  2049   0.324E-02    0.356E+00
RMM:  40    -0.125409968992E+04    0.22745E-02   -0.10335E-04  2087   0.184E-02    0.359E+00
RMM:  41    -0.125409064563E+04    0.90443E-02   -0.11507E-03  2414   0.493E-02    0.248E+00
RMM:  42    -0.125408797339E+04    0.26722E-02   -0.51813E-03  2481   0.108E-01    0.202E+00
RMM:  43    -0.125409015248E+04   -0.21791E-02   -0.22872E-03  2480   0.673E-02    0.208E+00
RMM:  44    -0.125408097856E+04    0.91739E-02   -0.49703E-03  2463   0.913E-02    0.271E+00
RMM:  45    -0.125408727580E+04   -0.62972E-02   -0.21433E-03  2610   0.726E-02    0.346E+00
RMM:  46    -0.125408178299E+04    0.54928E-02   -0.22498E-03  2419   0.749E-02    0.450E+00
RMM:  47    -0.125410071481E+04   -0.18932E-01   -0.37086E-02  2346   0.294E-01    0.925E+00
RMM:  48    -0.125409949658E+04    0.12182E-02   -0.20212E-02  2240   0.282E-01    0.884E+00
RMM:  49    -0.125407601354E+04    0.23483E-01   -0.36770E-03  2316   0.104E-01    0.836E+00
RMM:  50    -0.125407601661E+04   -0.30742E-05   -0.39268E-04  2212   0.336E-02    0.846E+00
RMM:  51    -0.125407940217E+04   -0.33856E-02   -0.10120E-04  2255   0.112E-02    0.859E+00
RMM:  52    -0.125407139494E+04    0.80072E-02   -0.52551E-04  2321   0.437E-02    0.811E+00
RMM:  53    -0.125407132156E+04    0.73383E-04   -0.80147E-04  2316   0.478E-02    0.738E+00
RMM:  54    -0.125407050610E+04    0.81546E-03   -0.13642E-03  2376   0.592E-02    0.618E+00
RMM:  55    -0.125408175078E+04   -0.11245E-01   -0.69557E-03  2407   0.131E-01    0.486E+00
RMM:  56    -0.125409953583E+04   -0.17785E-01   -0.33950E-03  2165   0.119E-01    0.458E+00
RMM:  57    -0.125409733027E+04    0.22056E-02   -0.36344E-03  2310   0.995E-02    0.534E+00
RMM:  58    -0.125409371330E+04    0.36170E-02   -0.14660E-03  2216   0.740E-02    0.479E+00
RMM:  59    -0.125409329631E+04    0.41699E-03   -0.62615E-04  2252   0.453E-02    0.428E+00
RMM:  60    -0.125409565864E+04   -0.23623E-02   -0.21120E-04  2236   0.275E-02    0.407E+00
RMM:  61    -0.125409632894E+04   -0.67029E-03   -0.10938E-04  2021   0.228E-02    0.402E+00
RMM:  62    -0.125408939055E+04    0.69384E-02   -0.15467E-03  2213   0.652E-02    0.374E+00
RMM:  63    -0.125409512642E+04   -0.57359E-02   -0.56689E-04  2165   0.473E-02    0.351E+00
RMM:  64    -0.125410080712E+04   -0.56807E-02   -0.88501E-04  2378   0.443E-02    0.350E+00
RMM:  65    -0.125410611636E+04   -0.53092E-02   -0.13432E-03  2450   0.499E-02    0.376E+00
RMM:  66    -0.125410341929E+04    0.26971E-02   -0.14589E-03  2165   0.645E-02    0.339E+00
RMM:  67    -0.125410579954E+04   -0.23802E-02   -0.17666E-03  2206   0.862E-02    0.374E+00
RMM:  68    -0.125410754511E+04   -0.17456E-02   -0.54201E-03  2317   0.112E-01    0.472E+00
RMM:  69    -0.125410685597E+04    0.68914E-03   -0.28243E-03  2257   0.104E-01    0.566E+00
RMM:  70    -0.125409966087E+04    0.71951E-02   -0.12180E-03  2316   0.637E-02    0.624E+00
RMM:  71    -0.125409713107E+04    0.25298E-02   -0.42877E-04  2136   0.431E-02    0.664E+00
RMM:  72    -0.125408450588E+04    0.12625E-01   -0.49471E-03  2202   0.111E-01    0.572E+00
RMM:  73    -0.125408974525E+04   -0.52394E-02   -0.15058E-03  2129   0.777E-02    0.547E+00
RMM:  74    -0.125408972772E+04    0.17527E-04   -0.62799E-04  2308   0.390E-02    0.502E+00
RMM:  75    -0.125409205365E+04   -0.23259E-02   -0.64762E-04  2122   0.449E-02    0.488E+00
RMM:  76    -0.125409537921E+04   -0.33256E-02   -0.67967E-04  2366   0.400E-02    0.539E+00
RMM:  77    -0.125409228196E+04    0.30972E-02   -0.15595E-03  2339   0.637E-02    0.499E+00
RMM:  78    -0.125409844177E+04   -0.61598E-02   -0.11618E-03  2262   0.658E-02    0.545E+00
RMM:  79    -0.125409627635E+04    0.21654E-02   -0.63728E-04  2125   0.471E-02    0.534E+00
RMM:  80    -0.125410163809E+04   -0.53617E-02   -0.82547E-04  2409   0.406E-02    0.522E+00
RMM:  81    -0.125410694487E+04   -0.53068E-02   -0.10447E-03  2532   0.422E-02    0.519E+00
RMM:  82    -0.125415141345E+04   -0.44469E-01   -0.12047E-02  2298   0.172E-01    0.921E+00
RMM:  83    -0.125414974958E+04    0.16639E-02   -0.11393E-02  2237   0.203E-01    0.823E+00
RMM:  84    -0.125414612201E+04    0.36276E-02   -0.20045E-03  2225   0.851E-02    0.105E+01
RMM:  85    -0.125416462422E+04   -0.18502E-01   -0.46387E-03  2202   0.126E-01    0.106E+01
RMM:  86    -0.125415152637E+04    0.13098E-01   -0.14458E-03  2215   0.781E-02    0.112E+01
RMM:  87    -0.125414505373E+04    0.64726E-02   -0.56603E-03  2381   0.132E-01    0.130E+01
RMM:  88    -0.125411425018E+04    0.30804E-01   -0.21406E-03  2212   0.115E-01    0.130E+01
RMM:  89    -0.125408223953E+04    0.32011E-01   -0.85490E-04  2238   0.573E-02    0.130E+01
RMM:  90    -0.125405282804E+04    0.29411E-01   -0.43116E-04  2289   0.389E-02    0.127E+01
RMM:  91    -0.125403264427E+04    0.20184E-01   -0.36580E-04  2431   0.299E-02    0.119E+01
RMM:  92    -0.125392646050E+04    0.10618E+00   -0.18589E-02  2366   0.194E-01    0.678E+00
RMM:  93    -0.125400853136E+04   -0.82071E-01   -0.17343E-02  2219   0.269E-01    0.438E+00
RMM:  94    -0.125403938209E+04   -0.30851E-01   -0.92358E-03  2160   0.177E-01    0.340E+00
RMM:  95    -0.125404216645E+04   -0.27844E-02   -0.36659E-03  2380   0.961E-02    0.293E+00
RMM:  96    -0.125404640515E+04   -0.42387E-02   -0.10314E-03  2282   0.514E-02    0.288E+00
RMM:  97    -0.125404784015E+04   -0.14350E-02   -0.80682E-04  2351   0.494E-02    0.271E+00
RMM:  98    -0.125405533898E+04   -0.74988E-02   -0.50984E-04  2330   0.396E-02    0.262E+00
RMM:  99    -0.125406162275E+04   -0.62838E-02   -0.13093E-03  2495   0.559E-02    0.277E+00
RMM: 100    -0.125406568425E+04   -0.40615E-02   -0.73554E-04  2563   0.397E-02    0.290E+00
RMM: 101    -0.125406683891E+04   -0.11547E-02   -0.29295E-04  2526   0.234E-02    0.297E+00
RMM: 102    -0.125405654685E+04    0.10292E-01   -0.22331E-03  2207   0.871E-02    0.239E+00
RMM: 103    -0.125406543394E+04   -0.88871E-02   -0.10516E-03  2362   0.647E-02    0.238E+00
RMM: 104    -0.125405757561E+04    0.78583E-02   -0.21003E-03  2355   0.744E-02    0.283E+00
RMM: 105    -0.125404861362E+04    0.89620E-02   -0.32544E-03  2363   0.835E-02    0.418E+00
RMM: 106    -0.125405360740E+04   -0.49938E-02   -0.10472E-03  2130   0.718E-02    0.465E+00
RMM: 107    -0.125405061998E+04    0.29874E-02   -0.16840E-03  2271   0.676E-02    0.588E+00
RMM: 108    -0.125404617552E+04    0.44445E-02   -0.83171E-04  2137   0.639E-02    0.614E+00
RMM: 109    -0.125404158056E+04    0.45950E-02   -0.62524E-04  2072   0.495E-02    0.603E+00
RMM: 110    -0.125403769268E+04    0.38879E-02   -0.56946E-04  2370   0.378E-02    0.590E+00
RMM: 111    -0.125402976109E+04    0.79316E-02   -0.76170E-04  2446   0.406E-02    0.543E+00
RMM: 112    -0.125402488332E+04    0.48778E-02   -0.19082E-03  2314   0.663E-02    0.565E+00
RMM: 113    -0.125402248694E+04    0.23964E-02   -0.70567E-04  2228   0.435E-02    0.558E+00
RMM: 114    -0.125402258631E+04   -0.99372E-04   -0.30120E-04  2377   0.255E-02    0.585E+00
RMM: 115    -0.125402123269E+04    0.13536E-02   -0.63814E-05  1969   0.165E-02    0.587E+00
RMM: 116    -0.125402090720E+04    0.32549E-03   -0.87637E-05  2116   0.149E-02    0.581E+00
RMM: 117    -0.125404351990E+04   -0.22613E-01   -0.32658E-03  2298   0.893E-02    0.681E+00
RMM: 118    -0.125404059528E+04    0.29246E-02   -0.28543E-03  2263   0.115E-01    0.651E+00
RMM: 119    -0.125404333109E+04   -0.27358E-02   -0.37510E-03  2350   0.101E-01    0.602E+00
RMM: 120    -0.125404926932E+04   -0.59382E-02   -0.26388E-03  2294   0.895E-02
   3 F= -.12625637E+04 E0= -.12625482E+04  d E =-.258853E+01  mag=    20.4771
 curvature:  -0.22 expect dE=-0.920E-01 dE for cont linesearch -0.136E-01
 ZBRENT: interpolating
 opt :   0.3231  next Energy= -1262.573698 (dE=-0.260E+01)
 bond charge predicted
       N       E                     dE             d eps       ncg     rms          rms(c)
DAV:   1    -0.125405912234E+04   -0.15791E-01   -0.21833E+00  2272   0.286E+00    0.473E+00
RMM:   2    -0.125894384254E+04   -0.48847E+01   -0.37304E+00  2223   0.354E+00    0.364E+01
RMM:   3    -0.125454485871E+04    0.43990E+01   -0.97789E-01  2222   0.209E+00    0.107E+01
RMM:   4    -0.125419776719E+04    0.34709E+00   -0.35010E-01  2307   0.105E+00    0.673E+00
RMM:   5    -0.125419305131E+04    0.47159E-02   -0.17407E-01  2329   0.705E-01    0.568E+00
RMM:   6    -0.125413946778E+04    0.53584E-01   -0.88580E-02  2293   0.561E-01    0.358E+00
RMM:   7    -0.125413709783E+04    0.23700E-02   -0.41724E-02  2389   0.363E-01    0.291E+00
RMM:   8    -0.125413576410E+04    0.13337E-02   -0.16671E-02  2495   0.222E-01    0.233E+00
RMM:   9    -0.125414381900E+04   -0.80549E-02   -0.84931E-03  2439   0.172E-01    0.266E+00
RMM:  10    -0.125414263510E+04    0.11839E-02   -0.27466E-03  2583   0.800E-02    0.250E+00
RMM:  11    -0.125414672056E+04   -0.40855E-02   -0.66946E-03  2259   0.150E-01    0.289E+00
RMM:  12    -0.125414621940E+04    0.50116E-03   -0.17937E-03  2451   0.748E-02    0.320E+00
RMM:  13    -0.125419576876E+04   -0.49549E-01   -0.15252E-02  2271   0.194E-01    0.860E+00
RMM:  14    -0.125413445130E+04    0.61317E-01   -0.16635E-02  2189   0.273E-01    0.432E+00
RMM:  15    -0.125415179623E+04   -0.17345E-01   -0.63381E-03  2212   0.162E-01    0.607E+00
RMM:  16    -0.125414040056E+04    0.11396E-01   -0.20184E-03  2273   0.819E-02    0.492E+00
RMM:  17    -0.125414198539E+04   -0.15848E-02   -0.65101E-04  2172   0.470E-02    0.536E+00
RMM:  18    -0.125413764647E+04    0.43389E-02   -0.22392E-03  2254   0.852E-02    0.497E+00
RMM:  19    -0.125414362037E+04   -0.59739E-02   -0.17719E-03  2379   0.737E-02    0.581E+00
RMM:  20    -0.125414219981E+04    0.14206E-02   -0.57528E-04  2159   0.479E-02    0.591E+00
RMM:  21    -0.125414029622E+04    0.19036E-02   -0.19830E-04  2391   0.215E-02    0.612E+00
RMM:  22    -0.125413662426E+04    0.36720E-02   -0.52497E-04  2216   0.458E-02    0.619E+00
RMM:  23    -0.125413014934E+04    0.64749E-02   -0.74864E-04  2321   0.521E-02    0.580E+00
RMM:  24    -0.125412494071E+04    0.52086E-02   -0.87564E-04  2290   0.565E-02    0.525E+00
RMM:  25    -0.125411029129E+04    0.14649E-01   -0.59873E-03  2240   0.134E-01    0.331E+00
RMM:  26    -0.125410174100E+04    0.85503E-02   -0.11247E-02  2313   0.177E-01    0.244E+00
RMM:  27    -0.125409509784E+04    0.66432E-02   -0.74633E-03  2432   0.137E-01    0.272E+00
RMM:  28    -0.125409267165E+04    0.24262E-02   -0.18448E-03  2448   0.605E-02    0.282E+00
RMM:  29    -0.125409078130E+04    0.18904E-02   -0.44989E-04  2364   0.370E-02    0.266E+00
RMM:  30    -0.125408542486E+04    0.53564E-02   -0.85672E-04  2415   0.483E-02    0.243E+00
RMM:  31    -0.125408088095E+04    0.45439E-02   -0.10511E-03  2228   0.512E-02    0.264E+00
RMM:  32    -0.125407557268E+04    0.53083E-02   -0.97406E-04  2440   0.512E-02    0.238E+00
RMM:  33    -0.125407482297E+04    0.74972E-03   -0.54114E-04  2423   0.342E-02    0.247E+00
RMM:  34    -0.125407664109E+04   -0.18181E-02   -0.37268E-04  2243   0.335E-02    0.237E+00
RMM:  35    -0.125407233077E+04    0.43103E-02   -0.19323E-03  2295   0.697E-02    0.245E+00
RMM:  36    -0.125406638312E+04    0.59477E-02   -0.14719E-03  2501   0.554E-02    0.220E+00
RMM:  37    -0.125405964743E+04    0.67357E-02   -0.26924E-03  2495   0.759E-02    0.200E+00
RMM:  38    -0.125404539822E+04    0.14249E-01   -0.71545E-03  2482   0.119E-01    0.199E+00
RMM:  39    -0.125404272208E+04    0.26761E-02   -0.17913E-03  2524   0.595E-02    0.189E+00
RMM:  40    -0.125403702898E+04    0.56931E-02   -0.10215E-03  2573   0.375E-02    0.196E+00
RMM:  41    -0.125403901988E+04   -0.19909E-02   -0.19820E-04  2137   0.267E-02    0.199E+00
RMM:  42    -0.125403079061E+04    0.82293E-02   -0.92505E-04  2329   0.397E-02    0.200E+00
RMM:  43    -0.125402633738E+04    0.44532E-02   -0.66967E-04  2608   0.307E-02    0.196E+00
RMM:  44    -0.125401303021E+04    0.13307E-01   -0.18393E-03  2448   0.567E-02    0.213E+00
RMM:  45    -0.125401437705E+04   -0.13468E-02   -0.22889E-04  2119   0.272E-02    0.212E+00
RMM:  46    -0.125402090930E+04   -0.65322E-02   -0.27862E-04  2060   0.266E-02    0.198E+00
RMM:  47    -0.125394383854E+04    0.77071E-01   -0.32189E-02  2287   0.258E-01    0.293E+00
RMM:  48    -0.125395794396E+04   -0.14105E-01   -0.27147E-03  2230   0.958E-02    0.268E+00
RMM:  49    -0.125396926105E+04   -0.11317E-01   -0.14237E-03  2238   0.643E-02    0.257E+00
RMM:  50    -0.125400355080E+04   -0.34290E-01   -0.70464E-03  2445   0.118E-01    0.243E+00
RMM:  51    -0.125400445812E+04   -0.90732E-03   -0.96548E-04  2225   0.605E-02    0.267E+00
RMM:  52    -0.125400807075E+04   -0.36126E-02   -0.74760E-04  2600   0.377E-02    0.270E+00
RMM:  53    -0.125401713509E+04   -0.90643E-02   -0.15500E-03  2478   0.552E-02    0.240E+00
RMM:  54    -0.125403581659E+04   -0.18681E-01   -0.52655E-03  2550   0.892E-02    0.226E+00
RMM:  55    -0.125404942342E+04   -0.13607E-01   -0.41648E-03  2642   0.724E-02    0.232E+00
RMM:  56    -0.125405269932E+04   -0.32759E-02   -0.12460E-03  2631   0.403E-02    0.234E+00
RMM:  57    -0.125403603142E+04    0.16668E-01   -0.20279E-03  2261   0.681E-02    0.207E+00
RMM:  58    -0.125406458472E+04   -0.28553E-01   -0.62120E-03  2280   0.109E-01    0.253E+00
RMM:  59    -0.125406153456E+04    0.30502E-02   -0.88865E-04  2169   0.529E-02    0.214E+00
RMM:  60    -0.125405226990E+04    0.92647E-02   -0.28304E-03  2304   0.813E-02    0.215E+00
RMM:  61    -0.125405243053E+04   -0.16063E-03   -0.16964E-03  2518   0.624E-02    0.271E+00
RMM:  62    -0.125414607551E+04   -0.93645E-01   -0.51032E-02  2375   0.298E-01    0.597E+00
RMM:  63    -0.125412961728E+04    0.16458E-01   -0.15897E-02  2328   0.239E-01    0.564E+00
RMM:  64    -0.125412989353E+04   -0.27625E-03   -0.25455E-03  2440   0.715E-02    0.622E+00
RMM:  65    -0.125412719496E+04    0.26986E-02   -0.58963E-04  2231   0.431E-02    0.632E+00
RMM:  66    -0.125409023109E+04    0.36964E-01   -0.20480E-03  2234   0.704E-02    0.476E+00
RMM:  67    -0.125416760282E+04   -0.77372E-01   -0.73487E-03  2258   0.125E-01    0.691E+00
RMM:  68    -0.125412262824E+04    0.44975E-01   -0.30982E-03  2210   0.107E-01    0.576E+00
RMM:  69    -0.125411114803E+04    0.11480E-01   -0.17483E-03  2417   0.713E-02    0.521E+00
RMM:  70    -0.125409972086E+04    0.11427E-01   -0.14123E-03  2530   0.567E-02    0.411E+00
RMM:  71    -0.125410158402E+04   -0.18632E-02   -0.11654E-03  2221   0.639E-02    0.357E+00
RMM:  72    -0.125409586827E+04    0.57158E-02   -0.16194E-03  2394   0.632E-02    0.270E+00
RMM:  73    -0.125409855058E+04   -0.26823E-02   -0.12923E-03  2171   0.713E-02    0.256E+00
RMM:  74    -0.125409000482E+04    0.85458E-02   -0.28698E-03  2404   0.719E-02    0.295E+00
RMM:  75    -0.125408530747E+04    0.46973E-02   -0.25870E-03  2313   0.776E-02    0.334E+00
RMM:  76    -0.125408464178E+04    0.66569E-03   -0.75272E-04  2389   0.380E-02    0.339E+00
RMM:  77    -0.125408230400E+04    0.23378E-02   -0.42563E-04  2187   0.330E-02    0.328E+00
RMM:  78    -0.125408208894E+04    0.21507E-03   -0.63011E-05  2001   0.143E-02    0.328E+00
RMM:  79    -0.125408165202E+04    0.43692E-03   -0.93819E-05  2209   0.125E-02    0.338E+00
RMM:  80    -0.125408238084E+04   -0.72883E-03   -0.10256E-04  2198   0.164E-02    0.349E+00
RMM:  81    -0.125408561940E+04   -0.32386E-02   -0.17957E-04  2278   0.210E-02    0.358E+00
RMM:  82    -0.125408993158E+04   -0.43122E-02   -0.58394E-04  2363   0.386E-02    0.389E+00
RMM:  83    -0.125409047315E+04   -0.54157E-03   -0.13512E-04  2118   0.234E-02    0.388E+00
RMM:  84    -0.125409165080E+04   -0.11776E-02   -0.12957E-04  2320   0.161E-02    0.391E+00
RMM:  85    -0.125409282607E+04   -0.11753E-02   -0.38850E-05  2185   0.952E-03    0.392E+00
RMM:  86    -0.125409472510E+04   -0.18990E-02   -0.58709E-05  2278   0.994E-03    0.396E+00
RMM:  87    -0.125412068742E+04   -0.25962E-01   -0.25182E-03  2230   0.803E-02    0.431E+00
RMM:  88    -0.125411632583E+04    0.43616E-02   -0.23287E-03  2485   0.752E-02    0.472E+00
RMM:  89    -0.125411490485E+04    0.14210E-02   -0.26003E-03  2616   0.666E-02    0.507E+00
RMM:  90    -0.125410943530E+04    0.54695E-02   -0.16724E-03  2586   0.515E-02    0.531E+00
RMM:  91    -0.125410607479E+04    0.33605E-02   -0.42617E-04  2508   0.249E-02    0.532E+00
RMM:  92    -0.125408985744E+04    0.16217E-01   -0.22028E-03  2295   0.728E-02    0.557E+00
RMM:  93    -0.125408911708E+04    0.74036E-03   -0.59861E-04  2412   0.350E-02    0.561E+00
RMM:  94    -0.125408775880E+04    0.13583E-02   -0.15872E-04  2437   0.160E-02    0.556E+00
RMM:  95    -0.125409080469E+04   -0.30459E-02   -0.46261E-05  2007   0.111E-02    0.558E+00
RMM:  96    -0.125408948447E+04    0.13202E-02   -0.96496E-06  1472   0.411E-03    0.558E+00
RMM:  97    -0.125407894855E+04    0.10536E-01   -0.18428E-03  2300   0.631E-02    0.510E+00
RMM:  98    -0.125408459351E+04   -0.56450E-02   -0.64906E-04  2288   0.381E-02    0.491E+00
RMM:  99    -0.125408550220E+04   -0.90869E-03   -0.87986E-04  2518   0.367E-02    0.456E+00
RMM: 100    -0.125409340222E+04   -0.79000E-02   -0.57970E-03  2441   0.974E-02    0.351E+00
RMM: 101    -0.125410169067E+04   -0.82884E-02   -0.58844E-03  2584   0.103E-01    0.283E+00
RMM: 102    -0.125420496168E+04   -0.10327E+00   -0.38290E-02  2515   0.253E-01    0.730E+00
RMM: 103    -0.125417013634E+04    0.34825E-01   -0.16598E-02  2265   0.255E-01    0.648E+00
RMM: 104    -0.125414185331E+04    0.28283E-01   -0.29280E-03  2350   0.825E-02    0.636E+00
RMM: 105    -0.125413684733E+04    0.50060E-02   -0.57694E-04  2234   0.398E-02    0.634E+00
RMM: 106    -0.125412502920E+04    0.11818E-01   -0.43084E-04  2189   0.298E-02    0.593E+00
RMM: 107    -0.125415872359E+04   -0.33694E-01   -0.10744E-02  2245   0.149E-01    0.619E+00
RMM: 108    -0.125413913612E+04    0.19587E-01   -0.20992E-03  2257   0.795E-02    0.485E+00
RMM: 109    -0.125413712724E+04    0.20089E-02   -0.10187E-03  2130   0.609E-02    0.428E+00
RMM: 110    -0.125413562399E+04    0.15032E-02   -0.12224E-03  2383   0.596E-02    0.382E+00
RMM: 111    -0.125413256692E+04    0.30571E-02   -0.95469E-04  2554   0.472E-02    0.327E+00
RMM: 112    -0.125412573884E+04    0.68281E-02   -0.15788E-03  2446   0.594E-02    0.249E+00
RMM: 113    -0.125412935714E+04   -0.36183E-02   -0.65018E-04  2197   0.517E-02    0.242E+00
RMM: 114    -0.125413197586E+04   -0.26187E-02   -0.21370E-04  2201   0.241E-02    0.259E+00
RMM: 115    -0.125413351522E+04   -0.15394E-02   -0.46540E-04  2242   0.320E-02    0.306E+00
RMM: 116    -0.125413341721E+04    0.98011E-04   -0.42335E-04  2129   0.362E-02    0.306E+00
RMM: 117    -0.125413337182E+04    0.45384E-04   -0.13163E-03  2392   0.520E-02    0.259E+00
RMM: 118    -0.125413373317E+04   -0.36135E-03   -0.10675E-03  2379   0.505E-02    0.202E+00
RMM: 119    -0.125413406971E+04   -0.33654E-03   -0.53493E-04  2249   0.429E-02    0.192E+00
RMM: 120    -0.125413388360E+04    0.18611E-03   -0.21364E-04  2093   0.241E-02
   4 F= -.12626559E+04 E0= -.12626514E+04  d E =-.268076E+01  mag=    20.2470
 curvature:  -0.16 expect dE=-0.675E-01 dE for cont linesearch -0.196E-01
 ZBRENT: bisectioning
 opt :   0.1616  next Energy= -1262.703586 (dE=-0.273E+01)
 bond charge predicted
       N       E                     dE             d eps       ncg     rms          rms(c)
DAV:   1    -0.125413794664E+04   -0.38769E-02   -0.43655E+00  2200   0.404E+00    0.233E+00
RMM:   2    -0.125430364253E+04   -0.16570E+00   -0.19971E-01  2263   0.885E-01    0.757E+00
RMM:   3    -0.125418611854E+04    0.11752E+00   -0.77048E-02  2457   0.499E-01    0.564E+00
RMM:   4    -0.125421759027E+04   -0.31472E-01   -0.26378E-02  2486   0.312E-01    0.749E+00
RMM:   5    -0.125424383769E+04   -0.26247E-01   -0.78253E-03  2403   0.164E-01    0.958E+00
RMM:   6    -0.125449999217E+04   -0.25615E+00   -0.75050E-02  2290   0.491E-01    0.184E+01
RMM:   7    -0.125394087156E+04    0.55912E+00   -0.54501E-02  2209   0.514E-01    0.945E+00
RMM:   8    -0.125405660447E+04   -0.11573E+00   -0.16588E-02  2203   0.255E-01    0.654E+00
RMM:   9    -0.125412124517E+04   -0.64641E-01   -0.92328E-03  2154   0.216E-01    0.479E+00
RMM:  10    -0.125412610190E+04   -0.48567E-02   -0.19602E-02  2254   0.273E-01    0.314E+00
RMM:  11    -0.125412431646E+04    0.17854E-02   -0.10592E-02  2306   0.215E-01    0.259E+00
RMM:  12    -0.125411526915E+04    0.90473E-02   -0.75503E-03  2399   0.163E-01    0.252E+00
RMM:  13    -0.125411032625E+04    0.49429E-02   -0.30347E-03  2484   0.879E-02    0.255E+00
RMM:  14    -0.125410742166E+04    0.29046E-02   -0.95962E-04  2440   0.502E-02    0.272E+00
RMM:  15    -0.125410719645E+04    0.22521E-03   -0.21058E-04  2252   0.259E-02    0.279E+00
RMM:  16    -0.125410696630E+04    0.23015E-03   -0.72151E-05  2090   0.132E-02    0.283E+00
RMM:  17    -0.125411112652E+04   -0.41602E-02   -0.88546E-04  2173   0.567E-02    0.251E+00
RMM:  18    -0.125412055867E+04   -0.94321E-02   -0.30074E-03  2256   0.990E-02    0.233E+00
RMM:  19    -0.125412878903E+04   -0.82304E-02   -0.34786E-03  2359   0.113E-01    0.231E+00
RMM:  20    -0.125412224673E+04    0.65423E-02   -0.16596E-03  2436   0.743E-02    0.250E+00
RMM:  21    -0.125411793463E+04    0.43121E-02   -0.68931E-04  2522   0.411E-02    0.260E+00
RMM:  22    -0.125411830755E+04   -0.37291E-03   -0.11399E-04  2193   0.155E-02    0.262E+00
RMM:  23    -0.125411189280E+04    0.64147E-02   -0.50714E-04  2400   0.344E-02    0.267E+00
RMM:  24    -0.125410879320E+04    0.30996E-02   -0.27900E-04  2481   0.214E-02    0.270E+00
RMM:  25    -0.125411084498E+04   -0.20518E-02   -0.42369E-05  1951   0.122E-02    0.273E+00
RMM:  26    -0.125411220970E+04   -0.13647E-02   -0.41067E-05  1995   0.106E-02    0.272E+00
RMM:  27    -0.125411522691E+04   -0.30172E-02   -0.13601E-04  2273   0.176E-02    0.272E+00
RMM:  28    -0.125413255067E+04   -0.17324E-01   -0.35480E-03  2371   0.857E-02    0.264E+00
RMM:  29    -0.125414917962E+04   -0.16629E-01   -0.65166E-03  2569   0.108E-01    0.268E+00
RMM:  30    -0.125416545283E+04   -0.16273E-01   -0.79185E-03  2565   0.119E-01    0.338E+00
RMM:  31    -0.125418514401E+04   -0.19691E-01   -0.63846E-03  2632   0.110E-01    0.507E+00
RMM:  32    -0.125418360959E+04    0.15344E-02   -0.24302E-03  2253   0.883E-02    0.534E+00
RMM:  33    -0.125417401545E+04    0.95941E-02   -0.75362E-04  2347   0.431E-02    0.491E+00
RMM:  34    -0.125417387084E+04    0.14461E-03   -0.11052E-03  2339   0.609E-02    0.485E+00
RMM:  35    -0.125417352532E+04    0.34552E-03   -0.63820E-04  2495   0.411E-02    0.484E+00
RMM:  36    -0.125417461089E+04   -0.10856E-02   -0.14283E-04  2248   0.188E-02    0.488E+00
RMM:  37    -0.125418343952E+04   -0.88286E-02   -0.31698E-04  2284   0.287E-02    0.529E+00
RMM:  38    -0.125418274455E+04    0.69498E-03   -0.12622E-04  2068   0.232E-02    0.532E+00
RMM:  39    -0.125418958646E+04   -0.68419E-02   -0.27130E-04  2358   0.273E-02    0.582E+00
RMM:  40    -0.125419028469E+04   -0.69824E-03   -0.33292E-04  2113   0.379E-02    0.597E+00
RMM:  41    -0.125419149748E+04   -0.12128E-02   -0.19021E-04  2223   0.264E-02    0.615E+00
RMM:  42    -0.125416934479E+04    0.22153E-01   -0.21023E-03  2192   0.813E-02    0.503E+00
RMM:  43    -0.125416750316E+04    0.18416E-02   -0.20407E-03  2299   0.793E-02    0.491E+00
RMM:  44    -0.125416929821E+04   -0.17950E-02   -0.55858E-04  2375   0.430E-02    0.498E+00
RMM:  45    -0.125417068536E+04   -0.13872E-02   -0.12391E-04  2284   0.189E-02    0.503E+00
RMM:  46    -0.125418557372E+04   -0.14888E-01   -0.92157E-04  2338   0.484E-02    0.584E+00
RMM:  47    -0.125417564748E+04    0.99262E-02   -0.28667E-03  2165   0.110E-01    0.559E+00
RMM:  48    -0.125414684618E+04    0.28801E-01   -0.67078E-03  2317   0.121E-01    0.372E+00
RMM:  49    -0.125414085204E+04    0.59941E-02   -0.51356E-03  2298   0.114E-01    0.330E+00
RMM:  50    -0.125414896762E+04   -0.81156E-02   -0.22810E-03  2499   0.651E-02    0.328E+00
RMM:  51    -0.125414129500E+04    0.76726E-02   -0.24023E-03  2364   0.672E-02    0.302E+00
RMM:  52    -0.125411763470E+04    0.23660E-01   -0.10495E-02  2376   0.149E-01    0.210E+00
RMM:  53    -0.125414687823E+04   -0.29244E-01   -0.38506E-03  2266   0.114E-01    0.274E+00
RMM:  54    -0.125415282463E+04   -0.59464E-02   -0.14236E-03  2558   0.612E-02    0.249E+00
RMM:  55    -0.125414600479E+04    0.68198E-02   -0.86652E-04  2153   0.493E-02    0.240E+00
RMM:  56    -0.125413531027E+04    0.10695E-01   -0.26996E-03  2301   0.725E-02    0.240E+00
RMM:  57    -0.125415226433E+04   -0.16954E-01   -0.23162E-03  2268   0.769E-02    0.295E+00
RMM:  58    -0.125414687787E+04    0.53865E-02   -0.48759E-04  2069   0.435E-02    0.249E+00
RMM:  59    -0.125414317483E+04    0.37030E-02   -0.57278E-04  2295   0.357E-02    0.263E+00
RMM:  60    -0.125414133119E+04    0.18436E-02   -0.24043E-04  2407   0.230E-02    0.256E+00
RMM:  61    -0.125414216251E+04   -0.83133E-03   -0.18150E-04  2068   0.238E-02    0.257E+00
RMM:  62    -0.125413664648E+04    0.55160E-02   -0.49138E-04  2225   0.357E-02    0.245E+00
RMM:  63    -0.125413475208E+04    0.18944E-02   -0.24892E-04  2249   0.279E-02    0.244E+00
RMM:  64    -0.125413398788E+04    0.76420E-03   -0.88939E-05  2310   0.143E-02    0.242E+00
RMM:  65    -0.125413342408E+04    0.56380E-03   -0.36852E-05  2030   0.100E-02    0.241E+00
RMM:  66    -0.125413351876E+04   -0.94676E-04   -0.12297E-05  1667   0.607E-03    0.241E+00
RMM:  67    -0.125413624255E+04   -0.27238E-02   -0.20389E-04  2045   0.238E-02    0.240E+00
RMM:  68    -0.125413674961E+04   -0.50706E-03   -0.74687E-05  2087   0.162E-02    0.235E+00
RMM:  69    -0.125413756839E+04   -0.81878E-03   -0.19227E-05  1874   0.627E-03    0.237E+00
RMM:  70    -0.125413972715E+04   -0.21588E-02   -0.44348E-05  2110   0.103E-02    0.239E+00
RMM:  71    -0.125413998824E+04   -0.26108E-03   -0.94030E-06  1528   0.479E-03    0.239E+00
RMM:  72    -0.125413551112E+04    0.44771E-02   -0.27582E-04  2079   0.270E-02    0.240E+00
RMM:  73    -0.125413530898E+04    0.20215E-03   -0.68369E-05  2116   0.154E-02    0.239E+00
RMM:  74    -0.125413519335E+04    0.11562E-03   -0.28298E-05  1928   0.967E-03    0.237E+00
RMM:  75    -0.125413445495E+04    0.73841E-03   -0.35328E-05  2100   0.101E-02    0.236E+00
RMM:  76    -0.125413325882E+04    0.11961E-02   -0.60000E-05  2182   0.135E-02    0.233E+00
RMM:  77    -0.125413801628E+04   -0.47575E-02   -0.31844E-04  2211   0.307E-02    0.237E+00
RMM:  78    -0.125413720614E+04    0.81014E-03   -0.99465E-05  2044   0.206E-02    0.238E+00
RMM:  79    -0.125413743328E+04   -0.22714E-03   -0.54203E-05  1962   0.127E-02    0.238E+00
RMM:  80    -0.125413826994E+04   -0.83666E-03   -0.58381E-05  2025   0.136E-02    0.241E+00
RMM:  81    -0.125413858623E+04   -0.31629E-03   -0.84179E-05  2202   0.157E-02    0.242E+00
RMM:  82    -0.125414242278E+04   -0.38366E-02   -0.75063E-04  2144   0.455E-02    0.258E+00
RMM:  83    -0.125414185165E+04    0.57113E-03   -0.12116E-04  2238   0.179E-02    0.245E+00
RMM:  84    -0.125414188561E+04   -0.33961E-04   -0.38238E-05  2022   0.896E-03    0.248E+00
RMM:  85    -0.125414275363E+04   -0.86803E-03   -0.55209E-05  2025   0.140E-02    0.246E+00
RMM:  86    -0.125414327857E+04   -0.52494E-03   -0.34640E-05  2139   0.969E-03    0.250E+00
RMM:  87    -0.125414038730E+04    0.28913E-02   -0.74149E-03  2341   0.137E-01    0.229E+00
RMM:  88    -0.125414563682E+04   -0.52495E-02   -0.14436E-03  2217   0.719E-02    0.217E+00
RMM:  89    -0.125414808094E+04   -0.24441E-02   -0.72831E-04  2710   0.322E-02    0.214E+00
RMM:  90    -0.125414919354E+04   -0.11126E-02   -0.15107E-04  2345   0.170E-02    0.213E+00
RMM:  91    -0.125414931437E+04   -0.12084E-03   -0.60264E-05  2126   0.770E-03    0.213E+00
RMM:  92    -0.125415385634E+04   -0.45420E-02   -0.14969E-02  2312   0.201E-01    0.325E+00
RMM:  93    -0.125415614704E+04   -0.22907E-02   -0.37548E-03  2308   0.116E-01    0.324E+00
RMM:  94    -0.125415265568E+04    0.34914E-02   -0.87032E-04  2298   0.537E-02    0.318E+00
RMM:  95    -0.125415599773E+04   -0.33421E-02   -0.31122E-04  2474   0.275E-02    0.344E+00
RMM:  96    -0.125416287132E+04   -0.68736E-02   -0.80480E-04  2274   0.428E-02    0.354E+00
RMM:  97    -0.125416181135E+04    0.10600E-02   -0.33379E-04  2329   0.270E-02    0.363E+00
RMM:  98    -0.125416208427E+04   -0.27292E-03   -0.11786E-04  2362   0.154E-02    0.364E+00
RMM:  99    -0.125416622574E+04   -0.41415E-02   -0.40033E-04  2266   0.285E-02    0.372E+00
RMM: 100    -0.125416215822E+04    0.40675E-02   -0.24883E-04  2079   0.297E-02    0.341E+00
RMM: 101    -0.125416171680E+04    0.44141E-03   -0.20124E-04  2199   0.241E-02    0.318E+00
RMM: 102    -0.125415742932E+04    0.42875E-02   -0.59391E-04  2355   0.379E-02    0.271E+00
RMM: 103    -0.125415478138E+04    0.26479E-02   -0.77004E-04  2325   0.442E-02    0.244E+00
RMM: 104    -0.125415303653E+04    0.17449E-02   -0.81058E-04  2583   0.406E-02    0.230E+00
RMM: 105    -0.125415262830E+04    0.40823E-03   -0.36545E-04  2273   0.280E-02    0.229E+00
RMM: 106    -0.125415321128E+04   -0.58299E-03   -0.72912E-05  2112   0.139E-02    0.223E+00
RMM: 107    -0.125414554627E+04    0.76650E-02   -0.10470E-03  2322   0.493E-02    0.239E+00
RMM: 108    -0.125414477062E+04    0.77565E-03   -0.30193E-04  2307   0.241E-02    0.242E+00
RMM: 109    -0.125414245416E+04    0.23165E-02   -0.14884E-04  2462   0.152E-02    0.245E+00
RMM: 110    -0.125414358798E+04   -0.11338E-02   -0.23744E-05  1783   0.986E-03    0.242E+00
RMM: 111    -0.125414480206E+04   -0.12141E-02   -0.21002E-05  1879   0.836E-03    0.239E+00
RMM: 112    -0.125414431814E+04    0.48392E-03   -0.22308E-03  2200   0.877E-02    0.224E+00
RMM: 113    -0.125415437831E+04   -0.10060E-01   -0.19772E-03  2476   0.666E-02    0.205E+00
RMM: 114    -0.125415706992E+04   -0.26916E-02   -0.92902E-04  2707   0.395E-02    0.208E+00
RMM: 115    -0.125416814656E+04   -0.11077E-01   -0.42636E-03  2457   0.954E-02    0.224E+00
RMM: 116    -0.125417103828E+04   -0.28917E-02   -0.17253E-03  2568   0.543E-02    0.239E+00
RMM: 117    -0.125416678196E+04    0.42563E-02   -0.79636E-04  2040   0.557E-02    0.217E+00
RMM: 118    -0.125417750356E+04   -0.10722E-01   -0.16442E-03  2406   0.640E-02    0.294E+00
RMM: 119    -0.125417818973E+04   -0.68617E-03   -0.90504E-04  2174   0.492E-02    0.269E+00
RMM: 120    -0.125417625955E+04    0.19302E-02   -0.25394E-04  2414   0.249E-02
   5 F= -.12627074E+04 E0= -.12626994E+04  d E =-.273225E+01  mag=    20.1008
 curvature:  -0.39 expect dE=-0.674E-01 dE for cont linesearch -0.436E-02
 ZBRENT: interpolating
 opt :   0.1078  next Energy= -1262.709844 (dE=-0.273E+01)
 bond charge predicted
       N       E                     dE             d eps       ncg     rms          rms(c)
DAV:   1    -0.125417286108E+04    0.53287E-02   -0.48511E-01  2312   0.135E+00    0.228E+00
RMM:   2    -0.125434466564E+04   -0.17180E+00   -0.11354E-01  2265   0.580E-01    0.817E+00
RMM:   3    -0.125426126773E+04    0.83398E-01   -0.62493E-02  2326   0.444E-01    0.106E+01
RMM:   4    -0.125429111975E+04   -0.29852E-01   -0.68123E-02  2217   0.480E-01    0.123E+01
RMM:   5    -0.125410205324E+04    0.18907E+00   -0.44949E-02  2222   0.451E-01    0.474E+00
RMM:   6    -0.125415024576E+04   -0.48193E-01   -0.27923E-02  2228   0.346E-01    0.216E+00
RMM:   7    -0.125416141364E+04   -0.11168E-01   -0.91261E-03  2285   0.201E-01    0.208E+00
RMM:   8    -0.125416001856E+04    0.13951E-02   -0.41093E-03  2454   0.112E-01    0.213E+00
RMM:   9    -0.125415636691E+04    0.36517E-02   -0.17948E-03  2350   0.765E-02    0.203E+00
RMM:  10    -0.125415292926E+04    0.34376E-02   -0.62954E-04  2408   0.421E-02    0.202E+00
RMM:  11    -0.125415234945E+04    0.57981E-03   -0.13993E-04  2316   0.131E-02    0.202E+00
RMM:  12    -0.125415152439E+04    0.82506E-03   -0.49607E-05  1955   0.979E-03    0.202E+00
RMM:  13    -0.125415023987E+04    0.12845E-02   -0.71531E-05  2088   0.145E-02    0.203E+00
RMM:  14    -0.125414774872E+04    0.24911E-02   -0.12303E-04  2234   0.158E-02    0.209E+00
RMM:  15    -0.125414538566E+04    0.23631E-02   -0.13252E-04  2177   0.175E-02    0.214E+00
RMM:  16    -0.125414021961E+04    0.51660E-02   -0.27917E-04  2248   0.234E-02    0.219E+00
RMM:  17    -0.125415188567E+04   -0.11666E-01   -0.95615E-04  2136   0.533E-02    0.222E+00
RMM:  18    -0.125417556019E+04   -0.23675E-01   -0.64341E-03  2342   0.119E-01    0.303E+00
RMM:  19    -0.125417948252E+04   -0.39223E-02   -0.25300E-03  2518   0.682E-02    0.297E+00
RMM:  20    -0.125418021752E+04   -0.73500E-03   -0.56060E-04  2458   0.252E-02    0.315E+00
RMM:  21    -0.125417872445E+04    0.14931E-02   -0.45113E-04  2235   0.403E-02    0.275E+00
RMM:  22    -0.125417156138E+04    0.71631E-02   -0.88924E-04  2191   0.574E-02    0.208E+00
RMM:  23    -0.125417258798E+04   -0.10266E-02   -0.11822E-03  2325   0.687E-02    0.229E+00
RMM:  24    -0.125416325401E+04    0.93340E-02   -0.19206E-03  2413   0.723E-02    0.205E+00
RMM:  25    -0.125415009178E+04    0.13162E-01   -0.30296E-03  2486   0.816E-02    0.192E+00
RMM:  26    -0.125414055507E+04    0.95367E-02   -0.31009E-03  2651   0.733E-02    0.201E+00
RMM:  27    -0.125413837495E+04    0.21801E-02   -0.12690E-03  2651   0.451E-02    0.207E+00
RMM:  28    -0.125413940631E+04   -0.10314E-02   -0.22467E-04  2299   0.257E-02    0.210E+00
RMM:  29    -0.125413758794E+04    0.18184E-02   -0.22539E-04  2458   0.218E-02    0.209E+00
RMM:  30    -0.125413764393E+04   -0.55992E-04   -0.59187E-05  2058   0.127E-02    0.208E+00
RMM:  31    -0.125413450065E+04    0.31433E-02   -0.23791E-04  2372   0.229E-02    0.211E+00
RMM:  32    -0.125412680056E+04    0.77001E-02   -0.81119E-04  2462   0.401E-02    0.213E+00
RMM:  33    -0.125411595668E+04    0.10844E-01   -0.14219E-03  2577   0.510E-02    0.218E+00
RMM:  34    -0.125410467051E+04    0.11286E-01   -0.19107E-03  2358   0.600E-02    0.248E+00
RMM:  35    -0.125410294156E+04    0.17290E-02   -0.40151E-04  2426   0.321E-02    0.242E+00
RMM:  36    -0.125409443960E+04    0.85020E-02   -0.10206E-03  2212   0.437E-02    0.270E+00
RMM:  37    -0.125409429449E+04    0.14511E-03   -0.19754E-04  2191   0.237E-02    0.265E+00
RMM:  38    -0.125409080273E+04    0.34918E-02   -0.18386E-04  2328   0.141E-02    0.270E+00
RMM:  39    -0.125408568642E+04    0.51163E-02   -0.20316E-04  2270   0.181E-02    0.277E+00
RMM:  40    -0.125408343794E+04    0.22485E-02   -0.11304E-04  2190   0.121E-02    0.280E+00
RMM:  41    -0.125408396188E+04   -0.52394E-03   -0.22293E-05  1721   0.924E-03    0.279E+00
RMM:  42    -0.125408106310E+04    0.28988E-02   -0.67531E-05  2040   0.112E-02    0.283E+00
RMM:  43    -0.125408080106E+04    0.26204E-03   -0.16405E-05  1553   0.573E-03    0.284E+00
RMM:  44    -0.125408337877E+04   -0.25777E-02   -0.42222E-05  1810   0.116E-02    0.280E+00
RMM:  45    -0.125409025361E+04   -0.68748E-02   -0.35992E-04  2189   0.276E-02    0.273E+00
RMM:  46    -0.125411351943E+04   -0.23266E-01   -0.68209E-03  2197   0.117E-01    0.234E+00
RMM:  47    -0.125412434964E+04   -0.10830E-01   -0.21677E-03  2381   0.634E-02    0.228E+00
RMM:  48    -0.125412598764E+04   -0.16380E-02   -0.46142E-04  2264   0.387E-02    0.230E+00
RMM:  49    -0.125412658562E+04   -0.59798E-03   -0.14923E-04  2221   0.224E-02    0.236E+00
RMM:  50    -0.125412725167E+04   -0.66605E-03   -0.44132E-05  1905   0.901E-03    0.237E+00
RMM:  51    -0.125412891160E+04   -0.16599E-02   -0.44873E-05  1947   0.875E-03    0.237E+00
RMM:  52    -0.125412867495E+04    0.23665E-03   -0.21781E-05  1775   0.830E-03    0.237E+00
RMM:  53    -0.125412969496E+04   -0.10200E-02   -0.21150E-05  1747   0.680E-03    0.238E+00
RMM:  54    -0.125412931583E+04    0.37912E-03   -0.31918E-05  1824   0.103E-02    0.240E+00
RMM:  55    -0.125413137016E+04   -0.20543E-02   -0.50911E-05  2170   0.103E-02    0.247E+00
RMM:  56    -0.125412821667E+04    0.31535E-02   -0.21167E-04  2079   0.234E-02    0.253E+00
RMM:  57    -0.125413002067E+04   -0.18040E-02   -0.44662E-05  1861   0.124E-02    0.259E+00
RMM:  58    -0.125412728083E+04    0.27398E-02   -0.58973E-05  1901   0.126E-02    0.257E+00
RMM:  59    -0.125412860955E+04   -0.13287E-02   -0.53757E-05  1823   0.129E-02    0.255E+00
RMM:  60    -0.125412603687E+04    0.25727E-02   -0.56156E-05  2057   0.106E-02    0.246E+00
RMM:  61    -0.125413474003E+04   -0.87032E-02   -0.15201E-03  2111   0.602E-02    0.248E+00
RMM:  62    -0.125440987206E+04   -0.27513E+00   -0.53691E-02  2283   0.325E-01    0.139E+01
RMM:  63    -0.125440990993E+04   -0.37865E-04   -0.35794E-02  2221   0.373E-01    0.143E+01
RMM:  64    -0.125439998039E+04    0.99295E-02   -0.68915E-03  2524   0.137E-01    0.143E+01
RMM:  65    -0.125438890386E+04    0.11077E-01   -0.75892E-04  2305   0.479E-02    0.143E+01
RMM:  66    -0.125440318320E+04   -0.14279E-01   -0.38419E-04  2432   0.263E-02    0.143E+01
RMM:  67    -0.125438331394E+04    0.19869E-01   -0.35769E-04  2120   0.316E-02    0.142E+01
RMM:  68    -0.125438362058E+04   -0.30664E-03   -0.87882E-05  1968   0.184E-02    0.142E+01
RMM:  69    -0.125439636144E+04   -0.12741E-01   -0.18541E-04  1998   0.245E-02    0.143E+01
RMM:  70    -0.125441978616E+04   -0.23425E-01   -0.12827E-03  2238   0.569E-02    0.144E+01
RMM:  71    -0.125439909186E+04    0.20694E-01   -0.24846E-04  2096   0.341E-02    0.142E+01
RMM:  72    -0.125439586562E+04    0.32262E-02   -0.13951E-04  2250   0.234E-02    0.143E+01
RMM:  73    -0.125440230566E+04   -0.64400E-02   -0.66184E-05  1963   0.181E-02    0.144E+01
RMM:  74    -0.125439673738E+04    0.55683E-02   -0.43704E-05  1947   0.138E-02    0.144E+01
RMM:  75    -0.125439738715E+04   -0.64978E-03   -0.21079E-05  1860   0.940E-03    0.145E+01
RMM:  76    -0.125438677463E+04    0.10613E-01   -0.57942E-05  1933   0.131E-02    0.144E+01
RMM:  77    -0.125433058194E+04    0.56193E-01   -0.13631E-03  2248   0.537E-02    0.139E+01
RMM:  78    -0.125434660838E+04   -0.16026E-01   -0.51151E-04  2073   0.499E-02    0.139E+01
RMM:  79    -0.125436773962E+04   -0.21131E-01   -0.20322E-04  2172   0.249E-02    0.142E+01
RMM:  80    -0.125435826291E+04    0.94767E-02   -0.12281E-04  1981   0.253E-02    0.141E+01
RMM:  81    -0.125435990282E+04   -0.16399E-02   -0.11903E-05  1757   0.771E-03    0.142E+01
RMM:  82    -0.125435713299E+04    0.27698E-02   -0.38181E-04  2124   0.324E-02    0.142E+01
RMM:  83    -0.125438624957E+04   -0.29117E-01   -0.28817E-04  2326   0.283E-02    0.147E+01
RMM:  84    -0.125437549985E+04    0.10750E-01   -0.28887E-04  2032   0.393E-02    0.147E+01
RMM:  85    -0.125437275339E+04    0.27465E-02   -0.56064E-05  2082   0.149E-02    0.148E+01
RMM:  86    -0.125436021735E+04    0.12536E-01   -0.73192E-05  2128   0.139E-02    0.145E+01
RMM:  87    -0.125415872702E+04    0.20149E+00   -0.11670E-02  2156   0.183E-01    0.891E+00
RMM:  88    -0.125423177751E+04   -0.73050E-01   -0.11866E-02  2266   0.213E-01    0.124E+01
RMM:  89    -0.125421108091E+04    0.20697E-01   -0.41428E-03  2258   0.120E-01    0.110E+01
RMM:  90    -0.125419298076E+04    0.18100E-01   -0.81591E-04  2309   0.565E-02    0.112E+01
RMM:  91    -0.125419127246E+04    0.17083E-02   -0.83889E-04  2110   0.562E-02    0.111E+01
RMM:  92    -0.125407317751E+04    0.11809E+00   -0.35940E-02  2225   0.278E-01    0.470E+00
RMM:  93    -0.125414180796E+04   -0.68630E-01   -0.22275E-02  2215   0.277E-01    0.641E+00
RMM:  94    -0.125414350032E+04   -0.16924E-02   -0.64994E-03  2205   0.144E-01    0.354E+00
RMM:  95    -0.125411970791E+04    0.23792E-01   -0.87586E-03  2310   0.140E-01    0.331E+00
RMM:  96    -0.125411482251E+04    0.48854E-02   -0.30086E-03  2427   0.762E-02    0.333E+00
RMM:  97    -0.125410030020E+04    0.14522E-01   -0.18649E-03  2436   0.557E-02    0.324E+00
RMM:  98    -0.125410142292E+04   -0.11227E-02   -0.54902E-04  2237   0.396E-02    0.331E+00
RMM:  99    -0.125410751854E+04   -0.60956E-02   -0.46450E-04  2028   0.404E-02    0.305E+00
RMM: 100    -0.125412116985E+04   -0.13651E-01   -0.30600E-03  2211   0.853E-02    0.244E+00
RMM: 101    -0.125413527570E+04   -0.14106E-01   -0.46528E-03  2482   0.101E-01    0.216E+00
RMM: 102    -0.125413938797E+04   -0.41123E-02   -0.93842E-04  2378   0.480E-02    0.228E+00
RMM: 103    -0.125414140647E+04   -0.20185E-02   -0.44075E-04  2504   0.308E-02    0.227E+00
RMM: 104    -0.125414130119E+04    0.10528E-03   -0.20734E-04  2389   0.248E-02    0.235E+00
RMM: 105    -0.125414394411E+04   -0.26429E-02   -0.15716E-04  2374   0.201E-02    0.240E+00
RMM: 106    -0.125414675618E+04   -0.28121E-02   -0.15794E-04  2448   0.182E-02    0.241E+00
RMM: 107    -0.125415997620E+04   -0.13220E-01   -0.20287E-03  2207   0.636E-02    0.236E+00
RMM: 108    -0.125416401682E+04   -0.40406E-02   -0.11647E-03  2406   0.428E-02    0.231E+00
RMM: 109    -0.125416585049E+04   -0.18337E-02   -0.41196E-04  2481   0.239E-02    0.230E+00
RMM: 110    -0.125416296016E+04    0.28903E-02   -0.11682E-04  1966   0.193E-02    0.232E+00
RMM: 111    -0.125416393227E+04   -0.97211E-03   -0.28038E-05  1787   0.871E-03    0.233E+00
RMM: 112    -0.125415389817E+04    0.10034E-01   -0.15148E-03  2183   0.576E-02    0.247E+00
RMM: 113    -0.125414902285E+04    0.48753E-02   -0.90722E-04  2474   0.402E-02    0.253E+00
RMM: 114    -0.125414981867E+04   -0.79582E-03   -0.12993E-04  2241   0.153E-02    0.249E+00
RMM: 115    -0.125415081278E+04   -0.99411E-03   -0.47577E-05  1964   0.127E-02    0.244E+00
RMM: 116    -0.125415279757E+04   -0.19848E-02   -0.29636E-04  2396   0.265E-02    0.236E+00
RMM: 117    -0.125415703219E+04   -0.42346E-02   -0.39963E-04  2395   0.289E-02    0.226E+00
RMM: 118    -0.125415698130E+04    0.50887E-04   -0.69216E-05  2128   0.130E-02    0.227E+00
RMM: 119    -0.125415865391E+04   -0.16726E-02   -0.11235E-04  2367   0.154E-02    0.224E+00
RMM: 120    -0.125415916303E+04   -0.50912E-03   -0.68420E-05  2440   0.117E-02
   6 F= -.12626915E+04 E0= -.12626882E+04  d E =-.271636E+01  mag=    20.2065
 curvature:  -0.22 expect dE=-0.308E-01 dE for cont linesearch -0.200E-05
 trial: gam= 0.27372 g(F)=  0.138E+00 g(S)=  0.000E+00 ort = 0.212E-02 (trialstep = 0.822E+00)
 search vector abs. value=  0.177E+00
 bond charge predicted
       N       E                     dE             d eps       ncg     rms          rms(c)
DAV:   1    -0.125405857729E+04    0.10008E+00   -0.38051E+01  2112   0.115E+01    0.350E+00
RMM:   2    -0.125445808041E+04   -0.39950E+00   -0.11310E+00  2399   0.206E+00    0.109E+01
RMM:   3    -0.125429924808E+04    0.15883E+00   -0.29625E-01  2486   0.103E+00    0.118E+01
RMM:   4    -0.125432080721E+04   -0.21559E-01   -0.78461E-02  2514   0.549E-01    0.128E+01
RMM:   5    -0.125442874977E+04   -0.10794E+00   -0.27310E-02  2512   0.290E-01    0.149E+01
RMM:   6    -0.125431463062E+04    0.11412E+00   -0.26942E-02  2338   0.320E-01    0.148E+01
RMM:   7    -0.125425849041E+04    0.56140E-01   -0.86429E-03  2394   0.177E-01    0.137E+01
RMM:   8    -0.125415525607E+04    0.10323E+00   -0.44722E-02  2225   0.394E-01    0.890E+00
RMM:   9    -0.125416606153E+04   -0.10805E-01   -0.10594E-01  2280   0.609E-01    0.648E+00
RMM:  10    -0.125416720054E+04   -0.11390E-02   -0.46029E-02  2303   0.439E-01    0.582E+00
RMM:  11    -0.125418004420E+04   -0.12844E-01   -0.26509E-02  2423   0.299E-01    0.687E+00
RMM:  12    -0.125421543987E+04   -0.35396E-01   -0.21166E-02  2423   0.257E-01    0.102E+01
RMM:  13    -0.125418216220E+04    0.33278E-01   -0.76040E-03  2262   0.189E-01    0.103E+01
RMM:  14    -0.125410646920E+04    0.75693E-01   -0.74729E-03  2284   0.162E-01    0.796E+00
RMM:  15    -0.125411996330E+04   -0.13494E-01   -0.14395E-02  2254   0.240E-01    0.802E+00
RMM:  16    -0.125407456889E+04    0.45394E-01   -0.87892E-03  2356   0.185E-01    0.585E+00
RMM:  17    -0.125411607158E+04   -0.41503E-01   -0.10660E-02  2239   0.207E-01    0.610E+00
RMM:  18    -0.125412904732E+04   -0.12976E-01   -0.70293E-03  2374   0.160E-01    0.620E+00
RMM:  19    -0.125414507461E+04   -0.16027E-01   -0.48305E-03  2324   0.134E-01    0.695E+00
RMM:  20    -0.125413609148E+04    0.89831E-02   -0.11439E-03  2411   0.641E-02    0.692E+00
RMM:  21    -0.125413273077E+04    0.33607E-02   -0.50615E-04  2449   0.381E-02    0.680E+00
RMM:  22    -0.125412451990E+04    0.82109E-02   -0.26302E-04  2435   0.266E-02    0.619E+00
RMM:  23    -0.125411207935E+04    0.12441E-01   -0.57455E-03  2178   0.140E-01    0.407E+00
RMM:  24    -0.125412232369E+04   -0.10244E-01   -0.45436E-03  2310   0.144E-01    0.349E+00
RMM:  25    -0.125412598560E+04   -0.36619E-02   -0.28069E-03  2371   0.108E-01    0.338E+00
RMM:  26    -0.125412362814E+04    0.23575E-02   -0.18727E-03  2421   0.758E-02    0.352E+00
RMM:  27    -0.125412129563E+04    0.23325E-02   -0.16746E-03  2366   0.636E-02    0.438E+00
RMM:  28    -0.125411886590E+04    0.24297E-02   -0.91819E-04  2253   0.593E-02    0.505E+00
RMM:  29    -0.125411269531E+04    0.61706E-02   -0.48489E-04  2233   0.483E-02    0.525E+00
RMM:  30    -0.125410666388E+04    0.60314E-02   -0.35200E-04  2358   0.352E-02    0.513E+00
RMM:  31    -0.125410143266E+04    0.52312E-02   -0.22967E-04  2346   0.261E-02    0.479E+00
RMM:  32    -0.125409972108E+04    0.17116E-02   -0.16554E-04  2193   0.223E-02    0.457E+00
RMM:  33    -0.125409969973E+04    0.21348E-04   -0.99952E-05  2061   0.181E-02    0.451E+00
RMM:  34    -0.125409088970E+04    0.88100E-02   -0.50635E-04  2269   0.370E-02    0.374E+00
RMM:  35    -0.125409367491E+04   -0.27852E-02   -0.44292E-04  2102   0.477E-02    0.352E+00
RMM:  36    -0.125409391859E+04   -0.24368E-03   -0.24473E-04  2075   0.353E-02    0.341E+00
RMM:  37    -0.125409471142E+04   -0.79283E-03   -0.10512E-04  1992   0.220E-02    0.334E+00
RMM:  38    -0.125409089020E+04    0.38212E-02   -0.17132E-04  2046   0.274E-02    0.333E+00
RMM:  39    -0.125406813948E+04    0.22751E-01   -0.21590E-03  2289   0.785E-02    0.338E+00
RMM:  40    -0.125407116496E+04   -0.30255E-02   -0.35282E-04  2166   0.356E-02    0.335E+00
RMM:  41    -0.125406668881E+04    0.44761E-02   -0.28510E-04  2386   0.211E-02    0.332E+00
RMM:  42    -0.125406802754E+04   -0.13387E-02   -0.20023E-04  2056   0.306E-02    0.337E+00
RMM:  43    -0.125406532850E+04    0.26990E-02   -0.13816E-03  2102   0.609E-02    0.326E+00
RMM:  44    -0.125406534962E+04   -0.21119E-04   -0.82925E-03  2347   0.146E-01    0.365E+00
RMM:  45    -0.125408653446E+04   -0.21185E-01   -0.53198E-03  2467   0.108E-01    0.396E+00
RMM:  46    -0.125408914555E+04   -0.26111E-02   -0.14106E-03  2553   0.502E-02    0.404E+00
RMM:  47    -0.125413193051E+04   -0.42785E-01   -0.16112E-02  2295   0.177E-01    0.517E+00
RMM:  48    -0.125412801847E+04    0.39120E-02   -0.31223E-03  2240   0.817E-02    0.522E+00
RMM:  49    -0.125412665262E+04    0.13658E-02   -0.51062E-04  2465   0.276E-02    0.525E+00
RMM:  50    -0.125412122899E+04    0.54236E-02   -0.36140E-04  2382   0.272E-02    0.525E+00
RMM:  51    -0.125412573497E+04   -0.45060E-02   -0.46016E-04  2312   0.350E-02    0.504E+00
RMM:  52    -0.125414039228E+04   -0.14657E-01   -0.12082E-02  2246   0.169E-01    0.374E+00
RMM:  53    -0.125414172047E+04   -0.13282E-02   -0.55648E-03  2390   0.118E-01    0.355E+00
RMM:  54    -0.125414023063E+04    0.14898E-02   -0.31827E-03  2661   0.711E-02    0.307E+00
RMM:  55    -0.125412168572E+04    0.18545E-01   -0.17384E-03  2421   0.689E-02    0.242E+00
RMM:  56    -0.125412281793E+04   -0.11322E-02   -0.18387E-03  2613   0.617E-02    0.168E+00
RMM:  57    -0.125414434579E+04   -0.21528E-01   -0.16813E-03  2172   0.831E-02    0.145E+00
RMM:  58    -0.125415151797E+04   -0.71722E-02   -0.87119E-04  2444   0.469E-02    0.135E+00
RMM:  59    -0.125415550637E+04   -0.39884E-02   -0.49312E-04  2425   0.311E-02    0.128E+00
RMM:  60    -0.125415635900E+04   -0.85263E-03   -0.19002E-04  2386   0.172E-02    0.125E+00
RMM:  61    -0.125415651532E+04   -0.15632E-03   -0.55516E-05  1975   0.109E-02    0.124E+00
RMM:  62    -0.125415878645E+04   -0.22711E-02   -0.75270E-05  2067   0.144E-02    0.127E+00
RMM:  63    -0.125415855869E+04    0.22775E-03   -0.43083E-05  2047   0.126E-02    0.123E+00
RMM:  64    -0.125415589651E+04    0.26622E-02   -0.39929E-04  2230   0.302E-02    0.134E+00
RMM:  65    -0.125415569302E+04    0.20349E-03   -0.19489E-04  2237   0.208E-02    0.140E+00
RMM:  66    -0.125415369928E+04    0.19937E-02   -0.47274E-04  2456   0.286E-02    0.145E+00
RMM:  67    -0.125415731712E+04   -0.36178E-02   -0.19008E-04  2148   0.267E-02    0.137E+00
RMM:  68    -0.125415901438E+04   -0.16973E-02   -0.24916E-04  2371   0.236E-02    0.129E+00
RMM:  69    -0.125416334838E+04   -0.43340E-02   -0.38143E-04  2427   0.282E-02    0.119E+00
RMM:  70    -0.125416510044E+04   -0.17521E-02   -0.22376E-04  2417   0.193E-02    0.119E+00
RMM:  71    -0.125416715087E+04   -0.20504E-02   -0.13627E-04  2362   0.169E-02    0.122E+00
RMM:  72    -0.125416202141E+04    0.51295E-02   -0.89837E-04  2332   0.488E-02    0.123E+00
RMM:  73    -0.125416410051E+04   -0.20791E-02   -0.15483E-04  2065   0.267E-02    0.120E+00
RMM:  74    -0.125416416301E+04   -0.62500E-04   -0.18205E-05  1912   0.780E-03    0.119E+00
RMM:  75    -0.125416466235E+04   -0.49934E-03   -0.23464E-05  1900   0.830E-03    0.117E+00
RMM:  76    -0.125417438544E+04   -0.97231E-02   -0.17937E-03  2389   0.603E-02    0.167E+00
RMM:  77    -0.125419575330E+04   -0.21368E-01   -0.25910E-03  2310   0.909E-02    0.370E+00
RMM:  78    -0.125425008520E+04   -0.54332E-01   -0.56213E-03  2380   0.124E-01    0.868E+00
RMM:  79    -0.125423988607E+04    0.10199E-01   -0.92544E-03  2183   0.200E-01    0.938E+00
RMM:  80    -0.125421996469E+04    0.19921E-01   -0.24170E-03  2216   0.906E-02    0.962E+00
RMM:  81    -0.125422703991E+04   -0.70752E-02   -0.63428E-04  2259   0.513E-02    0.975E+00
RMM:  82    -0.125431326607E+04   -0.86226E-01   -0.50342E-03  2392   0.102E-01    0.958E+00
RMM:  83    -0.125430643586E+04    0.68302E-02   -0.68608E-04  2227   0.392E-02    0.959E+00
RMM:  84    -0.125431548688E+04   -0.90510E-02   -0.27118E-04  2471   0.226E-02    0.959E+00
RMM:  85    -0.125432096442E+04   -0.54775E-02   -0.94870E-05  2128   0.131E-02    0.960E+00
RMM:  86    -0.125432463116E+04   -0.36667E-02   -0.42641E-05  2224   0.980E-03    0.963E+00
RMM:  87    -0.125414871987E+04    0.17591E+00   -0.13236E-02  2359   0.170E-01    0.655E+00
RMM:  88    -0.125419464122E+04   -0.45921E-01   -0.46066E-03  2187   0.139E-01    0.779E+00
RMM:  89    -0.125420242461E+04   -0.77834E-02   -0.11129E-03  2351   0.640E-02    0.788E+00
RMM:  90    -0.125420082671E+04    0.15979E-02   -0.28550E-04  2051   0.359E-02    0.823E+00
RMM:  91    -0.125419924198E+04    0.15847E-02   -0.22410E-04  2083   0.316E-02    0.832E+00
RMM:  92    -0.125410152715E+04    0.97715E-01   -0.28874E-02  2250   0.273E-01    0.169E+00
RMM:  93    -0.125418588665E+04   -0.84359E-01   -0.24136E-02  2216   0.329E-01    0.216E+00
RMM:  94    -0.125418326050E+04    0.26261E-02   -0.65560E-03  2581   0.131E-01    0.260E+00
RMM:  95    -0.125417834346E+04    0.49170E-02   -0.17479E-03  2601   0.558E-02    0.263E+00
RMM:  96    -0.125417509817E+04    0.32453E-02   -0.78568E-04  2622   0.384E-02    0.238E+00
RMM:  97    -0.125417755528E+04   -0.24571E-02   -0.57542E-04  2402   0.414E-02    0.196E+00
RMM:  98    -0.125418011487E+04   -0.25596E-02   -0.34361E-04  2379   0.350E-02    0.182E+00
RMM:  99    -0.125418152703E+04   -0.14122E-02   -0.14927E-04  2417   0.202E-02    0.177E+00
RMM: 100    -0.125418251806E+04   -0.99104E-03   -0.10482E-04  2262   0.162E-02    0.173E+00
RMM: 101    -0.125418286417E+04   -0.34610E-03   -0.48116E-05  2183   0.104E-02    0.172E+00
RMM: 102    -0.125418897730E+04   -0.61131E-02   -0.31828E-03  2244   0.953E-02    0.132E+00
RMM: 103    -0.125418650531E+04    0.24720E-02   -0.43017E-04  2166   0.412E-02    0.135E+00
RMM: 104    -0.125418558957E+04    0.91574E-03   -0.70462E-04  2525   0.355E-02    0.120E+00
RMM: 105    -0.125418467482E+04    0.91475E-03   -0.10635E-03  2481   0.482E-02    0.114E+00
RMM: 106    -0.125418445268E+04    0.22213E-03   -0.10590E-03  2715   0.441E-02    0.115E+00
RMM: 107    -0.125418489184E+04   -0.43915E-03   -0.38900E-04  2655   0.275E-02    0.117E+00
RMM: 108    -0.125418511179E+04   -0.21996E-03   -0.13878E-04  2504   0.173E-02    0.120E+00
RMM: 109    -0.125418512947E+04   -0.17682E-04   -0.60396E-05  2354   0.114E-02    0.124E+00
RMM: 110    -0.125418499559E+04    0.13389E-03   -0.41584E-05  2290   0.895E-03    0.128E+00
RMM: 111    -0.125418474028E+04    0.25530E-03   -0.45890E-05  2434   0.997E-03    0.133E+00
RMM: 112    -0.125418674647E+04   -0.20062E-02   -0.12907E-03  2311   0.579E-02    0.197E+00
RMM: 113    -0.125418610811E+04    0.63836E-03   -0.32707E-04  2120   0.406E-02    0.212E+00
RMM: 114    -0.125418591700E+04    0.19112E-03   -0.16040E-04  2369   0.238E-02    0.226E+00
RMM: 115    -0.125418709549E+04   -0.11785E-02   -0.13624E-04  2477   0.197E-02    0.264E+00
RMM: 116    -0.125418508036E+04    0.20151E-02   -0.11907E-04  2036   0.230E-02    0.254E+00
RMM: 117    -0.125418893040E+04   -0.38500E-02   -0.52885E-04  2508   0.355E-02    0.340E+00
RMM: 118    -0.125418705006E+04    0.18803E-02   -0.25465E-04  2201   0.347E-02    0.371E+00
RMM: 119    -0.125418525870E+04    0.17914E-02   -0.11536E-04  2148   0.223E-02    0.386E+00
RMM: 120    -0.125417829080E+04    0.69679E-02   -0.29876E-04  2278   0.289E-02
   7 F= -.12626946E+04 E0= -.12626809E+04  d E =-.309552E-02  mag=    20.1099
 trial-energy change:   -0.003096  1 .order    0.004243   -0.114259    0.122744
 step:   0.3961(harm=  0.3961)  dis= 0.00883  next Energy= -1262.719035 (dE=-0.275E-01)
 bond charge predicted
       N       E                     dE             d eps       ncg     rms          rms(c)
DAV:   1    -0.125417827759E+04    0.69811E-02   -0.10139E+01  2152   0.598E+00    0.390E+00
RMM:   2    -0.125559854028E+04   -0.14203E+01   -0.11360E+00  2270   0.208E+00    0.220E+01
RMM:   3    -0.125428062685E+04    0.13179E+01   -0.45718E-01  2340   0.141E+00    0.900E+00
RMM:   4    -0.125431552455E+04   -0.34898E-01   -0.17487E-01  2384   0.786E-01    0.118E+01
RMM:   5    -0.125444225166E+04   -0.12673E+00   -0.81417E-02  2383   0.551E-01    0.144E+01
RMM:   6    -0.125411747764E+04    0.32477E+00   -0.95480E-02  2228   0.594E-01    0.289E+00
RMM:   7    -0.125422134647E+04   -0.10387E+00   -0.65690E-02  2251   0.569E-01    0.356E+00
RMM:   8    -0.125422371030E+04   -0.23638E-02   -0.36840E-02  2396   0.369E-01    0.307E+00
RMM:   9    -0.125420864628E+04    0.15064E-01   -0.19325E-02  2368   0.260E-01    0.229E+00
RMM:  10    -0.125420146414E+04    0.71821E-02   -0.12126E-02  2310   0.207E-01    0.231E+00
RMM:  11    -0.125419207594E+04    0.93882E-02   -0.71322E-03  2397   0.149E-01    0.182E+00
RMM:  12    -0.125418908382E+04    0.29921E-02   -0.44304E-03  2448   0.118E-01    0.201E+00
RMM:  13    -0.125418566686E+04    0.34170E-02   -0.17587E-03  2510   0.724E-02    0.201E+00
RMM:  14    -0.125418216270E+04    0.35042E-02   -0.10043E-03  2411   0.557E-02    0.205E+00
RMM:  15    -0.125417305352E+04    0.91092E-02   -0.16896E-03  2356   0.657E-02    0.238E+00
RMM:  16    -0.125415167567E+04    0.21378E-01   -0.41935E-03  2334   0.940E-02    0.286E+00
RMM:  17    -0.125414811421E+04    0.35615E-02   -0.91289E-04  2445   0.388E-02    0.283E+00
RMM:  18    -0.125415522464E+04   -0.71104E-02   -0.36279E-04  2138   0.344E-02    0.285E+00
RMM:  19    -0.125415997822E+04   -0.47536E-02   -0.29866E-04  2213   0.288E-02    0.280E+00
RMM:  20    -0.125416729151E+04   -0.73133E-02   -0.73054E-04  2314   0.377E-02    0.263E+00
RMM:  21    -0.125419081374E+04   -0.23522E-01   -0.63208E-03  2351   0.120E-01    0.277E+00
RMM:  22    -0.125421130880E+04   -0.20495E-01   -0.61206E-03  2512   0.113E-01    0.429E+00
RMM:  23    -0.125420908488E+04    0.22239E-02   -0.23471E-03  2353   0.832E-02    0.434E+00
RMM:  24    -0.125421061604E+04   -0.15312E-02   -0.15882E-03  2495   0.454E-02    0.460E+00
RMM:  25    -0.125420661461E+04    0.40014E-02   -0.71941E-04  2207   0.514E-02    0.459E+00
RMM:  26    -0.125420477546E+04    0.18391E-02   -0.49452E-04  2395   0.377E-02    0.522E+00
RMM:  27    -0.125419957120E+04    0.52043E-02   -0.32606E-04  2199   0.353E-02    0.527E+00
RMM:  28    -0.125419210096E+04    0.74702E-02   -0.36926E-04  2202   0.383E-02    0.506E+00
RMM:  29    -0.125419790012E+04   -0.57992E-02   -0.11053E-03  2212   0.608E-02    0.504E+00
RMM:  30    -0.125419725887E+04    0.64125E-03   -0.48830E-04  2261   0.397E-02    0.402E+00
RMM:  31    -0.125420625186E+04   -0.89930E-02   -0.58484E-04  2064   0.506E-02    0.421E+00
RMM:  32    -0.125420208824E+04    0.41636E-02   -0.11470E-03  2285   0.610E-02    0.368E+00
RMM:  33    -0.125419323477E+04    0.88535E-02   -0.29982E-03  2317   0.887E-02    0.347E+00
RMM:  34    -0.125418985431E+04    0.33805E-02   -0.18401E-03  2419   0.628E-02    0.380E+00
RMM:  35    -0.125420076766E+04   -0.10913E-01   -0.48574E-04  2091   0.366E-02    0.404E+00
RMM:  36    -0.125418251738E+04    0.18250E-01   -0.22248E-03  2207   0.700E-02    0.442E+00
RMM:  37    -0.125419223452E+04   -0.97171E-02   -0.62458E-04  2114   0.440E-02    0.440E+00
RMM:  38    -0.125419028172E+04    0.19528E-02   -0.13718E-04  2171   0.199E-02    0.449E+00
RMM:  39    -0.125419819717E+04   -0.79155E-02   -0.61006E-04  2169   0.326E-02    0.442E+00
RMM:  40    -0.125419742466E+04    0.77252E-03   -0.99468E-05  2020   0.181E-02    0.449E+00
RMM:  41    -0.125419698257E+04    0.44209E-03   -0.35172E-05  1970   0.110E-02    0.453E+00
RMM:  42    -0.125420052425E+04   -0.35417E-02   -0.67534E-04  2339   0.365E-02    0.422E+00
RMM:  43    -0.125421910278E+04   -0.18579E-01   -0.87452E-03  2354   0.129E-01    0.397E+00
RMM:  44    -0.125421691476E+04    0.21880E-02   -0.12639E-03  2294   0.439E-02    0.385E+00
RMM:  45    -0.125423012771E+04   -0.13213E-01   -0.25900E-03  2399   0.662E-02    0.469E+00
RMM:  46    -0.125422667968E+04    0.34480E-02   -0.10242E-03  2252   0.623E-02    0.450E+00
RMM:  47    -0.125433250003E+04   -0.10582E+00   -0.22390E-02  2246   0.202E-01    0.105E+01
RMM:  48    -0.125424057059E+04    0.91929E-01   -0.18375E-02  2161   0.271E-01    0.652E+00
RMM:  49    -0.125422321430E+04    0.17356E-01   -0.45795E-03  2258   0.133E-01    0.656E+00
RMM:  50    -0.125422666279E+04   -0.34485E-02   -0.11531E-03  2183   0.776E-02    0.537E+00
RMM:  51    -0.125423777349E+04   -0.11111E-01   -0.70661E-04  2106   0.548E-02    0.617E+00
RMM:  52    -0.125422132929E+04    0.16444E-01   -0.12655E-03  2227   0.559E-02    0.418E+00
RMM:  53    -0.125424854275E+04   -0.27213E-01   -0.43921E-03  2325   0.122E-01    0.638E+00
RMM:  54    -0.125425610704E+04   -0.75643E-02   -0.42256E-03  2461   0.110E-01    0.681E+00
RMM:  55    -0.125424707007E+04    0.90370E-02   -0.99262E-04  2241   0.559E-02    0.663E+00
RMM:  56    -0.125424541223E+04    0.16578E-02   -0.25217E-04  2371   0.208E-02    0.676E+00
RMM:  57    -0.125423133216E+04    0.14080E-01   -0.59367E-04  2148   0.386E-02    0.557E+00
RMM:  58    -0.125423138722E+04   -0.55058E-04   -0.10746E-03  2200   0.575E-02    0.533E+00
RMM:  59    -0.125421450823E+04    0.16879E-01   -0.65502E-03  2350   0.110E-01    0.270E+00
RMM:  60    -0.125420864578E+04    0.58625E-02   -0.97545E-03  2356   0.146E-01    0.245E+00
RMM:  61    -0.125420767475E+04    0.97103E-03   -0.48716E-03  2685   0.831E-02    0.254E+00
RMM:  62    -0.125419681599E+04    0.10859E-01   -0.28044E-03  2487   0.681E-02    0.253E+00
RMM:  63    -0.125420158418E+04   -0.47682E-02   -0.48651E-04  2222   0.368E-02    0.246E+00
RMM:  64    -0.125420346364E+04   -0.18795E-02   -0.16448E-04  2435   0.166E-02    0.246E+00
RMM:  65    -0.125420370459E+04   -0.24096E-03   -0.28901E-05  1858   0.755E-03    0.248E+00
RMM:  66    -0.125420488022E+04   -0.11756E-02   -0.13262E-04  2103   0.179E-02    0.245E+00
RMM:  67    -0.125420324862E+04    0.16316E-02   -0.46305E-04  2116   0.351E-02    0.231E+00
RMM:  68    -0.125420258913E+04    0.65949E-03   -0.31914E-04  2393   0.313E-02    0.224E+00
RMM:  69    -0.125420206811E+04    0.52101E-03   -0.74736E-04  2594   0.396E-02    0.222E+00
RMM:  70    -0.125420331873E+04   -0.12506E-02   -0.10095E-03  2555   0.481E-02    0.234E+00
RMM:  71    -0.125421221334E+04   -0.88946E-02   -0.30069E-03  2326   0.770E-02    0.282E+00
RMM:  72    -0.125423657400E+04   -0.24361E-01   -0.90759E-03  2405   0.132E-01    0.551E+00
RMM:  73    -0.125422356016E+04    0.13014E-01   -0.33989E-03  2174   0.118E-01    0.462E+00
RMM:  74    -0.125421941298E+04    0.41472E-02   -0.49795E-04  2108   0.409E-02    0.487E+00
RMM:  75    -0.125421621226E+04    0.32007E-02   -0.35935E-04  2207   0.283E-02    0.440E+00
RMM:  76    -0.125421787434E+04   -0.16621E-02   -0.53486E-04  2304   0.380E-02    0.413E+00
RMM:  77    -0.125423679573E+04   -0.18921E-01   -0.11585E-03  2217   0.548E-02    0.592E+00
RMM:  78    -0.125422713231E+04    0.96634E-02   -0.92361E-04  2093   0.622E-02    0.532E+00
RMM:  79    -0.125422549466E+04    0.16376E-02   -0.28783E-04  2468   0.246E-02    0.527E+00
RMM:  80    -0.125422867400E+04   -0.31793E-02   -0.31090E-04  2144   0.277E-02    0.526E+00
RMM:  81    -0.125422781198E+04    0.86202E-03   -0.48019E-04  2118   0.326E-02    0.474E+00
RMM:  82    -0.125421946463E+04    0.83473E-02   -0.25165E-03  2148   0.772E-02    0.297E+00
RMM:  83    -0.125422581540E+04   -0.63508E-02   -0.14645E-03  2107   0.791E-02    0.334E+00
RMM:  84    -0.125422686214E+04   -0.10467E-02   -0.27769E-04  2239   0.300E-02    0.316E+00
RMM:  85    -0.125422881376E+04   -0.19516E-02   -0.12787E-04  1996   0.236E-02    0.330E+00
RMM:  86    -0.125422901117E+04   -0.19741E-03   -0.67280E-05  1938   0.150E-02    0.330E+00
RMM:  87    -0.125422834730E+04    0.66387E-03   -0.42366E-04  2281   0.291E-02    0.309E+00
RMM:  88    -0.125423199906E+04   -0.36518E-02   -0.11598E-03  2248   0.541E-02    0.339E+00
RMM:  89    -0.125423310825E+04   -0.11092E-02   -0.12203E-03  2430   0.545E-02    0.345E+00
RMM:  90    -0.125423711960E+04   -0.40114E-02   -0.15968E-03  2449   0.583E-02    0.394E+00
RMM:  91    -0.125423724940E+04   -0.12980E-03   -0.10507E-03  2439   0.484E-02    0.395E+00
RMM:  92    -0.125423614896E+04    0.11004E-02   -0.11658E-03  2594   0.438E-02    0.353E+00
RMM:  93    -0.125423591681E+04    0.23215E-03   -0.47203E-04  2593   0.358E-02    0.318E+00
RMM:  94    -0.125423702893E+04   -0.11121E-02   -0.17988E-04  2326   0.241E-02    0.324E+00
RMM:  95    -0.125423681879E+04    0.21014E-03   -0.56645E-05  2256   0.117E-02    0.327E+00
RMM:  96    -0.125423997117E+04   -0.31524E-02   -0.12899E-04  2133   0.171E-02    0.369E+00
RMM:  97    -0.125423598240E+04    0.39888E-02   -0.12261E-04  2111   0.213E-02    0.324E+00
RMM:  98    -0.125423712027E+04   -0.11379E-02   -0.73517E-05  1966   0.160E-02    0.358E+00
RMM:  99    -0.125423505018E+04    0.20701E-02   -0.71812E-05  2110   0.130E-02    0.321E+00
RMM: 100    -0.125423863822E+04   -0.35880E-02   -0.68563E-05  2021   0.149E-02    0.364E+00
RMM: 101    -0.125423723635E+04    0.14019E-02   -0.42459E-05  1775   0.122E-02    0.335E+00
RMM: 102    -0.125424931388E+04   -0.12078E-01   -0.16277E-03  2142   0.579E-02    0.473E+00
RMM: 103    -0.125424127898E+04    0.80349E-02   -0.65952E-04  2046   0.516E-02    0.379E+00
RMM: 104    -0.125424409212E+04   -0.28131E-02   -0.14502E-04  1965   0.216E-02    0.449E+00
RMM: 105    -0.125424145974E+04    0.26324E-02   -0.10412E-04  1896   0.189E-02    0.410E+00
RMM: 106    -0.125424235285E+04   -0.89310E-03   -0.31645E-05  1727   0.102E-02    0.436E+00
RMM: 107    -0.125424143458E+04    0.91827E-03   -0.12705E-04  2407   0.168E-02    0.405E+00
RMM: 108    -0.125424150032E+04   -0.65745E-04   -0.67732E-05  2050   0.171E-02    0.398E+00
RMM: 109    -0.125424231366E+04   -0.81334E-03   -0.20697E-05  1927   0.852E-03    0.403E+00
RMM: 110    -0.125424212358E+04    0.19008E-03   -0.33902E-05  1930   0.897E-03    0.400E+00
RMM: 111    -0.125424065341E+04    0.14702E-02   -0.11634E-05  1622   0.553E-03    0.387E+00
RMM: 112    -0.125423803415E+04    0.26193E-02   -0.49227E-04  2040   0.356E-02    0.396E+00
RMM: 113    -0.125423782672E+04    0.20743E-03   -0.75204E-05  1941   0.181E-02    0.389E+00
RMM: 114    -0.125423527419E+04    0.25525E-02   -0.77911E-05  2054   0.130E-02    0.366E+00
RMM: 115    -0.125423322571E+04    0.20485E-02   -0.14379E-04  2226   0.172E-02    0.352E+00
RMM: 116    -0.125423485316E+04   -0.16275E-02   -0.35874E-05  1821   0.107E-02    0.363E+00
RMM: 117    -0.125424506456E+04   -0.10211E-01   -0.55819E-04  2306   0.347E-02    0.424E+00
RMM: 118    -0.125423986149E+04    0.52031E-02   -0.27092E-04  2084   0.324E-02    0.364E+00
RMM: 119    -0.125424328372E+04   -0.34222E-02   -0.12911E-04  2200   0.190E-02    0.415E+00
RMM: 120    -0.125424060204E+04    0.26817E-02   -0.72618E-05  1861   0.155E-02
   8 F= -.12627674E+04 E0= -.12627533E+04  d E =-.758966E-01  mag=    19.6157
 curvature:  -0.25 expect dE=-0.389E-01 dE for cont linesearch -0.450E-02
 ZBRENT: interpolating
 opt :   0.2820  next Energy= -1262.770596 (dE=-0.791E-01)
 bond charge predicted
       N       E                     dE             d eps       ncg     rms          rms(c)
DAV:   1    -0.125424262691E+04    0.65681E-03   -0.73252E-01  2208   0.160E+00    0.454E+00
RMM:   2    -0.125491935427E+04   -0.67673E+00   -0.55641E-01  2269   0.122E+00    0.137E+01
RMM:   3    -0.125470374476E+04    0.21561E+00   -0.52980E-01  2286   0.119E+00    0.184E+01
RMM:   4    -0.125469524854E+04    0.84962E-02   -0.85894E-02  2304   0.603E-01    0.181E+01
RMM:   5    -0.125455109134E+04    0.14416E+00   -0.27685E-01  2264   0.893E-01    0.167E+01
RMM:   6    -0.125438356506E+04    0.16753E+00   -0.18912E-01  2230   0.895E-01    0.964E+00
RMM:   7    -0.125435841001E+04    0.25155E-01   -0.97351E-02  2223   0.669E-01    0.662E+00
RMM:   8    -0.125430849222E+04    0.49918E-01   -0.30706E-02  2237   0.367E-01    0.484E+00
RMM:   9    -0.125431517460E+04   -0.66824E-02   -0.81084E-03  2383   0.165E-01    0.459E+00
RMM:  10    -0.125436028316E+04   -0.45109E-01   -0.26240E-02  2320   0.280E-01    0.615E+00
RMM:  11    -0.125432730123E+04    0.32982E-01   -0.37692E-02  2292   0.375E-01    0.449E+00
RMM:  12    -0.125431864444E+04    0.86568E-02   -0.12904E-02  2299   0.234E-01    0.394E+00
RMM:  13    -0.125431809381E+04    0.55063E-03   -0.67955E-03  2302   0.168E-01    0.359E+00
RMM:  14    -0.125432057809E+04   -0.24843E-02   -0.34178E-03  2328   0.118E-01    0.349E+00
RMM:  15    -0.125432443762E+04   -0.38595E-02   -0.12068E-03  2263   0.692E-02    0.349E+00
RMM:  16    -0.125432889361E+04   -0.44560E-02   -0.10574E-03  2338   0.557E-02    0.348E+00
RMM:  17    -0.125432876130E+04    0.13231E-03   -0.17080E-03  2232   0.783E-02    0.333E+00
RMM:  18    -0.125432601092E+04    0.27504E-02   -0.76682E-03  2265   0.168E-01    0.309E+00
RMM:  19    -0.125432261325E+04    0.33977E-02   -0.97714E-03  2373   0.183E-01    0.251E+00
RMM:  20    -0.125432782425E+04   -0.52110E-02   -0.23686E-03  2335   0.880E-02    0.242E+00
RMM:  21    -0.125433678390E+04   -0.89596E-02   -0.23612E-03  2199   0.975E-02    0.242E+00
RMM:  22    -0.125433914290E+04   -0.23590E-02   -0.18309E-03  2291   0.864E-02    0.228E+00
RMM:  23    -0.125434160452E+04   -0.24616E-02   -0.14499E-03  2315   0.746E-02    0.202E+00
RMM:  24    -0.125434750191E+04   -0.58974E-02   -0.18550E-03  2389   0.714E-02    0.169E+00
RMM:  25    -0.125435757431E+04   -0.10072E-01   -0.18454E-03  2432   0.723E-02    0.147E+00
RMM:  26    -0.125436430941E+04   -0.67351E-02   -0.10372E-03  2590   0.511E-02    0.132E+00
RMM:  27    -0.125437150403E+04   -0.71946E-02   -0.55972E-04  2528   0.353E-02    0.122E+00
RMM:  28    -0.125437993868E+04   -0.84347E-02   -0.46698E-04  2520   0.329E-02    0.116E+00
RMM:  29    -0.125440498065E+04   -0.25042E-01   -0.25691E-03  2250   0.774E-02    0.860E-01
RMM:  30    -0.125443036009E+04   -0.25379E-01   -0.58287E-03  2434   0.116E-01    0.519E-01
RMM:  31    -0.125443742065E+04   -0.70606E-02   -0.17290E-03  2710   0.516E-02    0.458E-01
RMM:  32    -0.125444357026E+04   -0.61496E-02   -0.51374E-04  2619   0.289E-02    0.366E-01
RMM:  33    -0.125445039909E+04   -0.68288E-02   -0.48467E-04  2596   0.287E-02    0.247E-01
RMM:  34    -0.125445634058E+04   -0.59415E-02   -0.43297E-04  2580   0.276E-02    0.156E-01
RMM:  35    -0.125446092417E+04   -0.45836E-02   -0.30579E-04  2596   0.217E-02    0.111E-01
RMM:  36    -0.125446521240E+04   -0.42882E-02   -0.29532E-04  2526   0.201E-02    0.697E-02
RMM:  37    -0.125446863467E+04   -0.34223E-02   -0.26640E-04  2613   0.189E-02    0.389E-02
RMM:  38    -0.125447035118E+04   -0.17165E-02   -0.12065E-04  2488   0.121E-02    0.330E-02
RMM:  39    -0.125447170411E+04   -0.13529E-02   -0.82686E-05  2371   0.961E-03    0.342E-02
RMM:  40    -0.125447241873E+04   -0.71462E-03   -0.37998E-05  2176   0.665E-03    0.241E-02
RMM:  41    -0.125447280128E+04   -0.38255E-03   -0.16612E-05  1914   0.455E-03    0.235E-02
RMM:  42    -0.125447307995E+04   -0.27867E-03   -0.10137E-05  1777   0.362E-03    0.181E-02
RMM:  43    -0.125447334204E+04   -0.26209E-03   -0.10379E-05  1780   0.331E-03    0.153E-02
RMM:  44    -0.125447349417E+04   -0.15213E-03   -0.62248E-06  1665   0.294E-03    0.132E-02
RMM:  45    -0.125447356974E+04   -0.75566E-04   -0.35922E-06  1512   0.231E-03    0.909E-03
RMM:  46    -0.125447366094E+04   -0.91202E-04   -0.42478E-06  1518   0.240E-03    0.706E-03
RMM:  47    -0.125447373802E+04   -0.77079E-04   -0.61240E-06  1656   0.255E-03    0.770E-03
RMM:  48    -0.125447376143E+04   -0.23408E-04   -0.23229E-06  1384   0.203E-03    0.561E-03
RMM:  49    -0.125447376956E+04   -0.81319E-05   -0.13200E-06  1249   0.149E-03    0.481E-03
RMM:  50    -0.125447377548E+04   -0.59227E-05   -0.83960E-07  1191   0.128E-03    0.260E-03
RMM:  51    -0.125447377804E+04   -0.25544E-05   -0.56615E-07  1131   0.103E-03    0.165E-03
RMM:  52    -0.125447377968E+04   -0.16400E-05   -0.51912E-07  1165   0.956E-04    0.135E-03
RMM:  53    -0.125447378103E+04   -0.13558E-05   -0.27599E-07  1005   0.822E-04    0.621E-04
RMM:  54    -0.125447378177E+04   -0.74039E-06   -0.17834E-07   938   0.558E-04
   9 F= -.12630030E+04 E0= -.12629986E+04  d E =-.311524E+00  mag=    18.1257
 curvature:  -0.18 expect dE=-0.283E-01 dE for cont linesearch -0.656E-02
 ZBRENT: bisectioning
 opt :   0.1410  next Energy= -1263.016474 (dE=-0.325E+00)
 bond charge predicted
       N       E                     dE             d eps       ncg     rms          rms(c)
DAV:   1    -0.125447575118E+04   -0.19701E-02   -0.11190E+00  2248   0.199E+00    0.458E-01
RMM:   2    -0.125447905766E+04   -0.33065E-02   -0.25666E-02  2443   0.315E-01    0.587E-01
RMM:   3    -0.125448279375E+04   -0.37361E-02   -0.63879E-03  2530   0.147E-01    0.137E+00
RMM:   4    -0.125447851483E+04    0.42789E-02   -0.28187E-03  2532   0.975E-02    0.305E-01
RMM:   5    -0.125447925349E+04   -0.73866E-03   -0.86779E-04  2280   0.573E-02    0.200E-01
RMM:   6    -0.125447930704E+04   -0.53545E-04   -0.28649E-04  2455   0.304E-02    0.157E-01
RMM:   7    -0.125447940306E+04   -0.96016E-04   -0.30402E-04  2347   0.359E-02    0.236E-01
RMM:   8    -0.125447929413E+04    0.10892E-03   -0.25337E-04  2374   0.316E-02    0.148E-01
RMM:   9    -0.125447928598E+04    0.81495E-05   -0.11086E-04  2133   0.218E-02    0.103E-01
RMM:  10    -0.125447929852E+04   -0.12538E-04   -0.29036E-05  1821   0.118E-02    0.700E-02
RMM:  11    -0.125447930468E+04   -0.61618E-05   -0.13104E-05  1596   0.798E-03    0.537E-02
RMM:  12    -0.125447930679E+04   -0.21029E-05   -0.51591E-06  1512   0.493E-03    0.462E-02
RMM:  13    -0.125447930900E+04   -0.22133E-05   -0.10970E-05  1674   0.647E-03    0.561E-02
RMM:  14    -0.125447931378E+04   -0.47824E-05   -0.12496E-05  1648   0.744E-03    0.510E-02
RMM:  15    -0.125447931634E+04   -0.25553E-05   -0.73090E-06  1496   0.590E-03    0.236E-02
RMM:  16    -0.125447932468E+04   -0.83446E-05   -0.29711E-06  1426   0.408E-03    0.202E-02
RMM:  17    -0.125447932839E+04   -0.37047E-05   -0.16511E-06  1316   0.311E-03    0.182E-02
RMM:  18    -0.125447933103E+04   -0.26389E-05   -0.95095E-07  1226   0.227E-03    0.138E-02
RMM:  19    -0.125447933468E+04   -0.36550E-05   -0.46994E-07  1147   0.168E-03    0.696E-03
RMM:  20    -0.125447933847E+04   -0.37901E-05   -0.26714E-07  1097   0.109E-03    0.641E-03
RMM:  21    -0.125447934101E+04   -0.25397E-05   -0.22634E-07  1086   0.108E-03    0.561E-03
RMM:  22    -0.125447934618E+04   -0.51690E-05   -0.21487E-07  1107   0.943E-04    0.537E-03
RMM:  23    -0.125447935137E+04   -0.51884E-05   -0.21734E-07  1096   0.948E-04    0.441E-03
RMM:  24    -0.125447935782E+04   -0.64501E-05   -0.27654E-07  1170   0.869E-04    0.195E-03
RMM:  25    -0.125447936258E+04   -0.47582E-05   -0.23200E-07  1103   0.841E-04    0.395E-03
RMM:  26    -0.125447936397E+04   -0.13886E-05   -0.15875E-07   985   0.728E-04    0.376E-03
RMM:  27    -0.125447936581E+04   -0.18450E-05   -0.11773E-07   909   0.574E-04    0.173E-03
RMM:  28    -0.125447936839E+04   -0.25800E-05   -0.12118E-07   934   0.516E-04    0.957E-04
RMM:  29    -0.125447936985E+04   -0.14578E-05   -0.97048E-08   895   0.487E-04    0.921E-04
RMM:  30    -0.125447937097E+04   -0.11192E-05   -0.80343E-08   813   0.423E-04    0.502E-04
RMM:  31    -0.125447937223E+04   -0.12586E-05   -0.86431E-08   898   0.436E-04    0.307E-04
RMM:  32    -0.125447937305E+04   -0.82103E-06   -0.76254E-08   873   0.420E-04
  10 F= -.12630106E+04 E0= -.12630066E+04  d E =-.319154E+00  mag=    18.1139
 curvature:  -0.37 expect dE=-0.301E-01 dE for cont linesearch -0.163E-02
 ZBRENT: interpolating
 opt :   0.0846  next Energy= -1263.011638 (dE=-0.320E+00)
 bond charge predicted
       N       E                     dE             d eps       ncg     rms          rms(c)
DAV:   1    -0.125447927007E+04    0.10215E-03   -0.17937E-01  2232   0.796E-01    0.183E-01
RMM:   2    -0.125447975815E+04   -0.48808E-03   -0.41272E-03  2445   0.126E-01    0.233E-01
RMM:   3    -0.125448036723E+04   -0.60908E-03   -0.10033E-03  2501   0.583E-02    0.562E-01
RMM:   4    -0.125447963402E+04    0.73321E-03   -0.45668E-04  2392   0.392E-02    0.125E-01
RMM:   5    -0.125447981016E+04   -0.17614E-03   -0.14613E-04  2080   0.240E-02    0.793E-02
RMM:   6    -0.125447982968E+04   -0.19524E-04   -0.46772E-05  2206   0.125E-02    0.650E-02
RMM:   7    -0.125447984640E+04   -0.16719E-04   -0.49406E-05  2051   0.148E-02    0.964E-02
RMM:   8    -0.125447982725E+04    0.19154E-04   -0.40078E-05  1988   0.131E-02    0.591E-02
RMM:   9    -0.125447982881E+04   -0.15607E-05   -0.16673E-05  1646   0.885E-03    0.437E-02
RMM:  10    -0.125447983130E+04   -0.24929E-05   -0.50281E-06  1490   0.535E-03    0.303E-02
RMM:  11    -0.125447983277E+04   -0.14677E-05   -0.22993E-06  1389   0.365E-03    0.221E-02
RMM:  12    -0.125447983366E+04   -0.89141E-06   -0.92652E-07  1239   0.226E-03
  11 F= -.12630116E+04 E0= -.12630077E+04  d E =-.320139E+00  mag=    18.1110
 curvature:  -0.22 expect dE=-0.155E-01 dE for cont linesearch -0.723E-04
 trial: gam= 0.34914 g(F)=  0.694E-01 g(S)=  0.000E+00 ort =-0.757E-02 (trialstep = 0.674E+00)
 search vector abs. value=  0.857E-01
 bond charge predicted
       N       E                     dE             d eps       ncg     rms          rms(c)
DAV:   1    -0.125442082083E+04    0.59012E-01   -0.12106E+01  2118   0.695E+00    0.163E+00
RMM:   2    -0.125445654651E+04   -0.35726E-01   -0.31590E-01  2534   0.111E+00    0.112E+00
RMM:   3    -0.125447745425E+04   -0.20908E-01   -0.53558E-02  2446   0.490E-01    0.318E+00
RMM:   4    -0.125445912665E+04    0.18328E-01   -0.21325E-02  2606   0.283E-01    0.146E+00
RMM:   5    -0.125445894960E+04    0.17705E-03   -0.87088E-03  2399   0.189E-01    0.651E-01
RMM:   6    -0.125445893833E+04    0.11271E-04   -0.30892E-03  2454   0.116E-01    0.570E-01
RMM:   7    -0.125445978644E+04   -0.84811E-03   -0.39246E-03  2399   0.133E-01    0.807E-01
RMM:   8    -0.125445834950E+04    0.14369E-02   -0.28093E-03  2372   0.114E-01    0.383E-01
RMM:   9    -0.125445827837E+04    0.71127E-04   -0.95167E-04  2300   0.674E-02    0.260E-01
RMM:  10    -0.125445825502E+04    0.23352E-04   -0.21080E-04  2360   0.295E-02    0.207E-01
RMM:  11    -0.125445824613E+04    0.88907E-05   -0.10614E-04  2179   0.198E-02    0.156E-01
RMM:  12    -0.125445827083E+04   -0.24707E-04   -0.59834E-05  2018   0.158E-02    0.104E-01
RMM:  13    -0.125445836929E+04   -0.98452E-04   -0.94490E-05  2078   0.203E-02    0.132E-01
RMM:  14    -0.125445841754E+04   -0.48259E-04   -0.97073E-05  2057   0.203E-02    0.116E-01
RMM:  15    -0.125445844669E+04   -0.29146E-04   -0.47037E-05  1905   0.152E-02    0.616E-02
RMM:  16    -0.125445846997E+04   -0.23279E-04   -0.13876E-05  1684   0.850E-03    0.401E-02
RMM:  17    -0.125445849243E+04   -0.22458E-04   -0.87352E-06  1583   0.607E-03    0.425E-02
RMM:  18    -0.125445851061E+04   -0.18186E-04   -0.61718E-06  1522   0.538E-03    0.259E-02
RMM:  19    -0.125445855156E+04   -0.40952E-04   -0.42190E-06  1494   0.422E-03    0.151E-02
RMM:  20    -0.125445859046E+04   -0.38891E-04   -0.27402E-06  1397   0.349E-03    0.159E-02
RMM:  21    -0.125445861652E+04   -0.26063E-04   -0.19036E-06  1358   0.303E-03    0.160E-02
RMM:  22    -0.125445864457E+04   -0.28050E-04   -0.14155E-06  1324   0.257E-03    0.100E-02
RMM:  23    -0.125445869067E+04   -0.46099E-04   -0.13386E-06  1284   0.224E-03    0.843E-03
RMM:  24    -0.125445874394E+04   -0.53273E-04   -0.16190E-06  1315   0.212E-03    0.913E-03
RMM:  25    -0.125445877877E+04   -0.34825E-04   -0.14301E-06  1303   0.212E-03    0.986E-03
RMM:  26    -0.125445881021E+04   -0.31440E-04   -0.11431E-06  1266   0.183E-03    0.405E-03
RMM:  27    -0.125445884828E+04   -0.38072E-04   -0.12999E-06  1260   0.145E-03    0.254E-03
RMM:  28    -0.125445886633E+04   -0.18057E-04   -0.76899E-07  1165   0.128E-03    0.174E-03
RMM:  29    -0.125445888924E+04   -0.22907E-04   -0.93748E-07  1153   0.106E-03    0.164E-03
RMM:  30    -0.125445890607E+04   -0.16826E-04   -0.71442E-07  1158   0.113E-03    0.155E-03
RMM:  31    -0.125445891876E+04   -0.12693E-04   -0.70400E-07  1104   0.974E-04    0.116E-03
RMM:  32    -0.125445893212E+04   -0.13358E-04   -0.76412E-07  1163   0.104E-03    0.663E-04
RMM:  33    -0.125445894183E+04   -0.97071E-05   -0.74982E-07  1139   0.981E-04    0.489E-04
RMM:  34    -0.125445894609E+04   -0.42651E-05   -0.56387E-07  1051   0.932E-04    0.359E-04
RMM:  35    -0.125445894852E+04   -0.24295E-05   -0.40244E-07   968   0.761E-04    0.262E-04
RMM:  36    -0.125445894974E+04   -0.12177E-05   -0.28109E-07   916   0.708E-04    0.213E-04
RMM:  37    -0.125445895059E+04   -0.84916E-06   -0.20925E-07   886   0.581E-04
  12 F= -.12629931E+04 E0= -.12629887E+04  d E =0.185111E-01  mag=    18.1270
 trial-energy change:    0.018511  1 .order    0.018751   -0.045004    0.082506
 step:   0.2397(harm=  0.2379)  dis= 0.00336  next Energy= -1263.019644 (dE=-0.801E-02)
 bond charge predicted
       N       E                     dE             d eps       ncg     rms          rms(c)
DAV:   1    -0.125447053409E+04   -0.11584E-01   -0.50303E+00  2170   0.447E+00    0.103E+00
RMM:   2    -0.125448533534E+04   -0.14801E-01   -0.13309E-01  2513   0.721E-01    0.780E-01
RMM:   3    -0.125449675891E+04   -0.11424E-01   -0.24669E-02  2453   0.325E-01    0.217E+00
RMM:   4    -0.125448552586E+04    0.11233E-01   -0.98435E-03  2599   0.194E-01    0.708E-01
RMM:   5    -0.125448666519E+04   -0.11393E-02   -0.30026E-03  2444   0.107E-01    0.482E-01
RMM:   6    -0.125448626524E+04    0.39995E-03   -0.12476E-03  2468   0.724E-02    0.293E-01
RMM:   7    -0.125448687514E+04   -0.60990E-03   -0.17092E-03  2397   0.874E-02    0.551E-01
RMM:   8    -0.125448625943E+04    0.61571E-03   -0.13108E-03  2409   0.748E-02    0.300E-01
RMM:   9    -0.125448618311E+04    0.76313E-04   -0.45353E-04  2326   0.457E-02    0.142E-01
RMM:  10    -0.125448619057E+04   -0.74535E-05   -0.82320E-05  2119   0.184E-02    0.100E-01
RMM:  11    -0.125448620698E+04   -0.16413E-04   -0.47187E-05  1960   0.123E-02    0.955E-02
RMM:  12    -0.125448620725E+04   -0.27032E-06   -0.25603E-05  1825   0.103E-02    0.661E-02
RMM:  13    -0.125448624791E+04   -0.40656E-04   -0.37761E-05  1934   0.130E-02    0.802E-02
RMM:  14    -0.125448628183E+04   -0.33919E-04   -0.38996E-05  1874   0.131E-02    0.801E-02
RMM:  15    -0.125448628983E+04   -0.79995E-05   -0.20721E-05  1663   0.990E-03    0.403E-02
RMM:  16    -0.125448630224E+04   -0.12419E-04   -0.66680E-06  1551   0.585E-03    0.350E-02
RMM:  17    -0.125448631098E+04   -0.87394E-05   -0.38619E-06  1454   0.417E-03    0.289E-02
RMM:  18    -0.125448631945E+04   -0.84651E-05   -0.28445E-06  1395   0.376E-03    0.175E-02
RMM:  19    -0.125448634013E+04   -0.20676E-04   -0.18298E-06  1314   0.273E-03    0.122E-02
RMM:  20    -0.125448636499E+04   -0.24863E-04   -0.14108E-06  1296   0.245E-03    0.125E-02
RMM:  21    -0.125448638204E+04   -0.17050E-04   -0.12397E-06  1305   0.245E-03    0.146E-02
RMM:  22    -0.125448639882E+04   -0.16782E-04   -0.79748E-07  1248   0.190E-03    0.829E-03
RMM:  23    -0.125448641969E+04   -0.20868E-04   -0.73508E-07  1235   0.162E-03    0.592E-03
RMM:  24    -0.125448643581E+04   -0.16116E-04   -0.55996E-07  1217   0.145E-03    0.751E-03
RMM:  25    -0.125448644762E+04   -0.11813E-04   -0.52062E-07  1181   0.133E-03    0.677E-03
RMM:  26    -0.125448646523E+04   -0.17608E-04   -0.53629E-07  1191   0.124E-03    0.325E-03
RMM:  27    -0.125448648951E+04   -0.24280E-04   -0.77265E-07  1209   0.113E-03    0.277E-03
RMM:  28    -0.125448649947E+04   -0.99670E-05   -0.47839E-07  1130   0.104E-03    0.161E-03
RMM:  29    -0.125448650870E+04   -0.92284E-05   -0.43273E-07  1068   0.793E-04    0.111E-03
RMM:  30    -0.125448651631E+04   -0.76113E-05   -0.37621E-07  1079   0.839E-04    0.954E-04
RMM:  31    -0.125448652182E+04   -0.55062E-05   -0.34854E-07  1028   0.709E-04    0.641E-04
RMM:  32    -0.125448652636E+04   -0.45411E-05   -0.30559E-07  1049   0.733E-04    0.509E-04
RMM:  33    -0.125448653007E+04   -0.37109E-05   -0.30562E-07  1026   0.657E-04    0.395E-04
RMM:  34    -0.125448653228E+04   -0.22063E-05   -0.24854E-07   980   0.665E-04    0.284E-04
RMM:  35    -0.125448653341E+04   -0.11291E-05   -0.20119E-07   909   0.559E-04    0.239E-04
RMM:  36    -0.125448653390E+04   -0.49398E-06   -0.14158E-07   865   0.534E-04
  13 F= -.12630196E+04 E0= -.12630155E+04  d E =-.799588E-02  mag=    18.1153
 curvature:  -0.15 expect dE=-0.365E-02 dE for cont linesearch -0.285E-07
 trial: gam= 0.22741 g(F)=  0.239E-01 g(S)=  0.000E+00 ort =-0.126E-03 (trialstep = 0.587E+00)
 search vector abs. value=  0.283E-01
 bond charge predicted
       N       E                     dE             d eps       ncg     rms          rms(c)
DAV:   1    -0.125448131986E+04    0.52136E-02   -0.31293E+00  2154   0.332E+00    0.792E-01
RMM:   2    -0.125448975805E+04   -0.84382E-02   -0.61116E-02  2440   0.519E-01    0.589E-01
RMM:   3    -0.125449539224E+04   -0.56342E-02   -0.11809E-02  2463   0.239E-01    0.141E+00
RMM:   4    -0.125449092465E+04    0.44676E-02   -0.50401E-03  2610   0.136E-01    0.591E-01
RMM:   5    -0.125449139317E+04   -0.46852E-03   -0.18629E-03  2352   0.936E-02    0.328E-01
RMM:   6    -0.125449152531E+04   -0.13214E-03   -0.89135E-04  2520   0.591E-02    0.331E-01
RMM:   7    -0.125449135044E+04    0.17487E-03   -0.60839E-04  2395   0.538E-02    0.170E-01
RMM:   8    -0.125449159510E+04   -0.24466E-03   -0.45566E-04  2348   0.440E-02    0.278E-01
RMM:   9    -0.125449139617E+04    0.19893E-03   -0.26004E-04  2275   0.343E-02    0.110E-01
RMM:  10    -0.125449143976E+04   -0.43586E-04   -0.81953E-05  2055   0.197E-02    0.770E-02
RMM:  11    -0.125449146375E+04   -0.23993E-04   -0.40757E-05  1854   0.135E-02    0.736E-02
RMM:  12    -0.125449146200E+04    0.17549E-05   -0.16829E-05  1651   0.882E-03    0.504E-02
RMM:  13    -0.125449146369E+04   -0.16880E-05   -0.90015E-06  1606   0.635E-03    0.464E-02
RMM:  14    -0.125449146974E+04   -0.60531E-05   -0.14149E-05  1672   0.771E-03    0.560E-02
RMM:  15    -0.125449147262E+04   -0.28813E-05   -0.12749E-05  1666   0.807E-03    0.264E-02
RMM:  16    -0.125449149509E+04   -0.22468E-04   -0.44490E-06  1490   0.469E-03    0.213E-02
RMM:  17    -0.125449150417E+04   -0.90863E-05   -0.34793E-06  1457   0.440E-03    0.250E-02
RMM:  18    -0.125449150665E+04   -0.24777E-05   -0.22381E-06  1394   0.345E-03    0.165E-02
RMM:  19    -0.125449151019E+04   -0.35371E-05   -0.94463E-07  1247   0.231E-03    0.891E-03
RMM:  20    -0.125449151709E+04   -0.69045E-05   -0.55519E-07  1166   0.169E-03    0.651E-03
RMM:  21    -0.125449152404E+04   -0.69470E-05   -0.54368E-07  1160   0.160E-03    0.860E-03
RMM:  22    -0.125449153214E+04   -0.81026E-05   -0.42525E-07  1154   0.149E-03    0.418E-03
RMM:  23    -0.125449154173E+04   -0.95877E-05   -0.26296E-07  1140   0.928E-04    0.376E-03
RMM:  24    -0.125449154610E+04   -0.43691E-05   -0.20160E-07  1076   0.930E-04    0.367E-03
RMM:  25    -0.125449155249E+04   -0.63866E-05   -0.17242E-07  1054   0.751E-04    0.153E-03
RMM:  26    -0.125449156020E+04   -0.77175E-05   -0.15817E-07  1015   0.606E-04    0.150E-03
RMM:  27    -0.125449156561E+04   -0.54056E-05   -0.13150E-07   954   0.538E-04    0.901E-04
RMM:  28    -0.125449157146E+04   -0.58504E-05   -0.14080E-07   929   0.499E-04    0.537E-04
RMM:  29    -0.125449157652E+04   -0.50553E-05   -0.14552E-07   955   0.514E-04    0.385E-04
RMM:  30    -0.125449158074E+04   -0.42232E-05   -0.15513E-07   938   0.501E-04    0.428E-04
RMM:  31    -0.125449158387E+04   -0.31353E-05   -0.14579E-07   930   0.502E-04    0.278E-04
RMM:  32    -0.125449158639E+04   -0.25206E-05   -0.13882E-07   916   0.481E-04    0.242E-04
RMM:  33    -0.125449158825E+04   -0.18605E-05   -0.12750E-07   900   0.477E-04    0.194E-04
RMM:  34    -0.125449158935E+04   -0.10954E-05   -0.10459E-07   824   0.441E-04    0.128E-04
RMM:  35    -0.125449159003E+04   -0.68229E-06   -0.83952E-08   782   0.416E-04
  14 F= -.12630253E+04 E0= -.12630212E+04  d E =-.570440E-02  mag=    18.1157
 trial-energy change:   -0.005704  1 .order   -0.005772   -0.014031    0.002486
 step:   0.4970(harm=  0.4989)  dis= 0.00511  next Energy= -1263.025524 (dE=-0.590E-02)
 bond charge predicted
       N       E                     dE             d eps       ncg     rms          rms(c)
DAV:   1    -0.125449159057E+04   -0.12218E-05   -0.73955E-02  2264   0.510E-01    0.121E-01
RMM:   2    -0.125449174263E+04   -0.15206E-03   -0.14377E-03  2432   0.797E-02    0.910E-02
RMM:   3    -0.125449191572E+04   -0.17309E-03   -0.28007E-04  2415   0.370E-02    0.237E-01
RMM:   4    -0.125449177487E+04    0.14085E-03   -0.12228E-04  2331   0.211E-02    0.879E-02
RMM:   5    -0.125449181654E+04   -0.41663E-04   -0.46773E-05  1976   0.155E-02    0.520E-02
RMM:   6    -0.125449182214E+04   -0.56063E-05   -0.20827E-05  1904   0.943E-03    0.504E-02
RMM:   7    -0.125449182124E+04    0.90484E-06   -0.14597E-05  1870   0.858E-03    0.264E-02
RMM:   8    -0.125449183000E+04   -0.87637E-05   -0.11165E-05  1650   0.740E-03    0.424E-02
RMM:   9    -0.125449182610E+04    0.39021E-05   -0.64976E-06  1491   0.602E-03    0.199E-02
RMM:  10    -0.125449182772E+04   -0.16217E-05   -0.20002E-06  1378   0.356E-03    0.112E-02
RMM:  11    -0.125449182899E+04   -0.12714E-05   -0.91564E-07  1253   0.244E-03    0.115E-02
RMM:  12    -0.125449182902E+04   -0.31519E-07   -0.48727E-07  1216   0.177E-03
  15 F= -.12630255E+04 E0= -.12630214E+04  d E =-.589204E-02  mag=    18.1156
 curvature:  -0.30 expect dE=-0.491E-02 dE for cont linesearch -0.164E-08
 trial: gam= 0.72480 g(F)=  0.166E-01 g(S)=  0.000E+00 ort = 0.125E-04 (trialstep = 0.511E+00)
 search vector abs. value=  0.315E-01
 bond charge predicted
       N       E                     dE             d eps       ncg     rms          rms(c)
DAV:   1    -0.125448585464E+04    0.59743E-02   -0.26310E+00  2104   0.289E+00    0.711E-01
RMM:   2    -0.125449257234E+04   -0.67177E-02   -0.43221E-02  2424   0.455E-01    0.483E-01
RMM:   3    -0.125449636354E+04   -0.37912E-02   -0.85597E-03  2526   0.196E-01    0.101E+00
RMM:   4    -0.125449425660E+04    0.21069E-02   -0.31301E-03  2560   0.113E-01    0.511E-01
RMM:   5    -0.125449443294E+04   -0.17634E-03   -0.13688E-03  2409   0.752E-02    0.359E-01
RMM:   6    -0.125449437780E+04    0.55141E-04   -0.71841E-04  2440   0.540E-02    0.242E-01
RMM:   7    -0.125449433153E+04    0.46274E-04   -0.43344E-04  2372   0.443E-02    0.136E-01
RMM:   8    -0.125449448938E+04   -0.15785E-03   -0.31512E-04  2325   0.359E-02    0.231E-01
RMM:   9    -0.125449435580E+04    0.13358E-03   -0.18082E-04  2225   0.282E-02    0.813E-02
RMM:  10    -0.125449438612E+04   -0.30326E-04   -0.48262E-05  1933   0.150E-02    0.490E-02
RMM:  11    -0.125449442055E+04   -0.34421E-04   -0.28962E-05  1791   0.110E-02    0.603E-02
RMM:  12    -0.125449443650E+04   -0.15950E-04   -0.17610E-05  1652   0.901E-03    0.317E-02
RMM:  13    -0.125449445329E+04   -0.16796E-04   -0.70670E-06  1540   0.576E-03    0.247E-02
RMM:  14    -0.125449446158E+04   -0.82873E-05   -0.39194E-06  1455   0.437E-03    0.223E-02
RMM:  15    -0.125449447313E+04   -0.11555E-04   -0.21449E-06  1385   0.352E-03    0.108E-02
RMM:  16    -0.125449450004E+04   -0.26909E-04   -0.14217E-06  1319   0.255E-03    0.873E-03
RMM:  17    -0.125449451663E+04   -0.16586E-04   -0.10540E-06  1285   0.237E-03    0.818E-03
RMM:  18    -0.125449452868E+04   -0.12049E-04   -0.75787E-07  1257   0.182E-03    0.719E-03
RMM:  19    -0.125449453929E+04   -0.10608E-04   -0.43680E-07  1180   0.142E-03    0.377E-03
RMM:  20    -0.125449454469E+04   -0.54009E-05   -0.22051E-07  1073   0.850E-04    0.327E-03
RMM:  21    -0.125449454868E+04   -0.39936E-05   -0.15603E-07   994   0.728E-04    0.353E-03
RMM:  22    -0.125449455564E+04   -0.69628E-05   -0.15800E-07   988   0.730E-04    0.297E-03
RMM:  23    -0.125449457615E+04   -0.20511E-04   -0.36014E-07  1203   0.836E-04    0.242E-03
RMM:  24    -0.125449458329E+04   -0.71384E-05   -0.24753E-07  1075   0.955E-04    0.334E-03
RMM:  25    -0.125449458762E+04   -0.43312E-05   -0.17708E-07   911   0.670E-04    0.167E-03
RMM:  26    -0.125449459210E+04   -0.44710E-05   -0.13022E-07   916   0.573E-04    0.129E-03
RMM:  27    -0.125449459856E+04   -0.64630E-05   -0.15935E-07   996   0.518E-04    0.948E-04
RMM:  28    -0.125449460571E+04   -0.71468E-05   -0.17018E-07  1005   0.565E-04    0.527E-04
RMM:  29    -0.125449461165E+04   -0.59421E-05   -0.20266E-07   994   0.554E-04    0.476E-04
RMM:  30    -0.125449461605E+04   -0.44002E-05   -0.19397E-07   969   0.586E-04    0.351E-04
RMM:  31    -0.125449461870E+04   -0.26555E-05   -0.18080E-07   962   0.538E-04    0.311E-04
RMM:  32    -0.125449462061E+04   -0.19076E-05   -0.15325E-07   917   0.526E-04    0.184E-04
RMM:  33    -0.125449462204E+04   -0.14257E-05   -0.14307E-07   892   0.485E-04    0.224E-04
RMM:  34    -0.125449462269E+04   -0.65352E-06   -0.10936E-07   865   0.472E-04
  16 F= -.12630284E+04 E0= -.12630244E+04  d E =-.286116E-02  mag=    18.1121
 trial-energy change:   -0.002861  1 .order   -0.002860   -0.008507    0.002788
 step:   0.3848(harm=  0.3848)  dis= 0.00458  next Energy= -1263.028724 (dE=-0.320E-02)
 bond charge predicted
       N       E                     dE             d eps       ncg     rms          rms(c)
DAV:   1    -0.125449444655E+04    0.17549E-03   -0.16028E-01  2280   0.713E-01    0.176E-01
RMM:   2    -0.125449477635E+04   -0.32981E-03   -0.26191E-03  2432   0.112E-01    0.118E-01
RMM:   3    -0.125449503960E+04   -0.26325E-03   -0.50449E-04  2511   0.477E-02    0.214E-01
RMM:   4    -0.125449493069E+04    0.10891E-03   -0.18058E-04  2444   0.279E-02    0.128E-01
RMM:   5    -0.125449494253E+04   -0.11838E-04   -0.76342E-05  2157   0.172E-02    0.988E-02
RMM:   6    -0.125449494150E+04    0.10278E-05   -0.45050E-05  2017   0.139E-02    0.604E-02
RMM:   7    -0.125449494322E+04   -0.17188E-05   -0.26747E-05  1972   0.113E-02    0.326E-02
RMM:   8    -0.125449495592E+04   -0.12701E-04   -0.19638E-05  1769   0.922E-03    0.588E-02
RMM:   9    -0.125449494704E+04    0.88782E-05   -0.10846E-05  1565   0.738E-03    0.184E-02
RMM:  10    -0.125449495110E+04   -0.40602E-05   -0.30444E-06  1433   0.414E-03    0.130E-02
RMM:  11    -0.125449495476E+04   -0.36540E-05   -0.18295E-06  1330   0.320E-03    0.146E-02
RMM:  12    -0.125449495658E+04   -0.18280E-05   -0.11608E-06  1298   0.266E-03    0.768E-03
RMM:  13    -0.125449495860E+04   -0.20120E-05   -0.45576E-07  1225   0.164E-03    0.600E-03
RMM:  14    -0.125449495962E+04   -0.10202E-05   -0.30466E-07  1195   0.132E-03    0.574E-03
RMM:  15    -0.125449496106E+04   -0.14422E-05   -0.18144E-07  1163   0.105E-03    0.276E-03
RMM:  16    -0.125449496402E+04   -0.29645E-05   -0.11296E-07  1103   0.720E-04    0.199E-03
RMM:  17    -0.125449496562E+04   -0.15997E-05   -0.80894E-08   933   0.648E-04    0.212E-03
RMM:  18    -0.125449496693E+04   -0.13066E-05   -0.56963E-08   850   0.531E-04    0.145E-03
RMM:  19    -0.125449496872E+04   -0.17854E-05   -0.48633E-08   866   0.457E-04    0.812E-04
RMM:  20    -0.125449497098E+04   -0.22651E-05   -0.52663E-08   884   0.423E-04    0.880E-04
RMM:  21    -0.125449497169E+04   -0.71372E-06   -0.34161E-08   755   0.411E-04
  17 F= -.12630287E+04 E0= -.12630247E+04  d E =-.319942E-02  mag=    18.1130
 curvature:  -0.36 expect dE=-0.526E-02 dE for cont linesearch -0.649E-09
 trial: gam= 0.87916 g(F)=  0.145E-01 g(S)=  0.000E+00 ort = 0.750E-05 (trialstep = 0.394E+00)
 search vector abs. value=  0.388E-01
 bond charge predicted
       N       E                     dE             d eps       ncg     rms          rms(c)
DAV:   1    -0.125448977928E+04    0.51917E-02   -0.19212E+00  2104   0.255E+00    0.578E-01
RMM:   2    -0.125449442444E+04   -0.46452E-02   -0.33078E-02  2416   0.392E-01    0.418E-01
RMM:   3    -0.125449728428E+04   -0.28598E-02   -0.63968E-03  2468   0.175E-01    0.859E-01
RMM:   4    -0.125449552487E+04    0.17594E-02   -0.26029E-03  2587   0.104E-01    0.451E-01
RMM:   5    -0.125449556864E+04   -0.43768E-04   -0.89836E-04  2451   0.567E-02    0.272E-01
RMM:   6    -0.125449561478E+04   -0.46143E-04   -0.48492E-04  2391   0.457E-02    0.206E-01
RMM:   7    -0.125449561206E+04    0.27240E-05   -0.32018E-04  2398   0.380E-02    0.179E-01
RMM:   8    -0.125449564410E+04   -0.32044E-04   -0.26085E-04  2283   0.341E-02    0.155E-01
RMM:   9    -0.125449561932E+04    0.24788E-04   -0.11170E-04  2174   0.236E-02    0.644E-02
RMM:  10    -0.125449565617E+04   -0.36855E-04   -0.42938E-05  1942   0.132E-02    0.766E-02
RMM:  11    -0.125449566807E+04   -0.11896E-04   -0.23512E-05  1692   0.105E-02    0.365E-02
RMM:  12    -0.125449568894E+04   -0.20870E-04   -0.95512E-06  1604   0.691E-03    0.264E-02
RMM:  13    -0.125449569653E+04   -0.75965E-05   -0.50560E-06  1506   0.512E-03    0.260E-02
RMM:  14    -0.125449570004E+04   -0.35078E-05   -0.30137E-06  1426   0.388E-03    0.187E-02
RMM:  15    -0.125449570959E+04   -0.95427E-05   -0.16820E-06  1354   0.308E-03    0.121E-02
RMM:  16    -0.125449572974E+04   -0.20155E-04   -0.13371E-06  1295   0.236E-03    0.865E-03
RMM:  17    -0.125449574010E+04   -0.10360E-04   -0.11910E-06  1311   0.247E-03    0.122E-02
RMM:  18    -0.125449574344E+04   -0.33413E-05   -0.64218E-07  1219   0.179E-03    0.700E-03
RMM:  19    -0.125449574493E+04   -0.14929E-05   -0.24270E-07  1074   0.106E-03    0.542E-03
RMM:  20    -0.125449574657E+04   -0.16334E-05   -0.14482E-07   991   0.740E-04    0.489E-03
RMM:  21    -0.125449575167E+04   -0.51066E-05   -0.21039E-07  1075   0.883E-04    0.497E-03
RMM:  22    -0.125449575729E+04   -0.56143E-05   -0.24959E-07  1064   0.103E-03    0.346E-03
RMM:  23    -0.125449576780E+04   -0.10510E-04   -0.31829E-07  1142   0.876E-04    0.258E-03
RMM:  24    -0.125449577384E+04   -0.60395E-05   -0.25035E-07  1051   0.823E-04    0.304E-03
RMM:  25    -0.125449577768E+04   -0.38414E-05   -0.20645E-07   973   0.743E-04    0.184E-03
RMM:  26    -0.125449578318E+04   -0.54991E-05   -0.21130E-07   996   0.635E-04    0.104E-03
RMM:  27    -0.125449578761E+04   -0.44349E-05   -0.20129E-07   990   0.601E-04    0.673E-04
RMM:  28    -0.125449579209E+04   -0.44779E-05   -0.23316E-07  1008   0.577E-04    0.607E-04
RMM:  29    -0.125449579591E+04   -0.38152E-05   -0.23397E-07   989   0.594E-04    0.443E-04
RMM:  30    -0.125449579804E+04   -0.21385E-05   -0.18726E-07   939   0.564E-04    0.418E-04
RMM:  31    -0.125449579994E+04   -0.18921E-05   -0.17399E-07   930   0.527E-04    0.373E-04
RMM:  32    -0.125449580179E+04   -0.18516E-05   -0.17656E-07   968   0.531E-04    0.209E-04
RMM:  33    -0.125449580246E+04   -0.66796E-06   -0.12698E-07   886   0.499E-04
  18 F= -.12630296E+04 E0= -.12630254E+04  d E =-.907597E-03  mag=    18.1217
 trial-energy change:   -0.000908  1 .order   -0.000924   -0.005701    0.003853
 step:   0.2343(harm=  0.2352)  dis= 0.00292  next Energy= -1263.030411 (dE=-0.169E-02)
 bond charge predicted
       N       E                     dE             d eps       ncg     rms          rms(c)
DAV:   1    -0.125449562974E+04    0.17204E-03   -0.31625E-01  2248   0.103E+00    0.234E-01
RMM:   2    -0.125449631085E+04   -0.68111E-03   -0.54289E-03  2425   0.158E-01    0.165E-01
RMM:   3    -0.125449683942E+04   -0.52857E-03   -0.10121E-03  2471   0.696E-02    0.368E-01
RMM:   4    -0.125449650805E+04    0.33137E-03   -0.41699E-04  2544   0.417E-02    0.170E-01
RMM:   5    -0.125449657417E+04   -0.66123E-04   -0.15075E-04  2260   0.246E-02    0.122E-01
RMM:   6    -0.125449657547E+04   -0.12971E-05   -0.81579E-05  2217   0.191E-02    0.744E-02
RMM:   7    -0.125449658466E+04   -0.91915E-05   -0.50913E-05  2094   0.150E-02    0.602E-02
RMM:   8    -0.125449660162E+04   -0.16954E-04   -0.42473E-05  1950   0.134E-02    0.774E-02
RMM:   9    -0.125449658625E+04    0.15363E-04   -0.19552E-05  1663   0.103E-02    0.198E-02
RMM:  10    -0.125449659540E+04   -0.91466E-05   -0.58072E-06  1523   0.531E-03    0.261E-02
RMM:  11    -0.125449659703E+04   -0.16328E-05   -0.37592E-06  1445   0.451E-03    0.171E-02
RMM:  12    -0.125449659966E+04   -0.26267E-05   -0.15237E-06  1358   0.312E-03    0.972E-03
RMM:  13    -0.125449660094E+04   -0.12788E-05   -0.75458E-07  1256   0.208E-03    0.838E-03
RMM:  14    -0.125449660189E+04   -0.94689E-06   -0.51190E-07  1227   0.174E-03
  19 F= -.12630304E+04 E0= -.12630262E+04  d E =-.167595E-02  mag=    18.1193
 curvature:  -0.32 expect dE=-0.234E-02 dE for cont linesearch -0.123E-08
 trial: gam= 0.51790 g(F)=  0.742E-02 g(S)=  0.000E+00 ort =-0.123E-04 (trialstep = 0.362E+00)
 search vector abs. value=  0.178E-01
 bond charge predicted
       N       E                     dE             d eps       ncg     rms          rms(c)
DAV:   1    -0.125449604680E+04    0.55413E-03   -0.66591E-01  2160   0.161E+00    0.317E-01
RMM:   2    -0.125449759018E+04   -0.15434E-02   -0.12878E-02  2492   0.245E-01    0.221E-01
RMM:   3    -0.125449834944E+04   -0.75926E-03   -0.19333E-03  2456   0.101E-01    0.383E-01
RMM:   4    -0.125449794912E+04    0.40032E-03   -0.77065E-04  2612   0.587E-02    0.141E-01
RMM:   5    -0.125449802135E+04   -0.72224E-04   -0.22678E-04  2426   0.303E-02    0.128E-01
RMM:   6    -0.125449805198E+04   -0.30637E-04   -0.12823E-04  2328   0.221E-02    0.169E-01
RMM:   7    -0.125449801902E+04    0.32967E-04   -0.99176E-05  2237   0.188E-02    0.124E-01
RMM:   8    -0.125449805255E+04   -0.33537E-04   -0.97013E-05  2143   0.200E-02    0.117E-01
RMM:   9    -0.125449802613E+04    0.26427E-04   -0.44884E-05  1944   0.156E-02    0.389E-02
RMM:  10    -0.125449803800E+04   -0.11877E-04   -0.14513E-05  1632   0.826E-03    0.373E-02
RMM:  11    -0.125449804253E+04   -0.45285E-05   -0.71101E-06  1542   0.625E-03    0.208E-02
RMM:  12    -0.125449805002E+04   -0.74854E-05   -0.31175E-06  1442   0.429E-03    0.140E-02
RMM:  13    -0.125449805341E+04   -0.33953E-05   -0.15050E-06  1370   0.295E-03    0.134E-02
RMM:  14    -0.125449805514E+04   -0.17268E-05   -0.90165E-07  1289   0.226E-03    0.924E-03
RMM:  15    -0.125449805856E+04   -0.34153E-05   -0.44217E-07  1215   0.165E-03    0.506E-03
RMM:  16    -0.125449806543E+04   -0.68771E-05   -0.36795E-07  1205   0.132E-03    0.543E-03
RMM:  17    -0.125449806935E+04   -0.39180E-05   -0.34761E-07  1193   0.138E-03    0.574E-03
RMM:  18    -0.125449807250E+04   -0.31512E-05   -0.22223E-07  1100   0.101E-03    0.349E-03
RMM:  19    -0.125449807477E+04   -0.22700E-05   -0.11165E-07  1009   0.722E-04    0.250E-03
RMM:  20    -0.125449807549E+04   -0.71487E-06   -0.52140E-08   796   0.454E-04
  20 F= -.12630319E+04 E0= -.12630279E+04  d E =-.154787E-02  mag=    18.1144
 trial-energy change:   -0.001548  1 .order   -0.001551   -0.002684   -0.000418
 step:   0.4292(harm=  0.4292)  dis= 0.00300  next Energy= -1263.031986 (dE=-0.159E-02)
 bond charge predicted
       N       E                     dE             d eps       ncg     rms          rms(c)
DAV:   1    -0.125449803136E+04    0.43414E-04   -0.22728E-02  2240   0.298E-01    0.585E-02
RMM:   2    -0.125449807348E+04   -0.42121E-04   -0.44010E-04  2499   0.453E-02    0.397E-02
RMM:   3    -0.125449810871E+04   -0.35234E-04   -0.63778E-05  2382   0.181E-02    0.753E-02
RMM:   4    -0.125449809319E+04    0.15527E-04   -0.25433E-05  1976   0.108E-02    0.416E-02
RMM:   5    -0.125449809786E+04   -0.46691E-05   -0.93415E-06  1608   0.652E-03    0.357E-02
RMM:   6    -0.125449809882E+04   -0.96836E-06   -0.54950E-06  1520   0.536E-03
  21 F= -.12630320E+04 E0= -.12630280E+04  d E =-.158513E-02  mag=    18.1134
 curvature:  -0.52 expect dE=-0.263E-02 dE for cont linesearch -0.373E-07
 trial: gam= 0.67145 g(F)=  0.510E-02 g(S)=  0.000E+00 ort = 0.359E-04 (trialstep = 0.376E+00)
 search vector abs. value=  0.132E-01
 bond charge predicted
       N       E                     dE             d eps       ncg     rms          rms(c)
DAV:   1    -0.125449805032E+04    0.47533E-04   -0.50202E-01  2118   0.149E+00    0.229E-01
RMM:   2    -0.125449919591E+04   -0.11456E-02   -0.10744E-02  2488   0.212E-01    0.236E-01
RMM:   3    -0.125449994898E+04   -0.75307E-03   -0.17599E-03  2438   0.936E-02    0.570E-01
RMM:   4    -0.125449922790E+04    0.72108E-03   -0.78631E-04  2669   0.518E-02    0.211E-01
RMM:   5    -0.125449933231E+04   -0.10441E-03   -0.23265E-04  2273   0.325E-02    0.922E-02
RMM:   6    -0.125449937784E+04   -0.45524E-04   -0.93563E-05  2317   0.193E-02    0.828E-02
RMM:   7    -0.125449939399E+04   -0.16153E-04   -0.68481E-05  2308   0.173E-02    0.738E-02
RMM:   8    -0.125449942111E+04   -0.27122E-04   -0.64218E-05  2124   0.164E-02    0.868E-02
RMM:   9    -0.125449940806E+04    0.13049E-04   -0.25860E-05  1809   0.120E-02    0.250E-02
RMM:  10    -0.125449941811E+04   -0.10048E-04   -0.74180E-06  1563   0.599E-03    0.290E-02
RMM:  11    -0.125449941945E+04   -0.13436E-05   -0.39157E-06  1458   0.454E-03    0.162E-02
RMM:  12    -0.125449942234E+04   -0.28853E-05   -0.15554E-06  1339   0.302E-03    0.105E-02
RMM:  13    -0.125449942357E+04   -0.12256E-05   -0.71410E-07  1257   0.204E-03    0.796E-03
RMM:  14    -0.125449942512E+04   -0.15592E-05   -0.70560E-07  1259   0.191E-03    0.118E-02
RMM:  15    -0.125449942643E+04   -0.13009E-05   -0.67472E-07  1249   0.196E-03    0.661E-03
RMM:  16    -0.125449942873E+04   -0.23037E-05   -0.25794E-07  1190   0.123E-03    0.457E-03
RMM:  17    -0.125449942949E+04   -0.76418E-06   -0.13657E-07  1116   0.854E-04
  22 F= -.12630333E+04 E0= -.12630293E+04  d E =-.129980E-02  mag=    18.1119
 trial-energy change:   -0.001300  1 .order   -0.001279   -0.001923   -0.000634
 step:   0.5374(harm=  0.5602)  dis= 0.00290  next Energy= -1263.033419 (dE=-0.144E-02)
 bond charge predicted
       N       E                     dE             d eps       ncg     rms          rms(c)
DAV:   1    -0.125449934924E+04    0.79490E-04   -0.93159E-02  2176   0.640E-01    0.984E-02
RMM:   2    -0.125449953986E+04   -0.19062E-03   -0.19930E-03  2497   0.911E-02    0.928E-02
RMM:   3    -0.125449969396E+04   -0.15410E-03   -0.31003E-04  2411   0.397E-02    0.247E-01
RMM:   4    -0.125449954144E+04    0.15252E-03   -0.13823E-04  2485   0.222E-02    0.793E-02
RMM:   5    -0.125449958213E+04   -0.40690E-04   -0.40542E-05  1978   0.143E-02    0.434E-02
RMM:   6    -0.125449959266E+04   -0.10529E-04   -0.17346E-05  1913   0.881E-03    0.389E-02
RMM:   7    -0.125449959772E+04   -0.50556E-05   -0.13189E-05  1798   0.805E-03    0.345E-02
RMM:   8    -0.125449960349E+04   -0.57701E-05   -0.11964E-05  1647   0.752E-03    0.337E-02
RMM:   9    -0.125449960393E+04   -0.44053E-06   -0.49367E-06  1490   0.562E-03
  23 F= -.12630334E+04 E0= -.12630295E+04  d E =-.145659E-02  mag=    18.1113
 curvature:  -0.71 expect dE=-0.307E-02 dE for cont linesearch -0.482E-05
 trial: gam= 0.79963 g(F)=  0.433E-02 g(S)=  0.000E+00 ort = 0.299E-03 (trialstep = 0.406E+00)
 search vector abs. value=  0.132E-01
 bond charge predicted
       N       E                     dE             d eps       ncg     rms          rms(c)
DAV:   1    -0.125449952169E+04    0.81799E-04   -0.56042E-01  2104   0.161E+00    0.203E-01
RMM:   2    -0.125450078162E+04   -0.12599E-02   -0.12804E-02  2540   0.222E-01    0.247E-01
RMM:   3    -0.125450152222E+04   -0.74060E-03   -0.17646E-03  2456   0.958E-02    0.610E-01
RMM:   4    -0.125450066165E+04    0.86057E-03   -0.72004E-04  2676   0.522E-02    0.132E-01
RMM:   5    -0.125450088141E+04   -0.21976E-03   -0.17567E-04  2334   0.295E-02    0.110E-01
RMM:   6    -0.125450090490E+04   -0.23493E-04   -0.70385E-05  2353   0.171E-02    0.717E-02
RMM:   7    -0.125450093438E+04   -0.29482E-04   -0.63496E-05  2275   0.161E-02    0.727E-02
RMM:   8    -0.125450095080E+04   -0.16420E-04   -0.51745E-05  2065   0.151E-02    0.749E-02
RMM:   9    -0.125450094170E+04    0.91030E-05   -0.23167E-05  1761   0.109E-02    0.356E-02
RMM:  10    -0.125450094775E+04   -0.60467E-05   -0.68197E-06  1539   0.597E-03    0.326E-02
RMM:  11    -0.125450094877E+04   -0.10257E-05   -0.39406E-06  1447   0.470E-03    0.190E-02
RMM:  12    -0.125450095183E+04   -0.30611E-05   -0.15058E-06  1321   0.306E-03    0.950E-03
RMM:  13    -0.125450095375E+04   -0.19162E-05   -0.79805E-07  1262   0.225E-03    0.964E-03
RMM:  14    -0.125450095409E+04   -0.33909E-06   -0.52874E-07  1235   0.178E-03
  24 F= -.12630347E+04 E0= -.12630307E+04  d E =-.121585E-02  mag=    18.1115
 trial-energy change:   -0.001216  1 .order   -0.001222   -0.001855   -0.000588
 step:   0.6032(harm=  0.5950)  dis= 0.00346  next Energy= -1263.034795 (dE=-0.136E-02)
 bond charge predicted
       N       E                     dE             d eps       ncg     rms          rms(c)
DAV:   1    -0.125450082914E+04    0.12461E-03   -0.13164E-01  2138   0.780E-01    0.986E-02
RMM:   2    -0.125450110861E+04   -0.27946E-03   -0.30110E-03  2547   0.107E-01    0.118E-01
RMM:   3    -0.125450129479E+04   -0.18618E-03   -0.41345E-04  2458   0.462E-02    0.307E-01
RMM:   4    -0.125450106423E+04    0.23055E-03   -0.17056E-04  2586   0.255E-02    0.583E-02
RMM:   5    -0.125450113941E+04   -0.75182E-04   -0.40635E-05  2034   0.146E-02    0.540E-02
RMM:   6    -0.125450115083E+04   -0.11410E-04   -0.17614E-05  2013   0.892E-03    0.381E-02
RMM:   7    -0.125450115899E+04   -0.81654E-05   -0.14697E-05  1876   0.834E-03    0.346E-02
RMM:   8    -0.125450116731E+04   -0.83154E-05   -0.12593E-05  1708   0.763E-03    0.409E-02
RMM:   9    -0.125450116420E+04    0.31029E-05   -0.63178E-06  1515   0.614E-03    0.200E-02
RMM:  10    -0.125450116665E+04   -0.24498E-05   -0.16412E-06  1305   0.324E-03    0.170E-02
RMM:  11    -0.125450116690E+04   -0.24560E-06   -0.83025E-07  1255   0.237E-03
  25 F= -.12630348E+04 E0= -.12630308E+04  d E =-.135945E-02  mag=    18.1118
 curvature:  -0.86 expect dE=-0.348E-02 dE for cont linesearch -0.355E-08
 trial: gam= 1.01562 g(F)=  0.405E-02 g(S)=  0.000E+00 ort = 0.738E-05 (trialstep = 0.333E+00)
 search vector abs. value=  0.177E-01
 bond charge predicted
       N       E                     dE             d eps       ncg     rms          rms(c)
DAV:   1    -0.125450098563E+04    0.18102E-03   -0.49628E-01  2104   0.153E+00    0.171E-01
RMM:   2    -0.125450200738E+04   -0.10217E-02   -0.11260E-02  2538   0.204E-01    0.134E-01
RMM:   3    -0.125450245349E+04   -0.44611E-03   -0.12005E-03  2449   0.829E-02    0.422E-01
RMM:   4    -0.125450201520E+04    0.43830E-03   -0.45987E-04  2682   0.409E-02    0.979E-02
RMM:   5    -0.125450215098E+04   -0.13579E-03   -0.11628E-04  2281   0.241E-02    0.104E-01
RMM:   6    -0.125450215732E+04   -0.63395E-05   -0.61466E-05  2268   0.156E-02    0.799E-02
RMM:   7    -0.125450216966E+04   -0.12339E-04   -0.55082E-05  2218   0.152E-02    0.539E-02
RMM:   8    -0.125450219313E+04   -0.23469E-04   -0.33042E-05  2035   0.121E-02    0.668E-02
RMM:   9    -0.125450218306E+04    0.10070E-04   -0.15814E-05  1627   0.845E-03    0.323E-02
RMM:  10    -0.125450218687E+04   -0.38111E-05   -0.39689E-06  1486   0.481E-03    0.157E-02
RMM:  11    -0.125450219103E+04   -0.41561E-05   -0.26262E-06  1396   0.378E-03    0.161E-02
RMM:  12    -0.125450219296E+04   -0.19266E-05   -0.21323E-06  1362   0.334E-03    0.162E-02
RMM:  13    -0.125450219329E+04   -0.33096E-06   -0.99637E-07  1286   0.246E-03
  26 F= -.12630357E+04 E0= -.12630318E+04  d E =-.943086E-03  mag=    18.1111
 trial-energy change:   -0.000943  1 .order   -0.000944   -0.001351   -0.000537
 step:   0.5529(harm=  0.5529)  dis= 0.00402  next Energy= -1263.035918 (dE=-0.112E-02)
 bond charge predicted
       N       E                     dE             d eps       ncg     rms          rms(c)
DAV:   1    -0.125450189857E+04    0.29439E-03   -0.21644E-01  2124   0.101E+00    0.114E-01
RMM:   2    -0.125450233167E+04   -0.43310E-03   -0.49211E-03  2549   0.135E-01    0.832E-02
RMM:   3    -0.125450250593E+04   -0.17426E-03   -0.50141E-04  2447   0.538E-02    0.251E-01
RMM:   4    -0.125450234537E+04    0.16057E-03   -0.18667E-04  2641   0.259E-02    0.667E-02
RMM:   5    -0.125450240205E+04   -0.56686E-04   -0.48628E-05  2078   0.158E-02    0.669E-02
RMM:   6    -0.125450240679E+04   -0.47344E-05   -0.27826E-05  2052   0.105E-02    0.561E-02
RMM:   7    -0.125450241216E+04   -0.53679E-05   -0.24567E-05  1997   0.102E-02    0.345E-02
RMM:   8    -0.125450242471E+04   -0.12553E-04   -0.13504E-05  1837   0.779E-03    0.427E-02
RMM:   9    -0.125450242080E+04    0.39109E-05   -0.61409E-06  1482   0.556E-03    0.196E-02
RMM:  10    -0.125450242275E+04   -0.19486E-05   -0.14870E-06  1325   0.306E-03    0.120E-02
RMM:  11    -0.125450242465E+04   -0.19082E-05   -0.13352E-06  1292   0.271E-03    0.136E-02
RMM:  12    -0.125450242617E+04   -0.15168E-05   -0.17167E-06  1342   0.302E-03    0.147E-02
RMM:  13    -0.125450242706E+04   -0.89061E-06   -0.96725E-07  1280   0.242E-03
  27 F= -.12630359E+04 E0= -.12630320E+04  d E =-.112180E-02  mag=    18.1102
 curvature:  -1.21 expect dE=-0.382E-02 dE for cont linesearch -0.480E-07
 trial: gam= 0.72885 g(F)=  0.317E-02 g(S)=  0.000E+00 ort = 0.265E-04 (trialstep = 0.377E+00)
 search vector abs. value=  0.126E-01
 bond charge predicted
       N       E                     dE             d eps       ncg     rms          rms(c)
DAV:   1    -0.125450218816E+04    0.23801E-03   -0.44610E-01  2104   0.145E+00    0.152E-01
RMM:   2    -0.125450305341E+04   -0.86525E-03   -0.97562E-03  2476   0.189E-01    0.115E-01
RMM:   3    -0.125450333618E+04   -0.28277E-03   -0.10120E-03  2407   0.788E-02    0.304E-01
RMM:   4    -0.125450311990E+04    0.21628E-03   -0.38698E-04  2698   0.368E-02    0.118E-01
RMM:   5    -0.125450317912E+04   -0.59222E-04   -0.91909E-05  2208   0.212E-02    0.879E-02
RMM:   6    -0.125450318763E+04   -0.85084E-05   -0.53601E-05  2170   0.150E-02    0.803E-02
RMM:   7    -0.125450319378E+04   -0.61561E-05   -0.50363E-05  2211   0.153E-02    0.688E-02
RMM:   8    -0.125450320809E+04   -0.14309E-04   -0.45534E-05  2056   0.138E-02    0.708E-02
RMM:   9    -0.125450319975E+04    0.83374E-05   -0.18607E-05  1792   0.981E-03    0.235E-02
RMM:  10    -0.125450320604E+04   -0.62847E-05   -0.54652E-06  1509   0.547E-03    0.244E-02
RMM:  11    -0.125450320623E+04   -0.19333E-06   -0.26634E-06  1409   0.394E-03
  28 F= -.12630367E+04 E0= -.12630327E+04  d E =-.764448E-03  mag=    18.1115
 trial-energy change:   -0.000764  1 .order   -0.000776   -0.001201   -0.000350
 step:   0.5522(harm=  0.5322)  dis= 0.00343  next Energy= -1263.036764 (dE=-0.845E-03)
 bond charge predicted
       N       E                     dE             d eps       ncg     rms          rms(c)
DAV:   1    -0.125450306337E+04    0.14267E-03   -0.96445E-02  2256   0.673E-01    0.714E-02
RMM:   2    -0.125450324370E+04   -0.18032E-03   -0.21205E-03  2478   0.883E-02    0.575E-02
RMM:   3    -0.125450331674E+04   -0.73046E-04   -0.22726E-04  2391   0.374E-02    0.158E-01
RMM:   4    -0.125450325134E+04    0.65403E-04   -0.88477E-05  2451   0.180E-02    0.540E-02
RMM:   5    -0.125450327528E+04   -0.23944E-04   -0.22042E-05  1891   0.110E-02    0.442E-02
RMM:   6    -0.125450327804E+04   -0.27575E-05   -0.12468E-05  1726   0.765E-03    0.391E-02
RMM:   7    -0.125450328058E+04   -0.25394E-05   -0.11186E-05  1891   0.748E-03    0.266E-02
RMM:   8    -0.125450328672E+04   -0.61415E-05   -0.91939E-06  1620   0.657E-03    0.337E-02
RMM:   9    -0.125450328520E+04    0.15248E-05   -0.42112E-06  1461   0.515E-03    0.119E-02
RMM:  10    -0.125450328773E+04   -0.25371E-05   -0.14014E-06  1325   0.303E-03    0.117E-02
RMM:  11    -0.125450328865E+04   -0.92153E-06   -0.79801E-07  1252   0.233E-03
  29 F= -.12630368E+04 E0= -.12630327E+04  d E =-.839974E-03  mag=    18.1126
 curvature:  -1.04 expect dE=-0.514E-02 dE for cont linesearch -0.759E-06
 trial: gam= 1.60651 g(F)=  0.496E-02 g(S)=  0.000E+00 ort =-0.961E-04 (trialstep = 0.140E+00)
 search vector abs. value=  0.372E-01
 bond charge predicted
       N       E                     dE             d eps       ncg     rms          rms(c)
DAV:   1    -0.125450339839E+04   -0.11066E-03   -0.18150E-01  2116   0.919E-01    0.916E-02
RMM:   2    -0.125450372456E+04   -0.32617E-03   -0.37860E-03  2437   0.117E-01    0.670E-02
RMM:   3    -0.125450383627E+04   -0.11171E-03   -0.38005E-04  2367   0.492E-02    0.172E-01
RMM:   4    -0.125450376312E+04    0.73157E-04   -0.14293E-04  2587   0.222E-02    0.641E-02
RMM:   5    -0.125450379404E+04   -0.30920E-04   -0.32394E-05  1991   0.133E-02    0.606E-02
RMM:   6    -0.125450379527E+04   -0.12344E-05   -0.19586E-05  1960   0.948E-03    0.459E-02
RMM:   7    -0.125450380242E+04   -0.71523E-05   -0.19160E-05  1955   0.945E-03    0.360E-02
RMM:   8    -0.125450381143E+04   -0.90096E-05   -0.14800E-05  1810   0.835E-03    0.416E-02
RMM:   9    -0.125450380784E+04    0.35900E-05   -0.64065E-06  1510   0.583E-03    0.145E-02
RMM:  10    -0.125450380991E+04   -0.20659E-05   -0.17489E-06  1348   0.335E-03    0.118E-02
RMM:  11    -0.125450381042E+04   -0.51012E-06   -0.94057E-07  1283   0.243E-03
  30 F= -.12630373E+04 E0= -.12630333E+04  d E =-.527672E-03  mag=    18.1123
 trial-energy change:   -0.000528  1 .order   -0.000523   -0.000671   -0.000375
 step:   0.2880(harm=  0.3165)  dis= 0.00302  next Energy= -1263.037491 (dE=-0.732E-03)
 bond charge predicted
       N       E                     dE             d eps       ncg     rms          rms(c)
DAV:   1    -0.125450357393E+04    0.23598E-03   -0.20458E-01  2170   0.975E-01    0.975E-02
RMM:   2    -0.125450394218E+04   -0.36825E-03   -0.42750E-03  2440   0.124E-01    0.745E-02
RMM:   3    -0.125450407295E+04   -0.13077E-03   -0.43946E-04  2371   0.525E-02    0.200E-01
RMM:   4    -0.125450397409E+04    0.98864E-04   -0.16869E-04  2614   0.240E-02    0.696E-02
RMM:   5    -0.125450401207E+04   -0.37985E-04   -0.38049E-05  2015   0.141E-02    0.608E-02
RMM:   6    -0.125450401434E+04   -0.22641E-05   -0.22124E-05  1977   0.988E-03    0.510E-02
RMM:   7    -0.125450402067E+04   -0.63316E-05   -0.21450E-05  1976   0.982E-03    0.430E-02
RMM:   8    -0.125450402955E+04   -0.88861E-05   -0.19728E-05  1862   0.922E-03    0.466E-02
RMM:   9    -0.125450402551E+04    0.40446E-05   -0.76763E-06  1546   0.651E-03    0.147E-02
RMM:  10    -0.125450402851E+04   -0.29996E-05   -0.22227E-06  1390   0.368E-03    0.161E-02
RMM:  11    -0.125450402865E+04   -0.14268E-06   -0.11279E-06  1306   0.269E-03
  31 F= -.12630375E+04 E0= -.12630335E+04  d E =-.752132E-03  mag=    18.1115
 curvature:  -1.19 expect dE=-0.468E-02 dE for cont linesearch -0.588E-05
 trial: gam= 0.64096 g(F)=  0.392E-02 g(S)=  0.000E+00 ort = 0.428E-03 (trialstep = 0.169E+00)
 search vector abs. value=  0.198E-01
 bond charge predicted
       N       E                     dE             d eps       ncg     rms          rms(c)
DAV:   1    -0.125450421962E+04   -0.19111E-03   -0.14208E-01  2168   0.815E-01    0.940E-02
RMM:   2    -0.125450448010E+04   -0.26048E-03   -0.30865E-03  2426   0.107E-01    0.580E-02
RMM:   3    -0.125450454691E+04   -0.66812E-04   -0.28780E-04  2381   0.429E-02    0.899E-02
RMM:   4    -0.125450453197E+04    0.14937E-04   -0.10475E-04  2565   0.188E-02    0.537E-02
RMM:   5    -0.125450454720E+04   -0.15232E-04   -0.23964E-05  2004   0.106E-02    0.823E-02
RMM:   6    -0.125450453541E+04    0.11796E-04   -0.18580E-05  1897   0.845E-03    0.441E-02
RMM:   7    -0.125450455129E+04   -0.15883E-04   -0.19984E-05  1869   0.978E-03    0.525E-02
RMM:   8    -0.125450455147E+04   -0.18428E-06   -0.14120E-05  1788   0.811E-03    0.330E-02
RMM:   9    -0.125450455155E+04   -0.78813E-07   -0.51248E-06  1478   0.544E-03
  32 F= -.12630381E+04 E0= -.12630340E+04  d E =-.544787E-03  mag=    18.1117
 trial-energy change:   -0.000545  1 .order   -0.000552   -0.000711   -0.000393
 step:   0.5557(harm=  0.3792)  dis= 0.00453  next Energy= -1263.038417 (dE=-0.906E-03)
 bond charge predicted
       N       E                     dE             d eps       ncg     rms          rms(c)
DAV:   1    -0.125450279003E+04    0.17614E-02   -0.73936E-01  2104   0.186E+00    0.214E-01
RMM:   2    -0.125450423428E+04   -0.14443E-02   -0.16047E-02  2420   0.243E-01    0.154E-01
RMM:   3    -0.125450466279E+04   -0.42851E-03   -0.17001E-03  2347   0.106E-01    0.313E-01
RMM:   4    -0.125450441441E+04    0.24838E-03   -0.63899E-04  2705   0.503E-02    0.133E-01
RMM:   5    -0.125450448728E+04   -0.72864E-04   -0.14398E-04  2346   0.231E-02    0.172E-01
RMM:   6    -0.125450444863E+04    0.38649E-04   -0.93038E-05  2238   0.198E-02    0.999E-02
RMM:   7    -0.125450448827E+04   -0.39637E-04   -0.93445E-05  2282   0.205E-02    0.109E-01
RMM:   8    -0.125450449404E+04   -0.57780E-05   -0.71994E-05  2253   0.181E-02    0.701E-02
RMM:   9    -0.125450449205E+04    0.19953E-05   -0.28717E-05  1876   0.117E-02    0.377E-02
RMM:  10    -0.125450449537E+04   -0.33196E-05   -0.10782E-05  1609   0.667E-03    0.309E-02
RMM:  11    -0.125450449650E+04   -0.11264E-05   -0.38067E-06  1470   0.493E-03    0.125E-02
RMM:  12    -0.125450449952E+04   -0.30214E-05   -0.14021E-06  1338   0.284E-03    0.133E-02
RMM:  13    -0.125450450029E+04   -0.77609E-06   -0.99822E-07  1289   0.247E-03
  33 F= -.12630381E+04 E0= -.12630340E+04  d E =-.543169E-03  mag=    18.1126
 curvature:  -0.26 expect dE=-0.199E-02 dE for cont linesearch -0.662E-04
 ZBRENT: interpolating
 opt :   0.3661  next Energy= -1263.038266 (dE=-0.755E-03)
 bond charge predicted
       N       E                     dE             d eps       ncg     rms          rms(c)
DAV:   1    -0.125450432888E+04    0.17064E-03   -0.17805E-01  2168   0.912E-01    0.104E-01
RMM:   2    -0.125450465841E+04   -0.32953E-03   -0.38437E-03  2418   0.119E-01    0.705E-02
RMM:   3    -0.125450478673E+04   -0.12832E-03   -0.38704E-04  2341   0.507E-02    0.195E-01
RMM:   4    -0.125450469171E+04    0.95021E-04   -0.15399E-04  2614   0.232E-02    0.655E-02
RMM:   5    -0.125450473103E+04   -0.39320E-04   -0.37009E-05  2001   0.141E-02    0.617E-02
RMM:   6    -0.125450473142E+04   -0.38895E-06   -0.20905E-05  1994   0.979E-03    0.432E-02
RMM:   7    -0.125450474376E+04   -0.12336E-04   -0.24314E-05  1972   0.104E-02    0.523E-02
RMM:   8    -0.125450474716E+04   -0.34051E-05   -0.18536E-05  1895   0.902E-03    0.412E-02
RMM:   9    -0.125450474471E+04    0.24553E-05   -0.71334E-06  1544   0.619E-03    0.943E-03
RMM:  10    -0.125450474757E+04   -0.28666E-05   -0.16661E-06  1336   0.297E-03    0.144E-02
RMM:  11    -0.125450474710E+04    0.47026E-06   -0.90600E-07  1262   0.243E-03
  34 F= -.12630383E+04 E0= -.12630342E+04  d E =-.765662E-03  mag=    18.1124
 curvature:  -0.84 expect dE=-0.206E-02 dE for cont linesearch -0.275E-07
 trial: gam= 0.78125 g(F)=  0.247E-02 g(S)=  0.000E+00 ort =-0.255E-04 (trialstep = 0.209E+00)
 search vector abs. value=  0.145E-01
 bond charge predicted
       N       E                     dE             d eps       ncg     rms          rms(c)
DAV:   1    -0.125450478522E+04   -0.37652E-04   -0.15910E-01  2192   0.855E-01    0.885E-02
RMM:   2    -0.125450506266E+04   -0.27743E-03   -0.32288E-03  2413   0.109E-01    0.718E-02
RMM:   3    -0.125450520876E+04   -0.14610E-03   -0.35399E-04  2350   0.470E-02    0.228E-01
RMM:   4    -0.125450507474E+04    0.13402E-03   -0.14126E-04  2586   0.224E-02    0.503E-02
RMM:   5    -0.125450512664E+04   -0.51893E-04   -0.30814E-05  1973   0.132E-02    0.505E-02
RMM:   6    -0.125450513150E+04   -0.48681E-05   -0.15685E-05  1993   0.840E-03    0.400E-02
RMM:   7    -0.125450513818E+04   -0.66716E-05   -0.17399E-05  1920   0.888E-03    0.377E-02
RMM:   8    -0.125450514423E+04   -0.60579E-05   -0.12550E-05  1795   0.768E-03    0.374E-02
RMM:   9    -0.125450514046E+04    0.37733E-05   -0.53010E-06  1510   0.563E-03    0.169E-02
RMM:  10    -0.125450514217E+04   -0.17056E-05   -0.14146E-06  1320   0.289E-03    0.142E-02
RMM:  11    -0.125450514224E+04   -0.73836E-07   -0.69171E-07  1240   0.215E-03
  35 F= -.12630387E+04 E0= -.12630347E+04  d E =-.424790E-03  mag=    18.1117
 trial-energy change:   -0.000425  1 .order   -0.000429   -0.000510   -0.000348
 step:   0.6571(harm=  0.6571)  dis= 0.00493  next Energy= -1263.039080 (dE=-0.803E-03)
 bond charge predicted
       N       E                     dE             d eps       ncg     rms          rms(c)
DAV:   1    -0.125450376231E+04    0.13799E-02   -0.73447E-01  2104   0.184E+00    0.191E-01
RMM:   2    -0.125450514668E+04   -0.13844E-02   -0.14965E-02  2408   0.234E-01    0.161E-01
RMM:   3    -0.125450581105E+04   -0.66437E-03   -0.16708E-03  2361   0.101E-01    0.527E-01
RMM:   4    -0.125450517627E+04    0.63478E-03   -0.69163E-04  2731   0.488E-02    0.103E-01
RMM:   5    -0.125450537963E+04   -0.20337E-03   -0.14250E-04  2260   0.270E-02    0.101E-01
RMM:   6    -0.125450540196E+04   -0.22324E-04   -0.76307E-05  2334   0.178E-02    0.991E-02
RMM:   7    -0.125450541225E+04   -0.10289E-04   -0.81413E-05  2323   0.192E-02    0.820E-02
RMM:   8    -0.125450543623E+04   -0.23985E-04   -0.56838E-05  2154   0.158E-02    0.821E-02
RMM:   9    -0.125450541990E+04    0.16327E-04   -0.25302E-05  1797   0.113E-02    0.395E-02
RMM:  10    -0.125450542557E+04   -0.56628E-05   -0.59412E-06  1532   0.540E-03    0.289E-02
RMM:  11    -0.125450542679E+04   -0.12203E-05   -0.28688E-06  1401   0.399E-03    0.187E-02
RMM:  12    -0.125450542974E+04   -0.29524E-05   -0.13284E-06  1332   0.275E-03    0.122E-02
RMM:  13    -0.125450543237E+04   -0.26322E-05   -0.10502E-06  1292   0.247E-03    0.100E-02
RMM:  14    -0.125450543564E+04   -0.32624E-05   -0.12537E-06  1329   0.257E-03    0.149E-02
RMM:  15    -0.125450543732E+04   -0.16852E-05   -0.93422E-07  1281   0.238E-03    0.800E-03
RMM:  16    -0.125450543850E+04   -0.11787E-05   -0.31849E-07  1194   0.142E-03    0.590E-03
RMM:  17    -0.125450543895E+04   -0.44929E-06   -0.16791E-07  1082   0.981E-04
  36 F= -.12630391E+04 E0= -.12630351E+04  d E =-.783994E-03  mag=    18.1100
 curvature:  -1.95 expect dE=-0.660E-02 dE for cont linesearch -0.289E-06
 trial: gam= 1.24432 g(F)=  0.339E-02 g(S)=  0.000E+00 ort =-0.463E-04 (trialstep = 0.168E+00)
 search vector abs. value=  0.257E-01
 bond charge predicted
       N       E                     dE             d eps       ncg     rms          rms(c)
DAV:   1    -0.125450539567E+04    0.42829E-04   -0.18559E-01  2136   0.930E-01    0.996E-02
RMM:   2    -0.125450573915E+04   -0.34348E-03   -0.39255E-03  2425   0.120E-01    0.701E-02
RMM:   3    -0.125450583532E+04   -0.96174E-04   -0.36733E-04  2374   0.480E-02    0.139E-01
RMM:   4    -0.125450579460E+04    0.40720E-04   -0.13584E-04  2629   0.211E-02    0.747E-02
RMM:   5    -0.125450580996E+04   -0.15352E-04   -0.34676E-05  2014   0.130E-02    0.648E-02
RMM:   6    -0.125450581170E+04   -0.17450E-05   -0.20455E-05  1982   0.936E-03    0.457E-02
RMM:   7    -0.125450582074E+04   -0.90354E-05   -0.20454E-05  1947   0.997E-03    0.394E-02
RMM:   8    -0.125450583193E+04   -0.11195E-04   -0.17187E-05  1821   0.864E-03    0.467E-02
RMM:   9    -0.125450582778E+04    0.41480E-05   -0.72352E-06  1542   0.640E-03    0.151E-02
RMM:  10    -0.125450583017E+04   -0.23861E-05   -0.16500E-06  1336   0.316E-03    0.135E-02
RMM:  11    -0.125450583029E+04   -0.11973E-06   -0.75137E-07  1249   0.216E-03
  37 F= -.12630395E+04 E0= -.12630355E+04  d E =-.428305E-03  mag=    18.1107
 trial-energy change:   -0.000428  1 .order   -0.000419   -0.000561   -0.000277
 step:   0.2896(harm=  0.3318)  dis= 0.00285  next Energy= -1263.039593 (dE=-0.532E-03)
 bond charge predicted
       N       E                     dE             d eps       ncg     rms          rms(c)
DAV:   1    -0.125450570312E+04    0.12705E-03   -0.96837E-02  2176   0.672E-01    0.722E-02
RMM:   2    -0.125450587290E+04   -0.16978E-03   -0.20453E-03  2408   0.867E-02    0.508E-02
RMM:   3    -0.125450592193E+04   -0.49033E-04   -0.19352E-04  2362   0.348E-02    0.851E-02
RMM:   4    -0.125450590753E+04    0.14404E-04   -0.70679E-05  2462   0.152E-02    0.533E-02
RMM:   5    -0.125450591460E+04   -0.70720E-05   -0.17334E-05  1836   0.893E-03    0.558E-02
RMM:   6    -0.125450591258E+04    0.20146E-05   -0.10073E-05  1665   0.692E-03    0.329E-02
RMM:   7    -0.125450591991E+04   -0.73276E-05   -0.10671E-05  1767   0.741E-03    0.321E-02
RMM:   8    -0.125450592470E+04   -0.47831E-05   -0.10351E-05  1612   0.679E-03    0.349E-02
RMM:   9    -0.125450592383E+04    0.86790E-06   -0.48521E-06  1465   0.544E-03
  38 F= -.12630396E+04 E0= -.12630356E+04  d E =-.548021E-03  mag=    18.1116
 curvature:  -1.19 expect dE=-0.252E-02 dE for cont linesearch -0.122E-04
 ZBRENT: extrapolating
 opt :   0.3445  next Energy= -1263.039623 (dE=-0.562E-03)
 bond charge predicted
       N       E                     dE             d eps       ncg     rms          rms(c)
DAV:   1    -0.125450587357E+04    0.51124E-04   -0.19706E-02  2288   0.304E-01    0.351E-02
RMM:   2    -0.125450591347E+04   -0.39896E-04   -0.43064E-04  2442   0.406E-02    0.562E-02
RMM:   3    -0.125450591780E+04   -0.43344E-05   -0.55626E-05  2307   0.179E-02    0.539E-02
RMM:   4    -0.125450591445E+04    0.33477E-05   -0.16342E-05  1930   0.843E-03    0.276E-02
RMM:   5    -0.125450591504E+04   -0.58400E-06   -0.42060E-06  1461   0.494E-03
  39 F= -.12630396E+04 E0= -.12630356E+04  d E =-.550986E-03  mag=    18.1120
 curvature:  -1.38 expect dE=-0.396E-02 dE for cont linesearch -0.146E-05
 trial: gam= 0.88140 g(F)=  0.288E-02 g(S)=  0.000E+00 ort =-0.165E-03 (trialstep = 0.203E+00)
 search vector abs. value=  0.226E-01
 bond charge predicted
       N       E                     dE             d eps       ncg     rms          rms(c)
DAV:   1    -0.125450572825E+04    0.18620E-03   -0.24115E-01  2104   0.107E+00    0.106E-01
RMM:   2    -0.125450623991E+04   -0.51166E-03   -0.51094E-03  2414   0.137E-01    0.210E-01
RMM:   3    -0.125450626898E+04   -0.29068E-04   -0.58908E-04  2375   0.591E-02    0.233E-01
RMM:   4    -0.125450621368E+04    0.55298E-04   -0.22178E-04  2691   0.280E-02    0.869E-02
RMM:   5    -0.125450623717E+04   -0.23488E-04   -0.50484E-05  2092   0.154E-02    0.625E-02
RMM:   6    -0.125450625332E+04   -0.16151E-04   -0.30319E-05  2069   0.114E-02    0.603E-02
RMM:   7    -0.125450626178E+04   -0.84555E-05   -0.32384E-05  2020   0.118E-02    0.644E-02
RMM:   8    -0.125450626367E+04   -0.18957E-05   -0.26336E-05  1947   0.107E-02    0.412E-02
RMM:   9    -0.125450626618E+04   -0.25035E-05   -0.88878E-06  1590   0.692E-03    0.189E-02
RMM:  10    -0.125450626905E+04   -0.28737E-05   -0.31534E-06  1439   0.428E-03    0.200E-02
RMM:  11    -0.125450626866E+04    0.38892E-06   -0.10792E-06  1293   0.267E-03
  40 F= -.12630400E+04 E0= -.12630360E+04  d E =-.381478E-03  mag=    18.1120
 trial-energy change:   -0.000381  1 .order   -0.000376   -0.000556   -0.000197
 step:   0.3030(harm=  0.3155)  dis= 0.00271  next Energy= -1263.040042 (dE=-0.430E-03)
 bond charge predicted
       N       E                     dE             d eps       ncg     rms          rms(c)
DAV:   1    -0.125450617539E+04    0.93659E-04   -0.57858E-02  2240   0.522E-01    0.526E-02
RMM:   2    -0.125450628157E+04   -0.10618E-03   -0.12267E-03  2431   0.668E-02    0.601E-02
RMM:   3    -0.125450633755E+04   -0.55981E-04   -0.14294E-04  2361   0.290E-02    0.167E-01
RMM:   4    -0.125450626651E+04    0.71045E-04   -0.58751E-05  2359   0.147E-02    0.293E-02
RMM:   5    -0.125450629733E+04   -0.30821E-04   -0.14079E-05  1778   0.914E-03    0.353E-02
RMM:   6    -0.125450630281E+04   -0.54846E-05   -0.83460E-06  1662   0.653E-03    0.339E-02
RMM:   7    -0.125450630386E+04   -0.10517E-05   -0.60318E-06  1555   0.600E-03    0.221E-02
RMM:   8    -0.125450630643E+04   -0.25613E-05   -0.28186E-06  1413   0.424E-03    0.154E-02
RMM:   9    -0.125450630729E+04   -0.86246E-06   -0.15399E-06  1329   0.310E-03
  41 F= -.12630400E+04 E0= -.12630360E+04  d E =-.433617E-03  mag=    18.1119
 curvature:  -1.29 expect dE=-0.254E-02 dE for cont linesearch -0.154E-05
 trial: gam= 0.56041 g(F)=  0.198E-02 g(S)=  0.000E+00 ort = 0.164E-03 (trialstep = 0.223E+00)
 search vector abs. value=  0.924E-02
 bond charge predicted
       N       E                     dE             d eps       ncg     rms          rms(c)
DAV:   1    -0.125450639119E+04   -0.84765E-04   -0.12133E-01  2116   0.767E-01    0.801E-02
RMM:   2    -0.125450661906E+04   -0.22787E-03   -0.26344E-03  2450   0.984E-02    0.659E-02
RMM:   3    -0.125450671278E+04   -0.93719E-04   -0.27018E-04  2369   0.412E-02    0.189E-01
RMM:   4    -0.125450662131E+04    0.91467E-04   -0.10815E-04  2539   0.195E-02    0.535E-02
RMM:   5    -0.125450665675E+04   -0.35437E-04   -0.26803E-05  1949   0.123E-02    0.487E-02
RMM:   6    -0.125450666075E+04   -0.39983E-05   -0.14597E-05  1951   0.817E-03    0.375E-02
RMM:   7    -0.125450666662E+04   -0.58711E-05   -0.14562E-05  1871   0.814E-03    0.333E-02
RMM:   8    -0.125450667434E+04   -0.77185E-05   -0.12068E-05  1717   0.744E-03    0.408E-02
RMM:   9    -0.125450667035E+04    0.39906E-05   -0.59822E-06  1505   0.601E-03    0.151E-02
RMM:  10    -0.125450667277E+04   -0.24208E-05   -0.13446E-06  1298   0.290E-03    0.126E-02
RMM:  11    -0.125450667295E+04   -0.18624E-06   -0.60272E-07  1227   0.205E-03
  42 F= -.12630404E+04 E0= -.12630364E+04  d E =-.354270E-03  mag=    18.1120
 trial-energy change:   -0.000354  1 .order   -0.000355   -0.000462   -0.000248
 step:   0.4830(harm=  0.4830)  dis= 0.00248  next Energy= -1263.040545 (dE=-0.499E-03)
 bond charge predicted
       N       E                     dE             d eps       ncg     rms          rms(c)
DAV:   1    -0.125450644984E+04    0.22293E-03   -0.16406E-01  2104   0.892E-01    0.930E-02
RMM:   2    -0.125450675947E+04   -0.30963E-03   -0.35658E-03  2456   0.114E-01    0.659E-02
RMM:   3    -0.125450687432E+04   -0.11484E-03   -0.33906E-04  2390   0.457E-02    0.205E-01
RMM:   4    -0.125450676680E+04    0.10752E-03   -0.13589E-04  2620   0.207E-02    0.464E-02
RMM:   5    -0.125450681583E+04   -0.49030E-04   -0.31155E-05  2028   0.132E-02    0.584E-02
RMM:   6    -0.125450681562E+04    0.21018E-06   -0.18567E-05  1978   0.934E-03    0.422E-02
RMM:   7    -0.125450682829E+04   -0.12668E-04   -0.19946E-05  1938   0.971E-03    0.475E-02
RMM:   8    -0.125450682735E+04    0.93977E-06   -0.12154E-05  1685   0.792E-03    0.293E-02
RMM:   9    -0.125450682769E+04   -0.34324E-06   -0.48064E-06  1477   0.531E-03
  43 F= -.12630405E+04 E0= -.12630365E+04  d E =-.495406E-03  mag=    18.1120
 curvature:  -1.08 expect dE=-0.201E-02 dE for cont linesearch -0.400E-06
 trial: gam= 1.02622 g(F)=  0.187E-02 g(S)=  0.000E+00 ort = 0.585E-04 (trialstep = 0.217E+00)
 search vector abs. value=  0.117E-01
 bond charge predicted
       N       E                     dE             d eps       ncg     rms          rms(c)
DAV:   1    -0.125450684543E+04   -0.18083E-04   -0.14409E-01  2132   0.831E-01    0.876E-02
RMM:   2    -0.125450712539E+04   -0.27996E-03   -0.30848E-03  2491   0.107E-01    0.839E-02
RMM:   3    -0.125450725643E+04   -0.13104E-03   -0.34684E-04  2406   0.457E-02    0.234E-01
RMM:   4    -0.125450712017E+04    0.13625E-03   -0.13745E-04  2573   0.229E-02    0.687E-02
RMM:   5    -0.125450716342E+04   -0.43247E-04   -0.33620E-05  1974   0.131E-02    0.453E-02
RMM:   6    -0.125450717080E+04   -0.73792E-05   -0.14320E-05  1970   0.781E-03    0.362E-02
RMM:   7    -0.125450717893E+04   -0.81333E-05   -0.15952E-05  1850   0.869E-03    0.455E-02
RMM:   8    -0.125450718153E+04   -0.26010E-05   -0.14447E-05  1821   0.804E-03    0.349E-02
RMM:   9    -0.125450718190E+04   -0.36325E-06   -0.66060E-06  1521   0.599E-03
  44 F= -.12630409E+04 E0= -.12630369E+04  d E =-.320594E-03  mag=    18.1114
 trial-energy change:   -0.000321  1 .order   -0.000336   -0.000418   -0.000253
 step:   0.5503(harm=  0.5503)  dis= 0.00295  next Energy= -1263.041071 (dE=-0.530E-03)
 bond charge predicted
       N       E                     dE             d eps       ncg     rms          rms(c)
DAV:   1    -0.125450660057E+04    0.58096E-03   -0.33932E-01  2110   0.128E+00    0.135E-01
RMM:   2    -0.125450728292E+04   -0.68234E-03   -0.72581E-03  2478   0.165E-01    0.129E-01
RMM:   3    -0.125450753451E+04   -0.25159E-03   -0.82096E-04  2414   0.702E-02    0.313E-01
RMM:   4    -0.125450730774E+04    0.22677E-03   -0.31539E-04  2671   0.345E-02    0.126E-01
RMM:   5    -0.125450735446E+04   -0.46714E-04   -0.75503E-05  2149   0.182E-02    0.635E-02
RMM:   6    -0.125450737255E+04   -0.18095E-04   -0.31993E-05  2133   0.114E-02    0.542E-02
RMM:   7    -0.125450739005E+04   -0.17504E-04   -0.38251E-05  2011   0.130E-02    0.765E-02
RMM:   8    -0.125450738855E+04    0.15049E-05   -0.29159E-05  2029   0.113E-02    0.406E-02
RMM:   9    -0.125450739151E+04   -0.29581E-05   -0.11122E-05  1612   0.772E-03    0.257E-02
RMM:  10    -0.125450739227E+04   -0.76657E-06   -0.40695E-06  1449   0.437E-03
  45 F= -.12630410E+04 E0= -.12630370E+04  d E =-.475996E-03  mag=    18.1106
 curvature:  -1.67 expect dE=-0.324E-02 dE for cont linesearch -0.123E-05
 trial: gam= 1.06740 g(F)=  0.193E-02 g(S)=  0.000E+00 ort =-0.929E-04 (trialstep = 0.220E+00)
 search vector abs. value=  0.151E-01
 bond charge predicted
       N       E                     dE             d eps       ncg     rms          rms(c)
DAV:   1    -0.125450718548E+04    0.20603E-03   -0.19089E-01  2160   0.953E-01    0.108E-01
RMM:   2    -0.125450755613E+04   -0.37065E-03   -0.40781E-03  2467   0.124E-01    0.739E-02
RMM:   3    -0.125450766827E+04   -0.11214E-03   -0.38730E-04  2413   0.483E-02    0.160E-01
RMM:   4    -0.125450760885E+04    0.59413E-04   -0.14844E-04  2640   0.229E-02    0.786E-02
RMM:   5    -0.125450762593E+04   -0.17071E-04   -0.35048E-05  2033   0.129E-02    0.647E-02
RMM:   6    -0.125450762925E+04   -0.33245E-05   -0.21417E-05  1935   0.966E-03    0.482E-02
RMM:   7    -0.125450763588E+04   -0.66290E-05   -0.19848E-05  1953   0.953E-03    0.370E-02
RMM:   8    -0.125450764636E+04   -0.10482E-04   -0.16424E-05  1852   0.863E-03    0.450E-02
RMM:   9    -0.125450764314E+04    0.32195E-05   -0.83942E-06  1521   0.633E-03    0.192E-02
RMM:  10    -0.125450764552E+04   -0.23753E-05   -0.27804E-06  1392   0.409E-03    0.125E-02
RMM:  11    -0.125450764679E+04   -0.12727E-05   -0.12695E-06  1307   0.273E-03    0.105E-02
RMM:  12    -0.125450764761E+04   -0.81920E-06   -0.59272E-07  1229   0.196E-03
  46 F= -.12630413E+04 E0= -.12630373E+04  d E =-.252909E-03  mag=    18.1115
 trial-energy change:   -0.000253  1 .order   -0.000249   -0.000404   -0.000094
 step:   0.2873(harm=  0.2873)  dis= 0.00169  next Energy= -1263.041280 (dE=-0.264E-03)
 bond charge predicted
       N       E                     dE             d eps       ncg     rms          rms(c)
DAV:   1    -0.125450762016E+04    0.26634E-04   -0.17594E-02  2296   0.289E-01    0.330E-02
RMM:   2    -0.125450765155E+04   -0.31396E-04   -0.37748E-04  2474   0.377E-02    0.243E-02
RMM:   3    -0.125450766711E+04   -0.15553E-04   -0.37620E-05  2235   0.152E-02    0.671E-02
RMM:   4    -0.125450765290E+04    0.14209E-04   -0.14445E-05  1914   0.763E-03    0.211E-02
RMM:   5    -0.125450766018E+04   -0.72862E-05   -0.41062E-06  1464   0.525E-03    0.206E-02
RMM:   6    -0.125450766087E+04   -0.69118E-06   -0.22647E-06  1371   0.377E-03
  47 F= -.12630413E+04 E0= -.12630372E+04  d E =-.265325E-03  mag=    18.1120
 curvature:  -1.18 expect dE=-0.169E-02 dE for cont linesearch -0.182E-06
 trial: gam= 0.62591 g(F)=  0.143E-02 g(S)=  0.000E+00 ort = 0.482E-04 (trialstep = 0.234E+00)
 search vector abs. value=  0.741E-02
 bond charge predicted
       N       E                     dE             d eps       ncg     rms          rms(c)
DAV:   1    -0.125450758871E+04    0.71474E-04   -0.10262E-01  2116   0.696E-01    0.875E-02
RMM:   2    -0.125450777799E+04   -0.18928E-03   -0.21852E-03  2449   0.941E-02    0.676E-02
RMM:   3    -0.125450787514E+04   -0.97155E-04   -0.24956E-04  2391   0.390E-02    0.166E-01
RMM:   4    -0.125450780114E+04    0.74001E-04   -0.98181E-05  2490   0.197E-02    0.630E-02
RMM:   5    -0.125450782401E+04   -0.22867E-04   -0.28084E-05  1950   0.118E-02    0.500E-02
RMM:   6    -0.125450782666E+04   -0.26486E-05   -0.14633E-05  1894   0.804E-03    0.362E-02
RMM:   7    -0.125450783012E+04   -0.34643E-05   -0.13591E-05  1859   0.773E-03    0.285E-02
RMM:   8    -0.125450783721E+04   -0.70871E-05   -0.10703E-05  1643   0.709E-03    0.415E-02
RMM:   9    -0.125450783206E+04    0.51476E-05   -0.51592E-06  1478   0.571E-03    0.110E-02
RMM:  10    -0.125450783467E+04   -0.26024E-05   -0.13390E-06  1310   0.268E-03    0.100E-02
RMM:  11    -0.125450783552E+04   -0.84966E-06   -0.80776E-07  1259   0.219E-03
  48 F= -.12630415E+04 E0= -.12630375E+04  d E =-.218484E-03  mag=    18.1120
 trial-energy change:   -0.000218  1 .order   -0.000222   -0.000342   -0.000101
 step:   0.3314(harm=  0.3314)  dis= 0.00130  next Energy= -1263.041525 (dE=-0.243E-03)
 bond charge predicted
       N       E                     dE             d eps       ncg     rms          rms(c)
DAV:   1    -0.125450779504E+04    0.39622E-04   -0.17940E-02  2256   0.291E-01    0.368E-02
RMM:   2    -0.125450782727E+04   -0.32222E-04   -0.38578E-04  2476   0.394E-02    0.308E-02
RMM:   3    -0.125450784674E+04   -0.19474E-04   -0.46055E-05  2301   0.167E-02    0.735E-02
RMM:   4    -0.125450783002E+04    0.16718E-04   -0.16815E-05  1925   0.878E-03    0.287E-02
RMM:   5    -0.125450783576E+04   -0.57398E-05   -0.50396E-06  1473   0.549E-03    0.206E-02
RMM:   6    -0.125450783700E+04   -0.12376E-05   -0.21885E-06  1351   0.363E-03    0.137E-02
RMM:   7    -0.125450783889E+04   -0.18893E-05   -0.28903E-06  1401   0.419E-03    0.175E-02
RMM:   8    -0.125450783964E+04   -0.75520E-06   -0.23882E-06  1356   0.366E-03
  49 F= -.12630415E+04 E0= -.12630375E+04  d E =-.240933E-03  mag=    18.1120
 curvature:  -0.84 expect dE=-0.690E-03 dE for cont linesearch -0.321E-06
 trial: gam= 0.60087 g(F)=  0.824E-03 g(S)=  0.000E+00 ort = 0.532E-04 (trialstep = 0.253E+00)
 search vector abs. value=  0.356E-02
 bond charge predicted
       N       E                     dE             d eps       ncg     rms          rms(c)
DAV:   1    -0.125450779745E+04    0.41439E-04   -0.55915E-02  2124   0.506E-01    0.699E-02
RMM:   2    -0.125450789754E+04   -0.10009E-03   -0.11581E-03  2521   0.695E-02    0.697E-02
RMM:   3    -0.125450800335E+04   -0.10581E-03   -0.16922E-04  2422   0.300E-02    0.210E-01
RMM:   4    -0.125450788563E+04    0.11772E-03   -0.76916E-05  2341   0.174E-02    0.438E-02
RMM:   5    -0.125450792652E+04   -0.40892E-04   -0.19657E-05  1796   0.102E-02    0.327E-02
RMM:   6    -0.125450793308E+04   -0.65530E-05   -0.75698E-06  1678   0.610E-03    0.237E-02
RMM:   7    -0.125450793808E+04   -0.49981E-05   -0.79921E-06  1638   0.629E-03    0.268E-02
RMM:   8    -0.125450794089E+04   -0.28119E-05   -0.55423E-06  1510   0.562E-03    0.258E-02
RMM:   9    -0.125450794000E+04    0.89235E-06   -0.22909E-06  1390   0.388E-03
  50 F= -.12630417E+04 E0= -.12630376E+04  d E =-.153826E-03  mag=    18.1124
 trial-energy change:   -0.000154  1 .order   -0.000161   -0.000217   -0.000106
 step:   0.4943(harm=  0.4943)  dis= 0.00128  next Energy= -1263.041734 (dE=-0.211E-03)
 bond charge predicted
       N       E                     dE             d eps       ncg     rms          rms(c)
DAV:   1    -0.125450780213E+04    0.13876E-03   -0.50626E-02  2140   0.481E-01    0.668E-02
RMM:   2    -0.125450790173E+04   -0.99603E-04   -0.10505E-03  2488   0.664E-02    0.107E-01
RMM:   3    -0.125450796683E+04   -0.65099E-04   -0.17046E-04  2428   0.291E-02    0.196E-01
RMM:   4    -0.125450788391E+04    0.82924E-04   -0.68563E-05  2336   0.167E-02    0.399E-02
RMM:   5    -0.125450791663E+04   -0.32727E-04   -0.16541E-05  1752   0.924E-03    0.339E-02
RMM:   6    -0.125450792414E+04   -0.75096E-05   -0.69362E-06  1667   0.595E-03    0.246E-02
RMM:   7    -0.125450792900E+04   -0.48605E-05   -0.70902E-06  1561   0.606E-03    0.327E-02
RMM:   8    -0.125450792883E+04    0.17744E-06   -0.46693E-06  1446   0.506E-03
  51 F= -.12630417E+04 E0= -.12630376E+04  d E =-.193540E-03  mag=    18.1128
 curvature:  -1.03 expect dE=-0.106E-02 dE for cont linesearch -0.945E-07
 trial: gam= 1.26707 g(F)=  0.103E-02 g(S)=  0.000E+00 ort = 0.181E-04 (trialstep = 0.158E+00)
 search vector abs. value=  0.679E-02
 bond charge predicted
       N       E                     dE             d eps       ncg     rms          rms(c)
DAV:   1    -0.125450790422E+04    0.24782E-04   -0.40131E-02  2192   0.425E-01    0.628E-02
RMM:   2    -0.125450798316E+04   -0.78937E-04   -0.83426E-04  2477   0.599E-02    0.101E-01
RMM:   3    -0.125450803494E+04   -0.51782E-04   -0.14710E-04  2418   0.276E-02    0.168E-01
RMM:   4    -0.125450798079E+04    0.54151E-04   -0.62478E-05  2338   0.154E-02    0.667E-02
RMM:   5    -0.125450799559E+04   -0.14800E-04   -0.20041E-05  1732   0.104E-02    0.240E-02
RMM:   6    -0.125450800259E+04   -0.70028E-05   -0.62297E-06  1613   0.546E-03    0.223E-02
RMM:   7    -0.125450800466E+04   -0.20723E-05   -0.52254E-06  1501   0.528E-03    0.230E-02
RMM:   8    -0.125450800671E+04   -0.20442E-05   -0.48654E-06  1465   0.495E-03    0.222E-02
RMM:   9    -0.125450800676E+04   -0.47366E-07   -0.26038E-06  1389   0.410E-03
  52 F= -.12630418E+04 E0= -.12630378E+04  d E =-.125579E-03  mag=    18.1128
 trial-energy change:   -0.000126  1 .order   -0.000134   -0.000166   -0.000102
 step:   0.4083(harm=  0.4083)  dis= 0.00140  next Energy= -1263.041931 (dE=-0.215E-03)
 bond charge predicted
       N       E                     dE             d eps       ncg     rms          rms(c)
DAV:   1    -0.125450773794E+04    0.26877E-03   -0.10065E-01  2184   0.673E-01    0.963E-02
RMM:   2    -0.125450791762E+04   -0.17969E-03   -0.20504E-03  2493   0.930E-02    0.804E-02
RMM:   3    -0.125450805990E+04   -0.14228E-03   -0.27360E-04  2428   0.385E-02    0.206E-01
RMM:   4    -0.125450795025E+04    0.10965E-03   -0.11092E-04  2482   0.206E-02    0.753E-02
RMM:   5    -0.125450797659E+04   -0.26337E-04   -0.32181E-05  1922   0.124E-02    0.402E-02
RMM:   6    -0.125450798413E+04   -0.75425E-05   -0.12600E-05  1899   0.742E-03    0.336E-02
RMM:   7    -0.125450798890E+04   -0.47729E-05   -0.12850E-05  1691   0.798E-03    0.405E-02
RMM:   8    -0.125450799266E+04   -0.37573E-05   -0.12532E-05  1696   0.779E-03    0.351E-02
RMM:   9    -0.125450799265E+04    0.70213E-08   -0.49732E-06  1469   0.541E-03
  53 F= -.12630419E+04 E0= -.12630379E+04  d E =-.186919E-03  mag=    18.1123
 curvature:  -1.32 expect dE=-0.134E-02 dE for cont linesearch -0.405E-07
 trial: gam= 0.93340 g(F)=  0.101E-02 g(S)=  0.000E+00 ort = 0.145E-04 (trialstep = 0.203E+00)
 search vector abs. value=  0.696E-02
 bond charge predicted
       N       E                     dE             d eps       ncg     rms          rms(c)
DAV:   1    -0.125450790050E+04    0.92159E-04   -0.64604E-02  2216   0.544E-01    0.763E-02
RMM:   2    -0.125450801593E+04   -0.11543E-03   -0.13693E-03  2503   0.757E-02    0.701E-02
RMM:   3    -0.125450814831E+04   -0.13238E-03   -0.19672E-04  2417   0.323E-02    0.235E-01
RMM:   4    -0.125450800363E+04    0.14468E-03   -0.90523E-05  2395   0.188E-02    0.378E-02
RMM:   5    -0.125450805668E+04   -0.53049E-04   -0.23813E-05  1903   0.114E-02    0.435E-02
RMM:   6    -0.125450806272E+04   -0.60440E-05   -0.10433E-05  1723   0.722E-03    0.324E-02
RMM:   7    -0.125450806756E+04   -0.48322E-05   -0.84393E-06  1606   0.646E-03    0.266E-02
RMM:   8    -0.125450807131E+04   -0.37505E-05   -0.48284E-06  1492   0.538E-03    0.217E-02
RMM:   9    -0.125450807257E+04   -0.12684E-05   -0.25072E-06  1410   0.391E-03    0.170E-02
RMM:  10    -0.125450807405E+04   -0.14718E-05   -0.10189E-06  1261   0.263E-03    0.102E-02
RMM:  11    -0.125450807760E+04   -0.35539E-05   -0.11611E-06  1259   0.244E-03    0.137E-02
RMM:  12    -0.125450807978E+04   -0.21776E-05   -0.99194E-07  1261   0.250E-03    0.864E-03
RMM:  13    -0.125450808056E+04   -0.78476E-06   -0.48033E-07  1213   0.176E-03
  54 F= -.12630421E+04 E0= -.12630380E+04  d E =-.153309E-03  mag=    18.1128
 trial-energy change:   -0.000153  1 .order   -0.000146   -0.000209   -0.000083
 step:   0.2931(harm=  0.3381)  dis= 0.00093  next Energy= -1263.042076 (dE=-0.172E-03)
 bond charge predicted
       N       E                     dE             d eps       ncg     rms          rms(c)
DAV:   1    -0.125450804091E+04    0.38866E-04   -0.12666E-02  2216   0.241E-01    0.339E-02
RMM:   2    -0.125450806442E+04   -0.23505E-04   -0.27161E-04  2512   0.338E-02    0.515E-02
RMM:   3    -0.125450808273E+04   -0.18314E-04   -0.43314E-05  2264   0.150E-02    0.974E-02
RMM:   4    -0.125450806131E+04    0.21425E-04   -0.18363E-05  1864   0.880E-03    0.290E-02
RMM:   5    -0.125450807060E+04   -0.92895E-05   -0.52316E-06  1504   0.588E-03    0.135E-02
RMM:   6    -0.125450807431E+04   -0.37111E-05   -0.19524E-06  1329   0.340E-03    0.143E-02
RMM:   7    -0.125450807543E+04   -0.11223E-05   -0.21192E-06  1369   0.381E-03    0.138E-02
RMM:   8    -0.125450807704E+04   -0.16107E-05   -0.14058E-06  1289   0.296E-03    0.102E-02
RMM:   9    -0.125450807784E+04   -0.79496E-06   -0.67400E-07  1221   0.222E-03
  55 F= -.12630421E+04 E0= -.12630380E+04  d E =-.179352E-03  mag=    18.1132
 curvature:  -1.02 expect dE=-0.522E-03 dE for cont linesearch -0.326E-05
 ZBRENT: increasing intervall
 opt :   0.4731  next Energy= -1263.042063 (dE=-0.159E-03)
 bond charge predicted
       N       E                     dE             d eps       ncg     rms          rms(c)
DAV:   1    -0.125450786497E+04    0.21207E-03   -0.50726E-02  2132   0.482E-01    0.669E-02
RMM:   2    -0.125450794856E+04   -0.83592E-04   -0.10745E-03  2501   0.671E-02    0.538E-02
RMM:   3    -0.125450803507E+04   -0.86509E-04   -0.14136E-04  2434   0.278E-02    0.172E-01
RMM:   4    -0.125450795310E+04    0.81969E-04   -0.60987E-05  2286   0.154E-02    0.419E-02
RMM:   5    -0.125450798307E+04   -0.29971E-04   -0.16499E-05  1755   0.929E-03    0.303E-02
RMM:   6    -0.125450798750E+04   -0.44235E-05   -0.65315E-06  1636   0.572E-03    0.226E-02
RMM:   7    -0.125450799234E+04   -0.48422E-05   -0.73903E-06  1603   0.631E-03    0.319E-02
RMM:   8    -0.125450799241E+04   -0.69209E-07   -0.53282E-06  1483   0.545E-03
  56 F= -.12630421E+04 E0= -.12630379E+04  d E =-.151146E-03  mag=    18.1138
 curvature:   6.27 expect dE= 0.867E-02 dE for cont linesearch  0.101E-03
 ZBRENT: bracketing found
 ZBRENT: interpolating
 opt :   0.3485  next Energy= -1263.042087 (dE=-0.183E-03)
 bond charge predicted
       N       E                     dE             d eps       ncg     rms          rms(c)
DAV:   1    -0.125450799735E+04   -0.50168E-05   -0.24407E-02  2234   0.334E-01    0.477E-02
RMM:   2    -0.125450804293E+04   -0.45575E-04   -0.51839E-04  2487   0.471E-02    0.617E-02
RMM:   3    -0.125450808795E+04   -0.45018E-04   -0.85479E-05  2390   0.212E-02    0.137E-01
RMM:   4    -0.125450804093E+04    0.47016E-04   -0.35260E-05  2134   0.120E-02    0.414E-02
RMM:   5    -0.125450805886E+04   -0.17925E-04   -0.10759E-05  1620   0.798E-03    0.195E-02
RMM:   6    -0.125450806368E+04   -0.48200E-05   -0.38599E-06  1445   0.447E-03    0.173E-02
RMM:   7    -0.125450806587E+04   -0.21955E-05   -0.27344E-06  1356   0.412E-03    0.132E-02
RMM:   8    -0.125450806822E+04   -0.23441E-05   -0.23780E-06  1369   0.354E-03    0.191E-02
RMM:   9    -0.125450806780E+04    0.41979E-06   -0.12808E-06  1286   0.296E-03
  57 F= -.12630421E+04 E0= -.12630380E+04  d E =-.186978E-03  mag=    18.1137
 curvature:  -0.26 expect dE=-0.182E-03 dE for cont linesearch -0.153E-06
 trial: gam= 0.71776 g(F)=  0.711E-03 g(S)=  0.000E+00 ort =-0.644E-04 (trialstep = 0.232E+00)
 search vector abs. value=  0.420E-02
 bond charge predicted
       N       E                     dE             d eps       ncg     rms          rms(c)
DAV:   1    -0.125450801068E+04    0.57536E-04   -0.47595E-02  2232   0.472E-01    0.624E-02
RMM:   2    -0.125450809121E+04   -0.80526E-04   -0.10549E-03  2499   0.660E-02    0.484E-02
RMM:   3    -0.125450816552E+04   -0.74310E-04   -0.12433E-04  2418   0.264E-02    0.158E-01
RMM:   4    -0.125450809413E+04    0.71385E-04   -0.52492E-05  2325   0.140E-02    0.325E-02
RMM:   5    -0.125450812124E+04   -0.27109E-04   -0.14506E-05  1751   0.901E-03    0.314E-02
RMM:   6    -0.125450812273E+04   -0.14913E-05   -0.53950E-06  1558   0.530E-03    0.214E-02
RMM:   7    -0.125450812554E+04   -0.28048E-05   -0.60278E-06  1558   0.584E-03    0.282E-02
RMM:   8    -0.125450812491E+04    0.62239E-06   -0.50474E-06  1511   0.523E-03
  58 F= -.12630422E+04 E0= -.12630382E+04  d E =-.104648E-03  mag=    18.1134
 trial-energy change:   -0.000105  1 .order   -0.000114   -0.000154   -0.000074
 step:   0.4456(harm=  0.4456)  dis= 0.00093  next Energy= -1263.042238 (dE=-0.148E-03)
 bond charge predicted
       N       E                     dE             d eps       ncg     rms          rms(c)
DAV:   1    -0.125450799500E+04    0.13054E-03   -0.39982E-02  2256   0.434E-01    0.592E-02
RMM:   2    -0.125450807606E+04   -0.81055E-04   -0.90645E-04  2490   0.617E-02    0.103E-01
RMM:   3    -0.125450812527E+04   -0.49215E-04   -0.14238E-04  2433   0.260E-02    0.173E-01
RMM:   4    -0.125450805850E+04    0.66765E-04   -0.54779E-05  2300   0.149E-02    0.356E-02
RMM:   5    -0.125450808427E+04   -0.25767E-04   -0.13220E-05  1680   0.828E-03    0.296E-02
RMM:   6    -0.125450808898E+04   -0.47089E-05   -0.57565E-06  1585   0.529E-03    0.212E-02
RMM:   7    -0.125450809276E+04   -0.37778E-05   -0.59791E-06  1542   0.563E-03    0.299E-02
RMM:   8    -0.125450809203E+04    0.72454E-06   -0.45543E-06  1448   0.506E-03
  59 F= -.12630422E+04 E0= -.12630382E+04  d E =-.114869E-03  mag=    18.1129
 curvature:  -1.41 expect dE=-0.117E-02 dE for cont linesearch -0.124E-05
 trial: gam= 1.25513 g(F)=  0.833E-03 g(S)=  0.000E+00 ort =-0.609E-04 (trialstep = 0.158E+00)
 search vector abs. value=  0.730E-02
 bond charge predicted
       N       E                     dE             d eps       ncg     rms          rms(c)
DAV:   1    -0.125450806725E+04    0.25507E-04   -0.36834E-02  2208   0.416E-01    0.526E-02
RMM:   2    -0.125450815388E+04   -0.86627E-04   -0.84420E-04  2502   0.584E-02    0.116E-01
RMM:   3    -0.125450815616E+04   -0.22861E-05   -0.11799E-04  2422   0.246E-02    0.120E-01
RMM:   4    -0.125450814382E+04    0.12345E-04   -0.44046E-05  2249   0.137E-02    0.437E-02
RMM:   5    -0.125450815226E+04   -0.84421E-05   -0.11314E-05  1654   0.759E-03    0.236E-02
RMM:   6    -0.125450815758E+04   -0.53181E-05   -0.48420E-06  1514   0.499E-03    0.197E-02
RMM:   7    -0.125450816040E+04   -0.28224E-05   -0.45486E-06  1499   0.500E-03    0.189E-02
RMM:   8    -0.125450816361E+04   -0.32084E-05   -0.36250E-06  1438   0.449E-03    0.217E-02
RMM:   9    -0.125450816366E+04   -0.47861E-07   -0.19342E-06  1356   0.359E-03
  60 F= -.12630423E+04 E0= -.12630382E+04  d E =-.945446E-04  mag=    18.1129
 trial-energy change:   -0.000095  1 .order   -0.000097   -0.000120   -0.000074
 step:   0.4187(harm=  0.4187)  dis= 0.00104  next Energy= -1263.042364 (dE=-0.158E-03)
 bond charge predicted
       N       E                     dE             d eps       ncg     rms          rms(c)
DAV:   1    -0.125450792568E+04    0.23793E-03   -0.99981E-02  2104   0.685E-01    0.841E-02
RMM:   2    -0.125450811467E+04   -0.18899E-03   -0.22319E-03  2457   0.943E-02    0.876E-02
RMM:   3    -0.125450826417E+04   -0.14951E-03   -0.29460E-04  2388   0.410E-02    0.251E-01
RMM:   4    -0.125450810543E+04    0.15874E-03   -0.13035E-04  2519   0.222E-02    0.606E-02
RMM:   5    -0.125450815418E+04   -0.48748E-04   -0.31349E-05  1940   0.125E-02    0.367E-02
RMM:   6    -0.125450816505E+04   -0.10870E-04   -0.10755E-05  1897   0.692E-03    0.304E-02
RMM:   7    -0.125450817221E+04   -0.71667E-05   -0.12220E-05  1658   0.770E-03    0.454E-02
RMM:   8    -0.125450817252E+04   -0.30478E-06   -0.93054E-06  1682   0.687E-03
  61 F= -.12630423E+04 E0= -.12630383E+04  d E =-.141140E-03  mag=    18.1130
 curvature:  -2.02 expect dE=-0.201E-02 dE for cont linesearch -0.569E-06
 trial: gam= 0.92881 g(F)=  0.995E-03 g(S)=  0.000E+00 ort = 0.454E-04 (trialstep = 0.208E+00)
 search vector abs. value=  0.738E-02
 bond charge predicted
       N       E                     dE             d eps       ncg     rms          rms(c)
DAV:   1    -0.125450815740E+04    0.14813E-04   -0.62617E-02  2208   0.545E-01    0.706E-02
RMM:   2    -0.125450830634E+04   -0.14895E-03   -0.15298E-03  2519   0.783E-02    0.129E-01
RMM:   3    -0.125450834513E+04   -0.38790E-04   -0.21632E-04  2460   0.332E-02    0.179E-01
RMM:   4    -0.125450829209E+04    0.53049E-04   -0.88029E-05  2477   0.183E-02    0.770E-02
RMM:   5    -0.125450830482E+04   -0.12738E-04   -0.26578E-05  1850   0.113E-02    0.283E-02
RMM:   6    -0.125450831067E+04   -0.58471E-05   -0.83823E-06  1735   0.606E-03    0.243E-02
RMM:   7    -0.125450831482E+04   -0.41484E-05   -0.82077E-06  1580   0.631E-03    0.318E-02
RMM:   8    -0.125450831738E+04   -0.25655E-05   -0.77420E-06  1505   0.571E-03    0.280E-02
RMM:   9    -0.125450831815E+04   -0.76034E-06   -0.36869E-06  1416   0.479E-03
  62 F= -.12630425E+04 E0= -.12630385E+04  d E =-.154823E-03  mag=    18.1125
 trial-energy change:   -0.000155  1 .order   -0.000166   -0.000216   -0.000117
 step:   0.4533(harm=  0.4533)  dis= 0.00119  next Energy= -1263.042582 (dE=-0.235E-03)
 reached required accuracy - stopping structural energy minimisation
