O  C  H  Co Li
 1.0000000000000000
    25.9869300222800774    0.0014776472087939   -0.0002841704448074
    12.9947443186480527   22.5035161465627063   -0.0005769115704474
    -0.0000740905812471   -0.0001328080293999    6.8098320633878924
 O   C   H   Co  Li 
  58  74  18  18   2
Direct
  0.0607603470045130  0.2467259980749838  0.3246684544700217
  0.0331490491245729  0.2883425423921999  0.9314269687699984
  0.1094959881187330  0.2571187478933105  0.7248991431786120
  0.3915156205190699  0.5815961015786631  0.6699130974483130
  0.6965101632867416  0.0560798046176570  0.3256337766513270
  0.6836738910573200  0.0268589369933167  0.9349503069826504
  0.6399741191780461  0.1024247788779373  0.7245048743545311
  0.0336829071523516  0.3893786710525722  0.6588320526683319
  0.2470797127655577  0.6956624649007158  0.3340936956488997
  0.2892752263171167  0.6821200303963857  0.9422479547721885
  0.2586731479983033  0.6367448869397486  0.7342749675766918
  0.5820075645538278  0.0277316319972827  0.6598202411947300
  0.3072591362184922  0.0439081019217993  0.4028359898152875
  0.2307457428735925  0.0748567015892417  0.6086344977777000
  0.6290269322470509  0.3598334607170884  0.7004265398931769
  0.5609920940310898  0.4036528769987388  0.9393340421383056
  0.2793150060711160  0.0851296837997907  0.0086903722518960
  0.6740938978268441  0.2960712609268737  0.3638024694403137
  0.7076566458279139  0.2235601777457717  0.5901662852605855
 -0.0151780699801150  0.6376898119473634  0.7365734588581109
  0.0313331924606991  0.5614213671598824  0.9428160070940832
  0.6473311239675035  0.2706785070566662  0.0001557899872630
  0.0449144702209813  0.6508357297547188  0.4039145288319962
  0.0754259521134694  0.6962412825143025  0.6123124273306730
  0.3800107660329061  0.9827237077825159  0.7365457303509504
  0.4112165989210772  0.0278310990042675  0.9433183104305572
  0.0865972613435698  0.6380724182933351  0.0117526159799788
  0.6965436598460057  0.9542635362604499  0.6011773215100112
  0.7728728876627382  0.9236330256054982  0.3947880461595647
  0.3617365005821232  0.6238180093128758  0.2776133775120183
  0.4377206353685874  0.5921658809545765  0.0692565516061146
  0.7247543011938924  0.9125658800969848  0.9945767324535235
  0.3476413159091435  0.6964633054459244  0.6096607668653845
  0.3030752211375536  0.7721225902085396  0.3997996782370454
  0.0206075009007528  0.3610170385876036  0.2649672404214705
  0.9742789169036427  0.4373970703157082  0.0591251144128737
  0.3614219416989977  0.7249180369506339  0.9999091754818531
  0.9605442016012058  0.3479977787359642  0.5980245028804616
  0.9271637991413678  0.3061337330341503  0.3855178731898228
  0.6238344753259075  0.0138722351516058  0.2676646563687386
  0.5926360643573459  0.9689945554463061  0.0598775294100190
  0.9183246455865776  0.3612515737941672  0.9879029172576932
  0.9434724864580122  0.7522113512963901  0.6769998206533410
  0.9718175015647176  0.7108028786628754  0.0702218463721268
  0.8955793770363981  0.7412770890645834  0.2769666167505090
  0.6037808599123892  0.4142795665820144  0.3363703051267020
  0.3057685666991414  0.9424955009788059  0.6773505518054712
  0.3188253646186364  0.9711555160698923  0.0698868602214131
  0.3635912270500410  0.8950856772312998  0.2780254293194596
  0.9721107476969058  0.6091801627284191  0.3428664847445304
  0.7521133503789921  0.3125908795480710  0.6651283366168662
  0.7009350171926301  0.3401877862353662  0.0253801380476794
  0.7384312848116981  0.3730526854396067  0.2564656461965281
  0.4215191410983182  0.9693364199163745  0.3431156836825941
  0.6781027018460437  0.4467766156772929  0.6100714466793840
  0.6199691664150806  0.5464762669102045  0.6432335541852481
  0.7061003894166389  0.5080134196027478  0.4657645007832030
  0.8184108527457566  0.1640735445157369  0.9792411363760397
  0.1127784553264193  0.2086753060146561  0.2390673324216868
  0.1550454190993672  0.1637639195322962  0.3605462859315966
  0.0890115051403073  0.2542313087856327  0.8918696346008628
  0.1284634218837080  0.2104803122790994  0.0382971136569725
  0.4426742633383396  0.5425703244903821  0.5825099998103188
  0.4853458793009054  0.4969289430085667  0.7015289105146099
  0.6845772649401657  0.1071120466277558  0.2378417824427125
  0.6886092471213292  0.1492475050884165  0.3560786057957957
  0.6630433998472094  0.0822951288640935  0.8920980547894786
  0.6681469015821881  0.1218953934377879  0.0359328307570377
  0.0187909462018005  0.4416214679413201  0.5731540484127071
  0.0203910182102318  0.4844633638754189  0.6946007577187284
  0.2093538660294059  0.6815531172491447  0.2473190746111185
  0.1644024955992755  0.6837266070444920  0.3673698297309356
  0.2553963887570044  0.6602572562545459  0.9014566694020791
  0.2113584356740434  0.6643984512037342  0.0460816141837348
  0.5442128291316044  0.0134725952545197  0.5741251940182033
  0.4994871056179251  0.0156571203949462  0.6954395923871465
  0.2513390300575238  0.0778245130643290  0.4419008008045889
  0.2117788653176939  0.1215290485289234  0.2953844704224862
  0.5790239944505615  0.4015257189549594  0.7625481729796163
  0.5399755814637219  0.4516218207051749  0.6279017396796526
  0.2274053561152908  0.1232679123686432  0.0945235264002512
  0.1851722235279207  0.1682348286449687  0.9730933823543202
  0.6868236780335230  0.2437520470298846  0.4202067850621465
  0.6770307567510272  0.2045017998662071  0.2854549169459124
  0.0077237516543138  0.5816799284612453  0.7758773092937227
  0.0046299376594576  0.5415294340474039  0.6294121645639852
  0.6592306874263387  0.2196676701684746  0.0858693878200720
  0.6553782127446688  0.1775683934151756  0.9666161880132207
  0.0786295080643717  0.6729036061108559  0.4449619589682369
  0.1224351031020750  0.6691486839608396  0.3000099668965005
  0.4140118067750656  0.0045992922174952  0.7761256278060624
  0.4575878145880566  0.0007623237483900  0.6298611759777953
  0.1243681902473237  0.6521353925901897  0.0987037406243470
  0.1693091437277679  0.6499452833180559  0.9786159875577922
  0.7524192614786634  0.9205095303277623  0.5616943284444572
  0.7921885675065663  0.8767670103778489  0.7076567470498959
  0.4171868773263722  0.5887802984844610  0.2357816552937612
  0.4563113232137677  0.5434183363908106  0.3787368444913140
  0.7767520329193072  0.8748019082674039  0.9085705281975052
  0.8192982621098770  0.8299739402912074  0.0296735349277923
  0.3263122529560505  0.7520525010957565  0.5672932704367362
  0.3307483735565981  0.7918536669817666  0.7116843018179086
  0.9979391374111692  0.4169992299864879  0.2259969113985487
  1.0012434237744476  0.4570357277681303  0.3723539092124967
  0.3476540979909417  0.7766980914582281  0.9130480727323320
  0.3500462724439478  0.8193037614429600  0.0332574034846540
  0.9248682288462090  0.3285643015408325  0.5541561226897275
  0.8799550617789192  0.3340858149387037  0.6972209084195337
  0.5897630944052007  0.9921457507325333  0.2272708448036435
  0.5460661128265126  0.9961027549225694  0.3732358903037169
  0.8793829094051094  0.3491594561002404  0.9000842395883666
  0.8340742861400836  0.3519290444799210  0.0196985999208040
  0.8914685343015790  0.7900027362950908  0.7629454252926406
  0.8489338722689637  0.8348213168494025  0.6418424039805318
  0.9158996257327462  0.7444272961341600  0.1099598298562979
  0.8760513724811403  0.7880549279437139  0.9638887592767805
  0.5530191022083987  0.4528538957356736  0.4232993587306021
  0.5107903158887979  0.4989763829938623  0.3062123709680284
  0.3192803058853549  0.8907995726119705  0.7643037781285051
  0.3167621098365137  0.8482215747364527  0.6441393184136494
  0.3403039953035025  0.9154380855752744  0.1107702991299691
  0.3360374065803504  0.8756887135749736  0.9657853206423512
  0.9870934036915385  0.5569351463185521  0.4285910005557989
  0.9855436479136818  0.5140817167589646  0.3071021279110093
  0.7908974420539747  0.3249854230185424  0.7482665272419357
  0.8366719035971195  0.3213643563562644  0.6284290874373917
  0.7407298742503672  0.3521856813021840  0.0844662988360357
  0.7893481596564403  0.3419206953517531  0.9495689644332075
  0.4593948994718064  0.9834725543109915  0.4289093570861490
  0.5041575247284157  0.9812353476399833  0.3076256425521451
  0.6673275750352666  0.5045353863914382  0.5685467810793283
  0.7783609458939853  0.2068368786593170  0.9209649702455469
  0.1419975714853821  0.1621268361873395  0.5116042351775336
  0.4729449609858585  0.4951575929753185  0.8533025294905618
  0.7032813215129888  0.1366279038103929  0.5074096979388756
  0.0352103821378680  0.4716311655180328  0.8456704727028737
  0.1624461039660650  0.6981802557106422  0.5189086434138696
  0.4977205658337148  0.0302750983793719  0.8466512785291890
  0.1982324432576824  0.1698925534550572  0.8220732007018199
  0.6412503435635878  0.1899007406791752  0.8146648029795377
  0.1712528123176777  0.6354946372818646  0.8270880473324412
  0.8064415364830787  0.8281584629289250  0.1808386540497848
  0.3642820966646574  0.8068073970541582  0.1849605466869125
  0.8346846400576550  0.3635763481977206  0.1729352653125316
  0.8617986707891333  0.8366582164888491  0.4907036898536229
  0.5221889927186367  0.4999923426951589  0.1526925233573670
  0.3024635489448818  0.8607451129636102  0.4925002860317737
  0.9707433741861230  0.5269111878250123  0.1560247009626674
  0.8394114226822361  0.3051225106040683  0.4784896661198103
  0.5059449681099413  0.9665981781654376  0.1564259333300530
  0.3130964115518287  0.6395787833235053  0.5277217844325117
  0.0524567692968528  0.3120403244925639  0.5159826369916976
  0.6401492612471417  0.0467731984339050  0.5167717764461942
  0.0207469423248936  0.6942371519900281  0.8200252370967652
  0.3562494099223346  0.0262998847579482  0.1517968124589998
  0.2872836261832022  0.0198910720729298  0.8178519267989517
  0.6210381349851629  0.3494735098722413  0.1374265861375051
  0.7105298026473796  0.2744037575570146  0.8170868776526423
  0.0285563799994279  0.6184387958480527  0.1522606649697931
  0.6475188431138661  0.9711388876096454  0.8517406317714280
  0.9839353680677944  0.3049692705576885  0.1801522819840425
  0.3816919732539999  0.6471525363471192  0.8596276685748235
  0.7159952790292574  0.9780419168423294  0.1861116142257259
  0.9770855500978348  0.3805544907469495  0.8495771680522161
  0.3052008649178105  0.7151664603999500  0.1920327629121904
  0.6808044948391554  0.3735888883786660  0.4946731579854927
  0.9526249019476145  0.6866257684155379  0.4854994969356104
  0.3626510311762226  0.9511870678815356  0.4860182482239649
  0.7471244680921488  0.4282296241360328  0.4171881318921372
  0.5996560988396119  0.4933369815513224  0.7362291482744280
