O  C  H  Co Li
 1.0000000000000000
    25.9869300222800774    0.0014776472087939   -0.0002841704448074
    12.9947443186480527   22.5035161465627063   -0.0005769115704474
    -0.0000740905812471   -0.0001328080293999    6.8098320633878924
 O   C   H   Co  Li 
  58  74  18  18   2
Cartesian
  4.8707091648651684  5.6697678956596604  2.1949012024380745
  4.8398882939219225  6.6741818764734298  6.5396349423954350
  6.0983609460447852  5.7785032160432914  4.9374544360818122
 17.8246750662862290 13.1565852996344539  4.4596985608400646
 18.6811714705746859  1.3357091288821328  2.1968106147259316
 17.8209122837128184  0.8081372111507884  6.5452312252102738
 17.9717977191560578  2.3420201494192225  4.9393131532264425
  5.7210520997906240  8.8100303530901805  4.4629643448096665
 15.5372207079448774 15.4717658167780119  2.1917913930554369
 16.4212188033676263 15.0014907785868168  6.5320824779187481
 15.0155318784315686 14.3529267590050686  4.9338883524913637
 15.5407555606506858  0.4893429534275157  4.4647190371180363
  8.2415373831695682  0.7710717396804961  2.5622087256701720
  6.9850515955584545  1.6676635433823492  4.1656211266270198
 21.2615282182727832  8.3042962798435394  4.8315090252037152
 19.9960186668945035  9.1895709263261338  6.4344036819842483
  8.2106010437988974  1.7758390186100839  0.0984701276514037
 21.2487103715870518  6.6991367650893050  2.5582803103236835
 21.0948292792769223  5.1659173541176964  4.1646037861316652
  8.2081100792676924 14.2111730070401290  4.8355346793926755
  8.0737435565944278 12.6716695123578926  6.4373121952079968
 20.3897792500576216  6.1710244840060726  0.0969451872155864
  9.6111433311093268 14.9885811219255380  2.5642449437102424
 11.0158318580220804 15.6330345039369529  4.1655818479983866
 22.6139954847432278 22.4527673190936348  4.8333961644169108
 11.0198990789058175  0.5990282262827519  6.4371243134094271
 10.4958119944433221 14.5162701624904518  0.0986944031479470
 30.8069025474878160 21.7082432992445256  4.2729170807774972
 32.0637215780639195 20.8138466562077227  2.6682699709623234
 17.7819820901280501 14.1569245759227673  1.9897874584867925
 19.0540210785166124 13.2727743523419246  0.3924253505352113
 30.8399791225163540 20.7032133851686702  6.7349843143516308
 17.8337382867049747 15.7609300182681373  4.2611476491867162
 17.9737490689338308 17.3029691440434306  2.6631502903652517
  4.8709045296840721  8.2749564284695012  1.9973260586529946
 30.9926549194927254  9.8162158526149419  0.3957449764291561
 18.6803256963571762 16.2939570810603875  6.7306424053864244
 29.4531236834867123  7.5013248540830171  4.2682918460283217
 28.0484246644313409  6.8589439107732506  2.6660577434835431
 16.4302946489518931  0.0190578652656112  2.0023017060098587
 28.0261788153150420 21.8695772522560290  0.3980837789600728
 28.5667366458286835  7.9740441986763591  6.7332333722790079
 34.1915866692353916 16.8191116880451190  4.6384802631234763
 34.2224512430041656 15.8132906000418672  0.2930887025855186
 32.9637539282440031 16.7074094799348885  1.8961818175306624
 21.2235923039125964  9.3088545040923059  2.3680198254189966
 20.3612900229343339 21.1425306697038167  4.6371261617539714
 21.2151697379662316 21.6727763029734817  0.2918114698448355
 21.0744011147045640 20.1345545993879327  1.8941830416159291
 33.3447100785909072 13.6774518785845025  2.3702692570026791
 23.5269683740611519  7.0132539034389367  4.6369066413402740
 22.6400822639571828  7.4899909753901630  0.2890294842241090
 24.0418499225157092  8.1340182221234318  1.8936892618114436
 23.5033200854757069 21.9827793097254585  2.3693856382696361
 23.4326219747802362 10.0369689823182657  3.9460296112211748
 23.2155491798218669 12.2664957585252967  4.1570039884545249
 24.8927163396421882 11.4059385750627786  2.9062267216010955
 23.3313587458512472  3.7553869483439692  6.5111006788438051
  5.6769457682509419  4.7395031912247578  1.6525395229852271
  6.1554644512545318  3.7186016907390895  2.4801199424487672
  5.6602163295017904  5.7752205525648854  6.1287989873540276
  6.0777773591365243  4.7313085207654364  0.2800173868495921
 18.6431178369567618 12.2363739675665872  3.9181631758550592
 19.1364447088231096 11.2231781822061638  4.7465037495922795
 19.0842608564743124  2.4985757234807719  1.6537768959025390
 19.7310752880580687  3.4226496952661911  2.4805140207043017
 18.1924864720095911  1.9658939166877798  6.1313721422413083
 18.8903037367550795  2.8493367990831051  0.2812526654159000
  6.1084542387462237  9.9792476757088959  3.9216142880383993
  6.7395151686575741 10.9127979552017091  4.7499089683905584
 14.3287018736989928 15.2373290195651627  1.6496796361614920
 13.2057326626884102 15.3311070928481463  2.4780705635532287
 15.2324782502185645 14.7360797568048518  6.1244802070542423
 14.1207786761141065 14.8942997110905875  0.2771824583279034
 14.3346797777823305  0.2396902594691042  3.9232609302870065
 13.2105483322974262  0.3202269975745273  4.7511110238113492
  7.4218007625796609  1.6703569658175741  2.9738282900212041
  7.0035566081406424  2.7142522799993576  2.0130091212004642
 20.4320010349026830  9.1948825118857176  5.2423495741866866
 20.0001541848799675 10.2315948600155497  4.2806410028844679
  7.4042083448249576  2.7060888189864678  0.6405546254606949
  6.9258144382563476  3.7268250032964350  6.6228134079435099
 20.8759715477478629  5.5416396098452019  2.9721130591034020
 20.1788810440978885  4.6581007316168135  2.0123220537174662
  7.8507841816692840 13.0475286247701767  5.2455782471981287
  7.1677034736742220 12.1561191216958999  4.2838664178785200
 19.9854913201733027  5.0085321526532720  0.6397729687233475
 19.3379938101401940  4.0846941298546318  6.6229631224957846
 10.7995967687796064 15.2526048567542158  2.9740994883958205
 11.9120843219863950 15.0958193770861815  2.0121776492694079
 10.8058825978382309  0.2189959432301679  5.2450811189697157
 11.9197160823415249  0.0713562275585181  4.2840605275024464
 11.7044011228307951 14.7523548939089739  0.6399500241807075
 12.8269918680761830 14.6588737789071448  6.6212353125323338
 31.6283727475011993 20.8108559822706347  3.8605208150521571
 32.0504782479837118 19.7685410440936415  4.8211066496684989
 18.6142979554811383 13.2671806642011330  1.5832299365690161
 19.0448045693767263 12.2312338146826320  2.5460324096319047
 31.6497854489964467 19.7756163228813939  6.1934135766972931
 32.1314037129002017 18.7565738859957634  0.2112103456929539
 18.1962567439787897 16.9240265927458218  3.8540132435470542
 18.8860081539403133 17.8097110362337254  4.8165967838671797
 31.2156292613751454  9.4400364547220352  1.5873877642359782
 31.8989668063489269 10.3310723423986843  2.5492254828975889
 19.0794853251282959 17.4587278468237592  6.1890271315016339
 19.7202522645432836 18.3861272038445485  0.2073750459358459
 28.2646047700264091  7.2387598129261450  3.8577686887570639
 27.1515166670165868  7.3956299481392982  4.8188019484172333
 28.2391242670776030 22.2507446495142425  1.5899544660019087
 27.1247975095521063 22.3975579908373241  2.5506221905560080
 27.3582776237877674  7.7384846221171735  6.1913111176555065
 26.2346826733022382  7.8317783540507984  0.2089855048543979
 33.3830293865909837 17.7472596522861146  5.1812335885861511
 32.9016954164835624 18.7669220193437312  4.3538409840050907
 33.4014627376948781 16.7112158480481696  0.7046581219381419
 32.9821125763059371 17.7544771812969593  6.5537459855583835
 20.4025162378978315 10.2272937098900307  2.9088182223070604
 19.9084590681765157 11.2395340866710676  2.0802346447007016
 19.9651301082891948 19.9766225861293876  5.1789563014397340
 19.3256775475527789 19.0489464036670064  4.3506421124644472
 20.8513845664902568 20.5114972930606783  0.7027811199387749
 20.1600537543530081 19.6251041590247404  6.5511642544030551
 32.9579936036303565 12.5079591248183757  2.9115253277955921
 32.3272571732027458 11.5743366655205921  2.0831660048991916
 24.7348846427775975  7.2513917945252233  5.1792296168483265
 25.8583880000222166  7.1594338509888980  4.3516220787217827
 23.8275562899002331  7.7530546736650230  0.7019893865272568
 24.9414850025146002  7.5954522290364963  6.5516139211643054
 24.7097028220656298 22.2300529132710203  2.9112205136606248
 25.8340217195787076 22.1483999563784444  2.0835889517132817
 23.8783831286390935 11.3290782505582328  3.6363890083042327
 22.8639297925776646  4.7064032923365975  6.0947537546279023
  5.8551988254608673  3.7149971201374901  3.5284542625795363
 18.8360542542999418 11.2153678245429056  5.7947145995590583
 19.8844823712993346  3.1647139658472696  3.5288847943317827
  6.8959984881993517 10.6565460832137138  5.7981586399564691
 13.3530848658581665 15.5931598202956323  3.5262458153537164
 13.3538725299065977  0.5837392618865849  5.7994875655445588
  7.2262671473950935  3.7304743842107766  5.5745417480089507
 19.1843185584435645  4.3429253858308323  5.5747226933517364
 12.6795781549353901 14.3967335522509057  5.5731006527533342
 31.8311383438258311 18.7519684212224256  1.2595212422687900
 19.8746228597150392 18.1280601690083465  1.2555203643580379
 26.3808488714920557  8.0942328929156631  1.2572780620686275
 33.2018256565511436 18.7715150869595639  3.3054844383554323
 20.2086235892811459 11.2469885553921518  1.0319624471256019
 19.1716215219279356 19.3068521754797686  3.3024186246914984
 32.1708249376900142 11.8305297898671089  1.0349002077957532
 25.7122277794792495  6.8973958453790187  3.3032413537744252
 25.6907249063651832 21.8847241692708714  1.0352489062076573
 16.5028708223874006 14.4251089509396166  3.5754029616346936
  5.2894984686243820  7.0291922806837528  3.5789130606152018
 17.2970206868357934  1.0136104609891143  3.5810961634957197
  9.5282515209762586 15.5543875653498560  5.5235587603363427
  9.5356546787451659  0.5143186360983715  0.9853433472106772
  7.7960147829619126  0.4178655033837905  5.5232681807560633
 20.8170038284967980  7.9495546209110657  0.9829352760105614
 21.7718680491367031  6.4930855848424072  5.5216991578266246
  8.7410993029196788 13.9998043650212427  0.9863595288852668
 29.5097991787294447 21.9604397586556139  5.8488014087114895
 29.5351397159150153  6.9356205746883086  1.3086179718410502
 18.2425428343550138 14.5171936901944338  5.8437242164095275
 31.2486096908568740 22.0606232923617860  1.3107078811047463
 30.3233313325741847  8.4887411469227523  5.8469814304266965
 17.2942041813639094 15.9788959986754158  1.3053516301013532
 22.5553918269284956  8.0504622779661421  3.2529908380922681
 33.7747927231174714 15.4587412285436887  3.2545471276627760
 21.7463290876554147 21.4632199434165756  3.2531619403188055
 24.9424341012630322  9.6147413450083636  2.6346208426054845
 22.0538369360155855 11.0782269411837646  4.8562373268334120
