O  C  H  Co Li                          
   1.00000000000000     
    25.9869300199999991    0.0014776500000000   -0.0002841700000000
    12.9947443200000006   22.5035161499999994   -0.0005769100000000
    -0.0000740900000000   -0.0001328100000000    6.8098320599999997
   O    C    H    Co   Li
    50    65    16    18     1
Direct
  0.0591114492309679  0.2551366209788731  0.3027567606422111
  0.0381873133952987  0.3017328269965229  0.9503678973903713
  0.1045732602332594  0.2610445375517225  0.7087592453774390
  0.6899957728689716  0.0544905554530727  0.3360422153809050
  0.6704702197659133  0.0303101436360771  0.9760265558514729
  0.6424067277363922  0.0989406282266768  0.7415821080853882
  0.0217997704619676  0.3938945375484044  0.6476957935137292
  0.2610961549234289  0.6787921536651003  0.3563926555669126
  0.3135593087065233  0.6447150129701953  0.0037228713069067
  0.2799645106172315  0.6007458061965102  0.8003404868216235
  0.5915997970544524  0.0128164005250480  0.6593068142352012
  0.2974644508556131  0.0358301831457814  0.3563008370281308
  0.2302327444191661  0.0773561312579963  0.5945140724196274
  0.2748493600800703  0.0809157164201716 -0.0019921361980731
  0.6522973500363676  0.3005855325542812  0.4167261099909743
  0.6964613470999066  0.2266354013603290  0.6317454640991667
  0.9911672358538532  0.6370714475639971  0.7388755025615583
  0.0281891942108485  0.5635752065378501  0.9554530783614817
  0.6651261558570509  0.2625416422245945  0.0310431722381701
  0.0447923732579828  0.6530002952510739  0.4114338950376560
  0.0786873670895670  0.6892271411828174  0.6430734657029495
  0.3685587403387662  0.0010974615335091  0.6882839387117020
  0.4107935043118160  0.0242288246609067  0.9317749176279297
  0.0880242436539957  0.6373737242247675  0.0343177475433573
  0.7097391639533897  0.9599309902060559  0.6384076329374367
  0.7787703052863664  0.9229554243753250  0.4034013625530546
  0.7330016928568029  0.9141404479505166 -0.0038956534414410
  0.3499737279952148  0.7013399960803007  0.5364371066428214
  0.2909880625565131  0.7804546982117206  0.3602158778563597
 -0.0104596612865985  0.3767295950498247  0.2994501883401163
  0.9745749679911421  0.4395412914948879  0.0530818532717570
  0.3269237942772341  0.7361940290696586  0.9467422002928019
  0.9729608483167933  0.3158513944137020  0.6218774193990816
  0.9166100851984791  0.3172732820490511  0.3658614437978450
  0.6401031673453728 -0.0112347233132264  0.3074791499888968
  0.5994088379320066  0.9638559569769343  0.0624271047479021
  0.9130314656856406  0.3697284372774613  0.9585822822736284
  0.9539321416553570  0.7477344920933381  0.6967881578536570
  0.9785373108555283  0.7071144992791629  0.0749800312864164
  0.9058093159063012  0.7448363394255156  0.2933994622420065
  0.3106521666986568  0.9430405519293233  0.6601819501939676
  0.3335341597811989  0.9633915578852772  0.0202403592458383
  0.3577508116135297  0.8961188095885496  0.2564645491064216
  0.9756056862358712  0.6117139874640776  0.3577976270870964
  0.7459029389714350  0.3129212985759570  0.6854173591347007
  0.6812063215098589  0.3796481260684740  0.0154537436758834
  0.7504231673966870  0.3592487800318198  0.2530866239380846
  0.4163970823127855  0.9764040277007034  0.3324656652090577
  0.7156039452006131  0.5025208046321338  0.6773642059722732
  0.7869902853119974  0.4467259489728029  0.4389904978471825
  0.1113709297703447  0.2140598327573021  0.2249421847129953
  0.1524038671638432  0.1684983685752267  0.3465279850629530
  0.0888681183740809  0.2605923661978259  0.8845199838695440
  0.1276764075306741  0.2136495026437094  0.0239889959389548
  0.6811762991302459  0.1058476131993480  0.2597125421079055
  0.6836192572877865  0.1475267146333940  0.3839612837223509
  0.6600365509796083  0.0815255520050880  0.9158343070314513
  0.6686066612281193  0.1203616955474743  0.0560576528318660
  0.0106120983767875  0.4466016289580285  0.5743486572768117
  0.0155071229448582  0.4868983625745675  0.6990840845774114
  0.2199417688681649  0.6658571456968914  0.2837100957278526
  0.1708611703631809  0.6758688800761002  0.3970179203112104
  0.2757307732317577  0.6271527063185890  0.9643269799112599
  0.2258836585894067  0.6409107578092409  0.0937788647784515
  0.5503716555344833  0.0027873654192058  0.5760325620382578
  0.5038069254297064  0.0080089353114065  0.6929183555799122
  0.2465573690103344  0.0768230458851096  0.4185580039422552
  0.2073414297781412  0.1235512885114859  0.2780547900032516
  0.2232585197158715  0.1228816877432540  0.0766558866782669
  0.1826038865698272  0.1687144096946512  0.9554477847385169
  0.6756995067891451  0.2438847924493320  0.4615285464953308
  0.6750307062055406  0.2020483202253776  0.3157327275182583
  0.0082605173245483  0.5829395657396721  0.7838689820883222
  0.0034920040890029  0.5430981119342193  0.6367436161315970
  0.6671231847934683  0.2139410065673829  0.1099883079164557
  0.6625873838215112  0.1735704878023824 -0.0137225354290406
  0.0808944453226307  0.6700379664723179  0.4688269669888283
  0.1268795864354001  0.6642835066794078  0.3272795198610242
  0.4103680516027126  0.0088810937322230  0.7550964735425334
  0.4584290203875478 -0.0002756733056991  0.6183516060249757
  0.1294520887927259  0.6452924889802704  0.1262723530252270
  0.1803873622202301  0.6324626797096643  0.0191150196136275
  0.7619327406469630  0.9217645859930409  0.5782836114414697
  0.8028164840827996  0.8760179784056971  0.7186848718980264
  0.7862426057503932  0.8753982682984141  0.9187608628459188
  0.8283886613950885  0.8315893882036051  0.0414004580267762
  0.3185479028165352  0.7590292688150498  0.5206993725301471
  0.3182934815351390  0.7992065521546744  0.6747373709735260
  0.9857297241039074  0.4249506337168657  0.2321607208152827
 -0.0060383498732098  0.4633852809463715  0.3746093972601394
  0.3270262296213041  0.7848498248576141  0.8788403025499500
  0.3342040319229901  0.8233087246244981  0.0053905835484767
  0.9263026114003139  0.3190785678071607  0.5518642012008801
  0.8789489108489255  0.3290530984190226  0.6926262053629197
  0.5992619981823148  0.9797372117356787  0.2393952237433790
  0.5508389489827089  0.9879891939167250  0.3736504015640271
  0.8730507484108357  0.3589102406538540  0.8758677675547957
  0.8196528940630231  0.3781124194024716  0.9768907333568220
  0.9013985691890192  0.7889483961349300  0.7757748637435500
  0.8594075216204791  0.8334999981117803  0.6529826667875034
  0.9241154198503426  0.7454314512462304  0.1211246160028036
  0.8849228695708712  0.7892091639486929  0.9759153069460703
  0.3169283116936529  0.8925925238470057  0.7375030093694349
  0.3113179012881828  0.8533263278574208  0.6109338274205188
  0.3411339419531276  0.9131897921359682  0.0815854459640735
  0.3300593465522326  0.8763070767773863  0.9397056767230461
  0.9872755785044697  0.5594504945647218  0.4358151644965357
  0.9832207006599216  0.5188111869264338  0.3107170753519561
  0.7840111029204452  0.3304484822271446  0.7483783736535934
  0.8355970780894555  0.3144229960679336  0.6391850227754868
  0.7324807059368498  0.3701810470116803  0.0702794058286335
  0.7766102425505458  0.3630216954812507  0.9244448732264570
  0.4584418476409004  0.9851388075260726  0.4156008100720640
  0.5054715368770464  0.9795018844399066  0.2990925851013145
  0.7511098966644879  0.4744979492476171  0.5591090207466178
  0.1409110545489773  0.1682921942325451  0.5004600677428883
  0.6914007454238849  0.1371405533863463  0.5399924487628369
  0.0278798133975199  0.4741965551559091  0.8518849694214334
  0.1665430098467015  0.6928201568479059  0.5466109615200203
  0.5027553521299697  0.0195433734625024  0.8474804081695886
  0.1942766206600843  0.1690615112994721  0.8018112008516451
  0.6546437533579814  0.1840422509768138  0.8304216722117823
  0.1840095155552974  0.6159360651133408  0.8696273032809174
  0.8167862123087064  0.8306010422455540  0.1946066287045287
  0.3428421122537328  0.8119178263310283  0.1604765205168084
  0.8108631340255749  0.4089943403352091  0.0985332609661538
  0.8709733631549313  0.8345194707609302  0.4997447153875340
  0.3032502045802518  0.8649512919740371  0.4558321642718255
  0.9709158842453965  0.5314353022821215  0.1578524476944418
  0.8437561190394111  0.2853529864569913  0.5120950082006799
  0.5063742707173116  0.9682006161093193  0.1443663213779552
  0.7076570460107250  0.3318150059644644  0.4171320397194179
  0.2889336112317046  0.0212804500588787  0.7939876281300391
  0.6570686326912375  0.3321971700442423  0.1550465700045479
  0.9591324363797500  0.6872818504217022  0.4938111499355633
  0.3576421396123661  0.9554715972209150  0.4559049889757598
  0.3542837233054002  0.0225739812740067  0.1289211646721397
  0.7199657388201330  0.9729508619170635  0.2014119199958841
  0.3407416133949074  0.6677907431458445  0.7727297460127440
  0.6979740217954232  0.2862984313942046  0.8216523737155209
  0.9804985005190319  0.3141805751795941  0.1648824094534861
  0.3031963557828816  0.7131527985966065  0.1927541100978681
  0.9781411908712316  0.3795861455115125  0.8498652980733389
  0.6519537266303351  0.9687928779991205  0.8616730943379166
  0.0279522219393421  0.6192327010728881  0.1600871117836621
  0.6453457725703844  0.0404430691177739  0.5420707617868181
  0.0235005912787009  0.6946021030193700  0.8482368888275160
  0.2931808101627979  0.6377638204754201  0.5903440019067896
  0.0438561397835773  0.3151747608655724  0.5070516205434594
  0.8305982990578311  0.3519884588827261  0.3145548230814644
 
  0.00000000E+00  0.00000000E+00  0.00000000E+00
  0.00000000E+00  0.00000000E+00  0.00000000E+00
  0.00000000E+00  0.00000000E+00  0.00000000E+00
  0.00000000E+00  0.00000000E+00  0.00000000E+00
  0.00000000E+00  0.00000000E+00  0.00000000E+00
  0.00000000E+00  0.00000000E+00  0.00000000E+00
  0.00000000E+00  0.00000000E+00  0.00000000E+00
  0.00000000E+00  0.00000000E+00  0.00000000E+00
  0.00000000E+00  0.00000000E+00  0.00000000E+00
  0.00000000E+00  0.00000000E+00  0.00000000E+00
  0.00000000E+00  0.00000000E+00  0.00000000E+00
  0.00000000E+00  0.00000000E+00  0.00000000E+00
  0.00000000E+00  0.00000000E+00  0.00000000E+00
  0.00000000E+00  0.00000000E+00  0.00000000E+00
  0.00000000E+00  0.00000000E+00  0.00000000E+00
  0.00000000E+00  0.00000000E+00  0.00000000E+00
  0.00000000E+00  0.00000000E+00  0.00000000E+00
  0.00000000E+00  0.00000000E+00  0.00000000E+00
  0.00000000E+00  0.00000000E+00  0.00000000E+00
  0.00000000E+00  0.00000000E+00  0.00000000E+00
  0.00000000E+00  0.00000000E+00  0.00000000E+00
  0.00000000E+00  0.00000000E+00  0.00000000E+00
  0.00000000E+00  0.00000000E+00  0.00000000E+00
  0.00000000E+00  0.00000000E+00  0.00000000E+00
  0.00000000E+00  0.00000000E+00  0.00000000E+00
  0.00000000E+00  0.00000000E+00  0.00000000E+00
  0.00000000E+00  0.00000000E+00  0.00000000E+00
  0.00000000E+00  0.00000000E+00  0.00000000E+00
  0.00000000E+00  0.00000000E+00  0.00000000E+00
  0.00000000E+00  0.00000000E+00  0.00000000E+00
  0.00000000E+00  0.00000000E+00  0.00000000E+00
  0.00000000E+00  0.00000000E+00  0.00000000E+00
  0.00000000E+00  0.00000000E+00  0.00000000E+00
  0.00000000E+00  0.00000000E+00  0.00000000E+00
  0.00000000E+00  0.00000000E+00  0.00000000E+00
  0.00000000E+00  0.00000000E+00  0.00000000E+00
  0.00000000E+00  0.00000000E+00  0.00000000E+00
  0.00000000E+00  0.00000000E+00  0.00000000E+00
  0.00000000E+00  0.00000000E+00  0.00000000E+00
  0.00000000E+00  0.00000000E+00  0.00000000E+00
  0.00000000E+00  0.00000000E+00  0.00000000E+00
  0.00000000E+00  0.00000000E+00  0.00000000E+00
  0.00000000E+00  0.00000000E+00  0.00000000E+00
  0.00000000E+00  0.00000000E+00  0.00000000E+00
  0.00000000E+00  0.00000000E+00  0.00000000E+00
  0.00000000E+00  0.00000000E+00  0.00000000E+00
  0.00000000E+00  0.00000000E+00  0.00000000E+00
  0.00000000E+00  0.00000000E+00  0.00000000E+00
  0.00000000E+00  0.00000000E+00  0.00000000E+00
  0.00000000E+00  0.00000000E+00  0.00000000E+00
  0.00000000E+00  0.00000000E+00  0.00000000E+00
  0.00000000E+00  0.00000000E+00  0.00000000E+00
  0.00000000E+00  0.00000000E+00  0.00000000E+00
  0.00000000E+00  0.00000000E+00  0.00000000E+00
  0.00000000E+00  0.00000000E+00  0.00000000E+00
  0.00000000E+00  0.00000000E+00  0.00000000E+00
  0.00000000E+00  0.00000000E+00  0.00000000E+00
  0.00000000E+00  0.00000000E+00  0.00000000E+00
  0.00000000E+00  0.00000000E+00  0.00000000E+00
  0.00000000E+00  0.00000000E+00  0.00000000E+00
  0.00000000E+00  0.00000000E+00  0.00000000E+00
  0.00000000E+00  0.00000000E+00  0.00000000E+00
  0.00000000E+00  0.00000000E+00  0.00000000E+00
  0.00000000E+00  0.00000000E+00  0.00000000E+00
  0.00000000E+00  0.00000000E+00  0.00000000E+00
  0.00000000E+00  0.00000000E+00  0.00000000E+00
  0.00000000E+00  0.00000000E+00  0.00000000E+00
  0.00000000E+00  0.00000000E+00  0.00000000E+00
  0.00000000E+00  0.00000000E+00  0.00000000E+00
  0.00000000E+00  0.00000000E+00  0.00000000E+00
  0.00000000E+00  0.00000000E+00  0.00000000E+00
  0.00000000E+00  0.00000000E+00  0.00000000E+00
  0.00000000E+00  0.00000000E+00  0.00000000E+00
  0.00000000E+00  0.00000000E+00  0.00000000E+00
  0.00000000E+00  0.00000000E+00  0.00000000E+00
  0.00000000E+00  0.00000000E+00  0.00000000E+00
  0.00000000E+00  0.00000000E+00  0.00000000E+00
  0.00000000E+00  0.00000000E+00  0.00000000E+00
  0.00000000E+00  0.00000000E+00  0.00000000E+00
  0.00000000E+00  0.00000000E+00  0.00000000E+00
  0.00000000E+00  0.00000000E+00  0.00000000E+00
  0.00000000E+00  0.00000000E+00  0.00000000E+00
  0.00000000E+00  0.00000000E+00  0.00000000E+00
  0.00000000E+00  0.00000000E+00  0.00000000E+00
  0.00000000E+00  0.00000000E+00  0.00000000E+00
  0.00000000E+00  0.00000000E+00  0.00000000E+00
  0.00000000E+00  0.00000000E+00  0.00000000E+00
  0.00000000E+00  0.00000000E+00  0.00000000E+00
  0.00000000E+00  0.00000000E+00  0.00000000E+00
  0.00000000E+00  0.00000000E+00  0.00000000E+00
  0.00000000E+00  0.00000000E+00  0.00000000E+00
  0.00000000E+00  0.00000000E+00  0.00000000E+00
  0.00000000E+00  0.00000000E+00  0.00000000E+00
  0.00000000E+00  0.00000000E+00  0.00000000E+00
  0.00000000E+00  0.00000000E+00  0.00000000E+00
  0.00000000E+00  0.00000000E+00  0.00000000E+00
  0.00000000E+00  0.00000000E+00  0.00000000E+00
  0.00000000E+00  0.00000000E+00  0.00000000E+00
  0.00000000E+00  0.00000000E+00  0.00000000E+00
  0.00000000E+00  0.00000000E+00  0.00000000E+00
  0.00000000E+00  0.00000000E+00  0.00000000E+00
  0.00000000E+00  0.00000000E+00  0.00000000E+00
  0.00000000E+00  0.00000000E+00  0.00000000E+00
  0.00000000E+00  0.00000000E+00  0.00000000E+00
  0.00000000E+00  0.00000000E+00  0.00000000E+00
  0.00000000E+00  0.00000000E+00  0.00000000E+00
  0.00000000E+00  0.00000000E+00  0.00000000E+00
  0.00000000E+00  0.00000000E+00  0.00000000E+00
  0.00000000E+00  0.00000000E+00  0.00000000E+00
  0.00000000E+00  0.00000000E+00  0.00000000E+00
  0.00000000E+00  0.00000000E+00  0.00000000E+00
  0.00000000E+00  0.00000000E+00  0.00000000E+00
  0.00000000E+00  0.00000000E+00  0.00000000E+00
  0.00000000E+00  0.00000000E+00  0.00000000E+00
  0.00000000E+00  0.00000000E+00  0.00000000E+00
  0.00000000E+00  0.00000000E+00  0.00000000E+00
  0.00000000E+00  0.00000000E+00  0.00000000E+00
  0.00000000E+00  0.00000000E+00  0.00000000E+00
  0.00000000E+00  0.00000000E+00  0.00000000E+00
  0.00000000E+00  0.00000000E+00  0.00000000E+00
  0.00000000E+00  0.00000000E+00  0.00000000E+00
  0.00000000E+00  0.00000000E+00  0.00000000E+00
  0.00000000E+00  0.00000000E+00  0.00000000E+00
  0.00000000E+00  0.00000000E+00  0.00000000E+00
  0.00000000E+00  0.00000000E+00  0.00000000E+00
  0.00000000E+00  0.00000000E+00  0.00000000E+00
  0.00000000E+00  0.00000000E+00  0.00000000E+00
  0.00000000E+00  0.00000000E+00  0.00000000E+00
  0.00000000E+00  0.00000000E+00  0.00000000E+00
  0.00000000E+00  0.00000000E+00  0.00000000E+00
  0.00000000E+00  0.00000000E+00  0.00000000E+00
  0.00000000E+00  0.00000000E+00  0.00000000E+00
  0.00000000E+00  0.00000000E+00  0.00000000E+00
  0.00000000E+00  0.00000000E+00  0.00000000E+00
  0.00000000E+00  0.00000000E+00  0.00000000E+00
  0.00000000E+00  0.00000000E+00  0.00000000E+00
  0.00000000E+00  0.00000000E+00  0.00000000E+00
  0.00000000E+00  0.00000000E+00  0.00000000E+00
  0.00000000E+00  0.00000000E+00  0.00000000E+00
  0.00000000E+00  0.00000000E+00  0.00000000E+00
  0.00000000E+00  0.00000000E+00  0.00000000E+00
  0.00000000E+00  0.00000000E+00  0.00000000E+00
  0.00000000E+00  0.00000000E+00  0.00000000E+00
  0.00000000E+00  0.00000000E+00  0.00000000E+00
  0.00000000E+00  0.00000000E+00  0.00000000E+00
  0.00000000E+00  0.00000000E+00  0.00000000E+00
  0.00000000E+00  0.00000000E+00  0.00000000E+00
  0.00000000E+00  0.00000000E+00  0.00000000E+00
  0.00000000E+00  0.00000000E+00  0.00000000E+00
  0.00000000E+00  0.00000000E+00  0.00000000E+00
