O  C  H  Co Li                          
   1.00000000000000     
    23.9261198104165054    1.4270226320989507   -0.1702423552515908
    13.3807977504398092   19.9075722412530887    0.0070620584243260
    -0.0366049182984033    0.0428470880645103    6.8013684059336974
   O    C    H    Co   Li
    50    65    16    18     1
Direct
  0.0236097793486509  0.2659482485690363  0.3147867623697966
 -0.0112744180728692  0.3174706635077125  0.9223334854254897
  0.0743513482348770  0.2629955605484754  0.7044960536991469
  0.6489650507134749  0.1023742393928462  0.3252904245092982
  0.6495851982139144  0.0626123210356174  0.9385351064341924
  0.5809348075915821  0.1437914119060379  0.7123369920684772
  0.0161893645153535  0.4026308778282353  0.6453735628848321
  0.3888106844800907  0.5420139861634587  0.3623735731273519
  0.4384349960128091  0.5135567303708356  0.0126372719640705
  0.3918572722422913  0.4818285593223116  0.7919384710672395
  0.5615996940442506  0.0392676760145933  0.6524014824102649
  0.3148374521580583  0.0001943473054360  0.3779276676924309
  0.2310678301416633  0.0418267363393275  0.5971982567637792
  0.2781701524566949  0.0486167952482676 -0.0105257686254955
  0.5998445060240030  0.3726994019759113  0.2836137267134066
  0.5728012771716012  0.3399945975509906  0.5536390601585863
  0.0208978973225338  0.6476490235884527  0.7331862773120896
  0.0558158273709055  0.5635429939526442  0.9512327089992010
  0.5261972042934334  0.3641640006691992 -0.0228002504447479
  0.0980537553095315  0.6269449611107810  0.3983033679580767
  0.1511658305652238  0.6472409399412538  0.6226800689698352
  0.3981748317131305  0.9267334330400447  0.7169628196477452
  0.4201729879039356 -0.0210625695688973  0.9382790227952938
  0.1499872060224312  0.5938671702763547  0.0166039658908520
  0.6879987647136701  0.9799664684485323  0.6047986453292419
  0.7652364308272823  0.9586763302851682  0.3824226120701660
  0.7304504236056365  0.9359119873822462 -0.0103318905714648
  0.4577662191269924  0.5970182593888526  0.5406176583906181
  0.3644864611630766  0.6813420569624449  0.3702058603882726
 -0.0079859395710665  0.3849177714452909  0.2622838772482292
  0.9597968738334930  0.4686605762613957  0.0448012150493702
  0.4240663591790801  0.6286634216656171  0.9519935206475040
  0.9153228261232627  0.3941719266212502  0.5865173814363783
  0.8614215505062500  0.3721307111618258  0.3671142478712586
  0.6016911741727959  0.0363563560933862  0.2683194286408854
  0.5950292897833876 -0.0268800997825943  0.0456163742308195
  0.8574316204217137  0.4379056495609564  0.9585115182501835
 -0.0003717951622413  0.7610933299867170  0.6744279010761276
  0.0364072099579618  0.7105643603486552  0.0682469629484166
  0.9516080529189621  0.7636112536516163  0.2865915744560036
  0.3201747515964903  0.8934437284386936  0.6573134695216580
  0.3294153921544314 -0.0751252069250121  0.0441560333106915
  0.3874577014073918  0.8399659873375414  0.2667454182812557
  0.9972942012868135  0.6292064434056824  0.3389458675557082
  0.6711861912087651  0.3868810407034523  0.7049099321307358
  0.5883759754704266  0.4780701889658585  0.0377011785817833
  0.6712172057842467  0.4443703739965332  0.2675784921993758
  0.4425151235131027  0.9178623558774373  0.3278419586137992
  0.6136795570929570  0.6097108618229863  0.7681994597719785
  0.6864448597924521  0.5447338178683906  0.5038031945248915
  0.0836355086085560  0.2132662832585714  0.2287465814601016
  0.1347537626257126  0.1563128441635192  0.3475087398608771
  0.0519048726938251  0.2664917030933577  0.8763577798881749
  0.0993213701631161  0.2110042585560570  0.0239950839902552
  0.6168275526411618  0.1656801010795987  0.2313695412372471
  0.6097084260073533  0.2191293619397040  0.3398804581128677
  0.6065937029669458  0.1279039197999715  0.8864514418971677
  0.5930758386637034  0.1812381071253789  0.0292413915826553
  0.0139392712214280  0.4557091233435248  0.5655752857537003
  0.0271349831516312  0.4932161861895253  0.6898968778486596
  0.3316816921755814  0.5508338550280499  0.2850189870001521
  0.2725346479536023  0.5781823972949744  0.3982551771740859
  0.3893967470371097  0.5071818312637336  0.9575018196091809
  0.3296782833675728  0.5347056998694043  0.0853384964780057
  0.5356199574649364  0.0082173053718118  0.5646045391059423
  0.4972204788394524 -0.0044775242732549  0.6840722101482809
  0.2499174140243177  0.0450269577665073  0.4254394996661306
  0.2003378054833568  0.0997883493308824  0.2798476840337455
  0.2165435121693918  0.0984729988921630  0.0764887693527108
  0.1648690118665345  0.1543371028778089  0.9564949381581017
  0.5850071331174199  0.3342116595540342  0.3716776521800835
  0.5831158985431537  0.2842802137722080  0.2552684992908014
  0.0342902830767518  0.5882039239770203  0.7774893422745472
  0.0219576199401130  0.5519585710199932  0.6266757138854072
  0.5562449212390717  0.3015298583727106  0.0585383754463969
  0.5609218298091992  0.2486735214891338 -0.0475279327790991
  0.1509009741111250  0.6248309056346412  0.4534248792555303
  0.2103618424197022  0.5938180941303316  0.3185347801966252
  0.4265667982181075 -0.0433174281879275  0.7634151250078218
  0.4661388361351543  0.9648273603477913  0.6169661457115216
  0.2071082331510750  0.5796384781868816  0.1142141306844693
  0.2684500843079484  0.5482664213928741  0.0057851772751044
  0.7523216475311498  0.9492523994263690  0.5555631521159413
  0.8086401383959007  0.9026560686016337  0.7011575553758664
  0.7943769100316885  0.9001536999154052  0.9037774469059926
  0.8518141590751073  0.8544841754081817  0.0268536631564842
  0.4007413886875197  0.6611185896460744  0.5285297363333773
  0.3825458416342750  0.7119529282634136  0.6847949742961631
 -0.0183758722126363  0.4430889522945993  0.2167942301796801
 -0.0032404480194886  0.4776381161130789  0.3644216447995987
  0.4001733115628303  0.6930752358827105  0.8876509962553144
  0.3906716885301379  0.7442842159710278  0.0137136789808905
  0.8695990536876536  0.3849648219152315  0.5473597897785962
  0.8206087086156247  0.3947916408634835  0.6978818289319270
  0.5819582227544191 -0.0012484742951039  0.2180901846889255
  0.5432213511161786 -0.0120409814044836  0.3622451354585768
  0.8128817778257683  0.4281743297205923  0.8812619694375686
  0.7524391077045444  0.4516108307554554  0.9889853916347889
  0.9352760239274670  0.8075094178418415  0.7579431127326361
  0.8782842474185434  0.8578259769057116  0.6359855841864487
  0.9717754372969484  0.7592009761839308  0.1113536957411454
  0.9205147490507146  0.8083482472839197  0.9612315701785601
  0.3449260057544041  0.8311112030577460  0.7457319656345330
  0.3528887446380121  0.7801284242402571  0.6218513572920574
  0.3610033569621792  0.8601601069619138  0.0940950944158722
  0.3647859382113470  0.8119192245180745  0.9486428456514995
  0.0042138266846818  0.5738975469073815  0.4239533012970815
  0.9921649351804649  0.5356685949477660  0.3007868671194218
  0.7143463427895911  0.4016021705354091  0.7627389967201706
  0.7735502002149620  0.3795562944768808  0.6516815143044314
  0.6501345445687154  0.4555344624406781  0.0847376148123712
  0.7043480149023340  0.4384235291669020  0.9394303261300736
  0.4723775292953369  0.9456940218747077  0.4144225422543457
  0.5122706354137783  0.9569150590829025  0.2955625947847028
  0.6501833989389306  0.5768544789440778  0.6361158296312727
  0.1228623713750838  0.1571064885017729  0.5018684364799346
  0.6282581250282251  0.2078944911632500  0.4926970148196443
  0.0401355742371482  0.4773610037795692  0.8436591954379381
  0.2740510609768808  0.5892309234481454  0.5531724813605313
  0.4911715243857964  0.0104949127338905  0.8376701063181780
  0.1767432892004745  0.1538073550312558  0.8019369530063623
  0.5415803666408003  0.2597378423896270  0.8004215657084865
  0.2671724600483202  0.5367271579113799  0.8517276667024072
  0.8416359934891718  0.8535080098788844  0.1820803408312530
  0.4040257317239231  0.7315628452023075  0.1694599911000202
  0.7419961834408564  0.4861007038600638  0.1119975017446534
  0.8879283315120339  0.8602353945046374  0.4810098683805350
  0.3387625691507118  0.7936775486215951  0.4667150383084160
  0.9794764239158681  0.5515802301833915  0.1464087945562014
  0.7847618008167733  0.3462607837108400  0.5247149144277730
  0.5180567862285831  0.9422318690926991  0.1416170219476425
  0.4417732740238474  0.4909833718836415  0.5934418447922417
  0.0247405044350946  0.3308089052051194  0.4932032107087002
  0.5989949776125580  0.0786239716463922  0.5024079530825395
  0.0811121577842560  0.6807644973685899  0.8287327621499017
  0.3623046442345961 -0.0149493757207107  0.1453584691969743
  0.2918807092896997 -0.0252542131585068  0.8075257140122761
  0.5445466225395398  0.4284805716276936  0.0328632104967488
  0.5620001127099571  0.4183848598960441  0.6853409068874916
  0.0751156507031689  0.6060288175487616  0.1608658205132451
  0.6449436953214672  0.9831521145708293  0.8370116451618710
  0.9363032023108662  0.3475009491926087  0.1691494719725844
  0.4748482518979306  0.5394408898299468  0.7731264586618060
  0.6958011682148668  0.0168477402485575  0.1744623739202716
  0.9431354573400856  0.4203718830129187  0.8382134349483561
  0.4128886139350853  0.5961071843061497  0.2029580669470784
  0.6222214097070824  0.4226999061644005  0.4561662048885300
  0.9959118416889304  0.6973668788747001  0.4977328378174325
  0.3866354981723497  0.8969945189164675  0.4783029387563379
  0.7608325916205240  0.4228185184378754  0.3317828155380755
 
  0.00000000E+00  0.00000000E+00  0.00000000E+00
  0.00000000E+00  0.00000000E+00  0.00000000E+00
  0.00000000E+00  0.00000000E+00  0.00000000E+00
  0.00000000E+00  0.00000000E+00  0.00000000E+00
  0.00000000E+00  0.00000000E+00  0.00000000E+00
  0.00000000E+00  0.00000000E+00  0.00000000E+00
  0.00000000E+00  0.00000000E+00  0.00000000E+00
  0.00000000E+00  0.00000000E+00  0.00000000E+00
  0.00000000E+00  0.00000000E+00  0.00000000E+00
  0.00000000E+00  0.00000000E+00  0.00000000E+00
  0.00000000E+00  0.00000000E+00  0.00000000E+00
  0.00000000E+00  0.00000000E+00  0.00000000E+00
  0.00000000E+00  0.00000000E+00  0.00000000E+00
  0.00000000E+00  0.00000000E+00  0.00000000E+00
  0.00000000E+00  0.00000000E+00  0.00000000E+00
  0.00000000E+00  0.00000000E+00  0.00000000E+00
  0.00000000E+00  0.00000000E+00  0.00000000E+00
  0.00000000E+00  0.00000000E+00  0.00000000E+00
  0.00000000E+00  0.00000000E+00  0.00000000E+00
  0.00000000E+00  0.00000000E+00  0.00000000E+00
  0.00000000E+00  0.00000000E+00  0.00000000E+00
  0.00000000E+00  0.00000000E+00  0.00000000E+00
  0.00000000E+00  0.00000000E+00  0.00000000E+00
  0.00000000E+00  0.00000000E+00  0.00000000E+00
  0.00000000E+00  0.00000000E+00  0.00000000E+00
  0.00000000E+00  0.00000000E+00  0.00000000E+00
  0.00000000E+00  0.00000000E+00  0.00000000E+00
  0.00000000E+00  0.00000000E+00  0.00000000E+00
  0.00000000E+00  0.00000000E+00  0.00000000E+00
  0.00000000E+00  0.00000000E+00  0.00000000E+00
  0.00000000E+00  0.00000000E+00  0.00000000E+00
  0.00000000E+00  0.00000000E+00  0.00000000E+00
  0.00000000E+00  0.00000000E+00  0.00000000E+00
  0.00000000E+00  0.00000000E+00  0.00000000E+00
  0.00000000E+00  0.00000000E+00  0.00000000E+00
  0.00000000E+00  0.00000000E+00  0.00000000E+00
  0.00000000E+00  0.00000000E+00  0.00000000E+00
  0.00000000E+00  0.00000000E+00  0.00000000E+00
  0.00000000E+00  0.00000000E+00  0.00000000E+00
  0.00000000E+00  0.00000000E+00  0.00000000E+00
  0.00000000E+00  0.00000000E+00  0.00000000E+00
  0.00000000E+00  0.00000000E+00  0.00000000E+00
  0.00000000E+00  0.00000000E+00  0.00000000E+00
  0.00000000E+00  0.00000000E+00  0.00000000E+00
  0.00000000E+00  0.00000000E+00  0.00000000E+00
  0.00000000E+00  0.00000000E+00  0.00000000E+00
  0.00000000E+00  0.00000000E+00  0.00000000E+00
  0.00000000E+00  0.00000000E+00  0.00000000E+00
  0.00000000E+00  0.00000000E+00  0.00000000E+00
  0.00000000E+00  0.00000000E+00  0.00000000E+00
  0.00000000E+00  0.00000000E+00  0.00000000E+00
  0.00000000E+00  0.00000000E+00  0.00000000E+00
  0.00000000E+00  0.00000000E+00  0.00000000E+00
  0.00000000E+00  0.00000000E+00  0.00000000E+00
  0.00000000E+00  0.00000000E+00  0.00000000E+00
  0.00000000E+00  0.00000000E+00  0.00000000E+00
  0.00000000E+00  0.00000000E+00  0.00000000E+00
  0.00000000E+00  0.00000000E+00  0.00000000E+00
  0.00000000E+00  0.00000000E+00  0.00000000E+00
  0.00000000E+00  0.00000000E+00  0.00000000E+00
  0.00000000E+00  0.00000000E+00  0.00000000E+00
  0.00000000E+00  0.00000000E+00  0.00000000E+00
  0.00000000E+00  0.00000000E+00  0.00000000E+00
  0.00000000E+00  0.00000000E+00  0.00000000E+00
  0.00000000E+00  0.00000000E+00  0.00000000E+00
  0.00000000E+00  0.00000000E+00  0.00000000E+00
  0.00000000E+00  0.00000000E+00  0.00000000E+00
  0.00000000E+00  0.00000000E+00  0.00000000E+00
  0.00000000E+00  0.00000000E+00  0.00000000E+00
  0.00000000E+00  0.00000000E+00  0.00000000E+00
  0.00000000E+00  0.00000000E+00  0.00000000E+00
  0.00000000E+00  0.00000000E+00  0.00000000E+00
  0.00000000E+00  0.00000000E+00  0.00000000E+00
  0.00000000E+00  0.00000000E+00  0.00000000E+00
  0.00000000E+00  0.00000000E+00  0.00000000E+00
  0.00000000E+00  0.00000000E+00  0.00000000E+00
  0.00000000E+00  0.00000000E+00  0.00000000E+00
  0.00000000E+00  0.00000000E+00  0.00000000E+00
  0.00000000E+00  0.00000000E+00  0.00000000E+00
  0.00000000E+00  0.00000000E+00  0.00000000E+00
  0.00000000E+00  0.00000000E+00  0.00000000E+00
  0.00000000E+00  0.00000000E+00  0.00000000E+00
  0.00000000E+00  0.00000000E+00  0.00000000E+00
  0.00000000E+00  0.00000000E+00  0.00000000E+00
  0.00000000E+00  0.00000000E+00  0.00000000E+00
  0.00000000E+00  0.00000000E+00  0.00000000E+00
  0.00000000E+00  0.00000000E+00  0.00000000E+00
  0.00000000E+00  0.00000000E+00  0.00000000E+00
  0.00000000E+00  0.00000000E+00  0.00000000E+00
  0.00000000E+00  0.00000000E+00  0.00000000E+00
  0.00000000E+00  0.00000000E+00  0.00000000E+00
  0.00000000E+00  0.00000000E+00  0.00000000E+00
  0.00000000E+00  0.00000000E+00  0.00000000E+00
  0.00000000E+00  0.00000000E+00  0.00000000E+00
  0.00000000E+00  0.00000000E+00  0.00000000E+00
  0.00000000E+00  0.00000000E+00  0.00000000E+00
  0.00000000E+00  0.00000000E+00  0.00000000E+00
  0.00000000E+00  0.00000000E+00  0.00000000E+00
  0.00000000E+00  0.00000000E+00  0.00000000E+00
  0.00000000E+00  0.00000000E+00  0.00000000E+00
  0.00000000E+00  0.00000000E+00  0.00000000E+00
  0.00000000E+00  0.00000000E+00  0.00000000E+00
  0.00000000E+00  0.00000000E+00  0.00000000E+00
  0.00000000E+00  0.00000000E+00  0.00000000E+00
  0.00000000E+00  0.00000000E+00  0.00000000E+00
  0.00000000E+00  0.00000000E+00  0.00000000E+00
  0.00000000E+00  0.00000000E+00  0.00000000E+00
  0.00000000E+00  0.00000000E+00  0.00000000E+00
  0.00000000E+00  0.00000000E+00  0.00000000E+00
  0.00000000E+00  0.00000000E+00  0.00000000E+00
  0.00000000E+00  0.00000000E+00  0.00000000E+00
  0.00000000E+00  0.00000000E+00  0.00000000E+00
  0.00000000E+00  0.00000000E+00  0.00000000E+00
  0.00000000E+00  0.00000000E+00  0.00000000E+00
  0.00000000E+00  0.00000000E+00  0.00000000E+00
  0.00000000E+00  0.00000000E+00  0.00000000E+00
  0.00000000E+00  0.00000000E+00  0.00000000E+00
  0.00000000E+00  0.00000000E+00  0.00000000E+00
  0.00000000E+00  0.00000000E+00  0.00000000E+00
  0.00000000E+00  0.00000000E+00  0.00000000E+00
  0.00000000E+00  0.00000000E+00  0.00000000E+00
  0.00000000E+00  0.00000000E+00  0.00000000E+00
  0.00000000E+00  0.00000000E+00  0.00000000E+00
  0.00000000E+00  0.00000000E+00  0.00000000E+00
  0.00000000E+00  0.00000000E+00  0.00000000E+00
  0.00000000E+00  0.00000000E+00  0.00000000E+00
  0.00000000E+00  0.00000000E+00  0.00000000E+00
  0.00000000E+00  0.00000000E+00  0.00000000E+00
  0.00000000E+00  0.00000000E+00  0.00000000E+00
  0.00000000E+00  0.00000000E+00  0.00000000E+00
  0.00000000E+00  0.00000000E+00  0.00000000E+00
  0.00000000E+00  0.00000000E+00  0.00000000E+00
  0.00000000E+00  0.00000000E+00  0.00000000E+00
  0.00000000E+00  0.00000000E+00  0.00000000E+00
  0.00000000E+00  0.00000000E+00  0.00000000E+00
  0.00000000E+00  0.00000000E+00  0.00000000E+00
  0.00000000E+00  0.00000000E+00  0.00000000E+00
  0.00000000E+00  0.00000000E+00  0.00000000E+00
  0.00000000E+00  0.00000000E+00  0.00000000E+00
  0.00000000E+00  0.00000000E+00  0.00000000E+00
  0.00000000E+00  0.00000000E+00  0.00000000E+00
  0.00000000E+00  0.00000000E+00  0.00000000E+00
  0.00000000E+00  0.00000000E+00  0.00000000E+00
  0.00000000E+00  0.00000000E+00  0.00000000E+00
  0.00000000E+00  0.00000000E+00  0.00000000E+00
  0.00000000E+00  0.00000000E+00  0.00000000E+00
  0.00000000E+00  0.00000000E+00  0.00000000E+00
  0.00000000E+00  0.00000000E+00  0.00000000E+00
  0.00000000E+00  0.00000000E+00  0.00000000E+00
  0.00000000E+00  0.00000000E+00  0.00000000E+00
