 running on   24 total cores
 distrk:  each k-point on   24 cores,    1 groups
 distr:  one band on    4 cores,    6 groups
 using from now: INCAR     
 vasp.5.4.4.18Apr17-6-g9f103f2a35 (build May 21 2019 18:34:56) complex          
  
 POSCAR found type information on POSCAR  O  C  H  Co Li
 POSCAR found :  5 types and     150 ions
 LDA part: xc-table for Pade appr. of Perdew
 POSCAR found type information on POSCAR  O  C  H  Co Li
 POSCAR found :  5 types and     150 ions
 POSCAR, INCAR and KPOINTS ok, starting setup
 FFT: planning ...
 WAVECAR not read
 WARNING: random wavefunctions but no delay for mixing, default for NELMDL
 entering main loop
       N       E                     dE             d eps       ncg     rms          rms(c)
DAV:   1     0.801174727781E+04    0.80117E+04   -0.30710E+05  1896   0.133E+03
DAV:   2     0.836880767194E+03   -0.71749E+04   -0.64457E+04  2244   0.406E+02
DAV:   3    -0.110775477381E+04   -0.19446E+04   -0.18428E+04  3192   0.213E+02
DAV:   4    -0.126743006189E+04   -0.15968E+03   -0.14826E+03  3024   0.687E+01
DAV:   5    -0.127621281620E+04   -0.87828E+01   -0.78826E+01  3132   0.154E+01    0.150E+02
RMM:   6    -0.172084482043E+04   -0.44463E+03   -0.30908E+03  2437   0.134E+02    0.478E+02
RMM:   7    -0.149752343204E+04    0.22332E+03   -0.23095E+02  1906   0.465E+01    0.289E+02
RMM:   8    -0.111056577331E+04    0.38696E+03   -0.48484E+02  2085   0.451E+01    0.899E+01
RMM:   9    -0.132184387107E+04   -0.21128E+03   -0.92670E+01  2003   0.208E+01    0.184E+02
RMM:  10    -0.119941544563E+04    0.12243E+03   -0.90067E+01  2034   0.202E+01    0.142E+02
RMM:  11    -0.111424693913E+04    0.85169E+02   -0.80124E+01  1965   0.208E+01    0.107E+02
RMM:  12    -0.112710606809E+04   -0.12859E+02   -0.68188E+01  1933   0.194E+01    0.119E+02
RMM:  13    -0.111757406891E+04    0.95320E+01   -0.53309E+01  1974   0.169E+01    0.127E+02
RMM:  14    -0.108763243859E+04    0.29942E+02   -0.41062E+01  2023   0.147E+01    0.104E+02
RMM:  15    -0.107056601515E+04    0.17066E+02   -0.20451E+01  2107   0.952E+00    0.950E+01
RMM:  16    -0.107238051086E+04   -0.18145E+01   -0.12880E+01  2055   0.780E+00    0.808E+01
RMM:  17    -0.105666632785E+04    0.15714E+02   -0.13712E+01  1964   0.809E+00    0.557E+01
RMM:  18    -0.105083742091E+04    0.58289E+01   -0.54687E+00  2106   0.480E+00    0.450E+01
RMM:  19    -0.105482751130E+04   -0.39901E+01   -0.37480E+00  2042   0.422E+00    0.522E+01
RMM:  20    -0.105448408728E+04    0.34342E+00   -0.25439E+00  2059   0.348E+00    0.414E+01
RMM:  21    -0.105461335710E+04   -0.12927E+00   -0.16349E+00  2029   0.266E+00    0.359E+01
RMM:  22    -0.105452016418E+04    0.93193E-01   -0.10010E+00  2043   0.214E+00    0.324E+01
RMM:  23    -0.105486089011E+04   -0.34073E+00   -0.79032E-01  1986   0.197E+00    0.273E+01
RMM:  24    -0.105536721802E+04   -0.50633E+00   -0.31007E-01  1953   0.119E+00    0.252E+01
RMM:  25    -0.105511713391E+04    0.25008E+00   -0.14023E-01  1995   0.796E-01    0.236E+01
RMM:  26    -0.105499980473E+04    0.11733E+00   -0.68070E-02  1993   0.547E-01    0.244E+01
RMM:  27    -0.105507546489E+04   -0.75660E-01   -0.30569E-02  1978   0.367E-01    0.250E+01
RMM:  28    -0.105491729723E+04    0.15817E+00   -0.24700E-02  1963   0.333E-01    0.251E+01
RMM:  29    -0.105494304933E+04   -0.25752E-01   -0.47185E-02  1977   0.453E-01    0.248E+01
RMM:  30    -0.105475484397E+04    0.18821E+00   -0.38153E-02  1929   0.455E-01    0.246E+01
RMM:  31    -0.105519095606E+04   -0.43611E+00   -0.60148E-02  1994   0.538E-01    0.270E+01
RMM:  32    -0.105536648820E+04   -0.17553E+00   -0.14009E-01  1990   0.774E-01    0.276E+01
RMM:  33    -0.105501991179E+04    0.34658E+00   -0.50486E-02  1948   0.513E-01    0.251E+01
RMM:  34    -0.105541101474E+04   -0.39110E+00   -0.11720E-01  2017   0.671E-01    0.272E+01
RMM:  35    -0.105577215624E+04   -0.36114E+00   -0.11265E-01  1993   0.705E-01    0.251E+01
RMM:  36    -0.105722503261E+04   -0.14529E+01   -0.51656E-01  1983   0.144E+00    0.298E+01
RMM:  37    -0.105738674007E+04   -0.16171E+00   -0.39586E-01  2009   0.134E+00    0.255E+01
RMM:  38    -0.105750758029E+04   -0.12084E+00   -0.14148E-01  2163   0.736E-01    0.245E+01
RMM:  39    -0.105836380375E+04   -0.85622E+00   -0.20655E-01  1991   0.868E-01    0.249E+01
RMM:  40    -0.106082385371E+04   -0.24600E+01   -0.88460E-01  1967   0.168E+00    0.253E+01
RMM:  41    -0.106116256092E+04   -0.33871E+00   -0.29109E-01  2072   0.101E+00    0.245E+01
RMM:  42    -0.106212081709E+04   -0.95826E+00   -0.28083E-01  2056   0.847E-01    0.240E+01
RMM:  43    -0.106355868355E+04   -0.14379E+01   -0.31224E-01  1983   0.972E-01    0.224E+01
RMM:  44    -0.106319343132E+04    0.36525E+00   -0.60396E-02  2242   0.441E-01    0.223E+01
RMM:  45    -0.106354334836E+04   -0.34992E+00   -0.78570E-02  1929   0.495E-01    0.219E+01
RMM:  46    -0.106606783146E+04   -0.25245E+01   -0.43959E-01  1979   0.107E+00    0.221E+01
RMM:  47    -0.106779342245E+04   -0.17256E+01   -0.51711E-01  1951   0.117E+00    0.251E+01
RMM:  48    -0.106846055466E+04   -0.66713E+00   -0.29081E-01  2156   0.877E-01    0.260E+01
RMM:  49    -0.106949335279E+04   -0.10328E+01   -0.18017E-01  2128   0.681E-01    0.278E+01
RMM:  50    -0.106972547761E+04   -0.23212E+00   -0.98733E-02  2094   0.570E-01    0.277E+01
RMM:  51    -0.107248547626E+04   -0.27600E+01   -0.44672E-01  1935   0.134E+00    0.263E+01
RMM:  52    -0.107543548149E+04   -0.29500E+01   -0.55048E-01  2056   0.135E+00    0.241E+01
RMM:  53    -0.107660545370E+04   -0.11700E+01   -0.23243E-01  2249   0.877E-01    0.228E+01
RMM:  54    -0.107873336097E+04   -0.21279E+01   -0.48663E-01  2030   0.108E+00    0.225E+01
RMM:  55    -0.107911904470E+04   -0.38568E+00   -0.42095E-01  2047   0.114E+00    0.235E+01
RMM:  56    -0.107811078320E+04    0.10083E+01   -0.79767E-01  1971   0.164E+00    0.314E+01
RMM:  57    -0.107863264403E+04   -0.52186E+00   -0.34785E-01  1947   0.133E+00    0.263E+01
RMM:  58    -0.107875014835E+04   -0.11750E+00   -0.72245E-02  2143   0.517E-01    0.259E+01
RMM:  59    -0.107881776226E+04   -0.67614E-01   -0.62759E-02  2088   0.441E-01    0.252E+01
RMM:  60    -0.107932410968E+04   -0.50635E+00   -0.84425E-02  2017   0.555E-01    0.227E+01
RMM:  61    -0.108105260182E+04   -0.17285E+01   -0.13716E+00  1956   0.239E+00    0.449E+01
RMM:  62    -0.107950983240E+04    0.15428E+01   -0.50330E-01  1948   0.167E+00    0.337E+01
RMM:  63    -0.107976743262E+04   -0.25760E+00   -0.13190E-01  2135   0.724E-01    0.320E+01
RMM:  64    -0.108018246533E+04   -0.41503E+00   -0.95060E-02  2100   0.546E-01    0.298E+01
RMM:  65    -0.108031001003E+04   -0.12754E+00   -0.25189E-02  2129   0.336E-01    0.300E+01
RMM:  66    -0.107935419080E+04    0.95582E+00   -0.73919E-01  1995   0.167E+00    0.326E+01
RMM:  67    -0.107997152053E+04   -0.61733E+00   -0.42450E-01  1937   0.145E+00    0.290E+01
RMM:  68    -0.108050916686E+04   -0.53765E+00   -0.16839E-01  2087   0.810E-01    0.291E+01
RMM:  69    -0.108100903021E+04   -0.49986E+00   -0.80647E-02  2191   0.509E-01    0.287E+01
RMM:  70    -0.108134713455E+04   -0.33810E+00   -0.53219E-02  2061   0.461E-01    0.273E+01
RMM:  71    -0.108797189952E+04   -0.66248E+01   -0.52486E+00  1947   0.423E+00    0.533E+01
RMM:  72    -0.108555350668E+04    0.24184E+01   -0.20443E+00  1967   0.322E+00    0.380E+01
RMM:  73    -0.108597752155E+04   -0.42401E+00   -0.59136E-01  2109   0.157E+00    0.305E+01
RMM:  74    -0.108776204225E+04   -0.17845E+01   -0.55346E-01  2031   0.137E+00    0.341E+01
RMM:  75    -0.108860685318E+04   -0.84481E+00   -0.31253E-01  2068   0.113E+00    0.318E+01
RMM:  76    -0.109093382774E+04   -0.23270E+01   -0.13424E+00  2001   0.233E+00    0.406E+01
RMM:  77    -0.108896418346E+04    0.19696E+01   -0.87613E-01  2009   0.206E+00    0.305E+01
RMM:  78    -0.108949064500E+04   -0.52646E+00   -0.37479E-01  2046   0.132E+00    0.300E+01
RMM:  79    -0.109010718244E+04   -0.61654E+00   -0.25446E-01  2029   0.985E-01    0.246E+01
RMM:  80    -0.109026121871E+04   -0.15404E+00   -0.13107E-01  2086   0.768E-01    0.243E+01
RMM:  81    -0.109063563587E+04   -0.37442E+00   -0.93200E-02  2023   0.659E-01    0.253E+01
RMM:  82    -0.109062238615E+04    0.13250E-01   -0.57744E-02  2014   0.515E-01    0.246E+01
RMM:  83    -0.109118675676E+04   -0.56437E+00   -0.10380E-01  1944   0.623E-01    0.239E+01
RMM:  84    -0.109214297874E+04   -0.95622E+00   -0.16167E-01  2018   0.737E-01    0.245E+01
RMM:  85    -0.109252455282E+04   -0.38157E+00   -0.13778E-01  2172   0.704E-01    0.186E+01
RMM:  86    -0.109095244284E+04    0.15721E+01   -0.73495E-01  1912   0.173E+00    0.186E+01
RMM:  87    -0.109192287732E+04   -0.97043E+00   -0.23408E-01  1918   0.117E+00    0.144E+01
RMM:  88    -0.109253310289E+04   -0.61023E+00   -0.11851E-01  2013   0.738E-01    0.150E+01
RMM:  89    -0.109218227156E+04    0.35083E+00   -0.91998E-02  1980   0.645E-01    0.152E+01
RMM:  90    -0.109267957405E+04   -0.49730E+00   -0.72918E-02  2049   0.553E-01    0.147E+01
RMM:  91    -0.109209112644E+04    0.58845E+00   -0.38511E-01  1985   0.120E+00    0.227E+01
RMM:  92    -0.109207232993E+04    0.18797E-01   -0.12914E-01  1978   0.865E-01    0.226E+01
RMM:  93    -0.109204977273E+04    0.22557E-01   -0.56753E-02  2055   0.470E-01    0.203E+01
RMM:  94    -0.109263481947E+04   -0.58505E+00   -0.41174E-02  2012   0.397E-01    0.212E+01
RMM:  95    -0.109326685635E+04   -0.63204E+00   -0.72049E-02  2004   0.490E-01    0.213E+01
RMM:  96    -0.109400481348E+04   -0.73796E+00   -0.11504E-01  1969   0.628E-01    0.199E+01
RMM:  97    -0.109420423418E+04   -0.19942E+00   -0.58951E-02  2080   0.486E-01    0.188E+01
RMM:  98    -0.109475518335E+04   -0.55095E+00   -0.80958E-02  1992   0.489E-01    0.173E+01
RMM:  99    -0.109535398886E+04   -0.59881E+00   -0.10553E-01  2079   0.517E-01    0.142E+01
RMM: 100    -0.109564218404E+04   -0.28820E+00   -0.53629E-02  2162   0.419E-01    0.137E+01
RMM: 101    -0.109654905360E+04   -0.90687E+00   -0.76934E-01  2011   0.168E+00    0.288E+01
RMM: 102    -0.109647667629E+04    0.72377E-01   -0.46833E-01  1957   0.152E+00    0.160E+01
RMM: 103    -0.109675240480E+04   -0.27573E+00   -0.90905E-02  1966   0.658E-01    0.143E+01
RMM: 104    -0.109644999562E+04    0.30241E+00   -0.99607E-02  1971   0.623E-01    0.134E+01
RMM: 105    -0.109674780325E+04   -0.29781E+00   -0.44318E-02  2093   0.414E-01    0.122E+01
RMM: 106    -0.109676634615E+04   -0.18543E-01   -0.14913E-01  1961   0.795E-01    0.112E+01
RMM: 107    -0.109687382665E+04   -0.10748E+00   -0.43199E-02  2035   0.468E-01    0.113E+01
RMM: 108    -0.109696683274E+04   -0.93006E-01   -0.22371E-02  2201   0.286E-01    0.107E+01
RMM: 109    -0.109727352789E+04   -0.30670E+00   -0.25902E-02  1977   0.329E-01    0.104E+01
RMM: 110    -0.109760311645E+04   -0.32959E+00   -0.33951E-02  1982   0.371E-01    0.100E+01
RMM: 111    -0.109902051637E+04   -0.14174E+01   -0.42684E-01  1999   0.113E+00    0.288E+01
RMM: 112    -0.109819422774E+04    0.82629E+00   -0.39079E-01  1997   0.117E+00    0.955E+00
RMM: 113    -0.109875056707E+04   -0.55634E+00   -0.10653E-01  1983   0.723E-01    0.937E+00
RMM: 114    -0.109895448851E+04   -0.20392E+00   -0.37317E-02  2277   0.349E-01    0.940E+00
RMM: 115    -0.109909480452E+04   -0.14032E+00   -0.15734E-02  2340   0.209E-01    0.932E+00
RMM: 116    -0.109949775123E+04   -0.40295E+00   -0.11076E-01  2030   0.648E-01    0.199E+01
RMM: 117    -0.109944512978E+04    0.52621E-01   -0.71505E-02  1985   0.590E-01    0.187E+01
RMM: 118    -0.109915600593E+04    0.28912E+00   -0.59491E-02  2094   0.468E-01    0.116E+01
RMM: 119    -0.109933773977E+04   -0.18173E+00   -0.43330E-02  2023   0.464E-01    0.105E+01
RMM: 120    -0.109965422545E+04   -0.31649E+00   -0.44017E-02  2171   0.386E-01
   1 F= -.11067237E+04 E0= -.11067103E+04  d E =-.110672E+04  mag=    16.8957
 curvature:   0.00 expect dE= 0.000E+00 dE for cont linesearch  0.000E+00
 trial: gam= 0.00000 g(F)=  0.161E+00 g(S)=  0.000E+00 ort = 0.000E+00 (trialstep = 0.100E+01)
 search vector abs. value=  0.161E+00
 bond charge predicted
       N       E                     dE             d eps       ncg     rms          rms(c)
DAV:   1    -0.109939063805E+04   -0.52898E-01   -0.55036E+01  1992   0.157E+01    0.123E+01
RMM:   2    -0.112807323071E+04   -0.28683E+02   -0.17175E+01  1988   0.980E+00    0.895E+01
RMM:   3    -0.110322785886E+04    0.24845E+02   -0.10302E+01  1970   0.775E+00    0.445E+01
RMM:   4    -0.109960197194E+04    0.36259E+01   -0.22861E+00  2087   0.345E+00    0.150E+01
RMM:   5    -0.109970641564E+04   -0.10444E+00   -0.10182E+00  2066   0.212E+00    0.179E+01
RMM:   6    -0.109962043077E+04    0.85985E-01   -0.42363E-01  2081   0.136E+00    0.107E+01
RMM:   7    -0.109951474888E+04    0.10568E+00   -0.18284E-01  2061   0.944E-01    0.719E+00
RMM:   8    -0.109956336637E+04   -0.48617E-01   -0.10098E-01  2103   0.640E-01    0.877E+00
RMM:   9    -0.109956753670E+04   -0.41703E-02   -0.10834E-01  2093   0.620E-01    0.673E+00
RMM:  10    -0.109955071420E+04    0.16823E-01   -0.91328E-02  2060   0.677E-01    0.602E+00
RMM:  11    -0.109965654399E+04   -0.10583E+00   -0.11648E-01  2104   0.682E-01    0.108E+01
RMM:  12    -0.109963638582E+04    0.20158E-01   -0.13597E-01  2005   0.770E-01    0.609E+00
RMM:  13    -0.109969769313E+04   -0.61307E-01   -0.93936E-02  2011   0.692E-01    0.497E+00
RMM:  14    -0.109981107075E+04   -0.11338E+00   -0.63005E-02  2079   0.540E-01    0.486E+00
RMM:  15    -0.109987969989E+04   -0.68629E-01   -0.47253E-02  2065   0.449E-01    0.371E+00
RMM:  16    -0.110003937373E+04   -0.15967E+00   -0.39178E-02  2018   0.439E-01    0.361E+00
RMM:  17    -0.110015461378E+04   -0.11524E+00   -0.27791E-02  2052   0.362E-01    0.227E+00
RMM:  18    -0.110033978562E+04   -0.18517E+00   -0.23981E-02  2122   0.304E-01    0.332E+00
RMM:  19    -0.110042643720E+04   -0.86652E-01   -0.20705E-02  2012   0.320E-01    0.262E+00
RMM:  20    -0.110054071985E+04   -0.11428E+00   -0.13684E-02  2071   0.242E-01    0.243E+00
RMM:  21    -0.110065092900E+04   -0.11021E+00   -0.90383E-03  2130   0.168E-01    0.186E+00
RMM:  22    -0.110078140797E+04   -0.13048E+00   -0.79561E-03  2111   0.154E-01    0.113E+00
RMM:  23    -0.110101114082E+04   -0.22973E+00   -0.12352E-02  1964   0.164E-01    0.109E+00
RMM:  24    -0.110111478687E+04   -0.10365E+00   -0.75828E-03  2167   0.154E-01    0.147E+00
RMM:  25    -0.110120539743E+04   -0.90611E-01   -0.55765E-03  2086   0.116E-01    0.771E-01
RMM:  26    -0.110142412089E+04   -0.21872E+00   -0.10522E-02  2048   0.122E-01    0.171E+00
RMM:  27    -0.110162619401E+04   -0.20207E+00   -0.12387E-02  2208   0.143E-01    0.105E+00
RMM:  28    -0.110177365426E+04   -0.14746E+00   -0.79066E-03  2229   0.981E-02    0.604E-01
RMM:  29    -0.110192042303E+04   -0.14677E+00   -0.68442E-03  2187   0.101E-01    0.724E-01
RMM:  30    -0.110201670019E+04   -0.96277E-01   -0.43265E-03  2260   0.745E-02    0.412E-01
RMM:  31    -0.110209657775E+04   -0.79878E-01   -0.36293E-03  2242   0.588E-02    0.337E-01
RMM:  32    -0.110213502552E+04   -0.38448E-01   -0.18029E-03  2306   0.426E-02    0.332E-01
RMM:  33    -0.110215845436E+04   -0.23429E-01   -0.13434E-03  2216   0.373E-02    0.200E-01
RMM:  34    -0.110216909813E+04   -0.10644E-01   -0.69223E-04  2251   0.303E-02    0.244E-01
RMM:  35    -0.110217506996E+04   -0.59718E-02   -0.42412E-04  2234   0.235E-02    0.917E-02
RMM:  36    -0.110217882972E+04   -0.37598E-02   -0.25028E-04  2164   0.170E-02    0.881E-02
RMM:  37    -0.110218050132E+04   -0.16716E-02   -0.10785E-04  2056   0.120E-02    0.971E-02
RMM:  38    -0.110218159959E+04   -0.10983E-02   -0.68054E-05  1950   0.916E-03    0.874E-02
RMM:  39    -0.110218218582E+04   -0.58624E-03   -0.47337E-05  1908   0.661E-03    0.304E-02
RMM:  40    -0.110218243006E+04   -0.24424E-03   -0.26380E-05  1774   0.579E-03    0.358E-02
RMM:  41    -0.110218251131E+04   -0.81247E-04   -0.11240E-05  1587   0.477E-03    0.257E-02
RMM:  42    -0.110218256174E+04   -0.50431E-04   -0.61298E-06  1436   0.302E-03    0.749E-03
RMM:  43    -0.110218259267E+04   -0.30935E-04   -0.29923E-06  1318   0.245E-03    0.608E-03
RMM:  44    -0.110218261138E+04   -0.18707E-04   -0.16986E-06  1211   0.173E-03    0.483E-03
RMM:  45    -0.110218263284E+04   -0.21461E-04   -0.15842E-06  1177   0.161E-03    0.471E-03
RMM:  46    -0.110218265140E+04   -0.18555E-04   -0.16361E-06  1171   0.151E-03    0.283E-03
RMM:  47    -0.110218266117E+04   -0.97708E-05   -0.96317E-07  1051   0.136E-03    0.297E-03
RMM:  48    -0.110218266911E+04   -0.79415E-05   -0.82544E-07  1036   0.116E-03    0.186E-03
RMM:  49    -0.110218267761E+04   -0.85012E-05   -0.82524E-07  1035   0.115E-03    0.185E-03
RMM:  50    -0.110218268363E+04   -0.60239E-05   -0.70923E-07  1025   0.108E-03    0.212E-03
RMM:  51    -0.110218268765E+04   -0.40127E-05   -0.62661E-07   980   0.993E-04    0.150E-03
RMM:  52    -0.110218268955E+04   -0.19015E-05   -0.42473E-07   924   0.893E-04    0.170E-03
RMM:  53    -0.110218269085E+04   -0.12988E-05   -0.31178E-07   899   0.736E-04    0.864E-04
RMM:  54    -0.110218269163E+04   -0.78169E-06   -0.21012E-07   809   0.653E-04
   2 F= -.11092520E+04 E0= -.11092247E+04  d E =-.252831E+01  mag=    12.3690
 trial-energy change:   -2.528306  1 .order    0.032056   -0.161420    0.225531
 step:   0.4172(harm=  0.4172)  dis= 0.00801  next Energy= -1106.757353 (dE=-0.337E-01)
 bond charge predicted
       N       E                     dE             d eps       ncg     rms          rms(c)
DAV:   1    -0.110220276849E+04   -0.20078E-01   -0.18622E+01  2016   0.873E+00    0.189E+00
RMM:   2    -0.110236603918E+04   -0.16327E+00   -0.45692E-01  2149   0.152E+00    0.684E+00
RMM:   3    -0.110227812556E+04    0.87914E-01   -0.13972E-01  2247   0.812E-01    0.560E+00
RMM:   4    -0.110229389133E+04   -0.15766E-01   -0.62649E-02  2200   0.552E-01    0.612E+00
RMM:   5    -0.110224857666E+04    0.45315E-01   -0.33795E-02  2145   0.403E-01    0.232E+00
RMM:   6    -0.110225746868E+04   -0.88920E-02   -0.17626E-02  2067   0.285E-01    0.208E+00
RMM:   7    -0.110225979750E+04   -0.23288E-02   -0.86553E-03  2103   0.202E-01    0.254E+00
RMM:   8    -0.110225605039E+04    0.37471E-02   -0.64519E-03  2177   0.167E-01    0.226E+00
RMM:   9    -0.110225457554E+04    0.14749E-02   -0.52627E-03  2073   0.169E-01    0.195E+00
RMM:  10    -0.110225441771E+04    0.15783E-03   -0.41511E-03  2172   0.134E-01    0.118E+00
RMM:  11    -0.110225757367E+04   -0.31560E-02   -0.40613E-03  2112   0.144E-01    0.172E+00
RMM:  12    -0.110225868652E+04   -0.11128E-02   -0.39557E-03  2085   0.141E-01    0.225E+00
RMM:  13    -0.110225722939E+04    0.14571E-02   -0.25678E-03  2104   0.112E-01    0.269E+00
RMM:  14    -0.110225179836E+04    0.54310E-02   -0.10804E-03  2120   0.714E-02    0.197E+00
RMM:  15    -0.110225129578E+04    0.50257E-03   -0.86230E-04  2117   0.611E-02    0.841E-01
RMM:  16    -0.110225422583E+04   -0.29301E-02   -0.10522E-03  2005   0.752E-02    0.377E-01
RMM:  17    -0.110225581568E+04   -0.15898E-02   -0.73512E-04  2021   0.653E-02    0.600E-01
RMM:  18    -0.110225566581E+04    0.14987E-03   -0.31931E-04  2001   0.420E-02    0.644E-01
RMM:  19    -0.110225548883E+04    0.17698E-03   -0.12487E-04  1864   0.240E-02    0.512E-01
RMM:  20    -0.110225566851E+04   -0.17968E-03   -0.63853E-05  1769   0.163E-02    0.372E-01
RMM:  21    -0.110225595866E+04   -0.29015E-03   -0.41771E-05  1777   0.134E-02    0.196E-01
RMM:  22    -0.110225621612E+04   -0.25746E-03   -0.41032E-05  1747   0.148E-02    0.664E-02
RMM:  23    -0.110225640960E+04   -0.19348E-03   -0.29730E-05  1692   0.127E-02    0.118E-01
RMM:  24    -0.110225646170E+04   -0.52096E-04   -0.20603E-05  1599   0.112E-02    0.161E-01
RMM:  25    -0.110225646474E+04   -0.30452E-05   -0.84633E-06  1449   0.653E-03    0.116E-01
RMM:  26    -0.110225653129E+04   -0.66551E-04   -0.58065E-06  1366   0.511E-03    0.484E-02
RMM:  27    -0.110225660139E+04   -0.70096E-04   -0.59281E-06  1383   0.572E-03    0.400E-02
RMM:  28    -0.110225667796E+04   -0.76568E-04   -0.46612E-06  1379   0.439E-03    0.111E-02
RMM:  29    -0.110225674124E+04   -0.63281E-04   -0.30836E-06  1291   0.325E-03    0.176E-02
RMM:  30    -0.110225678244E+04   -0.41206E-04   -0.21953E-06  1217   0.247E-03    0.826E-03
RMM:  31    -0.110225681933E+04   -0.36886E-04   -0.20064E-06  1182   0.218E-03    0.149E-02
RMM:  32    -0.110225683868E+04   -0.19351E-04   -0.13325E-06  1144   0.184E-03    0.117E-02
RMM:  33    -0.110225685244E+04   -0.13757E-04   -0.99720E-07  1085   0.146E-03    0.625E-03
RMM:  34    -0.110225686436E+04   -0.11918E-04   -0.85639E-07  1073   0.138E-03    0.401E-03
RMM:  35    -0.110225687244E+04   -0.80807E-05   -0.71100E-07  1039   0.129E-03    0.499E-03
RMM:  36    -0.110225687852E+04   -0.60857E-05   -0.58784E-07  1020   0.110E-03    0.338E-03
RMM:  37    -0.110225688274E+04   -0.42147E-05   -0.46242E-07   956   0.952E-04    0.216E-03
RMM:  38    -0.110225688598E+04   -0.32376E-05   -0.38096E-07   894   0.826E-04    0.276E-03
RMM:  39    -0.110225688898E+04   -0.30072E-05   -0.36111E-07   927   0.788E-04    0.224E-03
RMM:  40    -0.110225689025E+04   -0.12726E-05   -0.26708E-07   884   0.722E-04    0.144E-03
RMM:  41    -0.110225689130E+04   -0.10447E-05   -0.21670E-07   827   0.620E-04    0.101E-03
RMM:  42    -0.110225689203E+04   -0.73297E-06   -0.17433E-07   831   0.595E-04
   3 F= -.11093263E+04 E0= -.11092993E+04  d E =-.260258E+01  mag=    12.3851
 curvature:  -0.21 expect dE=-0.366E-01 dE for cont linesearch -0.122E-02
 ZBRENT: interpolating
 opt :   0.3505  next Energy= -1109.327291 (dE=-0.260E+01)
 bond charge predicted
       N       E                     dE             d eps       ncg     rms          rms(c)
DAV:   1    -0.110225751374E+04   -0.62244E-03   -0.24358E-01  2040   0.100E+00    0.219E-01
RMM:   2    -0.110226093130E+04   -0.34176E-02   -0.59121E-03  2149   0.173E-01    0.179E+00
RMM:   3    -0.110225586649E+04    0.50648E-02   -0.22448E-03  2230   0.103E-01    0.466E-01
RMM:   4    -0.110225948172E+04   -0.36152E-02   -0.17094E-03  2072   0.932E-02    0.114E+00
RMM:   5    -0.110225770615E+04    0.17756E-02   -0.90363E-04  2031   0.683E-02    0.531E-01
RMM:   6    -0.110225805944E+04   -0.35329E-03   -0.55754E-04  1942   0.549E-02    0.244E-01
RMM:   7    -0.110225815395E+04   -0.94509E-04   -0.14256E-04  1916   0.256E-02    0.362E-01
RMM:   8    -0.110225805813E+04    0.95815E-04   -0.10301E-04  1911   0.216E-02    0.232E-01
RMM:   9    -0.110225810311E+04   -0.44982E-04   -0.74288E-05  1845   0.199E-02    0.168E-01
RMM:  10    -0.110225812982E+04   -0.26707E-04   -0.60979E-05  1839   0.175E-02    0.117E-01
RMM:  11    -0.110225818499E+04   -0.55171E-04   -0.63548E-05  1790   0.171E-02    0.189E-01
RMM:  12    -0.110225815466E+04    0.30333E-04   -0.49613E-05  1742   0.158E-02    0.246E-01
RMM:  13    -0.110225808619E+04    0.68470E-04   -0.28671E-05  1618   0.129E-02    0.236E-01
RMM:  14    -0.110225804622E+04    0.39964E-04   -0.10568E-05  1444   0.741E-03    0.153E-01
RMM:  15    -0.110225808496E+04   -0.38733E-04   -0.73727E-06  1359   0.635E-03    0.825E-02
RMM:  16    -0.110225813645E+04   -0.51495E-04   -0.72900E-06  1406   0.648E-03    0.270E-02
RMM:  17    -0.110225817298E+04   -0.36526E-04   -0.56768E-06  1368   0.609E-03    0.247E-02
RMM:  18    -0.110225818109E+04   -0.81134E-05   -0.26392E-06  1244   0.447E-03    0.202E-02
RMM:  19    -0.110225818271E+04   -0.16162E-05   -0.77873E-07  1107   0.258E-03    0.174E-02
RMM:  20    -0.110225818432E+04   -0.16130E-05   -0.42207E-07  1055   0.180E-03    0.215E-02
RMM:  21    -0.110225818546E+04   -0.11364E-05   -0.30782E-07  1043   0.148E-03    0.207E-02
RMM:  22    -0.110225818659E+04   -0.11342E-05   -0.18136E-07  1000   0.102E-03    0.155E-02
RMM:  23    -0.110225818899E+04   -0.23990E-05   -0.12126E-07   936   0.820E-04    0.596E-03
RMM:  24    -0.110225819263E+04   -0.36376E-05   -0.13711E-07   960   0.815E-04    0.890E-03
RMM:  25    -0.110225819485E+04   -0.22210E-05   -0.14990E-07   988   0.885E-04    0.937E-03
RMM:  26    -0.110225819571E+04   -0.85619E-06   -0.91675E-08   905   0.679E-04
   4 F= -.11093276E+04 E0= -.11093006E+04  d E =-.260390E+01  mag=    12.3866
 curvature:  -0.18 expect dE=-0.232E-01 dE for cont linesearch -0.858E-04
 trial: gam= 0.87370 g(F)=  0.132E+00 g(S)=  0.000E+00 ort =-0.889E-02 (trialstep = 0.586E+00)
 search vector abs. value=  0.240E+00
 bond charge predicted
       N       E                     dE             d eps       ncg     rms          rms(c)
DAV:   1    -0.110220152381E+04    0.56671E-01   -0.29908E+01  1920   0.977E+00    0.227E+00
RMM:   2    -0.110244459482E+04   -0.24307E+00   -0.57407E-01  2084   0.171E+00    0.880E+00
RMM:   3    -0.110229967373E+04    0.14492E+00   -0.19842E-01  2239   0.934E-01    0.507E+00
RMM:   4    -0.110231875774E+04   -0.19084E-01   -0.72108E-02  2197   0.601E-01    0.493E+00
RMM:   5    -0.110227938799E+04    0.39370E-01   -0.25734E-02  2127   0.359E-01    0.142E+00
RMM:   6    -0.110229577479E+04   -0.16387E-01   -0.14233E-02  2120   0.239E-01    0.371E+00
RMM:   7    -0.110227899540E+04    0.16779E-01   -0.12760E-02  2068   0.246E-01    0.130E+00
RMM:   8    -0.110228938932E+04   -0.10394E-01   -0.81706E-03  2096   0.216E-01    0.189E+00
RMM:   9    -0.110228451455E+04    0.48748E-02   -0.52556E-03  2090   0.160E-01    0.142E+00
RMM:  10    -0.110228888547E+04   -0.43709E-02   -0.51327E-03  2104   0.151E-01    0.235E+00
RMM:  11    -0.110228329754E+04    0.55879E-02   -0.45665E-03  2050   0.151E-01    0.988E-01
RMM:  12    -0.110228503264E+04   -0.17351E-02   -0.28915E-03  2031   0.126E-01    0.107E+00
RMM:  13    -0.110228429137E+04    0.74127E-03   -0.14037E-03  2036   0.885E-02    0.103E+00
RMM:  14    -0.110228350499E+04    0.78638E-03   -0.68299E-04  2061   0.627E-02    0.594E-01
RMM:  15    -0.110228404724E+04   -0.54225E-03   -0.38750E-04  2010   0.456E-02    0.371E-01
RMM:  16    -0.110228439426E+04   -0.34702E-03   -0.25749E-04  1988   0.387E-02    0.364E-01
RMM:  17    -0.110228445191E+04   -0.57650E-04   -0.17156E-04  1935   0.325E-02    0.436E-01
RMM:  18    -0.110228433359E+04    0.11833E-03   -0.76947E-05  1812   0.208E-02    0.372E-01
RMM:  19    -0.110228437886E+04   -0.45277E-04   -0.27678E-05  1718   0.109E-02    0.148E-01
RMM:  20    -0.110228474786E+04   -0.36899E-03   -0.36862E-05  1733   0.130E-02    0.113E-01
RMM:  21    -0.110228491414E+04   -0.16628E-03   -0.36230E-05  1692   0.143E-02    0.158E-01
RMM:  22    -0.110228493907E+04   -0.24930E-04   -0.13954E-05  1529   0.847E-03    0.113E-01
RMM:  23    -0.110228501404E+04   -0.74967E-04   -0.67138E-06  1386   0.587E-03    0.517E-02
RMM:  24    -0.110228514428E+04   -0.13025E-03   -0.78685E-06  1421   0.604E-03    0.271E-02
RMM:  25    -0.110228530983E+04   -0.16554E-03   -0.82180E-06  1438   0.575E-03    0.583E-02
RMM:  26    -0.110228540243E+04   -0.92603E-04   -0.54387E-06  1365   0.484E-03    0.626E-02
RMM:  27    -0.110228553323E+04   -0.13080E-03   -0.47793E-06  1323   0.348E-03    0.415E-02
RMM:  28    -0.110228573274E+04   -0.19952E-03   -0.67767E-06  1377   0.319E-03    0.142E-02
RMM:  29    -0.110228590698E+04   -0.17423E-03   -0.60443E-06  1371   0.340E-03    0.102E-02
RMM:  30    -0.110228602056E+04   -0.11358E-03   -0.36955E-06  1275   0.262E-03    0.167E-02
RMM:  31    -0.110228612862E+04   -0.10806E-03   -0.31057E-06  1236   0.222E-03    0.204E-02
RMM:  32    -0.110228620784E+04   -0.79224E-04   -0.24129E-06  1195   0.196E-03    0.831E-03
RMM:  33    -0.110228629352E+04   -0.85678E-04   -0.27418E-06  1190   0.182E-03    0.875E-03
RMM:  34    -0.110228636254E+04   -0.69017E-04   -0.27640E-06  1238   0.189E-03    0.890E-03
RMM:  35    -0.110228640407E+04   -0.41537E-04   -0.20397E-06  1164   0.161E-03    0.215E-03
RMM:  36    -0.110228643807E+04   -0.34000E-04   -0.17887E-06  1120   0.151E-03    0.475E-03
RMM:  37    -0.110228645753E+04   -0.19451E-04   -0.13922E-06  1098   0.140E-03    0.318E-03
RMM:  38    -0.110228646740E+04   -0.98758E-05   -0.99098E-07  1035   0.126E-03    0.102E-03
RMM:  39    -0.110228647209E+04   -0.46861E-05   -0.74026E-07   994   0.110E-03    0.882E-04
RMM:  40    -0.110228647383E+04   -0.17403E-05   -0.54671E-07   946   0.958E-04    0.112E-03
RMM:  41    -0.110228647440E+04   -0.57477E-06   -0.34821E-07   904   0.808E-04
   5 F= -.11093567E+04 E0= -.11093305E+04  d E =-.291027E-01  mag=    12.3137
 trial-energy change:   -0.029103  1 .order   -0.028981   -0.072838    0.014875
 step:   0.4863(harm=  0.4863)  dis= 0.01387  next Energy= -1109.357826 (dE=-0.302E-01)
 bond charge predicted
       N       E                     dE             d eps       ncg     rms          rms(c)
DAV:   1    -0.110228561439E+04    0.85943E-03   -0.86081E-01  2076   0.165E+00    0.381E-01
RMM:   2    -0.110229299605E+04   -0.73817E-02   -0.14307E-02  2094   0.276E-01    0.236E+00
RMM:   3    -0.110228526639E+04    0.77297E-02   -0.54148E-03  2232   0.155E-01    0.128E+00
RMM:   4    -0.110229109744E+04   -0.58310E-02   -0.54037E-03  2080   0.158E-01    0.173E+00
RMM:   5    -0.110228764567E+04    0.34518E-02   -0.22977E-03  2034   0.106E-01    0.960E-01
RMM:   6    -0.110228735906E+04    0.28661E-03   -0.12850E-03  1988   0.819E-02    0.270E-01
RMM:   7    -0.110228791617E+04   -0.55711E-03   -0.39878E-04  1939   0.399E-02    0.497E-01
RMM:   8    -0.110228763622E+04    0.27995E-03   -0.28664E-04  2010   0.371E-02    0.219E-01
RMM:   9    -0.110228771616E+04   -0.79936E-04   -0.18128E-04  2051   0.301E-02    0.228E-01
RMM:  10    -0.110228764664E+04    0.69522E-04   -0.14587E-04  2040   0.273E-02    0.130E-01
RMM:  11    -0.110228770959E+04   -0.62952E-04   -0.82870E-05  1881   0.210E-02    0.179E-01
RMM:  12    -0.110228768856E+04    0.21026E-04   -0.44522E-05  1710   0.158E-02    0.178E-01
RMM:  13    -0.110228766834E+04    0.20226E-04   -0.22801E-05  1510   0.101E-02    0.140E-01
RMM:  14    -0.110228767933E+04   -0.10991E-04   -0.12621E-05  1429   0.785E-03    0.692E-02
RMM:  15    -0.110228772499E+04   -0.45664E-04   -0.95009E-06  1416   0.686E-03    0.452E-02
RMM:  16    -0.110228775249E+04   -0.27501E-04   -0.74292E-06  1402   0.674E-03    0.561E-02
RMM:  17    -0.110228775847E+04   -0.59783E-05   -0.27468E-06  1262   0.444E-03    0.380E-02
RMM:  18    -0.110228776549E+04   -0.70170E-05   -0.12777E-06  1187   0.304E-03    0.222E-02
RMM:  19    -0.110228777420E+04   -0.87105E-05   -0.70868E-07  1086   0.220E-03    0.102E-02
RMM:  20    -0.110228778318E+04   -0.89762E-05   -0.45187E-07  1042   0.159E-03    0.673E-03
RMM:  21    -0.110228779283E+04   -0.96522E-05   -0.39544E-07  1031   0.147E-03    0.950E-03
RMM:  22    -0.110228780181E+04   -0.89786E-05   -0.33484E-07  1019   0.119E-03    0.770E-03
RMM:  23    -0.110228780927E+04   -0.74596E-05   -0.25658E-07   982   0.101E-03    0.425E-03
RMM:  24    -0.110228781782E+04   -0.85568E-05   -0.21784E-07   927   0.798E-04    0.357E-03
RMM:  25    -0.110228782504E+04   -0.72179E-05   -0.18884E-07   916   0.737E-04    0.232E-03
RMM:  26    -0.110228783042E+04   -0.53778E-05   -0.16735E-07   823   0.698E-04    0.279E-03
RMM:  27    -0.110228783834E+04   -0.79245E-05   -0.20429E-07   887   0.631E-04    0.278E-03
RMM:  28    -0.110228784620E+04   -0.78558E-05   -0.23371E-07   903   0.645E-04    0.148E-03
RMM:  29    -0.110228785323E+04   -0.70358E-05   -0.24275E-07   877   0.637E-04    0.265E-03
RMM:  30    -0.110228785835E+04   -0.51108E-05   -0.23366E-07   859   0.618E-04    0.134E-03
RMM:  31    -0.110228786186E+04   -0.35097E-05   -0.19642E-07   814   0.576E-04    0.128E-03
RMM:  32    -0.110228786517E+04   -0.33122E-05   -0.20382E-07   820   0.565E-04    0.240E-03
RMM:  33    -0.110228786697E+04   -0.18019E-05   -0.16720E-07   838   0.548E-04    0.121E-03
RMM:  34    -0.110228786835E+04   -0.13805E-05   -0.13538E-07   753   0.495E-04    0.469E-04
RMM:  35    -0.110228786922E+04   -0.86648E-06   -0.10925E-07   721   0.472E-04
   6 F= -.11093579E+04 E0= -.11093316E+04  d E =-.303518E-01  mag=    12.3257
 curvature:  -0.47 expect dE=-0.610E-01 dE for cont linesearch -0.270E-07
 trial: gam= 0.89727 g(F)=  0.130E+00 g(S)=  0.000E+00 ort = 0.118E-03 (trialstep = 0.420E+00)
 search vector abs. value=  0.323E+00
 bond charge predicted
       N       E                     dE             d eps       ncg     rms          rms(c)
DAV:   1    -0.110222525578E+04    0.62613E-01   -0.19106E+01  1914   0.758E+00    0.180E+00
RMM:   2    -0.110231808697E+04   -0.92831E-01   -0.37137E-01  2143   0.129E+00    0.635E+00
RMM:   3    -0.110230223289E+04    0.15854E-01   -0.96774E-02  2283   0.637E-01    0.494E+00
RMM:   4    -0.110233339134E+04   -0.31158E-01   -0.69418E-02  2194   0.518E-01    0.648E+00
RMM:   5    -0.110228431225E+04    0.49079E-01   -0.35144E-02  2080   0.403E-01    0.278E+00
RMM:   6    -0.110227183686E+04    0.12475E-01   -0.15466E-02  2085   0.248E-01    0.102E+00
RMM:   7    -0.110229391830E+04   -0.22081E-01   -0.12321E-02  2095   0.231E-01    0.395E+00
RMM:   8    -0.110227055749E+04    0.23361E-01   -0.12788E-02  2089   0.250E-01    0.186E+00
RMM:   9    -0.110227380431E+04   -0.32468E-02   -0.13590E-02  2048   0.273E-01    0.909E-01
RMM:  10    -0.110227837503E+04   -0.45707E-02   -0.65054E-03  2114   0.173E-01    0.186E+00
RMM:  11    -0.110227560222E+04    0.27728E-02   -0.38131E-03  2062   0.144E-01    0.224E+00
RMM:  12    -0.110227212460E+04    0.34776E-02   -0.14365E-03  2023   0.862E-02    0.208E+00
RMM:  13    -0.110227030039E+04    0.18242E-02   -0.51521E-04  2114   0.470E-02    0.135E+00
RMM:  14    -0.110227159418E+04   -0.12938E-02   -0.38806E-04  1984   0.467E-02    0.678E-01
RMM:  15    -0.110227320975E+04   -0.16156E-02   -0.57610E-04  2021   0.554E-02    0.268E-01
RMM:  16    -0.110227422572E+04   -0.10160E-02   -0.43863E-04  2006   0.493E-02    0.320E-01
RMM:  17    -0.110227419751E+04    0.28208E-04   -0.16201E-04  1973   0.294E-02    0.326E-01
RMM:  18    -0.110227411206E+04    0.85444E-04   -0.46729E-05  1773   0.151E-02    0.317E-01
RMM:  19    -0.110227409482E+04    0.17248E-04   -0.25160E-05  1600   0.114E-02    0.326E-01
RMM:  20    -0.110227406141E+04    0.33408E-04   -0.16989E-05  1596   0.935E-03    0.253E-01
RMM:  21    -0.110227410751E+04   -0.46104E-04   -0.15587E-05  1537   0.932E-03    0.133E-01
RMM:  22    -0.110227425541E+04   -0.14790E-03   -0.15952E-05  1593   0.916E-03    0.533E-02
RMM:  23    -0.110227434872E+04   -0.93304E-04   -0.14617E-05  1561   0.965E-03    0.877E-02
RMM:  24    -0.110227437142E+04   -0.22703E-04   -0.64409E-06  1427   0.615E-03    0.661E-02
RMM:  25    -0.110227441979E+04   -0.48376E-04   -0.37631E-06  1306   0.404E-03    0.326E-02
RMM:  26    -0.110227447719E+04   -0.57397E-04   -0.35557E-06  1318   0.409E-03    0.381E-02
RMM:  27    -0.110227451763E+04   -0.40441E-04   -0.23496E-06  1265   0.337E-03    0.329E-02
RMM:  28    -0.110227457086E+04   -0.53230E-04   -0.19121E-06  1204   0.245E-03    0.125E-02
RMM:  29    -0.110227464434E+04   -0.73479E-04   -0.24437E-06  1209   0.225E-03    0.123E-02
RMM:  30    -0.110227471712E+04   -0.72780E-04   -0.26760E-06  1232   0.226E-03    0.102E-02
RMM:  31    -0.110227477967E+04   -0.62553E-04   -0.24460E-06  1190   0.196E-03    0.442E-03
RMM:  32    -0.110227483529E+04   -0.55612E-04   -0.23217E-06  1175   0.175E-03    0.111E-02
RMM:  33    -0.110227488032E+04   -0.45029E-04   -0.22308E-06  1182   0.170E-03    0.106E-02
RMM:  34    -0.110227491952E+04   -0.39200E-04   -0.21752E-06  1181   0.159E-03    0.472E-03
RMM:  35    -0.110227494783E+04   -0.28314E-04   -0.18480E-06  1132   0.156E-03    0.435E-03
RMM:  36    -0.110227496111E+04   -0.13284E-04   -0.11446E-06  1079   0.140E-03    0.393E-03
RMM:  37    -0.110227496913E+04   -0.80188E-05   -0.79536E-07  1022   0.116E-03    0.163E-03
RMM:  38    -0.110227497536E+04   -0.62278E-05   -0.67555E-07   973   0.102E-03    0.863E-04
RMM:  39    -0.110227497900E+04   -0.36409E-05   -0.50153E-07   960   0.913E-04    0.789E-04
RMM:  40    -0.110227498051E+04   -0.15106E-05   -0.34628E-07   896   0.787E-04    0.451E-04
RMM:  41    -0.110227498138E+04   -0.86334E-06   -0.24140E-07   843   0.671E-04
   7 F= -.11093460E+04 E0= -.11093202E+04  d E =0.119411E-01  mag=    12.2948
 trial-energy change:    0.011941  1 .order    0.011909   -0.054605    0.078422
 step:   0.1723(harm=  0.1723)  dis= 0.00546  next Energy= -1109.369142 (dE=-0.112E-01)
 bond charge predicted
       N       E                     dE             d eps       ncg     rms          rms(c)
DAV:   1    -0.110228221221E+04   -0.72317E-02   -0.66441E+00  1932   0.445E+00    0.107E+00
RMM:   2    -0.110230729533E+04   -0.25083E-01   -0.12126E-01  2156   0.738E-01    0.259E+00
RMM:   3    -0.110231873308E+04   -0.11438E-01   -0.34803E-02  2282   0.373E-01    0.452E+00
RMM:   4    -0.110231746493E+04    0.12681E-02   -0.23031E-02  2225   0.291E-01    0.436E+00
RMM:   5    -0.110229374914E+04    0.23716E-01   -0.19807E-02  2042   0.313E-01    0.104E+00
RMM:   6    -0.110230012844E+04   -0.63793E-02   -0.47596E-03  2060   0.147E-01    0.165E+00
RMM:   7    -0.110229899008E+04    0.11384E-02   -0.48113E-03  2086   0.145E-01    0.104E+00
RMM:   8    -0.110229853972E+04    0.45036E-03   -0.37924E-03  2117   0.138E-01    0.926E-01
RMM:   9    -0.110230257835E+04   -0.40386E-02   -0.30787E-03  2082   0.123E-01    0.215E+00
RMM:  10    -0.110229593271E+04    0.66456E-02   -0.27017E-03  2012   0.120E-01    0.952E-01
RMM:  11    -0.110229734754E+04   -0.14148E-02   -0.11098E-03  2029   0.825E-02    0.648E-01
RMM:  12    -0.110229777471E+04   -0.42717E-03   -0.32132E-04  2061   0.409E-02    0.405E-01
RMM:  13    -0.110229811626E+04   -0.34155E-03   -0.24012E-04  1999   0.338E-02    0.251E-01
RMM:  14    -0.110229831164E+04   -0.19538E-03   -0.16060E-04  1891   0.283E-02    0.251E-01
RMM:  15    -0.110229830589E+04    0.57537E-05   -0.99210E-05  1855   0.224E-02    0.253E-01
RMM:  16    -0.110229825039E+04    0.55496E-04   -0.48415E-05  1755   0.155E-02    0.160E-01
RMM:  17    -0.110229830745E+04   -0.57059E-04   -0.19707E-05  1568   0.105E-02    0.577E-02
RMM:  18    -0.110229840821E+04   -0.10076E-03   -0.13232E-05  1536   0.860E-03    0.415E-02
RMM:  19    -0.110229844407E+04   -0.35860E-04   -0.72474E-06  1415   0.665E-03    0.514E-02
RMM:  20    -0.110229846667E+04   -0.22603E-04   -0.31535E-06  1303   0.453E-03    0.301E-02
RMM:  21    -0.110229849166E+04   -0.24989E-04   -0.19855E-06  1256   0.324E-03    0.157E-02
RMM:  22    -0.110229851376E+04   -0.22096E-04   -0.16273E-06  1207   0.293E-03    0.157E-02
RMM:  23    -0.110229853482E+04   -0.21063E-04   -0.10595E-06  1147   0.230E-03    0.123E-02
RMM:  24    -0.110229855679E+04   -0.21969E-04   -0.93342E-07  1114   0.182E-03    0.885E-03
RMM:  25    -0.110229857077E+04   -0.13980E-04   -0.68897E-07  1049   0.181E-03    0.105E-02
RMM:  26    -0.110229858352E+04   -0.12753E-04   -0.56950E-07  1033   0.139E-03    0.744E-03
RMM:  27    -0.110229859842E+04   -0.14894E-04   -0.50254E-07  1011   0.126E-03    0.482E-03
RMM:  28    -0.110229861532E+04   -0.16905E-04   -0.54706E-07  1020   0.110E-03    0.333E-03
RMM:  29    -0.110229862686E+04   -0.11538E-04   -0.48366E-07  1000   0.111E-03    0.287E-03
RMM:  30    -0.110229863905E+04   -0.12188E-04   -0.48990E-07   976   0.949E-04    0.248E-03
RMM:  31    -0.110229865325E+04   -0.14204E-04   -0.62941E-07  1046   0.970E-04    0.287E-03
RMM:  32    -0.110229866284E+04   -0.95878E-05   -0.57723E-07  1013   0.932E-04    0.153E-03
RMM:  33    -0.110229866892E+04   -0.60844E-05   -0.46384E-07   947   0.863E-04    0.211E-03
RMM:  34    -0.110229867234E+04   -0.34205E-05   -0.35119E-07   948   0.792E-04    0.252E-03
RMM:  35    -0.110229867432E+04   -0.19733E-05   -0.26849E-07   892   0.699E-04    0.484E-04
RMM:  36    -0.110229867585E+04   -0.15367E-05   -0.21245E-07   840   0.629E-04    0.198E-03
RMM:  37    -0.110229867646E+04   -0.61055E-06   -0.15039E-07   821   0.570E-04
   8 F= -.11093691E+04 E0= -.11093431E+04  d E =-.111901E-01  mag=    12.3128
 curvature:  -0.21 expect dE=-0.194E-01 dE for cont linesearch -0.314E-07
 trial: gam= 0.71524 g(F)=  0.909E-01 g(S)=  0.000E+00 ort =-0.218E-03 (trialstep = 0.370E+00)
 search vector abs. value=  0.256E+00
 bond charge predicted
       N       E                     dE             d eps       ncg     rms          rms(c)
DAV:   1    -0.110228305903E+04    0.15617E-01   -0.10945E+01  1896   0.598E+00    0.134E+00
RMM:   2    -0.110233193396E+04   -0.48875E-01   -0.19943E-01  2198   0.101E+00    0.373E+00
RMM:   3    -0.110233719507E+04   -0.52611E-02   -0.63669E-02  2272   0.507E-01    0.534E+00
RMM:   4    -0.110234407712E+04   -0.68821E-02   -0.36261E-02  2229   0.385E-01    0.441E+00
RMM:   5    -0.110232316291E+04    0.20914E-01   -0.26339E-02  2123   0.343E-01    0.366E+00
RMM:   6    -0.110230647532E+04    0.16688E-01   -0.14844E-02  2075   0.273E-01    0.125E+00
RMM:   7    -0.110231196759E+04   -0.54923E-02   -0.48066E-03  2068   0.146E-01    0.157E+00
RMM:   8    -0.110231286472E+04   -0.89713E-03   -0.43385E-03  2046   0.151E-01    0.143E+00
RMM:   9    -0.110231032735E+04    0.25374E-02   -0.24874E-03  2129   0.117E-01    0.631E-01
RMM:  10    -0.110231146697E+04   -0.11396E-02   -0.22311E-03  2133   0.103E-01    0.447E-01
RMM:  11    -0.110231235201E+04   -0.88504E-03   -0.15002E-03  2112   0.837E-02    0.859E-01
RMM:  12    -0.110231127906E+04    0.10730E-02   -0.75387E-04  2070   0.564E-02    0.699E-01
RMM:  13    -0.110231101409E+04    0.26497E-03   -0.31295E-04  2044   0.405E-02    0.582E-01
RMM:  14    -0.110231097431E+04    0.39783E-04   -0.16794E-04  2031   0.268E-02    0.382E-01
RMM:  15    -0.110231116991E+04   -0.19560E-03   -0.11296E-04  1963   0.238E-02    0.172E-01
RMM:  16    -0.110231136811E+04   -0.19820E-03   -0.97865E-05  1854   0.231E-02    0.144E-01
RMM:  17    -0.110231140627E+04   -0.38161E-04   -0.41478E-05  1743   0.157E-02    0.130E-01
RMM:  18    -0.110231140554E+04    0.72624E-06   -0.17633E-05  1539   0.988E-03    0.840E-02
RMM:  19    -0.110231142881E+04   -0.23269E-04   -0.73355E-06  1388   0.656E-03    0.384E-02
RMM:  20    -0.110231146074E+04   -0.31924E-04   -0.49565E-06  1352   0.555E-03    0.227E-02
RMM:  21    -0.110231148578E+04   -0.25047E-04   -0.33212E-06  1314   0.446E-03    0.203E-02
RMM:  22    -0.110231150390E+04   -0.18116E-04   -0.22299E-06  1272   0.361E-03    0.177E-02
RMM:  23    -0.110231151746E+04   -0.13563E-04   -0.15046E-06  1206   0.286E-03    0.125E-02
RMM:  24    -0.110231153529E+04   -0.17822E-04   -0.10677E-06  1153   0.242E-03    0.146E-02
RMM:  25    -0.110231155565E+04   -0.20364E-04   -0.87015E-07  1124   0.187E-03    0.120E-02
RMM:  26    -0.110231157471E+04   -0.19056E-04   -0.73997E-07  1103   0.150E-03    0.635E-03
RMM:  27    -0.110231159146E+04   -0.16755E-04   -0.67194E-07  1076   0.144E-03    0.693E-03
RMM:  28    -0.110231160598E+04   -0.14524E-04   -0.64653E-07  1073   0.133E-03    0.598E-03
RMM:  29    -0.110231161531E+04   -0.93261E-05   -0.52381E-07  1014   0.124E-03    0.403E-03
RMM:  30    -0.110231162643E+04   -0.11116E-04   -0.53759E-07  1013   0.104E-03    0.327E-03
RMM:  31    -0.110231163552E+04   -0.90962E-05   -0.49954E-07  1002   0.100E-03    0.396E-03
RMM:  32    -0.110231164245E+04   -0.69281E-05   -0.44488E-07   989   0.882E-04    0.301E-03
RMM:  33    -0.110231164818E+04   -0.57247E-05   -0.43487E-07   977   0.864E-04    0.184E-03
RMM:  34    -0.110231165164E+04   -0.34638E-05   -0.34981E-07   946   0.785E-04    0.961E-04
RMM:  35    -0.110231165384E+04   -0.21961E-05   -0.27996E-07   895   0.719E-04    0.114E-03
RMM:  36    -0.110231165516E+04   -0.13257E-05   -0.21493E-07   841   0.632E-04    0.564E-04
RMM:  37    -0.110231165628E+04   -0.11188E-05   -0.17760E-07   823   0.579E-04    0.603E-04
RMM:  38    -0.110231165683E+04   -0.55469E-06   -0.13265E-07   772   0.527E-04
   9 F= -.11093828E+04 E0= -.11093568E+04  d E =-.136467E-01  mag=    12.3148
 trial-energy change:   -0.013647  1 .order   -0.013612   -0.033580    0.006356
 step:   0.3113(harm=  0.3113)  dis= 0.00785  next Energy= -1109.383243 (dE=-0.141E-01)
 bond charge predicted
       N       E                     dE             d eps       ncg     rms          rms(c)
DAV:   1    -0.110231157091E+04    0.85371E-04   -0.27734E-01  2052   0.950E-01    0.212E-01
RMM:   2    -0.110231283514E+04   -0.12642E-02   -0.48405E-03  2202   0.159E-01    0.739E-01
RMM:   3    -0.110231268660E+04    0.14853E-03   -0.14185E-03  2245   0.800E-02    0.944E-01
RMM:   4    -0.110231305624E+04   -0.36964E-03   -0.12376E-03  2127   0.715E-02    0.106E+00
RMM:   5    -0.110231190499E+04    0.11513E-02   -0.10356E-03  2000   0.739E-02    0.563E-01
RMM:   6    -0.110231192786E+04   -0.22870E-04   -0.43641E-04  1914   0.483E-02    0.102E-01
RMM:   7    -0.110231233015E+04   -0.40229E-03   -0.14061E-04  1917   0.262E-02    0.320E-01
RMM:   8    -0.110231221085E+04    0.11930E-03   -0.11041E-04  1939   0.231E-02    0.215E-01
RMM:   9    -0.110231221362E+04   -0.27635E-05   -0.89396E-05  1900   0.227E-02    0.147E-01
RMM:  10    -0.110231222364E+04   -0.10024E-04   -0.55011E-05  1777   0.173E-02    0.122E-01
RMM:  11    -0.110231224357E+04   -0.19926E-04   -0.33523E-05  1570   0.123E-02    0.118E-01
RMM:  12    -0.110231223757E+04    0.59941E-05   -0.20403E-05  1500   0.103E-02    0.843E-02
RMM:  13    -0.110231223436E+04    0.32120E-05   -0.92340E-06  1425   0.759E-03    0.559E-02
RMM:  14    -0.110231224340E+04   -0.90442E-05   -0.40604E-06  1326   0.513E-03    0.258E-02
RMM:  15    -0.110231225734E+04   -0.13939E-04   -0.30505E-06  1285   0.443E-03    0.419E-02
RMM:  16    -0.110231225267E+04    0.46752E-05   -0.17544E-06  1192   0.346E-03    0.400E-02
RMM:  17    -0.110231225099E+04    0.16727E-05   -0.63434E-07  1105   0.231E-03    0.264E-02
RMM:  18    -0.110231225463E+04   -0.36377E-05   -0.38034E-07  1044   0.160E-03    0.148E-02
RMM:  19    -0.110231225859E+04   -0.39524E-05   -0.29577E-07   999   0.135E-03    0.922E-03
RMM:  20    -0.110231226131E+04   -0.27260E-05   -0.23857E-07  1026   0.124E-03    0.474E-03
RMM:  21    -0.110231226219E+04   -0.88111E-06   -0.13196E-07   946   0.991E-04
  10 F= -.11093833E+04 E0= -.11093573E+04  d E =-.141446E-01  mag=    12.3147
 curvature:  -0.44 expect dE=-0.185E-01 dE for cont linesearch -0.269E-07
 trial: gam= 0.45355 g(F)=  0.421E-01 g(S)=  0.000E+00 ort = 0.125E-03 (trialstep = 0.358E+00)
 search vector abs. value=  0.948E-01
 bond charge predicted
       N       E                     dE             d eps       ncg     rms          rms(c)
DAV:   1    -0.110231349237E+04   -0.12311E-02   -0.37085E+00  1896   0.363E+00    0.697E-01
RMM:   2    -0.110233628404E+04   -0.22792E-01   -0.70087E-02  2204   0.605E-01    0.297E+00
RMM:   3    -0.110232394266E+04    0.12341E-01   -0.19681E-02  2274   0.293E-01    0.220E+00
RMM:   4    -0.110233473412E+04   -0.10791E-01   -0.11929E-02  2254   0.221E-01    0.360E+00
RMM:   5    -0.110232151635E+04    0.13218E-01   -0.94114E-03  2085   0.217E-01    0.179E+00
RMM:   6    -0.110232056702E+04    0.94933E-03   -0.47756E-03  1997   0.154E-01    0.314E-01
RMM:   7    -0.110232307946E+04   -0.25124E-02   -0.12469E-03  2097   0.755E-02    0.932E-01
RMM:   8    -0.110232217791E+04    0.90155E-03   -0.76284E-04  2121   0.602E-02    0.581E-01
RMM:   9    -0.110232226478E+04   -0.86872E-04   -0.66172E-04  2042   0.603E-02    0.343E-01
RMM:  10    -0.110232265747E+04   -0.39268E-03   -0.57425E-04  2083   0.494E-02    0.428E-01
RMM:  11    -0.110232255266E+04    0.10481E-03   -0.39172E-04  2093   0.441E-02    0.419E-01
RMM:  12    -0.110232242597E+04    0.12669E-03   -0.23358E-04  2010   0.356E-02    0.388E-01
RMM:  13    -0.110232231723E+04    0.10875E-03   -0.94859E-05  1891   0.204E-02    0.235E-01
RMM:  14    -0.110232236883E+04   -0.51609E-04   -0.48328E-05  1706   0.160E-02    0.107E-01
RMM:  15    -0.110232246490E+04   -0.96070E-04   -0.38023E-05  1703   0.143E-02    0.127E-01
RMM:  16    -0.110232247357E+04   -0.86700E-05   -0.23373E-05  1561   0.113E-02    0.129E-01
RMM:  17    -0.110232245964E+04    0.13933E-04   -0.84692E-06  1439   0.719E-03    0.716E-02
RMM:  18    -0.110232247200E+04   -0.12353E-04   -0.41551E-06  1319   0.504E-03    0.332E-02
RMM:  19    -0.110232248836E+04   -0.16368E-04   -0.27100E-06  1262   0.400E-03    0.175E-02
RMM:  20    -0.110232249851E+04   -0.10145E-04   -0.17746E-06  1229   0.340E-03    0.151E-02
RMM:  21    -0.110232250103E+04   -0.25210E-05   -0.82501E-07  1125   0.255E-03    0.102E-02
RMM:  22    -0.110232250470E+04   -0.36749E-05   -0.40922E-07  1054   0.158E-03    0.633E-03
RMM:  23    -0.110232250817E+04   -0.34636E-05   -0.36870E-07  1056   0.133E-03    0.636E-03
RMM:  24    -0.110232251029E+04   -0.21193E-05   -0.25934E-07  1020   0.115E-03    0.568E-03
RMM:  25    -0.110232251220E+04   -0.19176E-05   -0.18575E-07   978   0.890E-04    0.304E-03
RMM:  26    -0.110232251447E+04   -0.22688E-05   -0.13402E-07   918   0.728E-04    0.258E-03
RMM:  27    -0.110232251689E+04   -0.24147E-05   -0.12643E-07   879   0.621E-04    0.310E-03
RMM:  28    -0.110232251849E+04   -0.16066E-05   -0.11180E-07   848   0.638E-04    0.329E-03
RMM:  29    -0.110232252035E+04   -0.18578E-05   -0.11008E-07   858   0.577E-04    0.170E-03
RMM:  30    -0.110232252190E+04   -0.15515E-05   -0.96740E-08   826   0.531E-04    0.169E-03
RMM:  31    -0.110232252317E+04   -0.12667E-05   -0.90249E-08   805   0.475E-04    0.313E-03
RMM:  32    -0.110232252397E+04   -0.80427E-06   -0.75141E-08   778   0.454E-04
  11 F= -.11093938E+04 E0= -.11093678E+04  d E =-.105498E-01  mag=    12.3141
 trial-energy change:   -0.010550  1 .order   -0.010555   -0.015097   -0.006013
 step:   0.5957(harm=  0.5957)  dis= 0.00833  next Energy= -1109.395815 (dE=-0.125E-01)
 bond charge predicted
       N       E                     dE             d eps       ncg     rms          rms(c)
DAV:   1    -0.110232038968E+04    0.21335E-02   -0.16252E+00  1896   0.240E+00    0.460E-01
RMM:   2    -0.110233014243E+04   -0.97527E-02   -0.30294E-02  2215   0.398E-01    0.197E+00
RMM:   3    -0.110232468995E+04    0.54525E-02   -0.85240E-03  2278   0.191E-01    0.142E+00
RMM:   4    -0.110232921664E+04   -0.45267E-02   -0.51551E-03  2257   0.146E-01    0.227E+00
RMM:   5    -0.110232388808E+04    0.53286E-02   -0.39258E-03  2073   0.143E-01    0.139E+00
RMM:   6    -0.110232301727E+04    0.87081E-03   -0.22053E-03  1967   0.106E-01    0.235E-01
RMM:   7    -0.110232445790E+04   -0.14406E-02   -0.56580E-04  2028   0.518E-02    0.648E-01
RMM:   8    -0.110232400484E+04    0.45306E-03   -0.35240E-04  2070   0.412E-02    0.343E-01
RMM:   9    -0.110232418021E+04   -0.17538E-03   -0.29305E-04  2009   0.400E-02    0.191E-01
RMM:  10    -0.110232439160E+04   -0.21139E-03   -0.24320E-04  2031   0.322E-02    0.315E-01
RMM:  11    -0.110232428311E+04    0.10849E-03   -0.16127E-04  1995   0.288E-02    0.301E-01
RMM:  12    -0.110232421311E+04    0.70001E-04   -0.95677E-05  1855   0.228E-02    0.237E-01
RMM:  13    -0.110232419257E+04    0.20541E-04   -0.44102E-05  1700   0.139E-02    0.955E-02
RMM:  14    -0.110232426416E+04   -0.71596E-04   -0.27763E-05  1580   0.129E-02    0.988E-02
RMM:  15    -0.110232428808E+04   -0.23917E-04   -0.20036E-05  1550   0.109E-02    0.122E-01
RMM:  16    -0.110232426604E+04    0.22037E-04   -0.92736E-06  1379   0.721E-03    0.955E-02
RMM:  17    -0.110232426782E+04   -0.17771E-05   -0.31374E-06  1305   0.467E-03    0.461E-02
RMM:  18    -0.110232428415E+04   -0.16334E-04   -0.24066E-06  1259   0.385E-03    0.224E-02
RMM:  19    -0.110232429630E+04   -0.12148E-04   -0.15866E-06  1212   0.318E-03    0.153E-02
RMM:  20    -0.110232430103E+04   -0.47221E-05   -0.90699E-07  1120   0.257E-03    0.117E-02
RMM:  21    -0.110232430279E+04   -0.17669E-05   -0.46915E-07  1042   0.194E-03    0.796E-03
RMM:  22    -0.110232430441E+04   -0.16199E-05   -0.27016E-07  1016   0.126E-03    0.552E-03
RMM:  23    -0.110232430632E+04   -0.19090E-05   -0.19614E-07   985   0.111E-03    0.540E-03
RMM:  24    -0.110232430820E+04   -0.18752E-05   -0.13294E-07  1003   0.778E-04    0.354E-03
RMM:  25    -0.110232430972E+04   -0.15192E-05   -0.10595E-07   911   0.706E-04    0.230E-03
RMM:  26    -0.110232431082E+04   -0.11039E-05   -0.77372E-08   805   0.571E-04    0.245E-03
RMM:  27    -0.110232431154E+04   -0.72251E-06   -0.58702E-08   758   0.512E-04
  12 F= -.11093958E+04 E0= -.11093698E+04  d E =-.125267E-01  mag=    12.3138
 curvature:  -0.67 expect dE=-0.292E-01 dE for cont linesearch -0.933E-07
 trial: gam= 1.03757 g(F)=  0.436E-01 g(S)=  0.000E+00 ort =-0.115E-03 (trialstep = 0.265E+00)
 search vector abs. value=  0.145E+00
 bond charge predicted
       N       E                     dE             d eps       ncg     rms          rms(c)
DAV:   1    -0.110232438124E+04   -0.70423E-04   -0.32704E+00  1908   0.351E+00    0.622E-01
RMM:   2    -0.110234333140E+04   -0.18950E-01   -0.61769E-02  2182   0.556E-01    0.275E+00
RMM:   3    -0.110233307919E+04    0.10252E-01   -0.15569E-02  2261   0.268E-01    0.206E+00
RMM:   4    -0.110234014876E+04   -0.70696E-02   -0.96702E-03  2250   0.198E-01    0.310E+00
RMM:   5    -0.110233242749E+04    0.77213E-02   -0.76715E-03  2073   0.196E-01    0.168E+00
RMM:   6    -0.110232986790E+04    0.25596E-02   -0.33573E-03  2009   0.130E-01    0.356E-01
RMM:   7    -0.110233209639E+04   -0.22285E-02   -0.10125E-03  2090   0.668E-02    0.851E-01
RMM:   8    -0.110233183662E+04    0.25977E-03   -0.89024E-04  2108   0.631E-02    0.670E-01
RMM:   9    -0.110233161280E+04    0.22381E-03   -0.82935E-04  2075   0.674E-02    0.436E-01
RMM:  10    -0.110233189285E+04   -0.28005E-03   -0.59544E-04  2117   0.518E-02    0.449E-01
RMM:  11    -0.110233173779E+04    0.15506E-03   -0.38854E-04  2089   0.456E-02    0.344E-01
RMM:  12    -0.110233172359E+04    0.14198E-04   -0.21891E-04  1977   0.350E-02    0.298E-01
RMM:  13    -0.110233169117E+04    0.32416E-04   -0.83846E-05  1857   0.215E-02    0.206E-01
RMM:  14    -0.110233170932E+04   -0.18150E-04   -0.37923E-05  1667   0.147E-02    0.115E-01
RMM:  15    -0.110233176397E+04   -0.54650E-04   -0.22529E-05  1554   0.109E-02    0.724E-02
RMM:  16    -0.110233180465E+04   -0.40678E-04   -0.13362E-05  1492   0.879E-03    0.596E-02
RMM:  17    -0.110233181675E+04   -0.12097E-04   -0.70405E-06  1367   0.632E-03    0.522E-02
RMM:  18    -0.110233182364E+04   -0.68922E-05   -0.29508E-06  1260   0.429E-03    0.261E-02
RMM:  19    -0.110233183750E+04   -0.13856E-04   -0.14926E-06  1216   0.310E-03    0.105E-02
RMM:  20    -0.110233184944E+04   -0.11941E-04   -0.10112E-06  1153   0.245E-03    0.111E-02
RMM:  21    -0.110233186021E+04   -0.10774E-04   -0.73410E-07  1107   0.199E-03    0.864E-03
RMM:  22    -0.110233187199E+04   -0.11776E-04   -0.51695E-07  1068   0.162E-03    0.101E-02
RMM:  23    -0.110233188017E+04   -0.81859E-05   -0.39101E-07  1016   0.132E-03    0.770E-03
RMM:  24    -0.110233188914E+04   -0.89698E-05   -0.30669E-07  1009   0.105E-03    0.438E-03
RMM:  25    -0.110233189607E+04   -0.69291E-05   -0.25329E-07   977   0.921E-04    0.475E-03
RMM:  26    -0.110233190185E+04   -0.57820E-05   -0.19582E-07   938   0.769E-04    0.403E-03
RMM:  27    -0.110233190929E+04   -0.74377E-05   -0.19743E-07   890   0.660E-04    0.154E-03
RMM:  28    -0.110233191797E+04   -0.86814E-05   -0.22104E-07   898   0.647E-04    0.289E-03
RMM:  29    -0.110233192735E+04   -0.93788E-05   -0.29235E-07   949   0.682E-04    0.426E-03
RMM:  30    -0.110233193429E+04   -0.69358E-05   -0.28678E-07   926   0.693E-04    0.288E-03
RMM:  31    -0.110233194030E+04   -0.60140E-05   -0.31963E-07   922   0.670E-04    0.233E-03
RMM:  32    -0.110233194407E+04   -0.37712E-05   -0.26713E-07   921   0.687E-04    0.234E-03
RMM:  33    -0.110233194557E+04   -0.14997E-05   -0.19239E-07   846   0.592E-04    0.107E-03
RMM:  34    -0.110233194760E+04   -0.20290E-05   -0.17720E-07   800   0.544E-04    0.962E-04
RMM:  35    -0.110233194891E+04   -0.13059E-05   -0.15616E-07   814   0.545E-04    0.632E-04
RMM:  36    -0.110233194947E+04   -0.56362E-06   -0.11856E-07   750   0.488E-04
  13 F= -.11094037E+04 E0= -.11093779E+04  d E =-.790044E-02  mag=    12.3023
 trial-energy change:   -0.007900  1 .order   -0.007894   -0.011500   -0.004287
 step:   0.4220(harm=  0.4220)  dis= 0.00807  next Energy= -1109.404964 (dE=-0.917E-02)
 bond charge predicted
       N       E                     dE             d eps       ncg     rms          rms(c)
DAV:   1    -0.110233041629E+04    0.15326E-02   -0.11553E+00  1956   0.209E+00    0.369E-01
RMM:   2    -0.110233682660E+04   -0.64103E-02   -0.21535E-02  2183   0.328E-01    0.158E+00
RMM:   3    -0.110233340395E+04    0.34227E-02   -0.54685E-03  2262   0.158E-01    0.119E+00
RMM:   4    -0.110233595622E+04   -0.25523E-02   -0.32831E-03  2257   0.116E-01    0.190E+00
RMM:   5    -0.110233266623E+04    0.32900E-02   -0.27853E-03  2036   0.120E-01    0.107E+00
RMM:   6    -0.110233209976E+04    0.56646E-03   -0.12251E-03  1963   0.787E-02    0.205E-01
RMM:   7    -0.110233309127E+04   -0.99150E-03   -0.39204E-04  2004   0.424E-02    0.525E-01
RMM:   8    -0.110233290005E+04    0.19122E-03   -0.31983E-04  2085   0.380E-02    0.353E-01
RMM:   9    -0.110233294210E+04   -0.42055E-04   -0.29359E-04  2014   0.399E-02    0.249E-01
RMM:  10    -0.110233302622E+04   -0.84116E-04   -0.21197E-04  2066   0.306E-02    0.266E-01
RMM:  11    -0.110233297487E+04    0.51349E-04   -0.13374E-04  1981   0.267E-02    0.216E-01
RMM:  12    -0.110233295708E+04    0.17791E-04   -0.73847E-05  1808   0.202E-02    0.172E-01
RMM:  13    -0.110233295110E+04    0.59809E-05   -0.30588E-05  1634   0.130E-02    0.101E-01
RMM:  14    -0.110233297474E+04   -0.23643E-04   -0.14899E-05  1463   0.942E-03    0.547E-02
RMM:  15    -0.110233300365E+04   -0.28912E-04   -0.95644E-06  1414   0.730E-03    0.593E-02
RMM:  16    -0.110233301120E+04   -0.75494E-05   -0.46688E-06  1325   0.552E-03    0.469E-02
RMM:  17    -0.110233301343E+04   -0.22283E-05   -0.20775E-06  1207   0.367E-03    0.349E-02
RMM:  18    -0.110233301821E+04   -0.47756E-05   -0.96822E-07  1140   0.249E-03    0.154E-02
RMM:  19    -0.110233302643E+04   -0.82278E-05   -0.67334E-07  1094   0.196E-03    0.943E-03
RMM:  20    -0.110233303160E+04   -0.51691E-05   -0.49259E-07  1041   0.177E-03    0.946E-03
RMM:  21    -0.110233303522E+04   -0.36126E-05   -0.33032E-07  1034   0.141E-03    0.452E-03
RMM:  22    -0.110233303943E+04   -0.42110E-05   -0.20986E-07   987   0.108E-03    0.555E-03
RMM:  23    -0.110233304310E+04   -0.36735E-05   -0.16020E-07   950   0.864E-04    0.500E-03
RMM:  24    -0.110233304715E+04   -0.40531E-05   -0.13536E-07   906   0.707E-04    0.263E-03
RMM:  25    -0.110233305020E+04   -0.30451E-05   -0.10289E-07   785   0.579E-04    0.205E-03
RMM:  26    -0.110233305198E+04   -0.17800E-05   -0.72794E-08   736   0.499E-04    0.164E-03
RMM:  27    -0.110233305470E+04   -0.27206E-05   -0.71121E-08   724   0.442E-04    0.102E-03
RMM:  28    -0.110233305807E+04   -0.33727E-05   -0.86965E-08   783   0.454E-04    0.973E-04
RMM:  29    -0.110233306142E+04   -0.33449E-05   -0.10701E-07   819   0.472E-04    0.112E-03
RMM:  30    -0.110233306381E+04   -0.23915E-05   -0.10466E-07   803   0.476E-04    0.909E-04
RMM:  31    -0.110233306585E+04   -0.20370E-05   -0.11274E-07   800   0.462E-04    0.109E-03
RMM:  32    -0.110233306744E+04   -0.15923E-05   -0.11007E-07   795   0.470E-04    0.931E-04
RMM:  33    -0.110233306822E+04   -0.78308E-06   -0.87444E-08   737   0.444E-04
  14 F= -.11094050E+04 E0= -.11093793E+04  d E =-.917458E-02  mag=    12.2956
 curvature:  -0.71 expect dE=-0.457E-01 dE for cont linesearch -0.404E-08
 trial: gam= 1.47771 g(F)=  0.648E-01 g(S)=  0.000E+00 ort = 0.288E-04 (trialstep = 0.113E+00)
 search vector abs. value=  0.382E+00
 bond charge predicted
       N       E                     dE             d eps       ncg     rms          rms(c)
DAV:   1    -0.110233439784E+04   -0.13304E-02   -0.15528E+00  1920   0.242E+00    0.428E-01
RMM:   2    -0.110234255860E+04   -0.81608E-02   -0.29446E-02  2182   0.375E-01    0.173E+00
RMM:   3    -0.110233845735E+04    0.41012E-02   -0.70750E-03  2257   0.179E-01    0.127E+00
RMM:   4    -0.110234193292E+04   -0.34756E-02   -0.38872E-03  2276   0.125E-01    0.222E+00
RMM:   5    -0.110233652710E+04    0.54058E-02   -0.35062E-03  2032   0.136E-01    0.105E+00
RMM:   6    -0.110233672710E+04   -0.20000E-03   -0.13577E-03  1962   0.826E-02    0.233E-01
RMM:   7    -0.110233832186E+04   -0.15948E-02   -0.68057E-04  2047   0.559E-02    0.849E-01
RMM:   8    -0.110233752855E+04    0.79331E-03   -0.65543E-04  2087   0.550E-02    0.517E-01
RMM:   9    -0.110233764572E+04   -0.11717E-03   -0.62159E-04  2040   0.585E-02    0.376E-01
RMM:  10    -0.110233778035E+04   -0.13463E-03   -0.39710E-04  2076   0.418E-02    0.378E-01
RMM:  11    -0.110233768941E+04    0.90948E-04   -0.22787E-04  2010   0.339E-02    0.265E-01
RMM:  12    -0.110233768645E+04    0.29507E-05   -0.11662E-04  1883   0.257E-02    0.184E-01
RMM:  13    -0.110233771178E+04   -0.25324E-04   -0.47266E-05  1736   0.158E-02    0.136E-01
RMM:  14    -0.110233772678E+04   -0.15001E-04   -0.20135E-05  1515   0.107E-02    0.677E-02
RMM:  15    -0.110233775907E+04   -0.32285E-04   -0.12606E-05  1452   0.830E-03    0.618E-02
RMM:  16    -0.110233777474E+04   -0.15678E-04   -0.64831E-06  1351   0.611E-03    0.534E-02
RMM:  17    -0.110233777920E+04   -0.44549E-05   -0.33440E-06  1258   0.459E-03    0.452E-02
RMM:  18    -0.110233778472E+04   -0.55240E-05   -0.13158E-06  1190   0.291E-03    0.190E-02
RMM:  19    -0.110233779526E+04   -0.10540E-04   -0.91454E-07  1117   0.230E-03    0.100E-02
RMM:  20    -0.110233780298E+04   -0.77184E-05   -0.73905E-07  1067   0.212E-03    0.137E-02
RMM:  21    -0.110233780730E+04   -0.43203E-05   -0.47506E-07  1067   0.164E-03    0.900E-03
RMM:  22    -0.110233781192E+04   -0.46201E-05   -0.29435E-07  1006   0.126E-03    0.553E-03
RMM:  23    -0.110233781774E+04   -0.58179E-05   -0.24088E-07   978   0.996E-04    0.619E-03
RMM:  24    -0.110233782392E+04   -0.61829E-05   -0.22688E-07   965   0.833E-04    0.455E-03
RMM:  25    -0.110233782820E+04   -0.42759E-05   -0.16558E-07   875   0.703E-04    0.330E-03
RMM:  26    -0.110233783102E+04   -0.28184E-05   -0.13043E-07   786   0.584E-04    0.249E-03
RMM:  27    -0.110233783465E+04   -0.36348E-05   -0.12319E-07   787   0.540E-04    0.135E-03
RMM:  28    -0.110233783975E+04   -0.50996E-05   -0.16928E-07   891   0.553E-04    0.102E-03
RMM:  29    -0.110233784388E+04   -0.41243E-05   -0.17558E-07   901   0.567E-04    0.113E-03
RMM:  30    -0.110233784713E+04   -0.32585E-05   -0.16564E-07   833   0.529E-04    0.136E-03
RMM:  31    -0.110233784993E+04   -0.27975E-05   -0.16921E-07   829   0.530E-04    0.106E-03
RMM:  32    -0.110233785243E+04   -0.24960E-05   -0.17833E-07   840   0.520E-04    0.749E-04
RMM:  33    -0.110233785398E+04   -0.15564E-05   -0.14773E-07   827   0.516E-04    0.812E-04
RMM:  34    -0.110233785480E+04   -0.82020E-06   -0.11104E-07   741   0.468E-04
  15 F= -.11094100E+04 E0= -.11093844E+04  d E =-.497939E-02  mag=    12.2885
 trial-energy change:   -0.004979  1 .order   -0.004980   -0.007300   -0.002661
 step:   0.1772(harm=  0.1772)  dis= 0.00557  next Energy= -1109.410714 (dE=-0.574E-02)
 bond charge predicted
       N       E                     dE             d eps       ncg     rms          rms(c)
DAV:   1    -0.110233737512E+04    0.47886E-03   -0.51061E-01  1956   0.139E+00    0.245E-01
RMM:   2    -0.110233996953E+04   -0.25944E-02   -0.96304E-03  2186   0.214E-01    0.968E-01
RMM:   3    -0.110233863932E+04    0.13302E-02   -0.23225E-03  2254   0.102E-01    0.689E-01
RMM:   4    -0.110233986247E+04   -0.12232E-02   -0.12154E-03  2242   0.706E-02    0.129E+00
RMM:   5    -0.110233775429E+04    0.21082E-02   -0.11351E-03  2002   0.784E-02    0.616E-01
RMM:   6    -0.110233805007E+04   -0.29578E-03   -0.45101E-04  1898   0.483E-02    0.128E-01
RMM:   7    -0.110233862026E+04   -0.57019E-03   -0.23234E-04  1983   0.334E-02    0.451E-01
RMM:   8    -0.110233837572E+04    0.24454E-03   -0.20456E-04  2042   0.306E-02    0.293E-01
RMM:   9    -0.110233840588E+04   -0.30155E-04   -0.19896E-04  1978   0.329E-02    0.195E-01
RMM:  10    -0.110233847312E+04   -0.67239E-04   -0.13361E-04  1923   0.242E-02    0.213E-01
RMM:  11    -0.110233843870E+04    0.34414E-04   -0.75978E-05  1787   0.194E-02    0.158E-01
RMM:  12    -0.110233843368E+04    0.50217E-05   -0.37692E-05  1666   0.146E-02    0.108E-01
RMM:  13    -0.110233844204E+04   -0.83581E-05   -0.14436E-05  1474   0.886E-03    0.709E-02
RMM:  14    -0.110233845396E+04   -0.11921E-04   -0.65349E-06  1353   0.641E-03    0.286E-02
RMM:  15    -0.110233847213E+04   -0.18166E-04   -0.44417E-06  1309   0.502E-03    0.382E-02
RMM:  16    -0.110233847660E+04   -0.44728E-05   -0.22022E-06  1226   0.379E-03    0.353E-02
RMM:  17    -0.110233847643E+04    0.17240E-06   -0.10171E-06  1151   0.265E-03
  16 F= -.11094107E+04 E0= -.11093853E+04  d E =-.571122E-02  mag=    12.2860
 curvature:  -0.52 expect dE=-0.200E-01 dE for cont linesearch -0.240E-08
 trial: gam= 0.59300 g(F)=  0.383E-01 g(S)=  0.000E+00 ort =-0.419E-04 (trialstep = 0.126E+00)
 search vector abs. value=  0.173E+00
 bond charge predicted
       N       E                     dE             d eps       ncg     rms          rms(c)
DAV:   1    -0.110234065202E+04   -0.21754E-02   -0.84517E-01  1902   0.178E+00    0.309E-01
RMM:   2    -0.110234501974E+04   -0.43677E-02   -0.14984E-02  2222   0.270E-01    0.127E+00
RMM:   3    -0.110234279065E+04    0.22291E-02   -0.38109E-03  2258   0.131E-01    0.973E-01
RMM:   4    -0.110234494017E+04   -0.21495E-02   -0.22535E-03  2281   0.928E-02    0.177E+00
RMM:   5    -0.110234135518E+04    0.35850E-02   -0.21662E-03  2012   0.106E-01    0.777E-01
RMM:   6    -0.110234166316E+04   -0.30798E-03   -0.68928E-04  1940   0.598E-02    0.162E-01
RMM:   7    -0.110234246829E+04   -0.80513E-03   -0.27879E-04  2037   0.381E-02    0.335E-01
RMM:   8    -0.110234246985E+04   -0.15571E-05   -0.16998E-04  2062   0.298E-02    0.332E-01
RMM:   9    -0.110234235020E+04    0.11965E-03   -0.13705E-04  1938   0.270E-02    0.233E-01
RMM:  10    -0.110234246574E+04   -0.11554E-03   -0.10923E-04  1929   0.223E-02    0.249E-01
RMM:  11    -0.110234241466E+04    0.51078E-04   -0.67917E-05  1780   0.176E-02    0.137E-01
RMM:  12    -0.110234246125E+04   -0.46581E-04   -0.43010E-05  1718   0.150E-02    0.947E-02
RMM:  13    -0.110234249991E+04   -0.38661E-04   -0.21482E-05  1563   0.113E-02    0.113E-01
RMM:  14    -0.110234249085E+04    0.90578E-05   -0.12378E-05  1450   0.872E-03    0.973E-02
RMM:  15    -0.110234248864E+04    0.22120E-05   -0.56921E-06  1344   0.588E-03    0.604E-02
RMM:  16    -0.110234250277E+04   -0.14131E-04   -0.33290E-06  1292   0.464E-03    0.255E-02
RMM:  17    -0.110234251948E+04   -0.16715E-04   -0.17990E-06  1243   0.348E-03    0.194E-02
RMM:  18    -0.110234252691E+04   -0.74301E-05   -0.99574E-07  1143   0.263E-03    0.178E-02
RMM:  19    -0.110234252999E+04   -0.30729E-05   -0.54484E-07  1093   0.202E-03    0.806E-03
RMM:  20    -0.110234253382E+04   -0.38314E-05   -0.26823E-07  1017   0.128E-03    0.542E-03
RMM:  21    -0.110234253635E+04   -0.25283E-05   -0.16628E-07   968   0.932E-04    0.378E-03
RMM:  22    -0.110234253869E+04   -0.23476E-05   -0.12572E-07   887   0.755E-04    0.448E-03
RMM:  23    -0.110234254096E+04   -0.22678E-05   -0.10437E-07   869   0.669E-04    0.519E-03
RMM:  24    -0.110234254283E+04   -0.18704E-05   -0.86239E-08   816   0.574E-04    0.443E-03
RMM:  25    -0.110234254430E+04   -0.14701E-05   -0.66918E-08   731   0.490E-04    0.260E-03
RMM:  26    -0.110234254551E+04   -0.12081E-05   -0.56795E-08   736   0.464E-04    0.188E-03
RMM:  27    -0.110234254705E+04   -0.15375E-05   -0.57608E-08   760   0.437E-04    0.219E-03
RMM:  28    -0.110234254837E+04   -0.13217E-05   -0.54683E-08   758   0.420E-04    0.194E-03
RMM:  29    -0.110234254960E+04   -0.12288E-05   -0.51080E-08   647   0.389E-04    0.679E-04
RMM:  30    -0.110234255089E+04   -0.12963E-05   -0.61408E-08   695   0.399E-04    0.109E-03
RMM:  31    -0.110234255183E+04   -0.93166E-06   -0.65137E-08   735   0.407E-04
  17 F= -.11094149E+04 E0= -.11093894E+04  d E =-.418458E-02  mag=    12.2837
 trial-energy change:   -0.004185  1 .order   -0.004154   -0.004805   -0.003502
 step:   0.3642(harm=  0.4629)  dis= 0.00765  next Energy= -1109.418409 (dE=-0.773E-02)
 bond charge predicted
       N       E                     dE             d eps       ncg     rms          rms(c)
DAV:   1    -0.110233982326E+04    0.27276E-02   -0.30548E+00  1896   0.339E+00    0.585E-01
RMM:   2    -0.110235554121E+04   -0.15718E-01   -0.54345E-02  2213   0.515E-01    0.235E+00
RMM:   3    -0.110234803392E+04    0.75073E-02   -0.13736E-02  2263   0.247E-01    0.168E+00
RMM:   4    -0.110235627414E+04   -0.82402E-02   -0.78162E-03  2286   0.177E-01    0.322E+00
RMM:   5    -0.110234372059E+04    0.12554E-01   -0.70535E-03  2060   0.191E-01    0.134E+00
RMM:   6    -0.110234493839E+04   -0.12178E-02   -0.27606E-03  1983   0.118E-01    0.280E-01
RMM:   7    -0.110234688999E+04   -0.19516E-02   -0.86145E-04  2088   0.647E-02    0.813E-01
RMM:   8    -0.110234633061E+04    0.55938E-03   -0.67249E-04  2094   0.559E-02    0.544E-01
RMM:   9    -0.110234629457E+04    0.36036E-04   -0.52940E-04  2066   0.537E-02    0.338E-01
RMM:  10    -0.110234667287E+04   -0.37830E-03   -0.38119E-04  2105   0.402E-02    0.428E-01
RMM:  11    -0.110234643703E+04    0.23584E-03   -0.26909E-04  2047   0.360E-02    0.228E-01
RMM:  12    -0.110234654706E+04   -0.11002E-03   -0.14234E-04  1947   0.271E-02    0.240E-01
RMM:  13    -0.110234652032E+04    0.26732E-04   -0.63412E-05  1777   0.183E-02    0.195E-01
RMM:  14    -0.110234651822E+04    0.21012E-05   -0.32730E-05  1616   0.124E-02    0.129E-01
RMM:  15    -0.110234654416E+04   -0.25934E-04   -0.17019E-05  1485   0.975E-03    0.778E-02
RMM:  16    -0.110234657306E+04   -0.28902E-04   -0.11089E-05  1444   0.809E-03    0.564E-02
RMM:  17    -0.110234659033E+04   -0.17269E-04   -0.48592E-06  1349   0.582E-03    0.314E-02
RMM:  18    -0.110234660073E+04   -0.10406E-04   -0.22880E-06  1261   0.378E-03    0.152E-02
RMM:  19    -0.110234660816E+04   -0.74254E-05   -0.13118E-06  1191   0.302E-03    0.139E-02
RMM:  20    -0.110234661373E+04   -0.55704E-05   -0.71473E-07  1124   0.202E-03    0.946E-03
RMM:  21    -0.110234661827E+04   -0.45354E-05   -0.48384E-07  1071   0.179E-03    0.126E-02
RMM:  22    -0.110234662193E+04   -0.36621E-05   -0.36863E-07  1046   0.143E-03    0.146E-02
RMM:  23    -0.110234662463E+04   -0.27020E-05   -0.24260E-07  1006   0.115E-03    0.111E-02
RMM:  24    -0.110234662795E+04   -0.33231E-05   -0.17172E-07   962   0.838E-04    0.571E-03
RMM:  25    -0.110234663119E+04   -0.32344E-05   -0.14417E-07   895   0.764E-04    0.365E-03
RMM:  26    -0.110234663348E+04   -0.22963E-05   -0.12207E-07   911   0.704E-04    0.523E-03
RMM:  27    -0.110234663531E+04   -0.18223E-05   -0.96724E-08   871   0.624E-04    0.449E-03
RMM:  28    -0.110234663774E+04   -0.24336E-05   -0.89542E-08   792   0.511E-04    0.213E-03
RMM:  29    -0.110234664038E+04   -0.26383E-05   -0.96824E-08   775   0.493E-04    0.209E-03
RMM:  30    -0.110234664270E+04   -0.23171E-05   -0.11235E-07   844   0.498E-04    0.362E-03
RMM:  31    -0.110234664418E+04   -0.14857E-05   -0.96734E-08   845   0.488E-04    0.308E-03
RMM:  32    -0.110234664534E+04   -0.11626E-05   -0.84248E-08   743   0.437E-04    0.113E-03
RMM:  33    -0.110234664619E+04   -0.84828E-06   -0.69707E-08   717   0.429E-04
  18 F= -.11094192E+04 E0= -.11093938E+04  d E =-.848396E-02  mag=    12.2823
 curvature:  -0.96 expect dE=-0.154E-01 dE for cont linesearch -0.365E-03
 ZBRENT: extrapolating
 opt :   0.4623  next Energy= -1109.419564 (dE=-0.888E-02)
 bond charge predicted
       N       E                     dE             d eps       ncg     rms          rms(c)
DAV:   1    -0.110234581910E+04    0.82624E-03   -0.51575E-01  1944   0.139E+00    0.240E-01
RMM:   2    -0.110234835747E+04   -0.25384E-02   -0.90757E-03  2222   0.210E-01    0.944E-01
RMM:   3    -0.110234710363E+04    0.12538E-02   -0.23086E-03  2263   0.990E-02    0.628E-01
RMM:   4    -0.110234849066E+04   -0.13870E-02   -0.12159E-03  2255   0.716E-02    0.123E+00
RMM:   5    -0.110234615387E+04    0.23368E-02   -0.10385E-03  2017   0.765E-02    0.580E-01
RMM:   6    -0.110234655901E+04   -0.40514E-03   -0.41490E-04  1894   0.470E-02    0.113E-01
RMM:   7    -0.110234694930E+04   -0.39029E-03   -0.14565E-04  1927   0.271E-02    0.301E-01
RMM:   8    -0.110234686523E+04    0.84074E-04   -0.10688E-04  1945   0.216E-02    0.214E-01
RMM:   9    -0.110234686934E+04   -0.41138E-05   -0.86673E-05  1920   0.216E-02    0.914E-02
RMM:  10    -0.110234696865E+04   -0.99308E-04   -0.69752E-05  1824   0.167E-02    0.179E-01
RMM:  11    -0.110234691214E+04    0.56506E-04   -0.48170E-05  1724   0.153E-02    0.101E-01
RMM:  12    -0.110234692169E+04   -0.95492E-05   -0.23376E-05  1520   0.109E-02    0.769E-02
RMM:  13    -0.110234692587E+04   -0.41793E-05   -0.86512E-06  1396   0.690E-03    0.413E-02
RMM:  14    -0.110234693996E+04   -0.14088E-04   -0.56784E-06  1343   0.572E-03    0.390E-02
RMM:  15    -0.110234694450E+04   -0.45443E-05   -0.33786E-06  1282   0.446E-03    0.424E-02
RMM:  16    -0.110234694244E+04    0.20628E-05   -0.16038E-06  1204   0.327E-03    0.305E-02
RMM:  17    -0.110234694464E+04   -0.22016E-05   -0.55441E-07  1087   0.209E-03    0.139E-02
RMM:  18    -0.110234694888E+04   -0.42433E-05   -0.37669E-07  1034   0.150E-03    0.899E-03
RMM:  19    -0.110234695153E+04   -0.26492E-05   -0.28792E-07  1008   0.137E-03    0.887E-03
RMM:  20    -0.110234695289E+04   -0.13559E-05   -0.17448E-07  1010   0.100E-03    0.389E-03
RMM:  21    -0.110234695404E+04   -0.11519E-05   -0.11611E-07   953   0.869E-04    0.375E-03
RMM:  22    -0.110234695498E+04   -0.94304E-06   -0.76529E-08   856   0.648E-04
  19 F= -.11094196E+04 E0= -.11093942E+04  d E =-.887600E-02  mag=    12.2817
 curvature:  -1.04 expect dE=-0.242E-01 dE for cont linesearch -0.963E-08
 trial: gam= 0.60577 g(F)=  0.232E-01 g(S)=  0.000E+00 ort =-0.400E-04 (trialstep = 0.193E+00)
 search vector abs. value=  0.866E-01
 bond charge predicted
       N       E                     dE             d eps       ncg     rms          rms(c)
DAV:   1    -0.110234839116E+04   -0.14371E-02   -0.98010E-01  1896   0.192E+00    0.334E-01
RMM:   2    -0.110235475050E+04   -0.63593E-02   -0.18236E-02  2217   0.294E-01    0.188E+00
RMM:   3    -0.110234984899E+04    0.49015E-02   -0.43633E-03  2218   0.145E-01    0.130E+00
RMM:   4    -0.110235171035E+04   -0.18614E-02   -0.37838E-03  2192   0.129E-01    0.122E+00
RMM:   5    -0.110235173991E+04   -0.29558E-04   -0.18341E-03  2058   0.951E-02    0.106E+00
RMM:   6    -0.110234972679E+04    0.20131E-02   -0.87304E-04  2013   0.649E-02    0.154E-01
RMM:   7    -0.110235055395E+04   -0.82716E-03   -0.31000E-04  1979   0.382E-02    0.462E-01
RMM:   8    -0.110235031463E+04    0.23932E-03   -0.22491E-04  2055   0.321E-02    0.223E-01
RMM:   9    -0.110235048858E+04   -0.17395E-03   -0.17491E-04  1984   0.308E-02    0.221E-01
RMM:  10    -0.110235049312E+04   -0.45411E-05   -0.13105E-04  1921   0.235E-02    0.177E-01
RMM:  11    -0.110235053590E+04   -0.42776E-04   -0.85993E-05  1816   0.193E-02    0.194E-01
RMM:  12    -0.110235047750E+04    0.58400E-04   -0.53058E-05  1727   0.159E-02    0.121E-01
RMM:  13    -0.110235049895E+04   -0.21454E-04   -0.15711E-05  1488   0.957E-03    0.716E-02
RMM:  14    -0.110235051490E+04   -0.15942E-04   -0.99933E-06  1396   0.762E-03    0.495E-02
RMM:  15    -0.110235052722E+04   -0.12327E-04   -0.46716E-06  1322   0.537E-03    0.390E-02
RMM:  16    -0.110235053555E+04   -0.83286E-05   -0.31742E-06  1268   0.443E-03    0.398E-02
RMM:  17    -0.110235053643E+04   -0.87630E-06   -0.14983E-06  1189   0.320E-03
  20 F= -.11094232E+04 E0= -.11093980E+04  d E =-.362320E-02  mag=    12.2796
 trial-energy change:   -0.003623  1 .order   -0.003642   -0.004475   -0.002809
 step:   0.6081(harm=  0.5182)  dis= 0.00867  next Energy= -1109.426015 (dE=-0.646E-02)
 bond charge predicted
       N       E                     dE             d eps       ncg     rms          rms(c)
DAV:   1    -0.110234247699E+04    0.80586E-02   -0.45412E+00  1896   0.414E+00    0.722E-01
RMM:   2    -0.110237250463E+04   -0.30028E-01   -0.85877E-02  2213   0.638E-01    0.397E+00
RMM:   3    -0.110235160173E+04    0.20903E-01   -0.20659E-02  2221   0.314E-01    0.262E+00
RMM:   4    -0.110236038171E+04   -0.87800E-02   -0.16529E-02  2219   0.267E-01    0.289E+00
RMM:   5    -0.110235771152E+04    0.26702E-02   -0.88914E-03  2080   0.208E-01    0.201E+00
RMM:   6    -0.110234998625E+04    0.77253E-02   -0.39792E-03  2081   0.138E-01    0.370E-01
RMM:   7    -0.110235280104E+04   -0.28148E-02   -0.12310E-03  2085   0.757E-02    0.958E-01
RMM:   8    -0.110235207749E+04    0.72355E-03   -0.10660E-03  2105   0.703E-02    0.593E-01
RMM:   9    -0.110235243558E+04   -0.35809E-03   -0.77449E-04  2078   0.643E-02    0.533E-01
RMM:  10    -0.110235244303E+04   -0.74525E-05   -0.65559E-04  2101   0.494E-02    0.386E-01
RMM:  11    -0.110235260273E+04   -0.15970E-03   -0.43709E-04  2071   0.448E-02    0.371E-01
RMM:  12    -0.110235247374E+04    0.12899E-03   -0.27572E-04  2014   0.380E-02    0.348E-01
RMM:  13    -0.110235243597E+04    0.37770E-04   -0.10986E-04  1899   0.239E-02    0.302E-01
RMM:  14    -0.110235239987E+04    0.36100E-04   -0.47030E-05  1728   0.149E-02    0.197E-01
RMM:  15    -0.110235245324E+04   -0.53375E-04   -0.18992E-05  1551   0.101E-02    0.513E-02
RMM:  16    -0.110235255254E+04   -0.99294E-04   -0.21245E-05  1562   0.105E-02    0.732E-02
RMM:  17    -0.110235257510E+04   -0.22566E-04   -0.12134E-05  1446   0.829E-03    0.697E-02
RMM:  18    -0.110235258259E+04   -0.74848E-05   -0.44248E-06  1346   0.527E-03    0.499E-02
RMM:  19    -0.110235259043E+04   -0.78414E-05   -0.18840E-06  1239   0.363E-03    0.369E-02
RMM:  20    -0.110235260186E+04   -0.11433E-04   -0.11401E-06  1187   0.258E-03    0.266E-02
RMM:  21    -0.110235261391E+04   -0.12052E-04   -0.88788E-07  1132   0.223E-03    0.198E-02
RMM:  22    -0.110235262798E+04   -0.14067E-04   -0.73638E-07  1113   0.177E-03    0.143E-02
RMM:  23    -0.110235263719E+04   -0.92061E-05   -0.58027E-07  1087   0.166E-03    0.849E-03
RMM:  24    -0.110235264547E+04   -0.82775E-05   -0.47859E-07  1063   0.149E-03    0.512E-03
RMM:  25    -0.110235265360E+04   -0.81312E-05   -0.39976E-07  1039   0.124E-03    0.713E-03
RMM:  26    -0.110235266178E+04   -0.81856E-05   -0.35927E-07  1020   0.105E-03    0.882E-03
RMM:  27    -0.110235266606E+04   -0.42819E-05   -0.26554E-07   968   0.973E-04    0.686E-03
RMM:  28    -0.110235267400E+04   -0.79354E-05   -0.30675E-07   939   0.767E-04    0.268E-03
RMM:  29    -0.110235268198E+04   -0.79775E-05   -0.34530E-07   973   0.821E-04    0.653E-03
RMM:  30    -0.110235268597E+04   -0.39895E-05   -0.27419E-07   957   0.732E-04    0.412E-03
RMM:  31    -0.110235268916E+04   -0.31894E-05   -0.20571E-07   838   0.637E-04    0.157E-03
RMM:  32    -0.110235269210E+04   -0.29392E-05   -0.18194E-07   820   0.586E-04    0.323E-03
RMM:  33    -0.110235269372E+04   -0.16288E-05   -0.14357E-07   853   0.553E-04    0.257E-03
RMM:  34    -0.110235269527E+04   -0.15468E-05   -0.12146E-07   736   0.478E-04    0.598E-04
RMM:  35    -0.110235269672E+04   -0.14479E-05   -0.11009E-07   720   0.476E-04    0.120E-03
RMM:  36    -0.110235269789E+04   -0.11687E-05   -0.10970E-07   762   0.450E-04    0.124E-03
RMM:  37    -0.110235269865E+04   -0.75877E-06   -0.90946E-08   754   0.451E-04
  21 F= -.11094254E+04 E0= -.11094003E+04  d E =-.586917E-02  mag=    12.2709
 curvature:  -0.89 expect dE=-0.311E-01 dE for cont linesearch -0.159E-03
 trial: gam= 1.66710 g(F)=  0.349E-01 g(S)=  0.000E+00 ort =-0.393E-02 (trialstep = 0.910E-01)
 search vector abs. value=  0.262E+00
 bond charge predicted
       N       E                     dE             d eps       ncg     rms          rms(c)
DAV:   1    -0.110235323894E+04   -0.54105E-03   -0.65392E-01  1962   0.159E+00    0.264E-01
RMM:   2    -0.110235697783E+04   -0.37389E-02   -0.12040E-02  2211   0.236E-01    0.141E+00
RMM:   3    -0.110235428944E+04    0.26884E-02   -0.27174E-03  2215   0.114E-01    0.105E+00
RMM:   4    -0.110235513807E+04   -0.84863E-03   -0.22550E-03  2172   0.995E-02    0.898E-01
RMM:   5    -0.110235515935E+04   -0.21277E-04   -0.10326E-03  2034   0.731E-02    0.753E-01
RMM:   6    -0.110235416960E+04    0.98975E-03   -0.42050E-04  1962   0.458E-02    0.100E-01
RMM:   7    -0.110235469394E+04   -0.52434E-03   -0.21595E-04  2022   0.329E-02    0.348E-01
RMM:   8    -0.110235453540E+04    0.15854E-03   -0.15071E-04  2001   0.264E-02    0.233E-01
RMM:   9    -0.110235462507E+04   -0.89664E-04   -0.16271E-04  1969   0.294E-02    0.205E-01
RMM:  10    -0.110235462020E+04    0.48718E-05   -0.10401E-04  1842   0.223E-02    0.168E-01
RMM:  11    -0.110235462400E+04   -0.38055E-05   -0.55741E-05  1722   0.162E-02    0.156E-01
RMM:  12    -0.110235459820E+04    0.25800E-04   -0.27768E-05  1548   0.115E-02    0.107E-01
RMM:  13    -0.110235460850E+04   -0.10294E-04   -0.13775E-05  1457   0.835E-03    0.611E-02
RMM:  14    -0.110235462686E+04   -0.18361E-04   -0.71040E-06  1378   0.650E-03    0.267E-02
RMM:  15    -0.110235464400E+04   -0.17145E-04   -0.39290E-06  1309   0.484E-03    0.357E-02
RMM:  16    -0.110235464682E+04   -0.28158E-05   -0.22580E-06  1233   0.382E-03    0.395E-02
RMM:  17    -0.110235464633E+04    0.49221E-06   -0.10276E-06  1149   0.274E-03
  22 F= -.11094274E+04 E0= -.11094024E+04  d E =-.197870E-02  mag=    12.2682
 trial-energy change:   -0.001979  1 .order   -0.002003   -0.002578   -0.001428
 step:   0.2741(harm=  0.2040)  dis= 0.00648  next Energy= -1109.428643 (dE=-0.322E-02)
 bond charge predicted
       N       E                     dE             d eps       ncg     rms          rms(c)
DAV:   1    -0.110234932283E+04    0.53240E-02   -0.26438E+00  1896   0.319E+00    0.533E-01
RMM:   2    -0.110236541345E+04   -0.16091E-01   -0.49270E-02  2208   0.479E-01    0.295E+00
RMM:   3    -0.110235415302E+04    0.11260E-01   -0.11342E-02  2221   0.233E-01    0.203E+00
RMM:   4    -0.110235797948E+04   -0.38265E-02   -0.91072E-03  2209   0.200E-01    0.183E+00
RMM:   5    -0.110235742320E+04    0.55628E-03   -0.41489E-03  2062   0.145E-01    0.143E+00
RMM:   6    -0.110235363374E+04    0.37895E-02   -0.16968E-03  2068   0.903E-02    0.212E-01
RMM:   7    -0.110235562094E+04   -0.19872E-02   -0.86399E-04  2071   0.634E-02    0.946E-01
RMM:   8    -0.110235435999E+04    0.12610E-02   -0.76378E-04  2094   0.588E-02    0.417E-01
RMM:   9    -0.110235513653E+04   -0.77654E-03   -0.72934E-04  2034   0.617E-02    0.451E-01
RMM:  10    -0.110235504150E+04    0.95031E-04   -0.44898E-04  2031   0.418E-02    0.346E-01
RMM:  11    -0.110235500857E+04    0.32927E-04   -0.24371E-04  2009   0.353E-02    0.289E-01
RMM:  12    -0.110235493370E+04    0.74874E-04   -0.11899E-04  1900   0.250E-02    0.232E-01
RMM:  13    -0.110235495341E+04   -0.19714E-04   -0.62721E-05  1768   0.181E-02    0.160E-01
RMM:  14    -0.110235499188E+04   -0.38464E-04   -0.26772E-05  1570   0.125E-02    0.695E-02
RMM:  15    -0.110235504833E+04   -0.56455E-04   -0.14198E-05  1492   0.939E-03    0.641E-02
RMM:  16    -0.110235507437E+04   -0.26040E-04   -0.81087E-06  1422   0.702E-03    0.647E-02
RMM:  17    -0.110235507811E+04   -0.37346E-05   -0.37529E-06  1303   0.497E-03    0.499E-02
RMM:  18    -0.110235508715E+04   -0.90426E-05   -0.14919E-06  1211   0.326E-03    0.225E-02
RMM:  19    -0.110235509831E+04   -0.11159E-04   -0.10889E-06  1150   0.248E-03    0.146E-02
RMM:  20    -0.110235510967E+04   -0.11364E-04   -0.79932E-07  1115   0.206E-03    0.709E-03
RMM:  21    -0.110235511954E+04   -0.98621E-05   -0.64447E-07  1103   0.190E-03    0.800E-03
RMM:  22    -0.110235512624E+04   -0.67061E-05   -0.44991E-07  1051   0.149E-03    0.786E-03
RMM:  23    -0.110235513469E+04   -0.84481E-05   -0.33076E-07  1006   0.109E-03    0.709E-03
RMM:  24    -0.110235514148E+04   -0.67883E-05   -0.26326E-07   968   0.942E-04    0.419E-03
RMM:  25    -0.110235514740E+04   -0.59218E-05   -0.22369E-07   902   0.830E-04    0.280E-03
RMM:  26    -0.110235515438E+04   -0.69763E-05   -0.23320E-07   960   0.783E-04    0.476E-03
RMM:  27    -0.110235516097E+04   -0.65928E-05   -0.24117E-07   967   0.776E-04    0.571E-03
RMM:  28    -0.110235516683E+04   -0.58597E-05   -0.22619E-07   920   0.696E-04    0.190E-03
RMM:  29    -0.110235517140E+04   -0.45762E-05   -0.20579E-07   847   0.657E-04    0.241E-03
RMM:  30    -0.110235517554E+04   -0.41332E-05   -0.20969E-07   908   0.619E-04    0.316E-03
RMM:  31    -0.110235517903E+04   -0.34884E-05   -0.20225E-07   915   0.602E-04    0.122E-03
RMM:  32    -0.110235518175E+04   -0.27240E-05   -0.18660E-07   825   0.562E-04    0.126E-03
RMM:  33    -0.110235518296E+04   -0.12049E-05   -0.13967E-07   802   0.533E-04    0.163E-03
RMM:  34    -0.110235518372E+04   -0.76822E-06   -0.10617E-07   730   0.462E-04
  23 F= -.11094280E+04 E0= -.11094031E+04  d E =-.257575E-02  mag=    12.2586
 curvature:  -0.58 expect dE=-0.314E-01 dE for cont linesearch -0.199E-03
 ZBRENT: interpolating
 opt :   0.2051  next Energy= -1109.428330 (dE=-0.290E-02)
 bond charge predicted
       N       E                     dE             d eps       ncg     rms          rms(c)
DAV:   1    -0.110235471037E+04    0.47259E-03   -0.37573E-01  2004   0.120E+00    0.200E-01
RMM:   2    -0.110235682890E+04   -0.21185E-02   -0.69226E-03  2219   0.179E-01    0.105E+00
RMM:   3    -0.110235527383E+04    0.15551E-02   -0.15534E-03  2207   0.870E-02    0.804E-01
RMM:   4    -0.110235571479E+04   -0.44096E-03   -0.12839E-03  2158   0.758E-02    0.660E-01
RMM:   5    -0.110235570626E+04    0.85291E-05   -0.57134E-04  1980   0.549E-02    0.554E-01
RMM:   6    -0.110235523262E+04    0.47365E-03   -0.20474E-04  1901   0.326E-02    0.751E-02
RMM:   7    -0.110235556157E+04   -0.32895E-03   -0.13066E-04  1981   0.260E-02    0.247E-01
RMM:   8    -0.110235544250E+04    0.11906E-03   -0.78299E-05  1889   0.190E-02    0.161E-01
RMM:   9    -0.110235548887E+04   -0.46365E-04   -0.78358E-05  1861   0.197E-02    0.146E-01
RMM:  10    -0.110235550265E+04   -0.13782E-04   -0.56383E-05  1760   0.175E-02    0.138E-01
RMM:  11    -0.110235549274E+04    0.99098E-05   -0.29118E-05  1535   0.122E-02    0.123E-01
RMM:  12    -0.110235548404E+04    0.86975E-05   -0.14821E-05  1430   0.811E-03    0.879E-02
RMM:  13    -0.110235548845E+04   -0.44075E-05   -0.73269E-06  1380   0.630E-03    0.364E-02
RMM:  14    -0.110235550712E+04   -0.18674E-04   -0.45719E-06  1323   0.516E-03    0.248E-02
RMM:  15    -0.110235551745E+04   -0.10330E-04   -0.28841E-06  1263   0.404E-03    0.368E-02
RMM:  16    -0.110235551592E+04    0.15322E-05   -0.14713E-06  1198   0.327E-03    0.314E-02
RMM:  17    -0.110235551698E+04   -0.10581E-05   -0.58278E-07  1081   0.212E-03    0.183E-02
RMM:  18    -0.110235552036E+04   -0.33836E-05   -0.33507E-07  1018   0.146E-03    0.653E-03
RMM:  19    -0.110235552405E+04   -0.36915E-05   -0.22739E-07   980   0.118E-03    0.623E-03
RMM:  20    -0.110235552605E+04   -0.19981E-05   -0.15892E-07   990   0.986E-04    0.675E-03
RMM:  21    -0.110235552665E+04   -0.60198E-06   -0.98922E-08   914   0.781E-04
  24 F= -.11094283E+04 E0= -.11094034E+04  d E =-.289659E-02  mag=    12.2609
 curvature:  -0.95 expect dE=-0.317E-01 dE for cont linesearch -0.323E-07
 trial: gam= 0.65569 g(F)=  0.333E-01 g(S)=  0.000E+00 ort = 0.942E-04 (trialstep = 0.114E+00)
 search vector abs. value=  0.146E+00
 bond charge predicted
       N       E                     dE             d eps       ncg     rms          rms(c)
DAV:   1    -0.110235723440E+04   -0.17083E-02   -0.54605E-01  1920   0.151E+00    0.233E-01
RMM:   2    -0.110235958596E+04   -0.23516E-02   -0.10889E-02  2235   0.225E-01    0.102E+00
RMM:   3    -0.110235857039E+04    0.10156E-02   -0.20741E-03  2251   0.100E-01    0.101E+00
RMM:   4    -0.110235876898E+04   -0.19859E-03   -0.17611E-03  2186   0.877E-02    0.787E-01
RMM:   5    -0.110235839427E+04    0.37470E-03   -0.80411E-04  2027   0.661E-02    0.354E-01
RMM:   6    -0.110235829494E+04    0.99333E-04   -0.14651E-04  1994   0.262E-02    0.124E-01
RMM:   7    -0.110235850804E+04   -0.21310E-03   -0.14819E-04  2061   0.274E-02    0.182E-01
RMM:   8    -0.110235847719E+04    0.30849E-04   -0.11318E-04  2073   0.240E-02    0.210E-01
RMM:   9    -0.110235847544E+04    0.17443E-05   -0.98571E-05  1864   0.206E-02    0.242E-01
RMM:  10    -0.110235844092E+04    0.34525E-04   -0.10933E-04  1911   0.235E-02    0.159E-01
RMM:  11    -0.110235845342E+04   -0.12498E-04   -0.60755E-05  1736   0.180E-02    0.103E-01
RMM:  12    -0.110235846629E+04   -0.12875E-04   -0.25364E-05  1515   0.111E-02    0.924E-02
RMM:  13    -0.110235845764E+04    0.86506E-05   -0.11940E-05  1430   0.836E-03    0.606E-02
RMM:  14    -0.110235846445E+04   -0.68093E-05   -0.40932E-06  1319   0.494E-03    0.343E-02
RMM:  15    -0.110235847093E+04   -0.64772E-05   -0.23203E-06  1254   0.387E-03    0.180E-02
RMM:  16    -0.110235847552E+04   -0.45948E-05   -0.12691E-06  1170   0.278E-03    0.167E-02
RMM:  17    -0.110235847934E+04   -0.38147E-05   -0.66620E-07  1115   0.218E-03    0.206E-02
RMM:  18    -0.110235847991E+04   -0.57047E-06   -0.44205E-07  1049   0.172E-03
  25 F= -.11094313E+04 E0= -.11094065E+04  d E =-.301150E-02  mag=    12.2587
 trial-energy change:   -0.003012  1 .order   -0.003019   -0.003795   -0.002244
 step:   0.2927(harm=  0.2786)  dis= 0.00455  next Energy= -1109.433067 (dE=-0.474E-02)
 bond charge predicted
       N       E                     dE             d eps       ncg     rms          rms(c)
DAV:   1    -0.110235692559E+04    0.15537E-02   -0.13477E+00  1902   0.238E+00    0.366E-01
RMM:   2    -0.110236290149E+04   -0.59759E-02   -0.26980E-02  2242   0.354E-01    0.165E+00
RMM:   3    -0.110236029656E+04    0.26049E-02   -0.50954E-03  2254   0.158E-01    0.155E+00
RMM:   4    -0.110236110572E+04   -0.80917E-03   -0.43714E-03  2208   0.138E-01    0.124E+00
RMM:   5    -0.110236003224E+04    0.10735E-02   -0.19605E-03  2063   0.103E-01    0.635E-01
RMM:   6    -0.110235954553E+04    0.48671E-03   -0.41320E-04  2090   0.439E-02    0.168E-01
RMM:   7    -0.110236004463E+04   -0.49910E-03   -0.36289E-04  2103   0.432E-02    0.268E-01
RMM:   8    -0.110235996148E+04    0.83152E-04   -0.28268E-04  2158   0.376E-02    0.251E-01
RMM:   9    -0.110236007093E+04   -0.10945E-03   -0.28679E-04  2046   0.346E-02    0.339E-01
RMM:  10    -0.110235991913E+04    0.15180E-03   -0.20317E-04  2012   0.304E-02    0.224E-01
RMM:  11    -0.110235992853E+04   -0.93981E-05   -0.91305E-05  1838   0.210E-02    0.200E-01
RMM:  12    -0.110235991120E+04    0.17323E-04   -0.67886E-05  1761   0.186E-02    0.170E-01
RMM:  13    -0.110235990668E+04    0.45223E-05   -0.34842E-05  1643   0.143E-02    0.114E-01
RMM:  14    -0.110235992511E+04   -0.18429E-04   -0.93600E-06  1419   0.712E-03    0.511E-02
RMM:  15    -0.110235995011E+04   -0.24995E-04   -0.57174E-06  1358   0.580E-03    0.267E-02
RMM:  16    -0.110235996699E+04   -0.16881E-04   -0.38839E-06  1307   0.480E-03    0.360E-02
RMM:  17    -0.110235997765E+04   -0.10665E-04   -0.22401E-06  1243   0.386E-03    0.414E-02
RMM:  18    -0.110235998031E+04   -0.26572E-05   -0.12265E-06  1170   0.286E-03    0.295E-02
RMM:  19    -0.110235998566E+04   -0.53498E-05   -0.63728E-07  1075   0.208E-03    0.114E-02
RMM:  20    -0.110235999463E+04   -0.89683E-05   -0.46502E-07  1051   0.143E-03    0.424E-03
RMM:  21    -0.110236000257E+04   -0.79423E-05   -0.37259E-07  1055   0.131E-03    0.352E-03
RMM:  22    -0.110236000808E+04   -0.55125E-05   -0.27248E-07  1016   0.108E-03    0.417E-03
RMM:  23    -0.110236001301E+04   -0.49333E-05   -0.21797E-07   967   0.906E-04    0.411E-03
RMM:  24    -0.110236001916E+04   -0.61438E-05   -0.20328E-07   893   0.719E-04    0.365E-03
RMM:  25    -0.110236002288E+04   -0.37198E-05   -0.16173E-07   861   0.724E-04    0.220E-03
RMM:  26    -0.110236002807E+04   -0.51902E-05   -0.16840E-07   856   0.592E-04    0.164E-03
RMM:  27    -0.110236003212E+04   -0.40499E-05   -0.15114E-07   872   0.619E-04    0.147E-03
RMM:  28    -0.110236003653E+04   -0.44129E-05   -0.17727E-07   859   0.567E-04    0.177E-03
RMM:  29    -0.110236004087E+04   -0.43408E-05   -0.19448E-07   882   0.579E-04    0.194E-03
RMM:  30    -0.110236004364E+04   -0.27672E-05   -0.17766E-07   851   0.541E-04    0.579E-04
RMM:  31    -0.110236004555E+04   -0.19107E-05   -0.13192E-07   800   0.515E-04    0.133E-03
RMM:  32    -0.110236004684E+04   -0.12857E-05   -0.11243E-07   755   0.468E-04    0.122E-03
RMM:  33    -0.110236004772E+04   -0.88265E-06   -0.86808E-08   704   0.444E-04
  26 F= -.11094330E+04 E0= -.11094082E+04  d E =-.467011E-02  mag=    12.2517
 curvature:  -0.61 expect dE=-0.114E-01 dE for cont linesearch -0.786E-05
 trial: gam= 0.73089 g(F)=  0.189E-01 g(S)=  0.000E+00 ort =-0.138E-02 (trialstep = 0.150E+00)
 search vector abs. value=  0.949E-01
 bond charge predicted
       N       E                     dE             d eps       ncg     rms          rms(c)
DAV:   1    -0.110236047924E+04   -0.43241E-03   -0.61206E-01  1956   0.164E+00    0.228E-01
RMM:   2    -0.110236279086E+04   -0.23116E-02   -0.12268E-02  2232   0.236E-01    0.101E+00
RMM:   3    -0.110236171568E+04    0.10752E-02   -0.20248E-03  2262   0.101E-01    0.937E-01
RMM:   4    -0.110236227467E+04   -0.55899E-03   -0.17745E-03  2201   0.895E-02    0.741E-01
RMM:   5    -0.110236181596E+04    0.45871E-03   -0.70938E-04  2029   0.606E-02    0.336E-01
RMM:   6    -0.110236172409E+04    0.91874E-04   -0.15904E-04  1960   0.258E-02    0.143E-01
RMM:   7    -0.110236207002E+04   -0.34594E-03   -0.18721E-04  2068   0.294E-02    0.423E-01
RMM:   8    -0.110236171960E+04    0.35042E-03   -0.15120E-04  2028   0.273E-02    0.217E-01
RMM:   9    -0.110236185258E+04   -0.13298E-03   -0.18593E-04  2018   0.317E-02    0.156E-01
RMM:  10    -0.110236190037E+04   -0.47790E-04   -0.12391E-04  1932   0.240E-02    0.177E-01
RMM:  11    -0.110236186699E+04    0.33386E-04   -0.71161E-05  1752   0.180E-02    0.147E-01
RMM:  12    -0.110236184780E+04    0.19189E-04   -0.30749E-05  1561   0.120E-02    0.122E-01
RMM:  13    -0.110236183740E+04    0.10401E-04   -0.12230E-05  1435   0.825E-03    0.872E-02
RMM:  14    -0.110236184605E+04   -0.86544E-05   -0.41665E-06  1319   0.491E-03    0.325E-02
RMM:  15    -0.110236186520E+04   -0.19154E-04   -0.33657E-06  1293   0.448E-03    0.256E-02
RMM:  16    -0.110236187196E+04   -0.67593E-05   -0.23582E-06  1238   0.393E-03    0.387E-02
RMM:  17    -0.110236187105E+04    0.91147E-06   -0.11171E-06  1142   0.291E-03
  27 F= -.11094349E+04 E0= -.11094101E+04  d E =-.187993E-02  mag=    12.2511
 trial-energy change:   -0.001880  1 .order   -0.001891   -0.002670   -0.001112
 step:   0.2652(harm=  0.2564)  dis= 0.00353  next Energy= -1109.435298 (dE=-0.230E-02)
 bond charge predicted
       N       E                     dE             d eps       ncg     rms          rms(c)
DAV:   1    -0.110236139150E+04    0.48047E-03   -0.36530E-01  1956   0.127E+00    0.180E-01
RMM:   2    -0.110236340180E+04   -0.20103E-02   -0.74850E-03  2225   0.185E-01    0.119E+00
RMM:   3    -0.110236124746E+04    0.21543E-02   -0.14403E-03  2242   0.865E-02    0.496E-01
RMM:   4    -0.110236262413E+04   -0.13767E-02   -0.11875E-03  2163   0.739E-02    0.531E-01
RMM:   5    -0.110236211694E+04    0.50718E-03   -0.32053E-04  2008   0.405E-02    0.161E-01
RMM:   6    -0.110236221317E+04   -0.96227E-04   -0.87686E-05  1892   0.188E-02    0.247E-01
RMM:   7    -0.110236220617E+04    0.69997E-05   -0.12182E-04  1992   0.243E-02    0.217E-01
RMM:   8    -0.110236225165E+04   -0.45481E-04   -0.96369E-05  1974   0.215E-02    0.279E-01
RMM:   9    -0.110236213229E+04    0.11936E-03   -0.86237E-05  1883   0.211E-02    0.132E-01
RMM:  10    -0.110236223784E+04   -0.10555E-03   -0.86915E-05  1824   0.209E-02    0.158E-01
RMM:  11    -0.110236221160E+04    0.26246E-04   -0.47937E-05  1680   0.155E-02    0.165E-01
RMM:  12    -0.110236218741E+04    0.24184E-04   -0.22521E-05  1507   0.104E-02    0.155E-01
RMM:  13    -0.110236217551E+04    0.11905E-04   -0.94766E-06  1411   0.741E-03    0.114E-01
RMM:  14    -0.110236218768E+04   -0.12176E-04   -0.35027E-06  1300   0.477E-03    0.497E-02
RMM:  15    -0.110236221285E+04   -0.25162E-04   -0.33448E-06  1303   0.450E-03    0.224E-02
RMM:  16    -0.110236222681E+04   -0.13962E-04   -0.25760E-06  1248   0.410E-03    0.239E-02
RMM:  17    -0.110236223101E+04   -0.41986E-05   -0.15284E-06  1194   0.339E-03    0.230E-02
RMM:  18    -0.110236223143E+04   -0.42758E-06   -0.69962E-07  1098   0.239E-03
  28 F= -.11094353E+04 E0= -.11094105E+04  d E =-.228403E-02  mag=    12.2505
 curvature:  -0.68 expect dE=-0.144E-01 dE for cont linesearch -0.215E-05
 trial: gam= 1.06693 g(F)=  0.213E-01 g(S)=  0.000E+00 ort =-0.548E-03 (trialstep = 0.128E+00)
 search vector abs. value=  0.128E+00
 bond charge predicted
       N       E                     dE             d eps       ncg     rms          rms(c)
DAV:   1    -0.110236290749E+04   -0.67648E-03   -0.59613E-01  1896   0.164E+00    0.212E-01
RMM:   2    -0.110236544316E+04   -0.25357E-02   -0.11969E-02  2252   0.232E-01    0.120E+00
RMM:   3    -0.110236339092E+04    0.20522E-02   -0.19790E-03  2255   0.101E-01    0.687E-01
RMM:   4    -0.110236504509E+04   -0.16542E-02   -0.17305E-03  2194   0.892E-02    0.764E-01
RMM:   5    -0.110236419719E+04    0.84790E-03   -0.59401E-04  2053   0.551E-02    0.385E-01
RMM:   6    -0.110236409609E+04    0.10110E-03   -0.22720E-04  1942   0.323E-02    0.123E-01
RMM:   7    -0.110236429392E+04   -0.19783E-03   -0.12866E-04  2059   0.248E-02    0.194E-01
RMM:   8    -0.110236428418E+04    0.97349E-05   -0.98828E-05  2003   0.208E-02    0.217E-01
RMM:   9    -0.110236426189E+04    0.22295E-04   -0.76446E-05  1826   0.186E-02    0.217E-01
RMM:  10    -0.110236426672E+04   -0.48306E-05   -0.10913E-04  1867   0.219E-02    0.173E-01
RMM:  11    -0.110236428774E+04   -0.21021E-04   -0.71459E-05  1759   0.187E-02    0.199E-01
RMM:  12    -0.110236423032E+04    0.57422E-04   -0.32477E-05  1603   0.126E-02    0.170E-01
RMM:  13    -0.110236421823E+04    0.12085E-04   -0.12412E-05  1445   0.789E-03    0.118E-01
RMM:  14    -0.110236424038E+04   -0.22146E-04   -0.47442E-06  1347   0.541E-03    0.399E-02
RMM:  15    -0.110236427606E+04   -0.35686E-04   -0.51579E-06  1347   0.575E-03    0.333E-02
RMM:  16    -0.110236428671E+04   -0.10651E-04   -0.32487E-06  1268   0.462E-03    0.390E-02
RMM:  17    -0.110236428687E+04   -0.16192E-06   -0.18220E-06  1220   0.371E-03
  29 F= -.11094374E+04 E0= -.11094127E+04  d E =-.211851E-02  mag=    12.2506
 trial-energy change:   -0.002119  1 .order   -0.002110   -0.002645   -0.001575
 step:   0.2975(harm=  0.3162)  dis= 0.00499  next Energy= -1109.438459 (dE=-0.318E-02)
 bond charge predicted
       N       E                     dE             d eps       ncg     rms          rms(c)
DAV:   1    -0.110236294125E+04    0.13455E-02   -0.10461E+00  1896   0.217E+00    0.283E-01
RMM:   2    -0.110236780102E+04   -0.48598E-02   -0.21139E-02  2250   0.308E-01    0.172E+00
RMM:   3    -0.110236365004E+04    0.41510E-02   -0.36204E-03  2263   0.136E-01    0.850E-01
RMM:   4    -0.110236671251E+04   -0.30625E-02   -0.30969E-03  2198   0.119E-01    0.963E-01
RMM:   5    -0.110236528452E+04    0.14280E-02   -0.98339E-04  2078   0.681E-02    0.453E-01
RMM:   6    -0.110236510530E+04    0.17922E-03   -0.30151E-04  2014   0.353E-02    0.197E-01
RMM:   7    -0.110236555273E+04   -0.44742E-03   -0.24144E-04  2070   0.331E-02    0.482E-01
RMM:   8    -0.110236513564E+04    0.41708E-03   -0.17374E-04  2035   0.290E-02    0.243E-01
RMM:   9    -0.110236529793E+04   -0.16228E-03   -0.20772E-04  2038   0.331E-02    0.182E-01
RMM:  10    -0.110236536966E+04   -0.71737E-04   -0.17144E-04  2019   0.268E-02    0.214E-01
RMM:  11    -0.110236536753E+04    0.21302E-05   -0.11661E-04  1849   0.227E-02    0.282E-01
RMM:  12    -0.110236525888E+04    0.10866E-03   -0.59220E-05  1727   0.164E-02    0.251E-01
RMM:  13    -0.110236523040E+04    0.28481E-04   -0.22465E-05  1534   0.105E-02    0.187E-01
RMM:  14    -0.110236525814E+04   -0.27748E-04   -0.81586E-06  1414   0.698E-03    0.693E-02
RMM:  15    -0.110236532237E+04   -0.64223E-04   -0.98810E-06  1454   0.778E-03    0.439E-02
RMM:  16    -0.110236534574E+04   -0.23369E-04   -0.64348E-06  1369   0.639E-03    0.401E-02
RMM:  17    -0.110236535316E+04   -0.74220E-05   -0.33149E-06  1277   0.482E-03    0.335E-02
RMM:  18    -0.110236535526E+04   -0.21067E-05   -0.11793E-06  1161   0.306E-03    0.198E-02
RMM:  19    -0.110236536031E+04   -0.50490E-05   -0.59890E-07  1084   0.211E-03    0.178E-02
RMM:  20    -0.110236536429E+04   -0.39718E-05   -0.38016E-07  1049   0.144E-03    0.182E-02
RMM:  21    -0.110236536787E+04   -0.35887E-05   -0.26812E-07  1022   0.125E-03    0.125E-02
RMM:  22    -0.110236537313E+04   -0.52603E-05   -0.22142E-07  1012   0.952E-04    0.409E-03
RMM:  23    -0.110236537661E+04   -0.34722E-05   -0.19697E-07   987   0.100E-03    0.487E-03
RMM:  24    -0.110236537867E+04   -0.20605E-05   -0.14201E-07   961   0.808E-04    0.567E-03
RMM:  25    -0.110236538052E+04   -0.18561E-05   -0.99943E-08   891   0.636E-04    0.416E-03
RMM:  26    -0.110236538243E+04   -0.19032E-05   -0.78315E-08   770   0.525E-04    0.178E-03
RMM:  27    -0.110236538413E+04   -0.17079E-05   -0.70007E-08   741   0.489E-04    0.167E-03
RMM:  28    -0.110236538660E+04   -0.24698E-05   -0.92288E-08   810   0.480E-04    0.433E-03
RMM:  29    -0.110236538837E+04   -0.17619E-05   -0.91759E-08   854   0.502E-04    0.446E-03
RMM:  30    -0.110236538961E+04   -0.12427E-05   -0.82375E-08   775   0.443E-04    0.243E-03
RMM:  31    -0.110236539078E+04   -0.11696E-05   -0.72567E-08   725   0.430E-04    0.567E-04
RMM:  32    -0.110236539157E+04   -0.78813E-06   -0.63404E-08   705   0.414E-04
  30 F= -.11094386E+04 E0= -.11094138E+04  d E =-.330698E-02  mag=    12.2510
 curvature:  -0.97 expect dE=-0.107E-01 dE for cont linesearch -0.141E-04
 trial: gam= 0.46358 g(F)=  0.111E-01 g(S)=  0.000E+00 ort = 0.136E-02 (trialstep = 0.162E+00)
 search vector abs. value=  0.399E-01
 bond charge predicted
       N       E                     dE             d eps       ncg     rms          rms(c)
DAV:   1    -0.110236612823E+04   -0.73745E-03   -0.28757E-01  1980   0.118E+00    0.151E-01
RMM:   2    -0.110236692068E+04   -0.79245E-03   -0.62988E-03  2272   0.166E-01    0.426E-01
RMM:   3    -0.110236710976E+04   -0.18908E-03   -0.91062E-04  2243   0.699E-02    0.757E-01
RMM:   4    -0.110236682169E+04    0.28807E-03   -0.72750E-04  2222   0.556E-02    0.586E-01
RMM:   5    -0.110236669051E+04    0.13118E-03   -0.45430E-04  1985   0.496E-02    0.221E-01
RMM:   6    -0.110236669522E+04   -0.47161E-05   -0.75874E-05  1867   0.181E-02    0.125E-01
RMM:   7    -0.110236681292E+04   -0.11770E-03   -0.82012E-05  2001   0.196E-02    0.191E-01
RMM:   8    -0.110236675423E+04    0.58689E-04   -0.62217E-05  1916   0.182E-02    0.153E-01
RMM:   9    -0.110236676416E+04   -0.99267E-05   -0.56418E-05  1786   0.162E-02    0.159E-01
RMM:  10    -0.110236677530E+04   -0.11147E-04   -0.52856E-05  1791   0.167E-02    0.113E-01
RMM:  11    -0.110236677278E+04    0.25265E-05   -0.27806E-05  1534   0.122E-02    0.753E-02
RMM:  12    -0.110236678152E+04   -0.87416E-05   -0.11471E-05  1433   0.767E-03    0.484E-02
RMM:  13    -0.110236678554E+04   -0.40210E-05   -0.45285E-06  1327   0.551E-03    0.309E-02
RMM:  14    -0.110236678825E+04   -0.27090E-05   -0.22815E-06  1249   0.394E-03    0.263E-02
RMM:  15    -0.110236679024E+04   -0.19899E-05   -0.10878E-06  1152   0.269E-03    0.164E-02
RMM:  16    -0.110236679282E+04   -0.25820E-05   -0.59499E-07  1116   0.210E-03    0.104E-02
RMM:  17    -0.110236679511E+04   -0.22902E-05   -0.30517E-07  1066   0.141E-03    0.879E-03
RMM:  18    -0.110236679616E+04   -0.10525E-05   -0.20203E-07  1010   0.119E-03    0.596E-03
RMM:  19    -0.110236679757E+04   -0.14108E-05   -0.11509E-07   984   0.794E-04    0.407E-03
RMM:  20    -0.110236679861E+04   -0.10375E-05   -0.10433E-07   925   0.802E-04    0.661E-03
RMM:  21    -0.110236679894E+04   -0.32994E-06   -0.64084E-08   834   0.601E-04
  31 F= -.11094400E+04 E0= -.11094153E+04  d E =-.146160E-02  mag=    12.2499
 trial-energy change:   -0.001462  1 .order   -0.001463   -0.001894   -0.001031
 step:   0.3555(harm=  0.3555)  dis= 0.00365  next Energy= -1109.440664 (dE=-0.208E-02)
 bond charge predicted
       N       E                     dE             d eps       ncg     rms          rms(c)
DAV:   1    -0.110236639638E+04    0.40223E-03   -0.41155E-01  1896   0.141E+00    0.180E-01
RMM:   2    -0.110236753724E+04   -0.11409E-02   -0.90021E-03  2268   0.198E-01    0.503E-01
RMM:   3    -0.110236781289E+04   -0.27565E-03   -0.13095E-03  2242   0.838E-02    0.889E-01
RMM:   4    -0.110236745981E+04    0.35308E-03   -0.10162E-03  2245   0.654E-02    0.716E-01
RMM:   5    -0.110236721327E+04    0.24654E-03   -0.65776E-04  2023   0.595E-02    0.280E-01
RMM:   6    -0.110236720039E+04    0.12883E-04   -0.11447E-04  1921   0.221E-02    0.140E-01
RMM:   7    -0.110236739053E+04   -0.19014E-03   -0.11736E-04  2048   0.233E-02    0.264E-01
RMM:   8    -0.110236727268E+04    0.11785E-03   -0.90983E-05  1999   0.217E-02    0.190E-01
RMM:   9    -0.110236729178E+04   -0.19093E-04   -0.90090E-05  1885   0.212E-02    0.156E-01
RMM:  10    -0.110236733427E+04   -0.42492E-04   -0.70186E-05  1867   0.195E-02    0.138E-01
RMM:  11    -0.110236731603E+04    0.18237E-04   -0.38366E-05  1633   0.140E-02    0.893E-02
RMM:  12    -0.110236732625E+04   -0.10214E-04   -0.16771E-05  1474   0.913E-03    0.595E-02
RMM:  13    -0.110236733171E+04   -0.54604E-05   -0.65335E-06  1382   0.650E-03    0.397E-02
RMM:  14    -0.110236733621E+04   -0.45027E-05   -0.32970E-06  1289   0.464E-03    0.330E-02
RMM:  15    -0.110236733984E+04   -0.36326E-05   -0.15910E-06  1193   0.319E-03    0.192E-02
RMM:  16    -0.110236734429E+04   -0.44434E-05   -0.87427E-07  1147   0.253E-03    0.128E-02
RMM:  17    -0.110236734783E+04   -0.35471E-05   -0.46460E-07  1091   0.173E-03    0.115E-02
RMM:  18    -0.110236734960E+04   -0.17682E-05   -0.30090E-07  1034   0.143E-03    0.816E-03
RMM:  19    -0.110236735210E+04   -0.24947E-05   -0.18187E-07  1021   0.995E-04    0.473E-03
RMM:  20    -0.110236735400E+04   -0.19073E-05   -0.16097E-07   954   0.982E-04    0.810E-03
RMM:  21    -0.110236735481E+04   -0.80311E-06   -0.10572E-07   939   0.737E-04
  32 F= -.11094407E+04 E0= -.11094159E+04  d E =-.208244E-02  mag=    12.2483
 curvature:  -0.61 expect dE=-0.785E-02 dE for cont linesearch -0.122E-07
 trial: gam= 1.26838 g(F)=  0.130E-01 g(S)=  0.000E+00 ort = 0.284E-04 (trialstep = 0.104E+00)
 search vector abs. value=  0.772E-01
 bond charge predicted
       N       E                     dE             d eps       ncg     rms          rms(c)
DAV:   1    -0.110236777297E+04   -0.41897E-03   -0.22319E-01  1914   0.104E+00    0.131E-01
RMM:   2    -0.110236832098E+04   -0.54800E-03   -0.49212E-03  2269   0.145E-01    0.286E-01
RMM:   3    -0.110236845057E+04   -0.12960E-03   -0.74286E-04  2233   0.630E-02    0.391E-01
RMM:   4    -0.110236836537E+04    0.85199E-04   -0.28020E-04  2279   0.372E-02    0.390E-01
RMM:   5    -0.110236809815E+04    0.26722E-03   -0.13906E-04  1948   0.285E-02    0.121E-01
RMM:   6    -0.110236829866E+04   -0.20051E-03   -0.73119E-05  1774   0.189E-02    0.270E-01
RMM:   7    -0.110236825085E+04    0.47807E-04   -0.82543E-05  1851   0.202E-02    0.254E-01
RMM:   8    -0.110236820772E+04    0.43133E-04   -0.79407E-05  1848   0.197E-02    0.150E-01
RMM:   9    -0.110236825023E+04   -0.42510E-04   -0.61949E-05  1799   0.180E-02    0.117E-01
RMM:  10    -0.110236825905E+04   -0.88173E-05   -0.56379E-05  1772   0.167E-02    0.948E-02
RMM:  11    -0.110236825924E+04   -0.19357E-06   -0.26360E-05  1558   0.120E-02    0.929E-02
RMM:  12    -0.110236824930E+04    0.99434E-05   -0.12031E-05  1393   0.773E-03    0.637E-02
RMM:  13    -0.110236825338E+04   -0.40812E-05   -0.54355E-06  1349   0.557E-03    0.379E-02
RMM:  14    -0.110236826602E+04   -0.12645E-04   -0.23677E-06  1263   0.399E-03    0.178E-02
RMM:  15    -0.110236827461E+04   -0.85848E-05   -0.15975E-06  1193   0.317E-03    0.258E-02
RMM:  16    -0.110236827550E+04   -0.89086E-06   -0.74438E-07  1121   0.244E-03
  33 F= -.11094417E+04 E0= -.11094170E+04  d E =-.100504E-02  mag=    12.2464
 trial-energy change:   -0.001005  1 .order   -0.001017   -0.001347   -0.000686
 step:   0.2481(harm=  0.2111)  dis= 0.00360  next Energy= -1109.442119 (dE=-0.145E-02)
 bond charge predicted
       N       E                     dE             d eps       ncg     rms          rms(c)
DAV:   1    -0.110236746704E+04    0.80757E-03   -0.43425E-01  1908   0.145E+00    0.184E-01
RMM:   2    -0.110236862044E+04   -0.11534E-02   -0.96275E-03  2266   0.203E-01    0.488E-01
RMM:   3    -0.110236861676E+04    0.36859E-05   -0.14228E-03  2244   0.874E-02    0.512E-01
RMM:   4    -0.110236857836E+04    0.38397E-04   -0.60052E-04  2318   0.510E-02    0.467E-01
RMM:   5    -0.110236831268E+04    0.26568E-03   -0.27183E-04  2025   0.372E-02    0.279E-01
RMM:   6    -0.110236841278E+04   -0.10010E-03   -0.14147E-04  1860   0.257E-02    0.246E-01
RMM:   7    -0.110236849885E+04   -0.86065E-04   -0.14814E-04  2020   0.262E-02    0.307E-01
RMM:   8    -0.110236837837E+04    0.12048E-03   -0.12568E-04  2002   0.251E-02    0.231E-01
RMM:   9    -0.110236840947E+04   -0.31097E-04   -0.12146E-04  1930   0.254E-02    0.166E-01
RMM:  10    -0.110236843329E+04   -0.23828E-04   -0.11166E-04  1902   0.234E-02    0.141E-01
RMM:  11    -0.110236841847E+04    0.14828E-04   -0.56576E-05  1734   0.167E-02    0.120E-01
RMM:  12    -0.110236840700E+04    0.11470E-04   -0.24275E-05  1498   0.104E-02    0.736E-02
RMM:  13    -0.110236841324E+04   -0.62401E-05   -0.10680E-05  1415   0.729E-03    0.397E-02
RMM:  14    -0.110236843052E+04   -0.17280E-04   -0.42055E-06  1319   0.491E-03    0.281E-02
RMM:  15    -0.110236843784E+04   -0.73228E-05   -0.21948E-06  1230   0.371E-03    0.203E-02
RMM:  16    -0.110236844632E+04   -0.84792E-05   -0.89747E-07  1157   0.251E-03    0.153E-02
RMM:  17    -0.110236845256E+04   -0.62450E-05   -0.50032E-07  1100   0.180E-03    0.959E-03
RMM:  18    -0.110236845771E+04   -0.51485E-05   -0.35411E-07  1027   0.141E-03    0.741E-03
RMM:  19    -0.110236846372E+04   -0.60078E-05   -0.26731E-07  1008   0.115E-03    0.344E-03
RMM:  20    -0.110236846855E+04   -0.48291E-05   -0.20831E-07   971   0.954E-04    0.342E-03
RMM:  21    -0.110236847328E+04   -0.47345E-05   -0.17386E-07   935   0.766E-04    0.302E-03
RMM:  22    -0.110236847665E+04   -0.33660E-05   -0.13875E-07   858   0.671E-04    0.229E-03
RMM:  23    -0.110236848101E+04   -0.43627E-05   -0.14072E-07   847   0.622E-04    0.239E-03
RMM:  24    -0.110236848515E+04   -0.41390E-05   -0.13852E-07   874   0.559E-04    0.299E-03
RMM:  25    -0.110236848833E+04   -0.31790E-05   -0.12551E-07   816   0.528E-04    0.188E-03
RMM:  26    -0.110236849115E+04   -0.28191E-05   -0.12008E-07   771   0.506E-04    0.142E-03
RMM:  27    -0.110236849413E+04   -0.29767E-05   -0.12444E-07   806   0.509E-04    0.198E-03
RMM:  28    -0.110236849676E+04   -0.26377E-05   -0.13722E-07   815   0.496E-04    0.170E-03
RMM:  29    -0.110236849895E+04   -0.21840E-05   -0.12883E-07   795   0.486E-04    0.589E-04
RMM:  30    -0.110236850110E+04   -0.21482E-05   -0.15220E-07   799   0.490E-04    0.887E-04
RMM:  31    -0.110236850238E+04   -0.12863E-05   -0.13082E-07   774   0.483E-04    0.990E-04
RMM:  32    -0.110236850307E+04   -0.68932E-06   -0.95869E-08   691   0.444E-04
  34 F= -.11094420E+04 E0= -.11094174E+04  d E =-.135037E-02  mag=    12.2416
 curvature:  -0.55 expect dE=-0.801E-02 dE for cont linesearch -0.354E-04
 trial: gam= 1.24602 g(F)=  0.145E-01 g(S)=  0.000E+00 ort =-0.223E-02 (trialstep = 0.794E-01)
 search vector abs. value=  0.129E+00
 bond charge predicted
       N       E                     dE             d eps       ncg     rms          rms(c)
DAV:   1    -0.110236871218E+04   -0.20980E-03   -0.21631E-01  1992   0.102E+00    0.118E-01
RMM:   2    -0.110236924525E+04   -0.53307E-03   -0.45194E-03  2272   0.139E-01    0.311E-01
RMM:   3    -0.110236928452E+04   -0.39270E-04   -0.68702E-04  2244   0.601E-02    0.371E-01
RMM:   4    -0.110236925654E+04    0.27980E-04   -0.29598E-04  2283   0.368E-02    0.344E-01
RMM:   5    -0.110236909421E+04    0.16233E-03   -0.12802E-04  1923   0.269E-02    0.164E-01
RMM:   6    -0.110236916814E+04   -0.73924E-04   -0.57462E-05  1733   0.166E-02    0.135E-01
RMM:   7    -0.110236920066E+04   -0.32524E-04   -0.39254E-05  1710   0.142E-02    0.164E-01
RMM:   8    -0.110236916517E+04    0.35493E-04   -0.28610E-05  1683   0.117E-02    0.856E-02
RMM:   9    -0.110236918896E+04   -0.23788E-04   -0.25012E-05  1641   0.115E-02    0.748E-02
RMM:  10    -0.110236919686E+04   -0.79012E-05   -0.29414E-05  1699   0.119E-02    0.675E-02
RMM:  11    -0.110236919818E+04   -0.13244E-05   -0.18684E-05  1518   0.992E-03    0.765E-02
RMM:  12    -0.110236918960E+04    0.85823E-05   -0.97423E-06  1366   0.697E-03    0.553E-02
RMM:  13    -0.110236918991E+04   -0.31273E-06   -0.42601E-06  1320   0.501E-03
  35 F= -.11094428E+04 E0= -.11094181E+04  d E =-.790528E-03  mag=    12.2401
 ZBRENT: can't locate minimum, use default step
 trial-energy change:   -0.000791  1 .order   -0.000826   -0.000932   -0.000720
 step:   0.3177(harm=  0.3500)  dis= 0.00590  next Energy= -1109.444071 (dE=-0.205E-02)
 bond charge predicted
       N       E                     dE             d eps       ncg     rms          rms(c)
DAV:   1    -0.110236542513E+04    0.37645E-02   -0.19466E+00  1896   0.305E+00    0.355E-01
RMM:   2    -0.110237057224E+04   -0.51471E-02   -0.40680E-02  2268   0.417E-01    0.998E-01
RMM:   3    -0.110237088277E+04   -0.31053E-03   -0.60944E-03  2249   0.179E-01    0.108E+00
RMM:   4    -0.110237315977E+04   -0.22770E-02   -0.30395E-03  2344   0.112E-01    0.186E+00
RMM:   5    -0.110236793106E+04    0.52287E-02   -0.23508E-03  2072   0.106E-01    0.474E-01
RMM:   6    -0.110236955328E+04   -0.16222E-02   -0.86469E-04  2024   0.667E-02    0.323E-01
RMM:   7    -0.110237007677E+04   -0.52349E-03   -0.40531E-04  2070   0.446E-02    0.479E-01
RMM:   8    -0.110236969467E+04    0.38210E-03   -0.24531E-04  2031   0.342E-02    0.275E-01
RMM:   9    -0.110236982057E+04   -0.12590E-03   -0.22586E-04  2049   0.326E-02    0.299E-01
RMM:  10    -0.110236981407E+04    0.65018E-05   -0.26199E-04  2068   0.345E-02    0.251E-01
RMM:  11    -0.110236985846E+04   -0.44394E-04   -0.18424E-04  1972   0.300E-02    0.276E-01
RMM:  12    -0.110236975024E+04    0.10822E-03   -0.12487E-04  1896   0.250E-02    0.287E-01
RMM:  13    -0.110236969063E+04    0.59606E-04   -0.54285E-05  1758   0.167E-02    0.188E-01
RMM:  14    -0.110236975833E+04   -0.67700E-04   -0.22452E-05  1546   0.108E-02    0.962E-02
RMM:  15    -0.110236983357E+04   -0.75244E-04   -0.15172E-05  1503   0.911E-03    0.609E-02
RMM:  16    -0.110236987540E+04   -0.41826E-04   -0.88906E-06  1421   0.739E-03    0.435E-02
RMM:  17    -0.110236990201E+04   -0.26610E-04   -0.46974E-06  1363   0.563E-03    0.435E-02
RMM:  18    -0.110236991356E+04   -0.11555E-04   -0.20903E-06  1241   0.376E-03    0.293E-02
RMM:  19    -0.110236992706E+04   -0.13491E-04   -0.95860E-07  1154   0.257E-03    0.160E-02
RMM:  20    -0.110236994327E+04   -0.16212E-04   -0.63139E-07  1113   0.179E-03    0.112E-02
RMM:  21    -0.110236995735E+04   -0.14079E-04   -0.50469E-07  1056   0.151E-03    0.819E-03
RMM:  22    -0.110236997042E+04   -0.13075E-04   -0.42183E-07  1045   0.120E-03    0.371E-03
RMM:  23    -0.110236997761E+04   -0.71877E-05   -0.31928E-07   994   0.112E-03    0.418E-03
RMM:  24    -0.110236998723E+04   -0.96235E-05   -0.28163E-07  1006   0.900E-04    0.297E-03
RMM:  25    -0.110236999740E+04   -0.10169E-04   -0.28805E-07   962   0.802E-04    0.212E-03
RMM:  26    -0.110237000640E+04   -0.90020E-05   -0.29274E-07   902   0.723E-04    0.241E-03
RMM:  27    -0.110237001234E+04   -0.59342E-05   -0.23756E-07   868   0.703E-04    0.222E-03
RMM:  28    -0.110237002012E+04   -0.77868E-05   -0.27779E-07   908   0.667E-04    0.149E-03
RMM:  29    -0.110237002834E+04   -0.82111E-05   -0.35135E-07   950   0.717E-04    0.214E-03
RMM:  30    -0.110237003363E+04   -0.52912E-05   -0.30846E-07   920   0.684E-04    0.170E-03
RMM:  31    -0.110237003824E+04   -0.46172E-05   -0.32521E-07   910   0.672E-04    0.107E-03
RMM:  32    -0.110237004160E+04   -0.33556E-05   -0.30995E-07   904   0.678E-04    0.161E-03
RMM:  33    -0.110237004289E+04   -0.12873E-05   -0.23050E-07   868   0.637E-04    0.101E-03
RMM:  34    -0.110237004372E+04   -0.83137E-06   -0.17461E-07   778   0.542E-04
  36 F= -.11094440E+04 E0= -.11094195E+04  d E =-.195544E-02  mag=    12.2310
 curvature:  -1.89 expect dE=-0.217E-01 dE for cont linesearch -0.430E-05
 trial: gam= 0.24352 g(F)=  0.115E-01 g(S)=  0.000E+00 ort = 0.541E-03 (trialstep = 0.127E+00)
 search vector abs. value=  0.194E-01
 bond charge predicted
       N       E                     dE             d eps       ncg     rms          rms(c)
DAV:   1    -0.110237099636E+04   -0.95348E-03   -0.72263E-02  2040   0.604E-01    0.852E-02
RMM:   2    -0.110237122455E+04   -0.22819E-03   -0.19148E-03  2294   0.913E-02    0.298E-01
RMM:   3    -0.110237114032E+04    0.84233E-04   -0.24124E-04  2204   0.384E-02    0.330E-01
RMM:   4    -0.110237121560E+04   -0.75281E-04   -0.22527E-04  2152   0.330E-02    0.334E-01
RMM:   5    -0.110237105399E+04    0.16161E-03   -0.11531E-04  1922   0.255E-02    0.103E-01
RMM:   6    -0.110237116047E+04   -0.10648E-03   -0.45101E-05  1709   0.150E-02    0.130E-01
RMM:   7    -0.110237117730E+04   -0.16831E-04   -0.33655E-05  1731   0.128E-02    0.159E-01
RMM:   8    -0.110237114012E+04    0.37188E-04   -0.36759E-05  1749   0.136E-02    0.101E-01
RMM:   9    -0.110237115285E+04   -0.12729E-04   -0.30211E-05  1712   0.129E-02    0.744E-02
RMM:  10    -0.110237115752E+04   -0.46717E-05   -0.17353E-05  1509   0.949E-03    0.534E-02
RMM:  11    -0.110237116528E+04   -0.77630E-05   -0.81701E-06  1408   0.730E-03    0.590E-02
RMM:  12    -0.110237116079E+04    0.44913E-05   -0.45421E-06  1322   0.565E-03    0.605E-02
RMM:  13    -0.110237115642E+04    0.43658E-05   -0.19596E-06  1201   0.355E-03    0.555E-02
RMM:  14    -0.110237115655E+04   -0.12963E-06   -0.12955E-06  1172   0.296E-03
  37 F= -.11094451E+04 E0= -.11094207E+04  d E =-.116429E-02  mag=    12.2309
 trial-energy change:   -0.001164  1 .order   -0.001178   -0.001473   -0.000883
 step:   0.3173(harm=  0.3173)  dis= 0.00174  next Energy= -1109.445812 (dE=-0.184E-02)
 bond charge predicted
       N       E                     dE             d eps       ncg     rms          rms(c)
DAV:   1    -0.110237135148E+04   -0.19506E-03   -0.16190E-01  1932   0.904E-01    0.128E-01
RMM:   2    -0.110237179550E+04   -0.44402E-03   -0.42830E-03  2283   0.137E-01    0.280E-01
RMM:   3    -0.110237199402E+04   -0.19852E-03   -0.58980E-04  2200   0.608E-02    0.535E-01
RMM:   4    -0.110237192533E+04    0.68691E-04   -0.43431E-04  2267   0.433E-02    0.638E-01
RMM:   5    -0.110237142349E+04    0.50184E-03   -0.33360E-04  2005   0.418E-02    0.198E-01
RMM:   6    -0.110237171644E+04   -0.29294E-03   -0.14230E-04  1886   0.281E-02    0.168E-01
RMM:   7    -0.110237176430E+04   -0.47864E-04   -0.72855E-05  1866   0.186E-02    0.203E-01
RMM:   8    -0.110237173320E+04    0.31100E-04   -0.81708E-05  1931   0.200E-02    0.185E-01
RMM:   9    -0.110237171599E+04    0.17205E-04   -0.65452E-05  1826   0.183E-02    0.157E-01
RMM:  10    -0.110237170410E+04    0.11890E-04   -0.47005E-05  1748   0.151E-02    0.771E-02
RMM:  11    -0.110237174016E+04   -0.36059E-04   -0.22539E-05  1572   0.112E-02    0.776E-02
RMM:  12    -0.110237174356E+04   -0.34003E-05   -0.14097E-05  1458   0.943E-03    0.781E-02
RMM:  13    -0.110237173345E+04    0.10113E-04   -0.70417E-06  1366   0.651E-03    0.899E-02
RMM:  14    -0.110237172331E+04    0.10140E-04   -0.32929E-06  1279   0.491E-03    0.694E-02
RMM:  15    -0.110237172823E+04   -0.49197E-05   -0.13313E-06  1183   0.311E-03    0.448E-02
RMM:  16    -0.110237173733E+04   -0.90981E-05   -0.74583E-07  1119   0.225E-03    0.147E-02
RMM:  17    -0.110237174641E+04   -0.90766E-05   -0.63251E-07  1092   0.203E-03    0.692E-03
RMM:  18    -0.110237175005E+04   -0.36450E-05   -0.47560E-07  1086   0.183E-03    0.109E-02
RMM:  19    -0.110237174993E+04    0.11646E-06   -0.23298E-07  1026   0.137E-03
  38 F= -.11094458E+04 E0= -.11094214E+04  d E =-.183467E-02  mag=    12.2311
 curvature:  -0.26 expect dE=-0.244E-02 dE for cont linesearch -0.138E-07
 trial: gam= 0.83439 g(F)=  0.921E-02 g(S)=  0.000E+00 ort =-0.317E-04 (trialstep = 0.141E+00)
 search vector abs. value=  0.226E-01
 bond charge predicted
       N       E                     dE             d eps       ncg     rms          rms(c)
DAV:   1    -0.110237212808E+04   -0.37803E-03   -0.10244E-01  1956   0.696E-01    0.115E-01
RMM:   2    -0.110237263692E+04   -0.50884E-03   -0.30516E-03  2307   0.108E-01    0.588E-01
RMM:   3    -0.110237205744E+04    0.57947E-03   -0.40496E-04  2262   0.482E-02    0.202E-01
RMM:   4    -0.110237248820E+04   -0.43075E-03   -0.25650E-04  2151   0.356E-02    0.335E-01
RMM:   5    -0.110237226064E+04    0.22756E-03   -0.10511E-04  1867   0.236E-02    0.117E-01
RMM:   6    -0.110237243867E+04   -0.17804E-03   -0.79266E-05  1767   0.183E-02    0.250E-01
RMM:   7    -0.110237251120E+04   -0.72524E-04   -0.11986E-04  1967   0.229E-02    0.367E-01
RMM:   8    -0.110237225396E+04    0.25724E-03   -0.14481E-04  1969   0.272E-02    0.121E-01
RMM:   9    -0.110237236606E+04   -0.11209E-03   -0.89665E-05  1844   0.221E-02    0.128E-01
RMM:  10    -0.110237235603E+04    0.10027E-04   -0.37063E-05  1649   0.137E-02    0.130E-01
RMM:  11    -0.110237234160E+04    0.14431E-04   -0.16336E-05  1482   0.967E-03    0.138E-01
RMM:  12    -0.110237232749E+04    0.14110E-04   -0.88675E-06  1366   0.677E-03    0.125E-01
RMM:  13    -0.110237232580E+04    0.16858E-05   -0.33410E-06  1280   0.445E-03    0.875E-02
RMM:  14    -0.110237233971E+04   -0.13912E-04   -0.22742E-06  1263   0.389E-03    0.456E-02
RMM:  15    -0.110237235678E+04   -0.17065E-04   -0.18247E-06  1212   0.333E-03    0.159E-02
RMM:  16    -0.110237236880E+04   -0.12019E-04   -0.17119E-06  1179   0.334E-03    0.223E-02
RMM:  17    -0.110237236989E+04   -0.10950E-05   -0.90613E-07  1121   0.265E-03    0.183E-02
RMM:  18    -0.110237237008E+04   -0.18565E-06   -0.41945E-07  1054   0.186E-03
  39 F= -.11094465E+04 E0= -.11094220E+04  d E =-.672200E-03  mag=    12.2306
 trial-energy change:   -0.000672  1 .order   -0.000671   -0.001297   -0.000045
 step:   0.1463(harm=  0.1463)  dis= 0.00091  next Energy= -1109.446479 (dE=-0.672E-03)
 bond charge predicted
       N       E                     dE             d eps       ncg     rms          rms(c)
DAV:   1    -0.110237236980E+04    0.92768E-07   -0.13496E-04  2136   0.257E-02    0.984E-03
RMM:   2    -0.110237240211E+04   -0.32314E-04   -0.12748E-05  1538   0.767E-03    0.185E-01
RMM:   3    -0.110237231260E+04    0.89513E-04   -0.14585E-05  1453   0.928E-03    0.458E-02
RMM:   4    -0.110237235202E+04   -0.39420E-04   -0.48087E-06  1242   0.526E-03    0.205E-02
RMM:   5    -0.110237236818E+04   -0.16157E-04   -0.10936E-06  1140   0.270E-03    0.156E-02
RMM:   6    -0.110237237133E+04   -0.31548E-05   -0.51836E-07  1094   0.208E-03    0.992E-03
RMM:   7    -0.110237237243E+04   -0.10990E-05   -0.35518E-07  1071   0.179E-03    0.977E-03
RMM:   8    -0.110237237254E+04   -0.10715E-06   -0.21087E-07  1032   0.133E-03
  40 F= -.11094465E+04 E0= -.11094220E+04  d E =-.676535E-03  mag=    12.2306
 curvature:  -0.18 expect dE=-0.838E-03 dE for cont linesearch -0.146E-07
 trial: gam= 0.49351 g(F)=  0.464E-02 g(S)=  0.000E+00 ort = 0.429E-04 (trialstep = 0.142E+00)
 search vector abs. value=  0.102E-01
 bond charge predicted
       N       E                     dE             d eps       ncg     rms          rms(c)
DAV:   1    -0.110237281386E+04   -0.44143E-03   -0.44887E-02  1908   0.467E-01    0.680E-02
RMM:   2    -0.110237301687E+04   -0.20301E-03   -0.10806E-03  2329   0.727E-02    0.372E-01
RMM:   3    -0.110237277376E+04    0.24312E-03   -0.18815E-04  2297   0.314E-02    0.178E-01
RMM:   4    -0.110237302365E+04   -0.24989E-03   -0.15577E-04  2045   0.269E-02    0.325E-01
RMM:   5    -0.110237281660E+04    0.20705E-03   -0.88302E-05  1830   0.207E-02    0.857E-02
RMM:   6    -0.110237289874E+04   -0.82142E-04   -0.26409E-05  1547   0.113E-02    0.574E-02
RMM:   7    -0.110237293134E+04   -0.32606E-04   -0.11094E-05  1482   0.746E-03    0.969E-02
RMM:   8    -0.110237291620E+04    0.15141E-04   -0.11111E-05  1477   0.807E-03    0.797E-02
RMM:   9    -0.110237291856E+04   -0.23572E-05   -0.10115E-05  1452   0.806E-03    0.685E-02
RMM:  10    -0.110237291971E+04   -0.11511E-05   -0.62675E-06  1370   0.604E-03    0.404E-02
RMM:  11    -0.110237292966E+04   -0.99441E-05   -0.43775E-06  1329   0.539E-03    0.380E-02
RMM:  12    -0.110237293240E+04   -0.27447E-05   -0.32431E-06  1262   0.469E-03    0.618E-02
RMM:  13    -0.110237292340E+04    0.90000E-05   -0.18452E-06  1174   0.357E-03    0.567E-02
RMM:  14    -0.110237292160E+04    0.17968E-05   -0.90001E-07  1127   0.244E-03    0.417E-02
RMM:  15    -0.110237292583E+04   -0.42221E-05   -0.38626E-07  1084   0.159E-03    0.231E-02
RMM:  16    -0.110237293135E+04   -0.55273E-05   -0.34375E-07  1055   0.153E-03    0.896E-03
RMM:  17    -0.110237293532E+04   -0.39630E-05   -0.24670E-07  1029   0.132E-03    0.509E-03
RMM:  18    -0.110237293679E+04   -0.14742E-05   -0.17204E-07  1001   0.115E-03    0.471E-03
RMM:  19    -0.110237293731E+04   -0.51504E-06   -0.80926E-08   952   0.802E-04
  41 F= -.11094471E+04 E0= -.11094226E+04  d E =-.582596E-03  mag=    12.2300
 trial-energy change:   -0.000583  1 .order   -0.000580   -0.000664   -0.000497
 step:   0.5676(harm=  0.5676)  dis= 0.00257  next Energy= -1109.447808 (dE=-0.132E-02)
 bond charge predicted
       N       E                     dE             d eps       ncg     rms          rms(c)
DAV:   1    -0.110237254008E+04    0.39671E-03   -0.40131E-01  1896   0.140E+00    0.203E-01
RMM:   2    -0.110237399658E+04   -0.14565E-02   -0.95914E-03  2328   0.217E-01    0.779E-01
RMM:   3    -0.110237355514E+04    0.44144E-03   -0.16075E-03  2315   0.914E-02    0.787E-01
RMM:   4    -0.110237435869E+04   -0.80355E-03   -0.13406E-03  2239   0.770E-02    0.986E-01
RMM:   5    -0.110237298658E+04    0.13721E-02   -0.87363E-04  2044   0.665E-02    0.291E-01
RMM:   6    -0.110237343429E+04   -0.44771E-03   -0.22639E-04  1947   0.338E-02    0.224E-01
RMM:   7    -0.110237356337E+04   -0.12908E-03   -0.94091E-05  1938   0.206E-02    0.235E-01
RMM:   8    -0.110237355719E+04    0.61833E-05   -0.93302E-05  1996   0.221E-02    0.202E-01
RMM:   9    -0.110237356593E+04   -0.87426E-05   -0.80480E-05  1864   0.214E-02    0.227E-01
RMM:  10    -0.110237352748E+04    0.38450E-04   -0.52565E-05  1826   0.165E-02    0.123E-01
RMM:  11    -0.110237357147E+04   -0.43993E-04   -0.34240E-05  1681   0.134E-02    0.772E-02
RMM:  12    -0.110237361543E+04   -0.43952E-04   -0.24225E-05  1595   0.114E-02    0.146E-01
RMM:  13    -0.110237357640E+04    0.39021E-04   -0.16446E-05  1452   0.894E-03    0.157E-01
RMM:  14    -0.110237354974E+04    0.26661E-04   -0.73937E-06  1370   0.672E-03    0.120E-01
RMM:  15    -0.110237356086E+04   -0.11118E-04   -0.26161E-06  1259   0.419E-03    0.667E-02
RMM:  16    -0.110237358754E+04   -0.26681E-04   -0.21306E-06  1222   0.369E-03    0.342E-02
RMM:  17    -0.110237360545E+04   -0.17906E-04   -0.15588E-06  1182   0.317E-03    0.159E-02
RMM:  18    -0.110237361473E+04   -0.92832E-05   -0.10877E-06  1153   0.274E-03    0.105E-02
RMM:  19    -0.110237361929E+04   -0.45619E-05   -0.52294E-07  1092   0.201E-03    0.854E-03
RMM:  20    -0.110237362167E+04   -0.23785E-05   -0.25292E-07  1045   0.137E-03    0.699E-03
RMM:  21    -0.110237362297E+04   -0.13019E-05   -0.17151E-07  1011   0.108E-03    0.925E-03
RMM:  22    -0.110237362387E+04   -0.89572E-06   -0.10972E-07   974   0.831E-04
  42 F= -.11094478E+04 E0= -.11094234E+04  d E =-.132271E-02  mag=    12.2279
 curvature:  -0.62 expect dE=-0.260E-02 dE for cont linesearch -0.113E-08
 trial: gam= 0.91587 g(F)=  0.419E-02 g(S)=  0.000E+00 ort = 0.431E-05 (trialstep = 0.182E+00)
 search vector abs. value=  0.127E-01
 bond charge predicted
       N       E                     dE             d eps       ncg     rms          rms(c)
DAV:   1    -0.110237397051E+04   -0.34754E-03   -0.94102E-02  1980   0.675E-01    0.943E-02
RMM:   2    -0.110237441575E+04   -0.44523E-03   -0.21824E-03  2299   0.102E-01    0.568E-01
RMM:   3    -0.110237385319E+04    0.56256E-03   -0.36799E-04  2262   0.450E-02    0.192E-01
RMM:   4    -0.110237440689E+04   -0.55371E-03   -0.29397E-04  2163   0.375E-02    0.430E-01
RMM:   5    -0.110237403657E+04    0.37032E-03   -0.15152E-04  1948   0.274E-02    0.153E-01
RMM:   6    -0.110237415262E+04   -0.11605E-03   -0.54342E-05  1713   0.170E-02    0.960E-02
RMM:   7    -0.110237420434E+04   -0.51719E-04   -0.33119E-05  1657   0.127E-02    0.108E-01
RMM:   8    -0.110237420919E+04   -0.48511E-05   -0.26057E-05  1650   0.108E-02    0.106E-01
RMM:   9    -0.110237419801E+04    0.11180E-04   -0.18363E-05  1566   0.102E-02    0.977E-02
RMM:  10    -0.110237419143E+04    0.65816E-05   -0.15148E-05  1495   0.912E-03    0.458E-02
RMM:  11    -0.110237421311E+04   -0.21676E-04   -0.97129E-06  1451   0.745E-03    0.628E-02
RMM:  12    -0.110237421321E+04   -0.10357E-06   -0.71400E-06  1378   0.693E-03
  43 F= -.11094484E+04 E0= -.11094241E+04  d E =-.638082E-03  mag=    12.2269
 trial-energy change:   -0.000638  1 .order   -0.000644   -0.000762   -0.000526
 step:   0.5885(harm=  0.5885)  dis= 0.00266  next Energy= -1109.449040 (dE=-0.123E-02)
 bond charge predicted
       N       E                     dE             d eps       ncg     rms          rms(c)
DAV:   1    -0.110237339450E+04    0.81861E-03   -0.46997E-01  1896   0.151E+00    0.220E-01
RMM:   2    -0.110237669373E+04   -0.32992E-02   -0.11163E-02  2291   0.233E-01    0.167E+00
RMM:   3    -0.110237225618E+04    0.44376E-02   -0.24095E-03  2251   0.116E-01    0.421E-01
RMM:   4    -0.110237573136E+04   -0.34752E-02   -0.16661E-03  2187   0.923E-02    0.102E+00
RMM:   5    -0.110237407893E+04    0.16524E-02   -0.86897E-04  2091   0.681E-02    0.453E-01
RMM:   6    -0.110237447628E+04   -0.39735E-03   -0.39258E-04  1972   0.475E-02    0.322E-01
RMM:   7    -0.110237451308E+04   -0.36797E-04   -0.16300E-04  2013   0.273E-02    0.323E-01
RMM:   8    -0.110237452627E+04   -0.13191E-04   -0.12676E-04  1969   0.241E-02    0.199E-01
RMM:   9    -0.110237460792E+04   -0.81651E-04   -0.10198E-04  1949   0.236E-02    0.176E-01
RMM:  10    -0.110237462308E+04   -0.15165E-04   -0.90092E-05  1940   0.224E-02    0.237E-01
RMM:  11    -0.110237456031E+04    0.62779E-04   -0.54077E-05  1790   0.177E-02    0.194E-01
RMM:  12    -0.110237456978E+04   -0.94763E-05   -0.30123E-05  1590   0.122E-02    0.147E-01
RMM:  13    -0.110237459356E+04   -0.23776E-04   -0.16505E-05  1439   0.891E-03    0.909E-02
RMM:  14    -0.110237462156E+04   -0.28000E-04   -0.10232E-05  1431   0.794E-03    0.337E-02
RMM:  15    -0.110237464845E+04   -0.26890E-04   -0.72337E-06  1394   0.671E-03    0.495E-02
RMM:  16    -0.110237464594E+04    0.25126E-05   -0.33365E-06  1263   0.472E-03    0.434E-02
RMM:  17    -0.110237464498E+04    0.95601E-06   -0.14239E-06  1184   0.331E-03
  44 F= -.11094490E+04 E0= -.11094246E+04  d E =-.117886E-02  mag=    12.2252
 curvature:  -0.90 expect dE=-0.763E-02 dE for cont linesearch -0.215E-05
 trial: gam= 2.07233 g(F)=  0.852E-02 g(S)=  0.000E+00 ort =-0.175E-03 (trialstep = 0.536E-01)
 search vector abs. value=  0.626E-01
 bond charge predicted
       N       E                     dE             d eps       ncg     rms          rms(c)
DAV:   1    -0.110237486914E+04   -0.22320E-03   -0.39452E-02  2016   0.439E-01    0.627E-02
RMM:   2    -0.110237499213E+04   -0.12299E-03   -0.95475E-04  2284   0.656E-02    0.216E-01
RMM:   3    -0.110237495620E+04    0.35927E-04   -0.13767E-04  2228   0.276E-02    0.270E-01
RMM:   4    -0.110237497949E+04   -0.23288E-04   -0.11105E-04  2009   0.242E-02    0.282E-01
RMM:   5    -0.110237487613E+04    0.10337E-03   -0.67862E-05  1794   0.196E-02    0.867E-02
RMM:   6    -0.110237495945E+04   -0.83321E-04   -0.27221E-05  1575   0.126E-02    0.697E-02
RMM:   7    -0.110237498026E+04   -0.20811E-04   -0.17970E-05  1506   0.928E-03    0.961E-02
RMM:   8    -0.110237497569E+04    0.45701E-05   -0.20371E-05  1578   0.977E-03    0.736E-02
RMM:   9    -0.110237497814E+04   -0.24505E-05   -0.16438E-05  1527   0.947E-03    0.666E-02
RMM:  10    -0.110237497420E+04    0.39381E-05   -0.11647E-05  1436   0.795E-03    0.403E-02
RMM:  11    -0.110237498100E+04   -0.68004E-05   -0.60785E-06  1341   0.566E-03    0.313E-02
RMM:  12    -0.110237498300E+04   -0.19984E-05   -0.30557E-06  1235   0.445E-03    0.252E-02
RMM:  13    -0.110237498262E+04    0.37677E-06   -0.11879E-06  1139   0.246E-03
  45 F= -.11094494E+04 E0= -.11094250E+04  d E =-.377647E-03  mag=    12.2242
 trial-energy change:   -0.000378  1 .order   -0.000363   -0.000438   -0.000288
 step:   0.1025(harm=  0.1571)  dis= 0.00105  next Energy= -1109.449506 (dE=-0.520E-03)
 bond charge predicted
       N       E                     dE             d eps       ncg     rms          rms(c)
DAV:   1    -0.110237505847E+04   -0.75472E-04   -0.32670E-02  1980   0.400E-01    0.578E-02
RMM:   2    -0.110237518119E+04   -0.12272E-03   -0.80765E-04  2290   0.604E-02    0.245E-01
RMM:   3    -0.110237505942E+04    0.12177E-03   -0.12193E-04  2200   0.266E-02    0.153E-01
RMM:   4    -0.110237522171E+04   -0.16230E-03   -0.85524E-05  1980   0.196E-02    0.347E-01
RMM:   5    -0.110237500724E+04    0.21448E-03   -0.73178E-05  1783   0.195E-02    0.106E-01
RMM:   6    -0.110237508938E+04   -0.82148E-04   -0.23608E-05  1554   0.115E-02    0.753E-02
RMM:   7    -0.110237513341E+04   -0.44028E-04   -0.14697E-05  1521   0.865E-03    0.959E-02
RMM:   8    -0.110237514177E+04   -0.83613E-05   -0.18311E-05  1584   0.968E-03    0.103E-01
RMM:   9    -0.110237512835E+04    0.13425E-04   -0.15304E-05  1535   0.948E-03    0.120E-01
RMM:  10    -0.110237510989E+04    0.18461E-04   -0.95445E-06  1418   0.740E-03    0.867E-02
RMM:  11    -0.110237512111E+04   -0.11225E-04   -0.40134E-06  1316   0.525E-03    0.301E-02
RMM:  12    -0.110237514160E+04   -0.20487E-04   -0.32684E-06  1261   0.445E-03    0.308E-02
RMM:  13    -0.110237514706E+04   -0.54664E-05   -0.25901E-06  1200   0.379E-03    0.411E-02
RMM:  14    -0.110237514295E+04    0.41115E-05   -0.14053E-06  1164   0.322E-03    0.365E-02
RMM:  15    -0.110237514209E+04    0.86272E-06   -0.63575E-07  1116   0.209E-03
  46 F= -.11094496E+04 E0= -.11094252E+04  d E =-.573493E-03  mag=    12.2233
 curvature:  -0.43 expect dE=-0.143E-02 dE for cont linesearch -0.512E-04
 ZBRENT: increasing intervall
 opt :   0.2002  next Energy= -1109.449565 (dE=-0.579E-03)
 bond charge predicted
       N       E                     dE             d eps       ncg     rms          rms(c)
DAV:   1    -0.110237474201E+04    0.40095E-03   -0.13073E-01  1914   0.799E-01    0.113E-01
RMM:   2    -0.110237511612E+04   -0.37412E-03   -0.31670E-03  2287   0.119E-01    0.350E-01
RMM:   3    -0.110237507423E+04    0.41894E-04   -0.43117E-04  2240   0.497E-02    0.463E-01
RMM:   4    -0.110237516418E+04   -0.89956E-04   -0.36654E-04  2211   0.413E-02    0.508E-01
RMM:   5    -0.110237483855E+04    0.32563E-03   -0.23256E-04  1938   0.344E-02    0.151E-01
RMM:   6    -0.110237502013E+04   -0.18158E-03   -0.77103E-05  1790   0.204E-02    0.148E-01
RMM:   7    -0.110237506946E+04   -0.49324E-04   -0.55571E-05  1766   0.161E-02    0.167E-01
RMM:   8    -0.110237508195E+04   -0.12496E-04   -0.69723E-05  1851   0.178E-02    0.167E-01
RMM:   9    -0.110237505111E+04    0.30845E-04   -0.53592E-05  1784   0.169E-02    0.163E-01
RMM:  10    -0.110237502695E+04    0.24156E-04   -0.38590E-05  1693   0.141E-02    0.102E-01
RMM:  11    -0.110237505384E+04   -0.26886E-04   -0.20224E-05  1528   0.105E-02    0.505E-02
RMM:  12    -0.110237507680E+04   -0.22963E-04   -0.11795E-05  1458   0.874E-03    0.719E-02
RMM:  13    -0.110237506627E+04    0.10525E-04   -0.61064E-06  1291   0.561E-03    0.820E-02
RMM:  14    -0.110237505886E+04    0.74168E-05   -0.26304E-06  1206   0.413E-03    0.525E-02
RMM:  15    -0.110237506629E+04   -0.74302E-05   -0.10309E-06  1150   0.265E-03    0.321E-02
RMM:  16    -0.110237507304E+04   -0.67570E-05   -0.62228E-07  1108   0.207E-03    0.995E-03
RMM:  17    -0.110237507918E+04   -0.61354E-05   -0.45488E-07  1069   0.173E-03    0.619E-03
RMM:  18    -0.110237508156E+04   -0.23797E-05   -0.28546E-07  1045   0.146E-03    0.595E-03
RMM:  19    -0.110237508241E+04   -0.85178E-06   -0.14363E-07   998   0.105E-03
  47 F= -.11094496E+04 E0= -.11094253E+04  d E =-.586546E-03  mag=    12.2218
 curvature:  -0.05 expect dE=-0.410E-03 dE for cont linesearch -0.499E-05
 ZBRENT: bracketing found
 ZBRENT: interpolating
 opt :   0.1527  next Energy= -1109.449633 (dE=-0.647E-03)
 bond charge predicted
       N       E                     dE             d eps       ncg     rms          rms(c)
DAV:   1    -0.110237509908E+04   -0.17521E-04   -0.30800E-02  2004   0.388E-01    0.549E-02
RMM:   2    -0.110237519270E+04   -0.93623E-04   -0.74628E-04  2283   0.578E-02    0.206E-01
RMM:   3    -0.110237512825E+04    0.64459E-04   -0.10267E-04  2211   0.242E-02    0.194E-01
RMM:   4    -0.110237520885E+04   -0.80608E-04   -0.85876E-05  1975   0.203E-02    0.278E-01
RMM:   5    -0.110237508125E+04    0.12760E-03   -0.58094E-05  1758   0.175E-02    0.864E-02
RMM:   6    -0.110237515033E+04   -0.69077E-04   -0.20382E-05  1518   0.107E-02    0.662E-02
RMM:   7    -0.110237517490E+04   -0.24571E-04   -0.13941E-05  1469   0.829E-03    0.802E-02
RMM:   8    -0.110237518035E+04   -0.54537E-05   -0.16794E-05  1551   0.897E-03    0.809E-02
RMM:   9    -0.110237517096E+04    0.93887E-05   -0.12125E-05  1471   0.841E-03    0.763E-02
RMM:  10    -0.110237516644E+04    0.45202E-05   -0.95032E-06  1433   0.739E-03    0.471E-02
RMM:  11    -0.110237517547E+04   -0.90275E-05   -0.44271E-06  1327   0.524E-03    0.239E-02
RMM:  12    -0.110237518320E+04   -0.77233E-05   -0.26207E-06  1248   0.423E-03    0.345E-02
RMM:  13    -0.110237517935E+04    0.38469E-05   -0.13524E-06  1148   0.272E-03    0.401E-02
RMM:  14    -0.110237517740E+04    0.19520E-05   -0.58224E-07  1103   0.208E-03    0.253E-02
RMM:  15    -0.110237517956E+04   -0.21673E-05   -0.22894E-07  1040   0.128E-03    0.140E-02
RMM:  16    -0.110237518221E+04   -0.26425E-05   -0.16186E-07   992   0.106E-03    0.264E-03
RMM:  17    -0.110237518432E+04   -0.21153E-05   -0.11275E-07   983   0.888E-04    0.377E-03
RMM:  18    -0.110237518466E+04   -0.33445E-06   -0.67600E-08   930   0.760E-04
  48 F= -.11094496E+04 E0= -.11094253E+04  d E =-.653482E-03  mag=    12.2218
 curvature:  -0.58 expect dE=-0.276E-02 dE for cont linesearch -0.786E-08
 trial: gam= 0.50214 g(F)=  0.477E-02 g(S)=  0.000E+00 ort = 0.292E-04 (trialstep = 0.735E-01)
 search vector abs. value=  0.206E-01
 bond charge predicted
       N       E                     dE             d eps       ncg     rms          rms(c)
DAV:   1    -0.110237542196E+04   -0.23764E-03   -0.22967E-02  2016   0.338E-01    0.441E-02
RMM:   2    -0.110237550775E+04   -0.85788E-04   -0.53609E-04  2260   0.495E-02    0.241E-01
RMM:   3    -0.110237538976E+04    0.11799E-03   -0.81868E-05  2168   0.219E-02    0.119E-01
RMM:   4    -0.110237551609E+04   -0.12633E-03   -0.68878E-05  1940   0.183E-02    0.217E-01
RMM:   5    -0.110237541228E+04    0.10382E-03   -0.37941E-05  1692   0.140E-02    0.632E-02
RMM:   6    -0.110237545803E+04   -0.45758E-04   -0.12116E-05  1427   0.829E-03    0.474E-02
RMM:   7    -0.110237547115E+04   -0.13116E-04   -0.61340E-06  1353   0.578E-03    0.483E-02
RMM:   8    -0.110237547504E+04   -0.38943E-05   -0.47603E-06  1299   0.520E-03    0.473E-02
RMM:   9    -0.110237547170E+04    0.33418E-05   -0.31584E-06  1250   0.449E-03    0.394E-02
RMM:  10    -0.110237547270E+04   -0.99884E-06   -0.26905E-06  1257   0.406E-03
  49 F= -.11094500E+04 E0= -.11094256E+04  d E =-.321092E-03  mag=    12.2215
 ZBRENT: can't locate minimum, use default step
 trial-energy change:   -0.000321  1 .order   -0.000332   -0.000352   -0.000313
 step:   0.2938(harm=  0.6648)  dis= 0.00181  next Energy= -1109.451230 (dE=-0.159E-02)
 bond charge predicted
       N       E                     dE             d eps       ncg     rms          rms(c)
DAV:   1    -0.110237557391E+04   -0.10220E-03   -0.20652E-01  1896   0.101E+00    0.134E-01
RMM:   2    -0.110237628337E+04   -0.70946E-03   -0.48485E-03  2263   0.149E-01    0.540E-01
RMM:   3    -0.110237584600E+04    0.43737E-03   -0.73363E-04  2220   0.656E-02    0.331E-01
RMM:   4    -0.110237658791E+04   -0.74191E-03   -0.51815E-04  2261   0.507E-02    0.791E-01
RMM:   5    -0.110237553270E+04    0.10552E-02   -0.34984E-04  1998   0.416E-02    0.229E-01
RMM:   6    -0.110237596140E+04   -0.42870E-03   -0.16677E-04  1841   0.303E-02    0.189E-01
RMM:   7    -0.110237602447E+04   -0.63068E-04   -0.66825E-05  1806   0.182E-02    0.130E-01
RMM:   8    -0.110237607046E+04   -0.45988E-04   -0.48195E-05  1772   0.156E-02    0.114E-01
RMM:   9    -0.110237608074E+04   -0.10277E-04   -0.33126E-05  1700   0.127E-02    0.150E-01
RMM:  10    -0.110237604740E+04    0.33333E-04   -0.26442E-05  1658   0.118E-02    0.101E-01
RMM:  11    -0.110237606671E+04   -0.19311E-04   -0.16961E-05  1553   0.928E-03    0.498E-02
RMM:  12    -0.110237609391E+04   -0.27200E-04   -0.13485E-05  1479   0.940E-03    0.880E-02
RMM:  13    -0.110237608144E+04    0.12476E-04   -0.78450E-06  1405   0.709E-03    0.103E-01
RMM:  14    -0.110237606611E+04    0.15329E-04   -0.37779E-06  1277   0.511E-03    0.893E-02
RMM:  15    -0.110237606635E+04   -0.23776E-06   -0.18058E-06  1177   0.324E-03
  50 F= -.11094507E+04 E0= -.11094264E+04  d E =-.101374E-02  mag=    12.2199
 curvature:  -0.87 expect dE=-0.179E-02 dE for cont linesearch -0.241E-03
 ZBRENT: increasing intervall
 opt :   0.7346  next Energy= -1109.450887 (dE=-0.125E-02)
 bond charge predicted
       N       E                     dE             d eps       ncg     rms          rms(c)
DAV:   1    -0.110237400528E+04    0.20608E-02   -0.82696E-01  1896   0.203E+00    0.262E-01
RMM:   2    -0.110237668144E+04   -0.26762E-02   -0.19155E-02  2271   0.295E-01    0.102E+00
RMM:   3    -0.110237599399E+04    0.68744E-03   -0.26904E-03  2229   0.126E-01    0.103E+00
RMM:   4    -0.110237734226E+04   -0.13483E-02   -0.24308E-03  2275   0.105E-01    0.111E+00
RMM:   5    -0.110237527670E+04    0.20656E-02   -0.13043E-03  2098   0.807E-02    0.264E-01
RMM:   6    -0.110237591510E+04   -0.63840E-03   -0.33329E-04  2063   0.405E-02    0.247E-01
RMM:   7    -0.110237611918E+04   -0.20408E-03   -0.16880E-04  2135   0.275E-02    0.311E-01
RMM:   8    -0.110237606935E+04    0.49827E-04   -0.14108E-04  1958   0.264E-02    0.329E-01
RMM:   9    -0.110237599830E+04    0.71053E-04   -0.12831E-04  1988   0.252E-02    0.297E-01
RMM:  10    -0.110237596302E+04    0.35282E-04   -0.78486E-05  1854   0.196E-02    0.123E-01
RMM:  11    -0.110237610206E+04   -0.13904E-03   -0.73449E-05  1836   0.206E-02    0.153E-01
RMM:  12    -0.110237611376E+04   -0.11704E-04   -0.49712E-05  1770   0.174E-02    0.230E-01
RMM:  13    -0.110237603895E+04    0.74812E-04   -0.28272E-05  1590   0.120E-02    0.224E-01
RMM:  14    -0.110237600697E+04    0.31982E-04   -0.12471E-05  1424   0.781E-03    0.165E-01
RMM:  15    -0.110237603633E+04   -0.29368E-04   -0.62278E-06  1363   0.599E-03    0.112E-01
RMM:  16    -0.110237606990E+04   -0.33564E-04   -0.42752E-06  1323   0.535E-03    0.485E-02
RMM:  17    -0.110237610787E+04   -0.37969E-04   -0.36943E-06  1319   0.493E-03    0.270E-02
RMM:  18    -0.110237612467E+04   -0.16803E-04   -0.22339E-06  1249   0.405E-03    0.157E-02
RMM:  19    -0.110237613310E+04   -0.84309E-05   -0.11002E-06  1164   0.294E-03    0.867E-03
RMM:  20    -0.110237613831E+04   -0.52044E-05   -0.51031E-07  1095   0.196E-03    0.109E-02
RMM:  21    -0.110237613962E+04   -0.13165E-05   -0.32964E-07  1043   0.165E-03    0.130E-02
RMM:  22    -0.110237614191E+04   -0.22912E-05   -0.20072E-07  1025   0.114E-03    0.109E-02
RMM:  23    -0.110237614446E+04   -0.25451E-05   -0.13600E-07   979   0.920E-04    0.730E-03
RMM:  24    -0.110237614812E+04   -0.36579E-05   -0.11173E-07   920   0.640E-04    0.208E-03
RMM:  25    -0.110237615041E+04   -0.22966E-05   -0.89769E-08   835   0.639E-04    0.272E-03
RMM:  26    -0.110237615263E+04   -0.22136E-05   -0.80597E-08   848   0.555E-04    0.445E-03
RMM:  27    -0.110237615445E+04   -0.18243E-05   -0.69314E-08   833   0.516E-04    0.374E-03
RMM:  28    -0.110237615630E+04   -0.18496E-05   -0.57392E-08   688   0.417E-04    0.165E-03
RMM:  29    -0.110237615885E+04   -0.25490E-05   -0.67415E-08   690   0.417E-04    0.140E-03
RMM:  30    -0.110237616091E+04   -0.20604E-05   -0.81507E-08   764   0.441E-04    0.156E-03
RMM:  31    -0.110237616240E+04   -0.14945E-05   -0.77212E-08   761   0.428E-04    0.536E-04
RMM:  32    -0.110237616368E+04   -0.12779E-05   -0.77015E-08   686   0.409E-04    0.857E-04
RMM:  33    -0.110237616444E+04   -0.75404E-06   -0.67477E-08   670   0.403E-04
  51 F= -.11094509E+04 E0= -.11094267E+04  d E =-.130898E-02  mag=    12.2140
 curvature:  -0.84 expect dE=-0.585E-02 dE for cont linesearch -0.612E-04
 ZBRENT: bracketing found
 ZBRENT: interpolating
 opt :   0.5855  next Energy= -1109.451040 (dE=-0.140E-02)
 bond charge predicted
       N       E                     dE             d eps       ncg     rms          rms(c)
DAV:   1    -0.110237608040E+04    0.83282E-04   -0.94656E-02  2004   0.686E-01    0.907E-02
RMM:   2    -0.110237655185E+04   -0.47145E-03   -0.22382E-03  2261   0.101E-01    0.587E-01
RMM:   3    -0.110237594136E+04    0.61048E-03   -0.37401E-04  2206   0.468E-02    0.175E-01
RMM:   4    -0.110237651499E+04   -0.57362E-03   -0.28919E-04  2181   0.371E-02    0.485E-01
RMM:   5    -0.110237607795E+04    0.43704E-03   -0.16742E-04  1951   0.282E-02    0.133E-01
RMM:   6    -0.110237624935E+04   -0.17140E-03   -0.58509E-05  1715   0.177E-02    0.987E-02
RMM:   7    -0.110237629524E+04   -0.45894E-04   -0.26108E-05  1659   0.114E-02    0.122E-01
RMM:   8    -0.110237629753E+04   -0.22861E-05   -0.20350E-05  1608   0.101E-02    0.102E-01
RMM:   9    -0.110237628986E+04    0.76670E-05   -0.11589E-05  1440   0.787E-03    0.741E-02
RMM:  10    -0.110237629911E+04   -0.92468E-05   -0.11230E-05  1458   0.776E-03    0.401E-02
RMM:  11    -0.110237631910E+04   -0.19996E-04   -0.89786E-06  1445   0.738E-03    0.810E-02
RMM:  12    -0.110237630605E+04    0.13056E-04   -0.72760E-06  1369   0.673E-03    0.943E-02
RMM:  13    -0.110237629218E+04    0.13873E-04   -0.33469E-06  1226   0.442E-03    0.812E-02
RMM:  14    -0.110237629341E+04   -0.12336E-05   -0.16506E-06  1177   0.329E-03    0.483E-02
RMM:  15    -0.110237630579E+04   -0.12384E-04   -0.11452E-06  1166   0.276E-03    0.258E-02
RMM:  16    -0.110237631405E+04   -0.82569E-05   -0.83320E-07  1127   0.241E-03    0.643E-03
RMM:  17    -0.110237631977E+04   -0.57245E-05   -0.64468E-07  1091   0.221E-03    0.793E-03
RMM:  18    -0.110237632068E+04   -0.90763E-06   -0.31919E-07  1037   0.164E-03
  52 F= -.11094510E+04 E0= -.11094268E+04  d E =-.139865E-02  mag=    12.2149
 curvature:  -1.25 expect dE=-0.512E-02 dE for cont linesearch -0.131E-10
 trial: gam= 0.92390 g(F)=  0.408E-02 g(S)=  0.000E+00 ort =-0.464E-06 (trialstep = 0.167E+00)
 search vector abs. value=  0.216E-01
 bond charge predicted
       N       E                     dE             d eps       ncg     rms          rms(c)
DAV:   1    -0.110237649766E+04   -0.17789E-03   -0.12888E-01  1968   0.798E-01    0.100E-01
RMM:   2    -0.110237689039E+04   -0.39272E-03   -0.28811E-03  2287   0.114E-01    0.428E-01
RMM:   3    -0.110237668707E+04    0.20332E-03   -0.39818E-04  2248   0.473E-02    0.371E-01
RMM:   4    -0.110237690808E+04   -0.22102E-03   -0.35637E-04  2210   0.417E-02    0.385E-01
RMM:   5    -0.110237666495E+04    0.24314E-03   -0.15536E-04  1923   0.278E-02    0.805E-02
RMM:   6    -0.110237679004E+04   -0.12509E-03   -0.51913E-05  1743   0.157E-02    0.961E-02
RMM:   7    -0.110237680307E+04   -0.13035E-04   -0.25760E-05  1704   0.107E-02    0.857E-02
RMM:   8    -0.110237680347E+04   -0.40137E-06   -0.21254E-05  1664   0.105E-02    0.747E-02
RMM:   9    -0.110237680725E+04   -0.37834E-05   -0.18294E-05  1542   0.931E-03    0.769E-02
RMM:  10    -0.110237681127E+04   -0.40146E-05   -0.11103E-05  1411   0.737E-03    0.895E-02
RMM:  11    -0.110237680706E+04    0.42061E-05   -0.13417E-05  1461   0.881E-03    0.746E-02
RMM:  12    -0.110237680633E+04    0.73433E-06   -0.81807E-06  1373   0.713E-03
  53 F= -.11094516E+04 E0= -.11094274E+04  d E =-.569711E-03  mag=    12.2147
 trial-energy change:   -0.000570  1 .order   -0.000588   -0.000683   -0.000493
 step:   0.6001(harm=  0.6001)  dis= 0.00350  next Energy= -1109.452263 (dE=-0.123E-02)
 bond charge predicted
       N       E                     dE             d eps       ncg     rms          rms(c)
DAV:   1    -0.110237499081E+04    0.18163E-02   -0.86415E-01  1902   0.207E+00    0.263E-01
RMM:   2    -0.110237763211E+04   -0.26413E-02   -0.19385E-02  2272   0.298E-01    0.958E-01
RMM:   3    -0.110237679018E+04    0.84193E-03   -0.29102E-03  2262   0.125E-01    0.680E-01
RMM:   4    -0.110237918772E+04   -0.23975E-02   -0.18360E-03  2278   0.940E-02    0.144E+00
RMM:   5    -0.110237602083E+04    0.31669E-02   -0.13704E-03  2080   0.794E-02    0.527E-01
RMM:   6    -0.110237690103E+04   -0.88020E-03   -0.65460E-04  2002   0.585E-02    0.257E-01
RMM:   7    -0.110237716862E+04   -0.26759E-03   -0.25802E-04  2010   0.352E-02    0.335E-01
RMM:   8    -0.110237707190E+04    0.96717E-04   -0.16106E-04  2022   0.255E-02    0.195E-01
RMM:   9    -0.110237710279E+04   -0.30886E-04   -0.12517E-04  2054   0.250E-02    0.132E-01
RMM:  10    -0.110237718623E+04   -0.83442E-04   -0.12168E-04  2033   0.236E-02    0.199E-01
RMM:  11    -0.110237710304E+04    0.83190E-04   -0.76323E-05  1886   0.200E-02    0.120E-01
RMM:  12    -0.110237712431E+04   -0.21273E-04   -0.41101E-05  1663   0.141E-02    0.112E-01
RMM:  13    -0.110237712878E+04   -0.44642E-05   -0.21463E-05  1462   0.877E-03    0.861E-02
RMM:  14    -0.110237713788E+04   -0.91074E-05   -0.11860E-05  1427   0.782E-03    0.443E-02
RMM:  15    -0.110237715027E+04   -0.12387E-04   -0.59178E-06  1360   0.608E-03    0.392E-02
RMM:  16    -0.110237715700E+04   -0.67256E-05   -0.28263E-06  1290   0.431E-03    0.328E-02
RMM:  17    -0.110237716153E+04   -0.45362E-05   -0.15887E-06  1198   0.323E-03    0.194E-02
RMM:  18    -0.110237716876E+04   -0.72269E-05   -0.52035E-07  1119   0.187E-03    0.100E-02
RMM:  19    -0.110237717422E+04   -0.54557E-05   -0.37779E-07  1077   0.150E-03    0.889E-03
RMM:  20    -0.110237717666E+04   -0.24465E-05   -0.27746E-07  1024   0.130E-03    0.900E-03
RMM:  21    -0.110237717899E+04   -0.23256E-05   -0.16665E-07   999   0.921E-04    0.403E-03
RMM:  22    -0.110237718160E+04   -0.26080E-05   -0.12815E-07   957   0.822E-04    0.331E-03
RMM:  23    -0.110237718423E+04   -0.26374E-05   -0.10755E-07   897   0.686E-04    0.379E-03
RMM:  24    -0.110237718593E+04   -0.16929E-05   -0.84706E-08   884   0.617E-04    0.218E-03
RMM:  25    -0.110237718735E+04   -0.14220E-05   -0.57710E-08   725   0.492E-04    0.110E-03
RMM:  26    -0.110237718921E+04   -0.18659E-05   -0.53241E-08   718   0.437E-04    0.144E-03
RMM:  27    -0.110237719127E+04   -0.20569E-05   -0.63838E-08   789   0.424E-04    0.613E-04
RMM:  28    -0.110237719279E+04   -0.15191E-05   -0.57343E-08   741   0.425E-04    0.632E-04
RMM:  29    -0.110237719420E+04   -0.14061E-05   -0.58488E-08   704   0.402E-04    0.382E-04
RMM:  30    -0.110237719572E+04   -0.15271E-05   -0.73962E-08   777   0.420E-04    0.498E-04
RMM:  31    -0.110237719683E+04   -0.11096E-05   -0.80423E-08   776   0.427E-04    0.612E-04
RMM:  32    -0.110237719736E+04   -0.53205E-06   -0.61811E-08   708   0.412E-04
  54 F= -.11094522E+04 E0= -.11094280E+04  d E =-.117773E-02  mag=    12.2122
 curvature:  -1.59 expect dE=-0.136E-01 dE for cont linesearch -0.223E-05
 trial: gam= 2.13925 g(F)=  0.857E-02 g(S)=  0.000E+00 ort =-0.174E-03 (trialstep = 0.514E-01)
 search vector abs. value=  0.107E+00
 bond charge predicted
       N       E                     dE             d eps       ncg     rms          rms(c)
DAV:   1    -0.110237733158E+04   -0.13475E-03   -0.60418E-02  2028   0.545E-01    0.707E-02
RMM:   2    -0.110237748817E+04   -0.15659E-03   -0.13942E-03  2295   0.785E-02    0.231E-01
RMM:   3    -0.110237747488E+04    0.13289E-04   -0.18192E-04  2242   0.318E-02    0.320E-01
RMM:   4    -0.110237747015E+04    0.47305E-05   -0.16417E-04  2104   0.280E-02    0.281E-01
RMM:   5    -0.110237738656E+04    0.83594E-04   -0.85888E-05  1809   0.216E-02    0.709E-02
RMM:   6    -0.110237746608E+04   -0.79522E-04   -0.27824E-05  1576   0.117E-02    0.964E-02
RMM:   7    -0.110237747543E+04   -0.93472E-05   -0.17320E-05  1554   0.926E-03    0.107E-01
RMM:   8    -0.110237746353E+04    0.11899E-04   -0.19626E-05  1608   0.100E-02    0.802E-02
RMM:   9    -0.110237746759E+04   -0.40617E-05   -0.17623E-05  1526   0.992E-03    0.702E-02
RMM:  10    -0.110237746769E+04   -0.10070E-06   -0.12346E-05  1445   0.786E-03    0.400E-02
RMM:  11    -0.110237747631E+04   -0.86237E-05   -0.56441E-06  1362   0.604E-03    0.394E-02
RMM:  12    -0.110237747572E+04    0.58899E-06   -0.32556E-06  1282   0.477E-03
  55 F= -.11094526E+04 E0= -.11094283E+04  d E =-.347800E-03  mag=    12.2119
 trial-energy change:   -0.000348  1 .order   -0.000357   -0.000421   -0.000293
 step:   0.1681(harm=  0.1681)  dis= 0.00223  next Energy= -1109.452905 (dE=-0.689E-03)
 bond charge predicted
       N       E                     dE             d eps       ncg     rms          rms(c)
DAV:   1    -0.110237683849E+04    0.63783E-03   -0.31150E-01  1896   0.124E+00    0.163E-01
RMM:   2    -0.110237779730E+04   -0.95881E-03   -0.72417E-03  2276   0.180E-01    0.601E-01
RMM:   3    -0.110237750725E+04    0.29004E-03   -0.10478E-03  2258   0.748E-02    0.601E-01
RMM:   4    -0.110237801480E+04   -0.50755E-03   -0.76463E-04  2227   0.594E-02    0.789E-01
RMM:   5    -0.110237717230E+04    0.84250E-03   -0.54998E-04  2022   0.537E-02    0.243E-01
RMM:   6    -0.110237752723E+04   -0.35493E-03   -0.19696E-04  1908   0.328E-02    0.151E-01
RMM:   7    -0.110237765721E+04   -0.12998E-03   -0.99252E-05  1970   0.216E-02    0.261E-01
RMM:   8    -0.110237758813E+04    0.69076E-04   -0.10123E-04  1924   0.207E-02    0.199E-01
RMM:   9    -0.110237758755E+04    0.58000E-06   -0.90354E-05  1929   0.217E-02    0.116E-01
RMM:  10    -0.110237761817E+04   -0.30618E-04   -0.64231E-05  1795   0.179E-02    0.135E-01
RMM:  11    -0.110237758959E+04    0.28581E-04   -0.33782E-05  1686   0.139E-02    0.711E-02
RMM:  12    -0.110237760276E+04   -0.13169E-04   -0.15296E-05  1461   0.890E-03    0.594E-02
RMM:  13    -0.110237760999E+04   -0.72292E-05   -0.80221E-06  1305   0.550E-03    0.617E-02
RMM:  14    -0.110237761087E+04   -0.88057E-06   -0.45308E-06  1264   0.472E-03
  56 F= -.11094529E+04 E0= -.11094287E+04  d E =-.640449E-03  mag=    12.2114
 curvature:  -1.10 expect dE=-0.634E-02 dE for cont linesearch -0.767E-06
 trial: gam= 0.63754 g(F)=  0.579E-02 g(S)=  0.000E+00 ort =-0.274E-03 (trialstep = 0.747E-01)
 search vector abs. value=  0.489E-01
 bond charge predicted
       N       E                     dE             d eps       ncg     rms          rms(c)
DAV:   1    -0.110237777588E+04   -0.16589E-03   -0.58221E-02  2016   0.535E-01    0.715E-02
RMM:   2    -0.110237809945E+04   -0.32357E-03   -0.13689E-03  2281   0.796E-02    0.472E-01
RMM:   3    -0.110237770081E+04    0.39864E-03   -0.23368E-04  2218   0.367E-02    0.170E-01
RMM:   4    -0.110237800252E+04   -0.30170E-03   -0.18520E-04  2122   0.299E-02    0.315E-01
RMM:   5    -0.110237783435E+04    0.16817E-03   -0.10103E-04  1854   0.234E-02    0.149E-01
RMM:   6    -0.110237789781E+04   -0.63463E-04   -0.40951E-05  1641   0.149E-02    0.959E-02
RMM:   7    -0.110237790557E+04   -0.77649E-05   -0.18665E-05  1525   0.100E-02    0.544E-02
RMM:   8    -0.110237792517E+04   -0.19594E-04   -0.12553E-05  1427   0.785E-03    0.701E-02
RMM:   9    -0.110237792006E+04    0.51095E-05   -0.77318E-06  1389   0.659E-03    0.477E-02
RMM:  10    -0.110237792468E+04   -0.46245E-05   -0.65267E-06  1358   0.604E-03    0.377E-02
RMM:  11    -0.110237793011E+04   -0.54229E-05   -0.62693E-06  1353   0.572E-03    0.388E-02
RMM:  12    -0.110237793147E+04   -0.13669E-05   -0.37004E-06  1285   0.502E-03    0.553E-02
RMM:  13    -0.110237792474E+04    0.67333E-05   -0.17315E-06  1183   0.343E-03    0.550E-02
RMM:  14    -0.110237792310E+04    0.16426E-05   -0.90972E-07  1130   0.236E-03    0.419E-02
RMM:  15    -0.110237792665E+04   -0.35526E-05   -0.42854E-07  1094   0.173E-03    0.258E-02
RMM:  16    -0.110237793142E+04   -0.47686E-05   -0.34049E-07  1061   0.150E-03    0.126E-02
RMM:  17    -0.110237793552E+04   -0.41064E-05   -0.34632E-07  1044   0.154E-03    0.441E-03
RMM:  18    -0.110237793800E+04   -0.24755E-05   -0.20740E-07  1013   0.126E-03    0.395E-03
RMM:  19    -0.110237793886E+04   -0.85869E-06   -0.94463E-08   973   0.821E-04
  57 F= -.11094533E+04 E0= -.11094291E+04  d E =-.406291E-03  mag=    12.2113
 ZBRENT: can't locate minimum, use default step
 trial-energy change:   -0.000406  1 .order   -0.000384   -0.000419   -0.000349
 step:   0.2989(harm=  0.4451)  dis= 0.00266  next Energy= -1109.454105 (dE=-0.125E-02)
 bond charge predicted
       N       E                     dE             d eps       ncg     rms          rms(c)
DAV:   1    -0.110237711040E+04    0.82760E-03   -0.52397E-01  1896   0.160E+00    0.203E-01
RMM:   2    -0.110237851799E+04   -0.14076E-02   -0.11792E-02  2295   0.230E-01    0.584E-01
RMM:   3    -0.110237897996E+04   -0.46197E-03   -0.16010E-03  2244   0.948E-02    0.984E-01
RMM:   4    -0.110237885156E+04    0.12840E-03   -0.14546E-03  2280   0.811E-02    0.929E-01
RMM:   5    -0.110237789413E+04    0.95743E-03   -0.90543E-04  2072   0.702E-02    0.332E-01
RMM:   6    -0.110237826060E+04   -0.36647E-03   -0.25460E-04  1961   0.365E-02    0.201E-01
RMM:   7    -0.110237838993E+04   -0.12933E-03   -0.13026E-04  1958   0.248E-02    0.186E-01
RMM:   8    -0.110237839354E+04   -0.36115E-05   -0.77525E-05  1928   0.192E-02    0.150E-01
RMM:   9    -0.110237839053E+04    0.30173E-05   -0.61271E-05  1800   0.172E-02    0.150E-01
RMM:  10    -0.110237839410E+04   -0.35702E-05   -0.64161E-05  1829   0.172E-02    0.857E-02
RMM:  11    -0.110237843022E+04   -0.36127E-04   -0.39857E-05  1738   0.146E-02    0.115E-01
RMM:  12    -0.110237841047E+04    0.19751E-04   -0.26607E-05  1568   0.122E-02    0.128E-01
RMM:  13    -0.110237839143E+04    0.19042E-04   -0.13033E-05  1434   0.823E-03    0.124E-01
RMM:  14    -0.110237838619E+04    0.52432E-05   -0.66520E-06  1355   0.622E-03    0.856E-02
RMM:  15    -0.110237840388E+04   -0.17691E-04   -0.32384E-06  1307   0.466E-03    0.457E-02
RMM:  16    -0.110237842175E+04   -0.17872E-04   -0.19174E-06  1226   0.366E-03    0.133E-02
RMM:  17    -0.110237843424E+04   -0.12494E-04   -0.14211E-06  1169   0.323E-03    0.195E-02
RMM:  18    -0.110237843615E+04   -0.19117E-05   -0.77748E-07  1114   0.250E-03    0.210E-02
RMM:  19    -0.110237843652E+04   -0.36159E-06   -0.32223E-07  1067   0.167E-03
  58 F= -.11094540E+04 E0= -.11094298E+04  d E =-.113865E-02  mag=    12.2117
 curvature:  -1.64 expect dE=-0.329E-02 dE for cont linesearch -0.116E-03
 ZBRENT: increasing intervall
 opt :   0.7473  next Energy= -1109.453574 (dE=-0.717E-03)
 bond charge predicted
       N       E                     dE             d eps       ncg     rms          rms(c)
DAV:   1    -0.110237224772E+04    0.61884E-02   -0.20959E+00  1896   0.321E+00    0.407E-01
RMM:   2    -0.110237810795E+04   -0.58602E-02   -0.47183E-02  2293   0.461E-01    0.120E+00
RMM:   3    -0.110237972742E+04   -0.16195E-02   -0.63613E-03  2246   0.189E-01    0.179E+00
RMM:   4    -0.110238020996E+04   -0.48253E-03   -0.56077E-03  2301   0.157E-01    0.179E+00
RMM:   5    -0.110237654818E+04    0.36618E-02   -0.34615E-03  2121   0.138E-01    0.835E-01
RMM:   6    -0.110237680603E+04   -0.25784E-03   -0.10843E-03  2085   0.752E-02    0.277E-01
RMM:   7    -0.110237758956E+04   -0.78353E-03   -0.56843E-04  2095   0.518E-02    0.390E-01
RMM:   8    -0.110237744941E+04    0.14014E-03   -0.28333E-04  2137   0.368E-02    0.310E-01
RMM:   9    -0.110237747589E+04   -0.26473E-04   -0.26350E-04  2067   0.347E-02    0.331E-01
RMM:  10    -0.110237745777E+04    0.18121E-04   -0.25987E-04  2090   0.333E-02    0.190E-01
RMM:  11    -0.110237756191E+04   -0.10414E-03   -0.16714E-04  2054   0.290E-02    0.247E-01
RMM:  12    -0.110237750933E+04    0.52578E-04   -0.11607E-04  1856   0.240E-02    0.299E-01
RMM:  13    -0.110237741729E+04    0.92035E-04   -0.56757E-05  1751   0.162E-02    0.277E-01
RMM:  14    -0.110237738487E+04    0.32422E-04   -0.25085E-05  1581   0.115E-02    0.195E-01
RMM:  15    -0.110237743600E+04   -0.51132E-04   -0.14523E-05  1493   0.946E-03    0.111E-01
RMM:  16    -0.110237749506E+04   -0.59057E-04   -0.93489E-06  1455   0.785E-03    0.327E-02
RMM:  17    -0.110237754166E+04   -0.46599E-04   -0.77523E-06  1432   0.711E-03    0.437E-02
RMM:  18    -0.110237754974E+04   -0.80800E-05   -0.38814E-06  1306   0.520E-03    0.486E-02
RMM:  19    -0.110237754931E+04    0.42465E-06   -0.13247E-06  1176   0.332E-03
  59 F= -.11094536E+04 E0= -.11094294E+04  d E =-.720110E-03  mag=    12.2129
 curvature:   5.92 expect dE= 0.627E-01 dE for cont linesearch  0.168E-02
 ZBRENT: bracketing found
 ZBRENT: interpolating
 opt :   0.4486  next Energy= -1109.454134 (dE=-0.128E-02)
 bond charge predicted
       N       E                     dE             d eps       ncg     rms          rms(c)
DAV:   1    -0.110237605146E+04    0.14983E-02   -0.92965E-01  1896   0.214E+00    0.269E-01
RMM:   2    -0.110237825825E+04   -0.22068E-02   -0.20815E-02  2296   0.306E-01    0.440E-01
RMM:   3    -0.110238051658E+04   -0.22583E-02   -0.32346E-03  2226   0.135E-01    0.152E+00
RMM:   4    -0.110237864793E+04    0.18687E-02   -0.21966E-03  2306   0.102E-01    0.136E+00
RMM:   5    -0.110237718774E+04    0.14602E-02   -0.15241E-03  2069   0.885E-02    0.349E-01
RMM:   6    -0.110237820749E+04   -0.10198E-02   -0.58308E-04  1984   0.557E-02    0.187E-01
RMM:   7    -0.110237843218E+04   -0.22469E-03   -0.18931E-04  2108   0.291E-02    0.251E-01
RMM:   8    -0.110237835894E+04    0.73241E-04   -0.11972E-04  2028   0.249E-02    0.167E-01
RMM:   9    -0.110237847384E+04   -0.11490E-03   -0.91471E-05  1909   0.209E-02    0.353E-01
RMM:  10    -0.110237828664E+04    0.18720E-03   -0.12291E-04  1934   0.248E-02    0.139E-01
RMM:  11    -0.110237842431E+04   -0.13767E-03   -0.99773E-05  1952   0.236E-02    0.143E-01
RMM:  12    -0.110237840422E+04    0.20090E-04   -0.50357E-05  1757   0.170E-02    0.164E-01
RMM:  13    -0.110237837454E+04    0.29681E-04   -0.23516E-05  1575   0.116E-02    0.152E-01
RMM:  14    -0.110237837636E+04   -0.18160E-05   -0.83337E-06  1426   0.740E-03    0.985E-02
RMM:  15    -0.110237839717E+04   -0.20813E-04   -0.43401E-06  1314   0.490E-03    0.631E-02
RMM:  16    -0.110237841534E+04   -0.18168E-04   -0.37155E-06  1272   0.458E-03    0.182E-02
RMM:  17    -0.110237843157E+04   -0.16230E-04   -0.20967E-06  1241   0.392E-03    0.222E-02
RMM:  18    -0.110237843461E+04   -0.30440E-05   -0.12290E-06  1154   0.307E-03    0.203E-02
RMM:  19    -0.110237843400E+04    0.60612E-06   -0.54031E-07  1101   0.220E-03
  60 F= -.11094541E+04 E0= -.11094300E+04  d E =-.129272E-02  mag=    12.2125
 curvature:  -0.49 expect dE=-0.146E-02 dE for cont linesearch -0.641E-07
 trial: gam= 0.49140 g(F)=  0.296E-02 g(S)=  0.000E+00 ort = 0.797E-04 (trialstep = 0.149E+00)
 search vector abs. value=  0.148E-01
 bond charge predicted
       N       E                     dE             d eps       ncg     rms          rms(c)
DAV:   1    -0.110237857725E+04   -0.14264E-03   -0.70819E-02  2004   0.592E-01    0.739E-02
RMM:   2    -0.110237877631E+04   -0.19906E-03   -0.16005E-03  2265   0.862E-02    0.242E-01
RMM:   3    -0.110237875623E+04    0.20086E-04   -0.22679E-04  2222   0.366E-02    0.334E-01
RMM:   4    -0.110237876437E+04   -0.81455E-05   -0.18805E-04  2145   0.292E-02    0.333E-01
RMM:   5    -0.110237864413E+04    0.12024E-03   -0.11837E-04  1865   0.252E-02    0.994E-02
RMM:   6    -0.110237872869E+04   -0.84563E-04   -0.38069E-05  1652   0.144E-02    0.715E-02
RMM:   7    -0.110237874672E+04   -0.18031E-04   -0.13158E-05  1479   0.795E-03    0.880E-02
RMM:   8    -0.110237874252E+04    0.41997E-05   -0.13742E-05  1523   0.853E-03    0.885E-02
RMM:   9    -0.110237873579E+04    0.67374E-05   -0.13123E-05  1472   0.876E-03    0.601E-02
RMM:  10    -0.110237874352E+04   -0.77360E-05   -0.97145E-06  1416   0.726E-03    0.463E-02
RMM:  11    -0.110237875107E+04   -0.75461E-05   -0.65353E-06  1369   0.627E-03    0.358E-02
RMM:  12    -0.110237875241E+04   -0.13383E-05   -0.41097E-06  1301   0.531E-03    0.479E-02
RMM:  13    -0.110237874558E+04    0.68228E-05   -0.19067E-06  1207   0.365E-03    0.439E-02
RMM:  14    -0.110237874635E+04   -0.76408E-06   -0.93465E-07  1138   0.256E-03
  61 F= -.11094545E+04 E0= -.11094303E+04  d E =-.380537E-03  mag=    12.2123
 trial-energy change:   -0.000381  1 .order   -0.000388   -0.000449   -0.000328
 step:   0.5559(harm=  0.5559)  dis= 0.00272  next Energy= -1109.454983 (dE=-0.834E-03)
 bond charge predicted
       N       E                     dE             d eps       ncg     rms          rms(c)
DAV:   1    -0.110237768533E+04    0.10603E-02   -0.52354E-01  1896   0.161E+00    0.200E-01
RMM:   2    -0.110237901521E+04   -0.13299E-02   -0.11776E-02  2280   0.232E-01    0.443E-01
RMM:   3    -0.110237958593E+04   -0.57072E-03   -0.17438E-03  2228   0.101E-01    0.790E-01
RMM:   4    -0.110237984218E+04   -0.25625E-03   -0.11104E-03  2335   0.689E-02    0.117E+00
RMM:   5    -0.110237800740E+04    0.18348E-02   -0.91427E-04  2040   0.685E-02    0.267E-01
RMM:   6    -0.110237880833E+04   -0.80093E-03   -0.30961E-04  1920   0.411E-02    0.239E-01
RMM:   7    -0.110237894532E+04   -0.13698E-03   -0.11777E-04  1975   0.239E-02    0.217E-01
RMM:   8    -0.110237896927E+04   -0.23949E-04   -0.10218E-04  1999   0.231E-02    0.246E-01
RMM:   9    -0.110237890724E+04    0.62026E-04   -0.86118E-05  1862   0.215E-02    0.225E-01
RMM:  10    -0.110237891672E+04   -0.94765E-05   -0.66839E-05  1829   0.174E-02    0.134E-01
RMM:  11    -0.110237896695E+04   -0.50234E-04   -0.44263E-05  1750   0.156E-02    0.106E-01
RMM:  12    -0.110237898676E+04   -0.19813E-04   -0.33941E-05  1634   0.136E-02    0.146E-01
RMM:  13    -0.110237895477E+04    0.31993E-04   -0.21160E-05  1522   0.106E-02    0.146E-01
RMM:  14    -0.110237894325E+04    0.11519E-04   -0.94102E-06  1410   0.765E-03    0.115E-01
RMM:  15    -0.110237895252E+04   -0.92675E-05   -0.48230E-06  1344   0.562E-03    0.854E-02
RMM:  16    -0.110237896334E+04   -0.10822E-04   -0.18166E-06  1209   0.362E-03    0.274E-02
RMM:  17    -0.110237898884E+04   -0.25504E-04   -0.19102E-06  1216   0.348E-03    0.148E-02
RMM:  18    -0.110237899715E+04   -0.83040E-05   -0.94224E-07  1139   0.271E-03    0.927E-03
RMM:  19    -0.110237899985E+04   -0.27030E-05   -0.42301E-07  1087   0.182E-03    0.716E-03
RMM:  20    -0.110237900074E+04   -0.89413E-06   -0.24451E-07  1034   0.144E-03
  62 F= -.11094550E+04 E0= -.11094308E+04  d E =-.820113E-03  mag=    12.2124
 curvature:  -1.37 expect dE=-0.835E-02 dE for cont linesearch -0.255E-06
 trial: gam= 2.09690 g(F)=  0.608E-02 g(S)=  0.000E+00 ort =-0.525E-04 (trialstep = 0.482E-01)
 search vector abs. value=  0.711E-01
 bond charge predicted
       N       E                     dE             d eps       ncg     rms          rms(c)
DAV:   1    -0.110237910690E+04   -0.10705E-03   -0.35254E-02  2016   0.417E-01    0.566E-02
RMM:   2    -0.110237935809E+04   -0.25119E-03   -0.86064E-04  2273   0.629E-02    0.471E-01
RMM:   3    -0.110237892289E+04    0.43521E-03   -0.16888E-04  2195   0.314E-02    0.646E-02
RMM:   4    -0.110237921543E+04   -0.29254E-03   -0.10902E-04  2025   0.237E-02    0.174E-01
RMM:   5    -0.110237915729E+04    0.58134E-04   -0.33678E-05  1683   0.137E-02    0.542E-02
RMM:   6    -0.110237919453E+04   -0.37232E-04   -0.16436E-05  1518   0.954E-03    0.912E-02
RMM:   7    -0.110237919237E+04    0.21558E-05   -0.10499E-05  1421   0.692E-03    0.104E-01
RMM:   8    -0.110237917649E+04    0.15878E-04   -0.10310E-05  1425   0.779E-03    0.549E-02
RMM:   9    -0.110237919192E+04   -0.15428E-04   -0.85873E-06  1387   0.681E-03    0.609E-02
RMM:  10    -0.110237919537E+04   -0.34512E-05   -0.83563E-06  1385   0.660E-03    0.722E-02
RMM:  11    -0.110237918769E+04    0.76809E-05   -0.54381E-06  1342   0.604E-03    0.836E-02
RMM:  12    -0.110237917614E+04    0.11552E-04   -0.31596E-06  1259   0.433E-03    0.768E-02
RMM:  13    -0.110237917455E+04    0.15918E-05   -0.14072E-06  1165   0.323E-03    0.354E-02
RMM:  14    -0.110237918725E+04   -0.12701E-04   -0.90391E-07  1126   0.233E-03    0.153E-02
RMM:  15    -0.110237919526E+04   -0.80110E-05   -0.52399E-07  1085   0.188E-03    0.807E-03
RMM:  16    -0.110237919808E+04   -0.28221E-05   -0.32903E-07  1057   0.159E-03    0.605E-03
RMM:  17    -0.110237919914E+04   -0.10624E-05   -0.17458E-07  1033   0.121E-03    0.492E-03
RMM:  18    -0.110237919924E+04   -0.95773E-07   -0.88136E-08   958   0.886E-04
  63 F= -.11094552E+04 E0= -.11094310E+04  d E =-.250698E-03  mag=    12.2120
 trial-energy change:   -0.000251  1 .order   -0.000247   -0.000287   -0.000206
 step:   0.1187(harm=  0.1700)  dis= 0.00129  next Energy= -1109.455383 (dE=-0.414E-03)
 bond charge predicted
       N       E                     dE             d eps       ncg     rms          rms(c)
DAV:   1    -0.110237914756E+04    0.51586E-04   -0.75586E-02  1914   0.610E-01    0.807E-02
RMM:   2    -0.110237948588E+04   -0.33832E-03   -0.18027E-03  2276   0.908E-02    0.467E-01
RMM:   3    -0.110237909884E+04    0.38704E-03   -0.27168E-04  2238   0.394E-02    0.185E-01
RMM:   4    -0.110237942412E+04   -0.32528E-03   -0.21854E-04  2151   0.329E-02    0.277E-01
RMM:   5    -0.110237925835E+04    0.16576E-03   -0.79603E-05  1843   0.206E-02    0.735E-02
RMM:   6    -0.110237932474E+04   -0.66381E-04   -0.31417E-05  1639   0.123E-02    0.951E-02
RMM:   7    -0.110237933755E+04   -0.12818E-04   -0.25086E-05  1701   0.106E-02    0.124E-01
RMM:   8    -0.110237931491E+04    0.22639E-04   -0.21742E-05  1607   0.103E-02    0.102E-01
RMM:   9    -0.110237931650E+04   -0.15811E-05   -0.18288E-05  1478   0.946E-03    0.805E-02
RMM:  10    -0.110237933080E+04   -0.14304E-04   -0.16292E-05  1472   0.922E-03    0.666E-02
RMM:  11    -0.110237933049E+04    0.30877E-06   -0.85313E-06  1368   0.728E-03
  64 F= -.11094554E+04 E0= -.11094312E+04  d E =-.458413E-03  mag=    12.2116
 curvature:  -0.83 expect dE=-0.218E-02 dE for cont linesearch -0.425E-04
 ZBRENT: increasing intervall
 opt :   0.2598  next Energy= -1109.455361 (dE=-0.392E-03)
 bond charge predicted
       N       E                     dE             d eps       ncg     rms          rms(c)
DAV:   1    -0.110237830394E+04    0.10269E-02   -0.30208E-01  1902   0.122E+00    0.171E-01
RMM:   2    -0.110238055612E+04   -0.22522E-02   -0.74909E-03  2263   0.188E-01    0.129E+00
RMM:   3    -0.110237780207E+04    0.27541E-02   -0.14660E-03  2226   0.920E-02    0.360E-01
RMM:   4    -0.110237951076E+04   -0.17087E-02   -0.10598E-03  2244   0.712E-02    0.588E-01
RMM:   5    -0.110237903542E+04    0.47534E-03   -0.35758E-04  2055   0.426E-02    0.404E-01
RMM:   6    -0.110237891512E+04    0.12029E-03   -0.21435E-04  1940   0.346E-02    0.171E-01
RMM:   7    -0.110237908596E+04   -0.17083E-03   -0.11391E-04  1918   0.225E-02    0.267E-01
RMM:   8    -0.110237906230E+04    0.23653E-04   -0.11277E-04  1939   0.215E-02    0.233E-01
RMM:   9    -0.110237901563E+04    0.46677E-04   -0.97282E-05  1917   0.225E-02    0.138E-01
RMM:  10    -0.110237906898E+04   -0.53356E-04   -0.61823E-05  1817   0.175E-02    0.192E-01
RMM:  11    -0.110237902321E+04    0.45768E-04   -0.35498E-05  1639   0.136E-02    0.160E-01
RMM:  12    -0.110237901953E+04    0.36796E-05   -0.16867E-05  1465   0.967E-03    0.116E-01
RMM:  13    -0.110237903171E+04   -0.12175E-04   -0.68473E-06  1371   0.633E-03    0.599E-02
RMM:  14    -0.110237905699E+04   -0.25281E-04   -0.55163E-06  1346   0.586E-03    0.287E-02
RMM:  15    -0.110237907228E+04   -0.15292E-04   -0.43480E-06  1346   0.543E-03    0.350E-02
RMM:  16    -0.110237907262E+04   -0.34129E-06   -0.18643E-06  1210   0.383E-03
  65 F= -.11094553E+04 E0= -.11094311E+04  d E =-.353440E-03  mag=    12.2111
 curvature:   1.30 expect dE= 0.144E-01 dE for cont linesearch  0.192E-03
 ZBRENT: bracketing found
 ZBRENT: interpolating
 opt :   0.1709  next Energy= -1109.455477 (dE=-0.508E-03)
 bond charge predicted
       N       E                     dE             d eps       ncg     rms          rms(c)
DAV:   1    -0.110237901355E+04    0.58734E-04   -0.12002E-01  1956   0.769E-01    0.103E-01
RMM:   2    -0.110237970585E+04   -0.69230E-03   -0.28934E-03  2275   0.115E-01    0.707E-01
RMM:   3    -0.110237881965E+04    0.88620E-03   -0.48821E-04  2220   0.531E-02    0.166E-01
RMM:   4    -0.110237946760E+04   -0.64795E-03   -0.34147E-04  2194   0.406E-02    0.410E-01
RMM:   5    -0.110237917106E+04    0.29654E-03   -0.14939E-04  1952   0.261E-02    0.133E-01
RMM:   6    -0.110237929386E+04   -0.12280E-03   -0.67446E-05  1754   0.185E-02    0.115E-01
RMM:   7    -0.110237934116E+04   -0.47293E-04   -0.40099E-05  1767   0.133E-02    0.187E-01
RMM:   8    -0.110237928940E+04    0.51753E-04   -0.36538E-05  1702   0.128E-02    0.132E-01
RMM:   9    -0.110237929941E+04   -0.10005E-04   -0.34560E-05  1691   0.133E-02    0.661E-02
RMM:  10    -0.110237933166E+04   -0.32247E-04   -0.25753E-05  1614   0.109E-02    0.981E-02
RMM:  11    -0.110237931814E+04    0.13515E-04   -0.13707E-05  1466   0.891E-03    0.117E-01
RMM:  12    -0.110237929810E+04    0.20041E-04   -0.73910E-06  1361   0.639E-03    0.972E-02
RMM:  13    -0.110237929599E+04    0.21110E-05   -0.31062E-06  1212   0.414E-03    0.546E-02
RMM:  14    -0.110237931147E+04   -0.15487E-04   -0.20965E-06  1210   0.349E-03    0.246E-02
RMM:  15    -0.110237932316E+04   -0.11681E-04   -0.15892E-06  1188   0.328E-03    0.136E-02
RMM:  16    -0.110237932724E+04   -0.40875E-05   -0.86017E-07  1129   0.255E-03    0.104E-02
RMM:  17    -0.110237932802E+04   -0.78139E-06   -0.47435E-07  1079   0.199E-03
  66 F= -.11094555E+04 E0= -.11094313E+04  d E =-.512488E-03  mag=    12.2111
 curvature:  -0.34 expect dE=-0.139E-02 dE for cont linesearch -0.265E-08
 trial: gam= 0.66542 g(F)=  0.415E-02 g(S)=  0.000E+00 ort =-0.237E-04 (trialstep = 0.727E-01)
 search vector abs. value=  0.356E-01
 bond charge predicted
       N       E                     dE             d eps       ncg     rms          rms(c)
DAV:   1    -0.110237944349E+04   -0.11625E-03   -0.40649E-02  2004   0.447E-01    0.584E-02
RMM:   2    -0.110237960358E+04   -0.16009E-03   -0.93654E-04  2276   0.661E-02    0.302E-01
RMM:   3    -0.110237943633E+04    0.16725E-03   -0.14303E-04  2234   0.280E-02    0.174E-01
RMM:   4    -0.110237960051E+04   -0.16418E-03   -0.13073E-04  2055   0.254E-02    0.218E-01
RMM:   5    -0.110237952418E+04    0.76325E-04   -0.49552E-05  1709   0.161E-02    0.107E-01
RMM:   6    -0.110237951950E+04    0.46836E-05   -0.14230E-05  1469   0.842E-03    0.404E-02
RMM:   7    -0.110237954171E+04   -0.22212E-04   -0.93119E-06  1394   0.697E-03    0.607E-02
RMM:   8    -0.110237953775E+04    0.39656E-05   -0.60635E-06  1341   0.573E-03    0.548E-02
RMM:   9    -0.110237953645E+04    0.12905E-05   -0.48843E-06  1295   0.524E-03    0.232E-02
RMM:  10    -0.110237954675E+04   -0.10290E-04   -0.49866E-06  1336   0.528E-03    0.350E-02
RMM:  11    -0.110237954588E+04    0.86939E-06   -0.36726E-06  1292   0.470E-03
  67 F= -.11094558E+04 E0= -.11094315E+04  d E =-.277381E-03  mag=    12.2108
 ZBRENT: can't locate minimum, use default step
 trial-energy change:   -0.000277  1 .order   -0.000284   -0.000301   -0.000267
 step:   0.2908(harm=  0.6471)  dis= 0.00220  next Energy= -1109.456819 (dE=-0.134E-02)
 bond charge predicted
       N       E                     dE             d eps       ncg     rms          rms(c)
DAV:   1    -0.110237901566E+04    0.53109E-03   -0.36568E-01  1896   0.134E+00    0.176E-01
RMM:   2    -0.110238030552E+04   -0.12899E-02   -0.84642E-03  2259   0.200E-01    0.567E-01
RMM:   3    -0.110238012356E+04    0.18196E-03   -0.13867E-03  2237   0.882E-02    0.646E-01
RMM:   4    -0.110238055799E+04   -0.43443E-03   -0.87023E-04  2336   0.596E-02    0.949E-01
RMM:   5    -0.110237952270E+04    0.10353E-02   -0.73980E-04  2027   0.630E-02    0.417E-01
RMM:   6    -0.110237969256E+04   -0.16987E-03   -0.24892E-04  1942   0.370E-02    0.121E-01
RMM:   7    -0.110237991352E+04   -0.22095E-03   -0.10496E-04  1932   0.225E-02    0.137E-01
RMM:   8    -0.110237991994E+04   -0.64191E-05   -0.49184E-05  1907   0.160E-02    0.105E-01
RMM:   9    -0.110237993261E+04   -0.12675E-04   -0.39582E-05  1697   0.134E-02    0.138E-01
RMM:  10    -0.110237993962E+04   -0.70125E-05   -0.42532E-05  1755   0.137E-02    0.144E-01
RMM:  11    -0.110237991976E+04    0.19866E-04   -0.29453E-05  1583   0.111E-02    0.780E-02
RMM:  12    -0.110237994450E+04   -0.24741E-04   -0.24577E-05  1583   0.117E-02    0.644E-02
RMM:  13    -0.110237993941E+04    0.50878E-05   -0.10229E-05  1420   0.755E-03    0.610E-02
RMM:  14    -0.110237994004E+04   -0.62552E-06   -0.47840E-06  1335   0.540E-03
  68 F= -.11094563E+04 E0= -.11094321E+04  d E =-.849999E-03  mag=    12.2100
 curvature:  -1.71 expect dE=-0.305E-02 dE for cont linesearch -0.174E-03
 ZBRENT: increasing intervall
 opt :   0.7270  next Energy= -1109.456387 (dE=-0.906E-03)
 bond charge predicted
       N       E                     dE             d eps       ncg     rms          rms(c)
DAV:   1    -0.110237589154E+04    0.40479E-02   -0.14637E+00  1896   0.268E+00    0.351E-01
RMM:   2    -0.110238136136E+04   -0.54698E-02   -0.33734E-02  2273   0.398E-01    0.140E+00
RMM:   3    -0.110237998529E+04    0.13761E-02   -0.50839E-03  2253   0.168E-01    0.146E+00
RMM:   4    -0.110238104930E+04   -0.10640E-02   -0.44032E-03  2273   0.141E-01    0.127E+00
RMM:   5    -0.110237894521E+04    0.21041E-02   -0.20282E-03  2109   0.107E-01    0.250E-01
RMM:   6    -0.110237951636E+04   -0.57115E-03   -0.40257E-04  2181   0.424E-02    0.325E-01
RMM:   7    -0.110237972050E+04   -0.20414E-03   -0.30482E-04  2101   0.358E-02    0.388E-01
RMM:   8    -0.110237956106E+04    0.15945E-03   -0.21440E-04  2108   0.314E-02    0.292E-01
RMM:   9    -0.110237956061E+04    0.45139E-06   -0.15236E-04  1950   0.275E-02    0.322E-01
RMM:  10    -0.110237958789E+04   -0.27284E-04   -0.17898E-04  2036   0.294E-02    0.261E-01
RMM:  11    -0.110237960909E+04   -0.21204E-04   -0.14959E-04  1919   0.273E-02    0.186E-01
RMM:  12    -0.110237961995E+04   -0.10852E-04   -0.76217E-05  1833   0.202E-02    0.197E-01
RMM:  13    -0.110237957356E+04    0.46385E-04   -0.36052E-05  1703   0.143E-02    0.151E-01
RMM:  14    -0.110237958301E+04   -0.94546E-05   -0.16689E-05  1473   0.967E-03    0.110E-01
RMM:  15    -0.110237960194E+04   -0.18925E-04   -0.78460E-06  1399   0.705E-03    0.499E-02
RMM:  16    -0.110237963188E+04   -0.29942E-04   -0.39466E-06  1334   0.518E-03    0.175E-02
RMM:  17    -0.110237965046E+04   -0.18575E-04   -0.29662E-06  1306   0.454E-03    0.211E-02
RMM:  18    -0.110237965691E+04   -0.64544E-05   -0.15798E-06  1208   0.337E-03    0.157E-02
RMM:  19    -0.110237965968E+04   -0.27692E-05   -0.74555E-07  1137   0.242E-03    0.896E-03
RMM:  20    -0.110237966374E+04   -0.40611E-05   -0.34396E-07  1070   0.138E-03    0.643E-03
RMM:  21    -0.110237966579E+04   -0.20479E-05   -0.25582E-07  1015   0.126E-03    0.768E-03
RMM:  22    -0.110237966942E+04   -0.36331E-05   -0.20397E-07  1059   0.968E-04    0.814E-03
RMM:  23    -0.110237967175E+04   -0.23248E-05   -0.15326E-07  1000   0.873E-04    0.645E-03
RMM:  24    -0.110237967321E+04   -0.14657E-05   -0.10546E-07   855   0.668E-04    0.359E-03
RMM:  25    -0.110237967490E+04   -0.16905E-05   -0.77984E-08   800   0.581E-04    0.208E-03
RMM:  26    -0.110237967667E+04   -0.17645E-05   -0.74589E-08   844   0.546E-04    0.320E-03
RMM:  27    -0.110237967810E+04   -0.14300E-05   -0.64032E-08   814   0.496E-04    0.279E-03
RMM:  28    -0.110237967961E+04   -0.15077E-05   -0.61706E-08   743   0.446E-04    0.735E-04
RMM:  29    -0.110237968091E+04   -0.13062E-05   -0.59718E-08   720   0.437E-04    0.136E-03
RMM:  30    -0.110237968159E+04   -0.67723E-06   -0.46935E-08   670   0.398E-04
  69 F= -.11094564E+04 E0= -.11094323E+04  d E =-.947893E-03  mag=    12.2067
 curvature:  -0.55 expect dE=-0.346E-02 dE for cont linesearch -0.352E-04
 ZBRENT: bracketing found
 ZBRENT: interpolating
 opt :   0.5337  next Energy= -1109.456576 (dE=-0.109E-02)
 bond charge predicted
       N       E                     dE             d eps       ncg     rms          rms(c)
DAV:   1    -0.110237924957E+04    0.43134E-03   -0.28763E-01  1938   0.119E+00    0.156E-01
RMM:   2    -0.110238048439E+04   -0.12348E-02   -0.66706E-03  2272   0.177E-01    0.790E-01
RMM:   3    -0.110237957599E+04    0.90840E-03   -0.10385E-03  2257   0.757E-02    0.513E-01
RMM:   4    -0.110238036659E+04   -0.79060E-03   -0.91709E-04  2232   0.666E-02    0.614E-01
RMM:   5    -0.110237986385E+04    0.50274E-03   -0.38305E-04  2051   0.452E-02    0.313E-01
RMM:   6    -0.110237985900E+04    0.48503E-05   -0.14000E-04  1918   0.271E-02    0.111E-01
RMM:   7    -0.110237997371E+04   -0.11471E-03   -0.68866E-05  1808   0.172E-02    0.184E-01
RMM:   8    -0.110237994345E+04    0.30258E-04   -0.47571E-05  1800   0.144E-02    0.121E-01
RMM:   9    -0.110237994994E+04   -0.64834E-05   -0.35423E-05  1711   0.130E-02    0.574E-02
RMM:  10    -0.110237998603E+04   -0.36092E-04   -0.32636E-05  1759   0.121E-02    0.850E-02
RMM:  11    -0.110237997429E+04    0.11733E-04   -0.18332E-05  1530   0.951E-03    0.646E-02
RMM:  12    -0.110237997383E+04    0.46890E-06   -0.73217E-06  1383   0.628E-03
  70 F= -.11094566E+04 E0= -.11094325E+04  d E =-.108226E-02  mag=    12.2072
 curvature:  -2.28 expect dE=-0.705E-02 dE for cont linesearch -0.743E-06
 trial: gam= 0.75603 g(F)=  0.309E-02 g(S)=  0.000E+00 ort =-0.108E-03 (trialstep = 0.165E+00)
 search vector abs. value=  0.233E-01
 bond charge predicted
       N       E                     dE             d eps       ncg     rms          rms(c)
DAV:   1    -0.110237995974E+04    0.14555E-04   -0.14494E-01  2016   0.844E-01    0.110E-01
RMM:   2    -0.110238071075E+04   -0.75101E-03   -0.33274E-03  2247   0.125E-01    0.686E-01
RMM:   3    -0.110237990552E+04    0.80523E-03   -0.57171E-04  2203   0.575E-02    0.306E-01
RMM:   4    -0.110238047109E+04   -0.56557E-03   -0.43452E-04  2203   0.459E-02    0.413E-01
RMM:   5    -0.110238027237E+04    0.19871E-03   -0.18524E-04  2016   0.319E-02    0.270E-01
RMM:   6    -0.110238022657E+04    0.45804E-04   -0.83696E-05  1820   0.216E-02    0.740E-02
RMM:   7    -0.110238032598E+04   -0.99412E-04   -0.39795E-05  1709   0.141E-02    0.131E-01
RMM:   8    -0.110238030633E+04    0.19647E-04   -0.27593E-05  1729   0.113E-02    0.924E-02
RMM:   9    -0.110238031042E+04   -0.40870E-05   -0.20203E-05  1566   0.102E-02    0.726E-02
RMM:  10    -0.110238031860E+04   -0.81820E-05   -0.18794E-05  1626   0.978E-03    0.502E-02
RMM:  11    -0.110238032805E+04   -0.94429E-05   -0.11995E-05  1456   0.808E-03    0.641E-02
RMM:  12    -0.110238032434E+04    0.37022E-05   -0.84620E-06  1385   0.709E-03    0.761E-02
RMM:  13    -0.110238031302E+04    0.11326E-04   -0.39648E-06  1293   0.489E-03    0.677E-02
RMM:  14    -0.110238031313E+04   -0.11721E-06   -0.18511E-06  1216   0.345E-03
  71 F= -.11094570E+04 E0= -.11094328E+04  d E =-.430707E-03  mag=    12.2072
 trial-energy change:   -0.000431  1 .order   -0.000431   -0.000497   -0.000365
 step:   0.6204(harm=  0.6204)  dis= 0.00369  next Energy= -1109.457498 (dE=-0.935E-03)
 bond charge predicted
       N       E                     dE             d eps       ncg     rms          rms(c)
DAV:   1    -0.110237772755E+04    0.25855E-02   -0.11048E+00  1896   0.233E+00    0.290E-01
RMM:   2    -0.110238097256E+04   -0.32450E-02   -0.24496E-02  2245   0.338E-01    0.754E-01
RMM:   3    -0.110238123838E+04   -0.26582E-03   -0.39283E-03  2231   0.147E-01    0.862E-01
RMM:   4    -0.110238223015E+04   -0.99177E-03   -0.18063E-03  2330   0.930E-02    0.140E+00
RMM:   5    -0.110237920448E+04    0.30257E-02   -0.12649E-03  2070   0.828E-02    0.443E-01
RMM:   6    -0.110238018666E+04   -0.98219E-03   -0.50223E-04  1981   0.513E-02    0.264E-01
RMM:   7    -0.110238052474E+04   -0.33807E-03   -0.28380E-04  2015   0.367E-02    0.334E-01
RMM:   8    -0.110238041308E+04    0.11166E-03   -0.17658E-04  2052   0.283E-02    0.238E-01
RMM:   9    -0.110238041873E+04   -0.56557E-05   -0.14787E-04  1999   0.258E-02    0.207E-01
RMM:  10    -0.110238049562E+04   -0.76894E-04   -0.15495E-04  2022   0.261E-02    0.206E-01
RMM:  11    -0.110238045850E+04    0.37120E-04   -0.97488E-05  1836   0.209E-02    0.138E-01
RMM:  12    -0.110238046147E+04   -0.29648E-05   -0.54220E-05  1738   0.158E-02    0.961E-02
RMM:  13    -0.110238046496E+04   -0.34897E-05   -0.23946E-05  1548   0.108E-02    0.880E-02
RMM:  14    -0.110238046523E+04   -0.27471E-06   -0.10756E-05  1428   0.810E-03    0.700E-02
RMM:  15    -0.110238047158E+04   -0.63430E-05   -0.55641E-06  1350   0.586E-03    0.463E-02
RMM:  16    -0.110238047760E+04   -0.60267E-05   -0.17600E-06  1210   0.342E-03    0.122E-02
RMM:  17    -0.110238048943E+04   -0.11830E-04   -0.12762E-06  1184   0.292E-03    0.147E-02
RMM:  18    -0.110238049271E+04   -0.32808E-05   -0.79369E-07  1139   0.239E-03    0.125E-02
RMM:  19    -0.110238049456E+04   -0.18440E-05   -0.39003E-07  1095   0.167E-03    0.482E-03
RMM:  20    -0.110238049636E+04   -0.18032E-05   -0.21927E-07  1019   0.116E-03    0.371E-03
RMM:  21    -0.110238049794E+04   -0.15770E-05   -0.13672E-07   974   0.835E-04    0.275E-03
RMM:  22    -0.110238049914E+04   -0.11997E-05   -0.11037E-07   959   0.740E-04    0.312E-03
RMM:  23    -0.110238050016E+04   -0.10213E-05   -0.84674E-08   863   0.656E-04    0.368E-03
RMM:  24    -0.110238050109E+04   -0.93419E-06   -0.60716E-08   853   0.518E-04
  72 F= -.11094574E+04 E0= -.11094333E+04  d E =-.870869E-03  mag=    12.2062
 curvature:  -2.40 expect dE=-0.217E-01 dE for cont linesearch -0.102E-04
 trial: gam= 3.02445 g(F)=  0.906E-02 g(S)=  0.000E+00 ort =-0.315E-03 (trialstep = 0.271E-01)
 search vector abs. value=  0.220E+00
 bond charge predicted
       N       E                     dE             d eps       ncg     rms          rms(c)
DAV:   1    -0.110238056588E+04   -0.65721E-04   -0.36961E-02  2016   0.426E-01    0.536E-02
RMM:   2    -0.110238067100E+04   -0.10512E-03   -0.82507E-04  2232   0.619E-02    0.170E-01
RMM:   3    -0.110238065734E+04    0.13657E-04   -0.12294E-04  2184   0.264E-02    0.241E-01
RMM:   4    -0.110238065525E+04    0.20988E-05   -0.94448E-05  2019   0.203E-02    0.240E-01
RMM:   5    -0.110238060122E+04    0.54023E-04   -0.59776E-05  1760   0.185E-02    0.819E-02
RMM:   6    -0.110238063193E+04   -0.30707E-04   -0.13575E-05  1459   0.876E-03    0.463E-02
RMM:   7    -0.110238065409E+04   -0.22164E-04   -0.90986E-06  1381   0.657E-03    0.711E-02
RMM:   8    -0.110238064903E+04    0.50634E-05   -0.72954E-06  1357   0.613E-03    0.470E-02
RMM:   9    -0.110238065146E+04   -0.24313E-05   -0.62379E-06  1332   0.601E-03    0.390E-02
RMM:  10    -0.110238065575E+04   -0.42932E-05   -0.52389E-06  1322   0.530E-03    0.279E-02
RMM:  11    -0.110238065696E+04   -0.12045E-05   -0.28624E-06  1278   0.454E-03    0.214E-02
RMM:  12    -0.110238065817E+04   -0.12077E-05   -0.15100E-06  1179   0.304E-03    0.220E-02
RMM:  13    -0.110238065773E+04    0.43420E-06   -0.82310E-07  1129   0.232E-03
  73 F= -.11094576E+04 E0= -.11094335E+04  d E =-.201459E-03  mag=    12.2060
 ZBRENT: can't locate minimum, use default step
 trial-energy change:   -0.000201  1 .order   -0.000202   -0.000220   -0.000184
 step:   0.1083(harm=  0.1678)  dis= 0.00201  next Energy= -1109.458115 (dE=-0.680E-03)
 bond charge predicted
       N       E                     dE             d eps       ncg     rms          rms(c)
DAV:   1    -0.110238005832E+04    0.59985E-03   -0.33242E-01  1896   0.128E+00    0.161E-01
RMM:   2    -0.110238102951E+04   -0.97119E-03   -0.74330E-03  2233   0.186E-01    0.428E-01
RMM:   3    -0.110238102592E+04    0.35836E-05   -0.12004E-03  2210   0.811E-02    0.436E-01
RMM:   4    -0.110238125163E+04   -0.22570E-03   -0.45845E-04  2333   0.465E-02    0.665E-01
RMM:   5    -0.110238045524E+04    0.79639E-03   -0.30606E-04  1991   0.407E-02    0.175E-01
RMM:   6    -0.110238080985E+04   -0.35461E-03   -0.12806E-04  1852   0.256E-02    0.164E-01
RMM:   7    -0.110238087080E+04   -0.60955E-04   -0.75113E-05  1870   0.188E-02    0.168E-01
RMM:   8    -0.110238085924E+04    0.11566E-04   -0.61280E-05  1849   0.173E-02    0.136E-01
RMM:   9    -0.110238086750E+04   -0.82682E-05   -0.46147E-05  1744   0.142E-02    0.141E-01
RMM:  10    -0.110238088899E+04   -0.21484E-04   -0.58721E-05  1801   0.166E-02    0.148E-01
RMM:  11    -0.110238086316E+04    0.25827E-04   -0.36628E-05  1666   0.137E-02    0.825E-02
RMM:  12    -0.110238087016E+04   -0.70015E-05   -0.18280E-05  1483   0.979E-03    0.789E-02
RMM:  13    -0.110238086889E+04    0.12673E-05   -0.80506E-06  1386   0.669E-03    0.629E-02
RMM:  14    -0.110238087123E+04   -0.23399E-05   -0.39663E-06  1307   0.519E-03    0.413E-02
RMM:  15    -0.110238087769E+04   -0.64577E-05   -0.19442E-06  1213   0.347E-03    0.228E-02
RMM:  16    -0.110238088321E+04   -0.55156E-05   -0.79493E-07  1131   0.249E-03    0.139E-02
RMM:  17    -0.110238088609E+04   -0.28837E-05   -0.50106E-07  1097   0.196E-03    0.131E-02
RMM:  18    -0.110238088718E+04   -0.10849E-05   -0.26294E-07  1053   0.140E-03    0.869E-03
RMM:  19    -0.110238088828E+04   -0.11076E-05   -0.14751E-07  1021   0.986E-04    0.260E-03
RMM:  20    -0.110238088960E+04   -0.13133E-05   -0.88525E-08   937   0.714E-04    0.229E-03
RMM:  21    -0.110238089022E+04   -0.62537E-06   -0.56660E-08   810   0.578E-04
  74 F= -.11094580E+04 E0= -.11094339E+04  d E =-.568333E-03  mag=    12.2055
 curvature:  -1.87 expect dE=-0.677E-02 dE for cont linesearch -0.442E-04
 ZBRENT: increasing intervall
 opt :   0.2708  next Energy= -1109.457639 (dE=-0.204E-03)
 bond charge predicted
       N       E                     dE             d eps       ncg     rms          rms(c)
DAV:   1    -0.110237697350E+04    0.39161E-02   -0.13301E+00  1896   0.255E+00    0.322E-01
RMM:   2    -0.110238107104E+04   -0.40975E-02   -0.29734E-02  2236   0.371E-01    0.949E-01
RMM:   3    -0.110238130749E+04   -0.23644E-03   -0.45336E-03  2210   0.160E-01    0.131E+00
RMM:   4    -0.110238213303E+04   -0.82555E-03   -0.31048E-03  2324   0.113E-01    0.161E+00
RMM:   5    -0.110237899620E+04    0.31368E-02   -0.22873E-03  2077   0.112E-01    0.430E-01
RMM:   6    -0.110237986686E+04   -0.87066E-03   -0.45415E-04  2062   0.480E-02    0.348E-01
RMM:   7    -0.110238025179E+04   -0.38494E-03   -0.34055E-04  2102   0.385E-02    0.339E-01
RMM:   8    -0.110238024112E+04    0.10678E-04   -0.25463E-04  2117   0.361E-02    0.345E-01
RMM:   9    -0.110238016638E+04    0.74739E-04   -0.20063E-04  1985   0.305E-02    0.349E-01
RMM:  10    -0.110238019780E+04   -0.31425E-04   -0.19863E-04  2016   0.301E-02    0.243E-01
RMM:  11    -0.110238023372E+04   -0.35917E-04   -0.12827E-04  1891   0.243E-02    0.199E-01
RMM:  12    -0.110238023169E+04    0.20251E-05   -0.84302E-05  1819   0.210E-02    0.154E-01
RMM:  13    -0.110238022381E+04    0.78873E-05   -0.34505E-05  1649   0.133E-02    0.136E-01
RMM:  14    -0.110238022276E+04    0.10492E-05   -0.14155E-05  1467   0.900E-03    0.102E-01
RMM:  15    -0.110238023100E+04   -0.82450E-05   -0.47674E-06  1338   0.548E-03    0.437E-02
RMM:  16    -0.110238025497E+04   -0.23967E-04   -0.30966E-06  1270   0.464E-03    0.187E-02
RMM:  17    -0.110238026981E+04   -0.14844E-04   -0.19502E-06  1222   0.362E-03    0.176E-02
RMM:  18    -0.110238027381E+04   -0.39937E-05   -0.11895E-06  1172   0.308E-03    0.103E-02
RMM:  19    -0.110238027768E+04   -0.38742E-05   -0.59525E-07  1121   0.205E-03    0.603E-03
RMM:  20    -0.110238028036E+04   -0.26783E-05   -0.33132E-07  1071   0.140E-03    0.401E-03
RMM:  21    -0.110238028190E+04   -0.15395E-05   -0.20973E-07  1024   0.107E-03    0.556E-03
RMM:  22    -0.110238028304E+04   -0.11440E-05   -0.15257E-07   973   0.866E-04    0.717E-03
RMM:  23    -0.110238028441E+04   -0.13708E-05   -0.11136E-07   951   0.718E-04    0.801E-03
RMM:  24    -0.110238028563E+04   -0.12164E-05   -0.81752E-08   857   0.567E-04    0.560E-03
RMM:  25    -0.110238028659E+04   -0.95594E-06   -0.56563E-08   712   0.504E-04
  75 F= -.11094577E+04 E0= -.11094336E+04  d E =-.233246E-03  mag=    12.2047
 curvature:  15.43 expect dE= 0.234E+00 dE for cont linesearch  0.288E-02
 ZBRENT: bracketing found
 ZBRENT: interpolating
 opt :   0.1509  next Energy= -1109.458052 (dE=-0.617E-03)
 bond charge predicted
       N       E                     dE             d eps       ncg     rms          rms(c)
DAV:   1    -0.110237906195E+04    0.12237E-02   -0.72358E-01  1896   0.188E+00    0.237E-01
RMM:   2    -0.110238130074E+04   -0.22388E-02   -0.16134E-02  2226   0.274E-01    0.712E-01
RMM:   3    -0.110238141013E+04   -0.10939E-03   -0.24651E-03  2201   0.118E-01    0.105E+00
RMM:   4    -0.110238160092E+04   -0.19079E-03   -0.17750E-03  2318   0.858E-02    0.118E+00
RMM:   5    -0.110238026471E+04    0.13362E-02   -0.12794E-03  2046   0.828E-02    0.458E-01
RMM:   6    -0.110238053886E+04   -0.27415E-03   -0.36107E-04  1998   0.439E-02    0.191E-01
RMM:   7    -0.110238088255E+04   -0.34369E-03   -0.17750E-04  2005   0.273E-02    0.323E-01
RMM:   8    -0.110238079733E+04    0.85219E-04   -0.14618E-04  2040   0.260E-02    0.196E-01
RMM:   9    -0.110238080854E+04   -0.11205E-04   -0.11466E-04  1972   0.232E-02    0.148E-01
RMM:  10    -0.110238085980E+04   -0.51269E-04   -0.87718E-05  1978   0.205E-02    0.126E-01
RMM:  11    -0.110238084472E+04    0.15083E-04   -0.46456E-05  1723   0.157E-02    0.929E-02
RMM:  12    -0.110238085148E+04   -0.67613E-05   -0.28659E-05  1568   0.118E-02    0.699E-02
RMM:  13    -0.110238086117E+04   -0.96863E-05   -0.15179E-05  1439   0.857E-03    0.708E-02
RMM:  14    -0.110238085443E+04    0.67369E-05   -0.71889E-06  1361   0.655E-03    0.551E-02
RMM:  15    -0.110238085507E+04   -0.64049E-06   -0.33956E-06  1298   0.472E-03
  76 F= -.11094580E+04 E0= -.11094340E+04  d E =-.603689E-03  mag=    12.2049
 curvature:  -0.26 expect dE=-0.114E-02 dE for cont linesearch -0.170E-08
 trial: gam= 0.30665 g(F)=  0.436E-02 g(S)=  0.000E+00 ort = 0.379E-04 (trialstep = 0.519E-01)
 search vector abs. value=  0.251E-01
 bond charge predicted
       N       E                     dE             d eps       ncg     rms          rms(c)
DAV:   1    -0.110238101218E+04   -0.15775E-03   -0.15037E-02  2088   0.271E-01    0.357E-02
RMM:   2    -0.110238110143E+04   -0.89246E-04   -0.35006E-04  2229   0.411E-02    0.236E-01
RMM:   3    -0.110238097209E+04    0.12934E-03   -0.60947E-05  2100   0.189E-02    0.702E-02
RMM:   4    -0.110238109111E+04   -0.11902E-03   -0.48819E-05  1841   0.157E-02    0.160E-01
RMM:   5    -0.110238104046E+04    0.50646E-04   -0.19978E-05  1509   0.101E-02    0.722E-02
RMM:   6    -0.110238105357E+04   -0.13106E-04   -0.10724E-05  1402   0.803E-03    0.421E-02
RMM:   7    -0.110238105511E+04   -0.15405E-05   -0.39577E-06  1283   0.498E-03    0.352E-02
RMM:   8    -0.110238105716E+04   -0.20478E-05   -0.27049E-06  1241   0.394E-03    0.368E-02
RMM:   9    -0.110238105771E+04   -0.55555E-06   -0.21045E-06  1220   0.374E-03
  77 F= -.11094583E+04 E0= -.11094342E+04  d E =-.224756E-03  mag=    12.2050
 ZBRENT: can't locate minimum, use default step
 trial-energy change:   -0.000225  1 .order   -0.000215   -0.000227   -0.000204
 step:   0.2074(harm=  0.5148)  dis= 0.00127  next Energy= -1109.459164 (dE=-0.113E-02)
 bond charge predicted
       N       E                     dE             d eps       ncg     rms          rms(c)
DAV:   1    -0.110238113987E+04   -0.82714E-04   -0.13518E-01  1932   0.814E-01    0.105E-01
RMM:   2    -0.110238160289E+04   -0.46301E-03   -0.30802E-03  2209   0.121E-01    0.342E-01
RMM:   3    -0.110238151381E+04    0.89080E-04   -0.50139E-04  2178   0.522E-02    0.384E-01
RMM:   4    -0.110238168204E+04   -0.16823E-03   -0.31090E-04  2310   0.340E-02    0.601E-01
RMM:   5    -0.110238118246E+04    0.49958E-03   -0.27245E-04  1963   0.382E-02    0.182E-01
RMM:   6    -0.110238135555E+04   -0.17309E-03   -0.63991E-05  1748   0.188E-02    0.100E-01
RMM:   7    -0.110238144106E+04   -0.85508E-04   -0.33702E-05  1733   0.132E-02    0.957E-02
RMM:   8    -0.110238146279E+04   -0.21738E-04   -0.24077E-05  1670   0.109E-02    0.117E-01
RMM:   9    -0.110238144242E+04    0.20376E-04   -0.20673E-05  1643   0.107E-02    0.971E-02
RMM:  10    -0.110238144759E+04   -0.51747E-05   -0.17847E-05  1560   0.958E-03    0.701E-02
RMM:  11    -0.110238145922E+04   -0.11625E-04   -0.11004E-05  1462   0.792E-03    0.408E-02
RMM:  12    -0.110238146921E+04   -0.99964E-05   -0.78344E-06  1393   0.701E-03    0.607E-02
RMM:  13    -0.110238146111E+04    0.81002E-05   -0.49509E-06  1300   0.526E-03    0.601E-02
RMM:  14    -0.110238145846E+04    0.26521E-05   -0.20350E-06  1223   0.395E-03    0.448E-02
RMM:  15    -0.110238146091E+04   -0.24463E-05   -0.85679E-07  1130   0.248E-03    0.318E-02
RMM:  16    -0.110238146428E+04   -0.33696E-05   -0.50838E-07  1102   0.185E-03    0.136E-02
RMM:  17    -0.110238146922E+04   -0.49431E-05   -0.37602E-07  1070   0.168E-03    0.441E-03
RMM:  18    -0.110238147173E+04   -0.25138E-05   -0.21614E-07  1032   0.126E-03    0.351E-03
RMM:  19    -0.110238147223E+04   -0.49562E-06   -0.11381E-07  1022   0.970E-04
  78 F= -.11094587E+04 E0= -.11094347E+04  d E =-.705594E-03  mag=    12.2054
 curvature:  -0.83 expect dE=-0.138E-02 dE for cont linesearch -0.168E-03
 ZBRENT: increasing intervall
 opt :   0.5185  next Energy= -1109.458927 (dE=-0.889E-03)
 bond charge predicted
       N       E                     dE             d eps       ncg     rms          rms(c)
DAV:   1    -0.110238022052E+04    0.12512E-02   -0.54159E-01  1896   0.163E+00    0.208E-01
RMM:   2    -0.110238207179E+04   -0.18513E-02   -0.12257E-02  2204   0.241E-01    0.739E-01
RMM:   3    -0.110238183377E+04    0.23802E-03   -0.18562E-03  2179   0.103E-01    0.926E-01
RMM:   4    -0.110238202980E+04   -0.19603E-03   -0.15588E-03  2319   0.815E-02    0.868E-01
RMM:   5    -0.110238141749E+04    0.61231E-03   -0.87461E-04  2067   0.689E-02    0.391E-01
RMM:   6    -0.110238133713E+04    0.80358E-04   -0.20462E-04  2020   0.309E-02    0.115E-01
RMM:   7    -0.110238157135E+04   -0.23422E-03   -0.12396E-04  2040   0.232E-02    0.229E-01
RMM:   8    -0.110238150604E+04    0.65315E-04   -0.76519E-05  1943   0.185E-02    0.179E-01
RMM:   9    -0.110238149537E+04    0.10663E-04   -0.66946E-05  1847   0.180E-02    0.125E-01
RMM:  10    -0.110238155863E+04   -0.63262E-04   -0.77496E-05  1875   0.186E-02    0.141E-01
RMM:  11    -0.110238155861E+04    0.25560E-07   -0.53416E-05  1743   0.150E-02    0.126E-01
RMM:  12    -0.110238153336E+04    0.25254E-04   -0.29578E-05  1625   0.127E-02    0.967E-02
RMM:  13    -0.110238152793E+04    0.54287E-05   -0.10387E-05  1432   0.754E-03    0.725E-02
RMM:  14    -0.110238153211E+04   -0.41842E-05   -0.37440E-06  1322   0.517E-03    0.391E-02
RMM:  15    -0.110238154250E+04   -0.10391E-04   -0.19664E-06  1251   0.358E-03    0.206E-02
RMM:  16    -0.110238154816E+04   -0.56595E-05   -0.12178E-06  1169   0.300E-03    0.151E-02
RMM:  17    -0.110238155106E+04   -0.28958E-05   -0.78134E-07  1122   0.246E-03    0.189E-02
RMM:  18    -0.110238155058E+04    0.47447E-06   -0.42087E-07  1090   0.179E-03
  79 F= -.11094590E+04 E0= -.11094349E+04  d E =-.916543E-03  mag=    12.2060
 curvature:  -0.90 expect dE=-0.386E-02 dE for cont linesearch -0.286E-04
 ZBRENT: bracketing found
 ZBRENT: interpolating
 opt :   0.4304  next Energy= -1109.458994 (dE=-0.956E-03)
 bond charge predicted
       N       E                     dE             d eps       ncg     rms          rms(c)
DAV:   1    -0.110238152121E+04    0.29842E-04   -0.43383E-02  2016   0.461E-01    0.589E-02
RMM:   2    -0.110238165492E+04   -0.13370E-03   -0.98199E-04  2212   0.684E-02    0.172E-01
RMM:   3    -0.110238164326E+04    0.11656E-04   -0.16163E-04  2162   0.302E-02    0.193E-01
RMM:   4    -0.110238171238E+04   -0.69114E-04   -0.89132E-05  2121   0.190E-02    0.362E-01
RMM:   5    -0.110238148691E+04    0.22546E-03   -0.85020E-05  1806   0.216E-02    0.114E-01
RMM:   6    -0.110238157465E+04   -0.87740E-04   -0.26951E-05  1557   0.120E-02    0.441E-02
RMM:   7    -0.110238162358E+04   -0.48931E-04   -0.10679E-05  1456   0.756E-03    0.728E-02
RMM:   8    -0.110238161949E+04    0.40986E-05   -0.74388E-06  1402   0.663E-03    0.544E-02
RMM:   9    -0.110238162207E+04   -0.25869E-05   -0.61405E-06  1335   0.611E-03    0.471E-02
RMM:  10    -0.110238162631E+04   -0.42352E-05   -0.54189E-06  1346   0.552E-03    0.440E-02
RMM:  11    -0.110238162948E+04   -0.31727E-05   -0.45008E-06  1282   0.486E-03    0.325E-02
RMM:  12    -0.110238163089E+04   -0.14128E-05   -0.27128E-06  1283   0.433E-03    0.353E-02
RMM:  13    -0.110238162846E+04    0.24290E-05   -0.12587E-06  1165   0.292E-03    0.320E-02
RMM:  14    -0.110238162824E+04    0.22235E-06   -0.57695E-07  1112   0.214E-03
  80 F= -.11094590E+04 E0= -.11094349E+04  d E =-.956661E-03  mag=    12.2059
 curvature:  -1.24 expect dE=-0.340E-02 dE for cont linesearch -0.114E-07
 trial: gam= 0.68826 g(F)=  0.275E-02 g(S)=  0.000E+00 ort =-0.152E-04 (trialstep = 0.128E+00)
 search vector abs. value=  0.146E-01
 bond charge predicted
       N       E                     dE             d eps       ncg     rms          rms(c)
DAV:   1    -0.110238172626E+04   -0.97794E-04   -0.55540E-02  1968   0.515E-01    0.699E-02
RMM:   2    -0.110238199305E+04   -0.26679E-03   -0.12743E-03  2229   0.764E-02    0.400E-01
RMM:   3    -0.110238168369E+04    0.30936E-03   -0.20318E-04  2195   0.343E-02    0.166E-01
RMM:   4    -0.110238196193E+04   -0.27824E-03   -0.15413E-04  2106   0.273E-02    0.301E-01
RMM:   5    -0.110238180004E+04    0.16189E-03   -0.65115E-05  1784   0.190E-02    0.144E-01
RMM:   6    -0.110238182950E+04   -0.29455E-04   -0.37399E-05  1620   0.143E-02    0.467E-02
RMM:   7    -0.110238188080E+04   -0.51303E-04   -0.26753E-05  1726   0.112E-02    0.122E-01
RMM:   8    -0.110238184428E+04    0.36520E-04   -0.19071E-05  1581   0.984E-03    0.727E-02
RMM:   9    -0.110238185449E+04   -0.10211E-04   -0.15585E-05  1492   0.889E-03    0.623E-02
RMM:  10    -0.110238186262E+04   -0.81261E-05   -0.12570E-05  1441   0.796E-03    0.670E-02
RMM:  11    -0.110238185424E+04    0.83752E-05   -0.61775E-06  1344   0.616E-03    0.570E-02
RMM:  12    -0.110238185213E+04    0.21076E-05   -0.28008E-06  1278   0.419E-03    0.452E-02
RMM:  13    -0.110238185242E+04   -0.28983E-06   -0.10797E-06  1144   0.273E-03
  81 F= -.11094593E+04 E0= -.11094351E+04  d E =-.261856E-03  mag=    12.2058
 trial-energy change:   -0.000262  1 .order   -0.000266   -0.000349   -0.000183
 step:   0.4017(harm=  0.2681)  dis= 0.00179  next Energy= -1109.459411 (dE=-0.416E-03)
 bond charge predicted
       N       E                     dE             d eps       ncg     rms          rms(c)
DAV:   1    -0.110238116018E+04    0.69195E-03   -0.25630E-01  1896   0.111E+00    0.150E-01
RMM:   2    -0.110238216860E+04   -0.10084E-02   -0.58696E-03  2237   0.164E-01    0.609E-01
RMM:   3    -0.110238168406E+04    0.48454E-03   -0.88082E-04  2222   0.709E-02    0.529E-01
RMM:   4    -0.110238204124E+04   -0.35718E-03   -0.63613E-04  2265   0.531E-02    0.621E-01
RMM:   5    -0.110238169825E+04    0.34299E-03   -0.35564E-04  2004   0.440E-02    0.352E-01
RMM:   6    -0.110238163305E+04    0.65198E-04   -0.16544E-04  1897   0.297E-02    0.780E-02
RMM:   7    -0.110238184394E+04   -0.21088E-03   -0.11758E-04  2044   0.234E-02    0.237E-01
RMM:   8    -0.110238172283E+04    0.12110E-03   -0.86289E-05  1900   0.202E-02    0.134E-01
RMM:   9    -0.110238177435E+04   -0.51516E-04   -0.75583E-05  1829   0.191E-02    0.161E-01
RMM:  10    -0.110238176735E+04    0.69982E-05   -0.55573E-05  1729   0.160E-02    0.139E-01
RMM:  11    -0.110238175294E+04    0.14413E-04   -0.34782E-05  1607   0.141E-02    0.875E-02
RMM:  12    -0.110238175399E+04   -0.10504E-05   -0.12383E-05  1433   0.834E-03    0.645E-02
RMM:  13    -0.110238175579E+04   -0.17982E-05   -0.46446E-06  1336   0.517E-03    0.324E-02
RMM:  14    -0.110238176472E+04   -0.89339E-05   -0.25082E-06  1261   0.413E-03    0.183E-02
RMM:  15    -0.110238176770E+04   -0.29758E-05   -0.12815E-06  1175   0.288E-03    0.259E-02
RMM:  16    -0.110238176630E+04    0.13939E-05   -0.61610E-07  1106   0.224E-03    0.171E-02
RMM:  17    -0.110238176743E+04   -0.11213E-05   -0.26685E-07  1040   0.141E-03    0.848E-03
RMM:  18    -0.110238176867E+04   -0.12414E-05   -0.17858E-07   987   0.110E-03    0.599E-03
RMM:  19    -0.110238176946E+04   -0.79134E-06   -0.11928E-07   969   0.903E-04
  82 F= -.11094593E+04 E0= -.11094351E+04  d E =-.259752E-03  mag=    12.2056
 curvature:  -0.07 expect dE=-0.824E-03 dE for cont linesearch -0.103E-04
 ZBRENT: interpolating
 opt :   0.2621  next Energy= -1109.459353 (dE=-0.358E-03)
 bond charge predicted
       N       E                     dE             d eps       ncg     rms          rms(c)
DAV:   1    -0.110238175608E+04    0.12587E-04   -0.66421E-02  1944   0.563E-01    0.760E-02
RMM:   2    -0.110238199994E+04   -0.24386E-03   -0.15112E-03  2232   0.832E-02    0.304E-01
RMM:   3    -0.110238187028E+04    0.12966E-03   -0.22413E-04  2196   0.358E-02    0.287E-01
RMM:   4    -0.110238194153E+04   -0.71259E-04   -0.17313E-04  2148   0.279E-02    0.287E-01
RMM:   5    -0.110238188175E+04    0.59788E-04   -0.86329E-05  1814   0.221E-02    0.168E-01
RMM:   6    -0.110238186856E+04    0.13184E-04   -0.35108E-05  1640   0.139E-02    0.471E-02
RMM:   7    -0.110238194316E+04   -0.74593E-04   -0.31841E-05  1685   0.119E-02    0.161E-01
RMM:   8    -0.110238188216E+04    0.60995E-04   -0.27095E-05  1705   0.108E-02    0.748E-02
RMM:   9    -0.110238190817E+04   -0.26014E-04   -0.22114E-05  1591   0.107E-02    0.552E-02
RMM:  10    -0.110238191730E+04   -0.91214E-05   -0.14214E-05  1480   0.871E-03    0.567E-02
RMM:  11    -0.110238191217E+04    0.51244E-05   -0.71731E-06  1379   0.702E-03    0.397E-02
RMM:  12    -0.110238191316E+04   -0.99322E-06   -0.26179E-06  1222   0.392E-03
  83 F= -.11094594E+04 E0= -.11094353E+04  d E =-.362301E-03  mag=    12.2057
 curvature:  -0.64 expect dE=-0.308E-02 dE for cont linesearch -0.491E-07
 trial: gam= 1.77184 g(F)=  0.483E-02 g(S)=  0.000E+00 ort =-0.336E-04 (trialstep = 0.446E-01)
 search vector abs. value=  0.506E-01
 bond charge predicted
       N       E                     dE             d eps       ncg     rms          rms(c)
DAV:   1    -0.110238202799E+04   -0.11582E-03   -0.23311E-02  2016   0.334E-01    0.473E-02
RMM:   2    -0.110238226590E+04   -0.23791E-03   -0.54728E-04  2248   0.520E-02    0.449E-01
RMM:   3    -0.110238185832E+04    0.40757E-03   -0.13813E-04  2147   0.284E-02    0.104E-01
RMM:   4    -0.110238208182E+04   -0.22350E-03   -0.87542E-05  1922   0.213E-02    0.149E-01
RMM:   5    -0.110238206561E+04    0.16212E-04   -0.34548E-05  1693   0.131E-02    0.899E-02
RMM:   6    -0.110238207283E+04   -0.72136E-05   -0.16036E-05  1481   0.979E-03    0.372E-02
RMM:   7    -0.110238208405E+04   -0.11219E-04   -0.56241E-06  1346   0.583E-03    0.557E-02
RMM:   8    -0.110238207978E+04    0.42629E-05   -0.37705E-06  1278   0.467E-03    0.499E-02
RMM:   9    -0.110238208203E+04   -0.22489E-05   -0.38029E-06  1261   0.462E-03    0.421E-02
RMM:  10    -0.110238208418E+04   -0.21507E-05   -0.28930E-06  1248   0.422E-03    0.179E-02
RMM:  11    -0.110238208844E+04   -0.42588E-05   -0.27139E-06  1244   0.392E-03    0.338E-02
RMM:  12    -0.110238208590E+04    0.25381E-05   -0.18294E-06  1185   0.352E-03    0.380E-02
RMM:  13    -0.110238208292E+04    0.29819E-05   -0.89250E-07  1137   0.244E-03    0.329E-02
RMM:  14    -0.110238208274E+04    0.18159E-06   -0.38365E-07  1090   0.171E-03
  84 F= -.11094596E+04 E0= -.11094354E+04  d E =-.197562E-03  mag=    12.2055
 ZBRENT: can't locate minimum, use default step
 trial-energy change:   -0.000198  1 .order   -0.000200   -0.000213   -0.000186
 step:   0.1785(harm=  0.3561)  dis= 0.00152  next Energy= -1109.460207 (dE=-0.850E-03)
 bond charge predicted
       N       E                     dE             d eps       ncg     rms          rms(c)
DAV:   1    -0.110238190708E+04    0.17584E-03   -0.20953E-01  1896   0.100E+00    0.129E-01
RMM:   2    -0.110238265551E+04   -0.74843E-03   -0.45117E-03  2247   0.148E-01    0.470E-01
RMM:   3    -0.110238243501E+04    0.22050E-03   -0.74391E-04  2231   0.647E-02    0.440E-01
RMM:   4    -0.110238273715E+04   -0.30213E-03   -0.47466E-04  2285   0.457E-02    0.659E-01
RMM:   5    -0.110238221636E+04    0.52078E-03   -0.33666E-04  1980   0.425E-02    0.340E-01
RMM:   6    -0.110238227730E+04   -0.60936E-04   -0.16159E-04  1838   0.293E-02    0.501E-02
RMM:   7    -0.110238241795E+04   -0.14065E-03   -0.57746E-05  1821   0.167E-02    0.125E-01
RMM:   8    -0.110238239508E+04    0.22864E-04   -0.31015E-05  1735   0.121E-02    0.669E-02
RMM:   9    -0.110238241692E+04   -0.21831E-04   -0.26381E-05  1674   0.113E-02    0.966E-02
RMM:  10    -0.110238242192E+04   -0.50016E-05   -0.27094E-05  1669   0.115E-02    0.120E-01
RMM:  11    -0.110238239751E+04    0.24410E-04   -0.16261E-05  1480   0.926E-03    0.694E-02
RMM:  12    -0.110238240772E+04   -0.10215E-04   -0.11635E-05  1435   0.800E-03    0.562E-02
RMM:  13    -0.110238240947E+04   -0.17526E-05   -0.55329E-06  1359   0.569E-03    0.239E-02
RMM:  14    -0.110238241522E+04   -0.57491E-05   -0.22141E-06  1249   0.391E-03    0.244E-02
RMM:  15    -0.110238241567E+04   -0.44861E-06   -0.11348E-06  1157   0.278E-03
  85 F= -.11094600E+04 E0= -.11094359E+04  d E =-.614458E-03  mag=    12.2049
 curvature:  -1.27 expect dE=-0.232E-02 dE for cont linesearch -0.109E-03
 ZBRENT: increasing intervall
 opt :   0.4462  next Energy= -1109.459970 (dE=-0.613E-03)
 bond charge predicted
       N       E                     dE             d eps       ncg     rms          rms(c)
DAV:   1    -0.110238021318E+04    0.22020E-02   -0.83842E-01  1896   0.200E+00    0.260E-01
RMM:   2    -0.110238367833E+04   -0.34651E-02   -0.18177E-02  2257   0.297E-01    0.120E+00
RMM:   3    -0.110238196350E+04    0.17148E-02   -0.29380E-03  2254   0.128E-01    0.992E-01
RMM:   4    -0.110238328783E+04   -0.13243E-02   -0.23955E-03  2256   0.104E-01    0.106E+00
RMM:   5    -0.110238232080E+04    0.96703E-03   -0.11571E-03  2115   0.793E-02    0.643E-01
RMM:   6    -0.110238186310E+04    0.45771E-03   -0.48621E-04  2007   0.500E-02    0.104E-01
RMM:   7    -0.110238231706E+04   -0.45396E-03   -0.22832E-04  2080   0.327E-02    0.295E-01
RMM:   8    -0.110238216885E+04    0.14820E-03   -0.12338E-04  2036   0.234E-02    0.183E-01
RMM:   9    -0.110238222128E+04   -0.52428E-04   -0.10462E-04  1976   0.227E-02    0.190E-01
RMM:  10    -0.110238224183E+04   -0.20556E-04   -0.11740E-04  1973   0.239E-02    0.169E-01
RMM:  11    -0.110238224680E+04   -0.49679E-05   -0.75510E-05  1813   0.200E-02    0.162E-01
RMM:  12    -0.110238221848E+04    0.28317E-04   -0.40877E-05  1702   0.147E-02    0.140E-01
RMM:  13    -0.110238220738E+04    0.11110E-04   -0.19493E-05  1503   0.103E-02    0.850E-02
RMM:  14    -0.110238222147E+04   -0.14097E-04   -0.68236E-06  1375   0.661E-03    0.334E-02
RMM:  15    -0.110238223951E+04   -0.18042E-04   -0.44491E-06  1314   0.512E-03    0.266E-02
RMM:  16    -0.110238224463E+04   -0.51189E-05   -0.24020E-06  1262   0.406E-03    0.330E-02
RMM:  17    -0.110238224355E+04    0.10805E-05   -0.11564E-06  1167   0.300E-03    0.238E-02
RMM:  18    -0.110238224420E+04   -0.64909E-06   -0.53102E-07  1100   0.199E-03
  86 F= -.11094600E+04 E0= -.11094359E+04  d E =-.610807E-03  mag=    12.2034
 curvature:   0.02 expect dE= 0.119E-03 dE for cont linesearch  0.162E-05
 ZBRENT: bracketing found
 ZBRENT: interpolating
 opt :   0.3122  next Energy= -1109.460111 (dE=-0.754E-03)
 bond charge predicted
       N       E                     dE             d eps       ncg     rms          rms(c)
DAV:   1    -0.110238196141E+04    0.28214E-03   -0.20993E-01  1932   0.100E+00    0.130E-01
RMM:   2    -0.110238278746E+04   -0.82605E-03   -0.45295E-03  2256   0.148E-01    0.574E-01
RMM:   3    -0.110238235515E+04    0.43231E-03   -0.72943E-04  2250   0.639E-02    0.494E-01
RMM:   4    -0.110238274488E+04   -0.38973E-03   -0.58611E-04  2230   0.515E-02    0.588E-01
RMM:   5    -0.110238241154E+04    0.33335E-03   -0.31240E-04  2029   0.409E-02    0.344E-01
RMM:   6    -0.110238234477E+04    0.66762E-04   -0.14705E-04  1861   0.285E-02    0.545E-02
RMM:   7    -0.110238248712E+04   -0.14234E-03   -0.57073E-05  1786   0.164E-02    0.178E-01
RMM:   8    -0.110238242663E+04    0.60490E-04   -0.34046E-05  1772   0.121E-02    0.805E-02
RMM:   9    -0.110238246151E+04   -0.34888E-04   -0.27536E-05  1678   0.120E-02    0.733E-02
RMM:  10    -0.110238247624E+04   -0.14725E-04   -0.26381E-05  1695   0.115E-02    0.810E-02
RMM:  11    -0.110238246960E+04    0.66392E-05   -0.16084E-05  1478   0.953E-03    0.723E-02
RMM:  12    -0.110238246822E+04    0.13802E-05   -0.86066E-06  1379   0.683E-03    0.664E-02
RMM:  13    -0.110238246300E+04    0.52187E-05   -0.41664E-06  1303   0.497E-03    0.327E-02
RMM:  14    -0.110238247111E+04   -0.81128E-05   -0.22782E-06  1253   0.388E-03    0.174E-02
RMM:  15    -0.110238247548E+04   -0.43666E-05   -0.12284E-06  1178   0.281E-03    0.178E-02
RMM:  16    -0.110238247496E+04    0.52463E-06   -0.52732E-07  1107   0.202E-03
  87 F= -.11094601E+04 E0= -.11094360E+04  d E =-.757573E-03  mag=    12.2035
 curvature:  -1.62 expect dE=-0.441E-02 dE for cont linesearch -0.439E-08
 trial: gam= 0.54455 g(F)=  0.273E-02 g(S)=  0.000E+00 ort = 0.117E-04 (trialstep = 0.981E-01)
 search vector abs. value=  0.177E-01
 bond charge predicted
       N       E                     dE             d eps       ncg     rms          rms(c)
DAV:   1    -0.110238257959E+04   -0.10411E-03   -0.39014E-02  2004   0.433E-01    0.558E-02
RMM:   2    -0.110238272320E+04   -0.14361E-03   -0.83570E-04  2230   0.640E-02    0.232E-01
RMM:   3    -0.110238262684E+04    0.96365E-04   -0.13415E-04  2199   0.280E-02    0.161E-01
RMM:   4    -0.110238273508E+04   -0.10824E-03   -0.89589E-05  2036   0.206E-02    0.290E-01
RMM:   5    -0.110238259515E+04    0.13993E-03   -0.52862E-05  1700   0.168E-02    0.113E-01
RMM:   6    -0.110238265219E+04   -0.57042E-04   -0.28843E-05  1534   0.125E-02    0.286E-02
RMM:   7    -0.110238267325E+04   -0.21061E-04   -0.88108E-06  1405   0.681E-03    0.555E-02
RMM:   8    -0.110238266699E+04    0.62651E-05   -0.56809E-06  1314   0.532E-03    0.431E-02
RMM:   9    -0.110238266976E+04   -0.27751E-05   -0.53897E-06  1329   0.558E-03    0.289E-02
RMM:  10    -0.110238267572E+04   -0.59604E-05   -0.51662E-06  1277   0.499E-03    0.401E-02
RMM:  11    -0.110238267419E+04    0.15326E-05   -0.41091E-06  1272   0.467E-03    0.342E-02
RMM:  12    -0.110238267303E+04    0.11571E-05   -0.21760E-06  1193   0.367E-03    0.256E-02
RMM:  13    -0.110238267263E+04    0.40406E-06   -0.86038E-07  1144   0.225E-03
  88 F= -.11094604E+04 E0= -.11094362E+04  d E =-.241080E-03  mag=    12.2033
 ZBRENT: can't locate minimum, use default step
 trial-energy change:   -0.000241  1 .order   -0.000245   -0.000268   -0.000222
 step:   0.3926(harm=  0.5721)  dis= 0.00216  next Energy= -1109.460897 (dE=-0.782E-03)
 bond charge predicted
       N       E                     dE             d eps       ncg     rms          rms(c)
DAV:   1    -0.110238212078E+04    0.55225E-03   -0.35106E-01  1896   0.130E+00    0.169E-01
RMM:   2    -0.110238360880E+04   -0.14880E-02   -0.75991E-03  2221   0.193E-01    0.840E-01
RMM:   3    -0.110238261062E+04    0.99818E-03   -0.12441E-03  2218   0.845E-02    0.586E-01
RMM:   4    -0.110238351437E+04   -0.90374E-03   -0.10615E-03  2256   0.697E-02    0.741E-01
RMM:   5    -0.110238293626E+04    0.57810E-03   -0.49897E-04  2069   0.518E-02    0.440E-01
RMM:   6    -0.110238278032E+04    0.15594E-03   -0.24109E-04  1937   0.354E-02    0.709E-02
RMM:   7    -0.110238299154E+04   -0.21122E-03   -0.94877E-05  1901   0.212E-02    0.198E-01
RMM:   8    -0.110238292837E+04    0.63165E-04   -0.51610E-05  1825   0.150E-02    0.118E-01
RMM:   9    -0.110238295601E+04   -0.27640E-04   -0.44483E-05  1754   0.152E-02    0.106E-01
RMM:  10    -0.110238297369E+04   -0.17673E-04   -0.46995E-05  1763   0.151E-02    0.104E-01
RMM:  11    -0.110238298014E+04   -0.64568E-05   -0.31787E-05  1644   0.127E-02    0.122E-01
RMM:  12    -0.110238295865E+04    0.21497E-04   -0.18630E-05  1488   0.970E-03    0.108E-01
RMM:  13    -0.110238295058E+04    0.80643E-05   -0.91396E-06  1399   0.725E-03    0.669E-02
RMM:  14    -0.110238295976E+04   -0.91743E-05   -0.31177E-06  1271   0.455E-03    0.181E-02
RMM:  15    -0.110238297458E+04   -0.14822E-04   -0.26031E-06  1247   0.397E-03    0.253E-02
RMM:  16    -0.110238297605E+04   -0.14689E-05   -0.13799E-06  1182   0.314E-03    0.266E-02
RMM:  17    -0.110238297498E+04    0.10675E-05   -0.56932E-07  1099   0.218E-03    0.181E-02
RMM:  18    -0.110238297573E+04   -0.75452E-06   -0.28461E-07  1058   0.145E-03
  89 F= -.11094608E+04 E0= -.11094367E+04  d E =-.674391E-03  mag=    12.2024
 curvature:  -1.59 expect dE=-0.390E-02 dE for cont linesearch -0.463E-04
 ZBRENT: extrapolating
 opt :   0.5294  next Energy= -1109.460838 (dE=-0.724E-03)
 bond charge predicted
       N       E                     dE             d eps       ncg     rms          rms(c)
DAV:   1    -0.110238278402E+04    0.19096E-03   -0.75843E-02  1950   0.603E-01    0.786E-02
RMM:   2    -0.110238308628E+04   -0.30227E-03   -0.16374E-03  2216   0.897E-02    0.378E-01
RMM:   3    -0.110238284943E+04    0.23686E-03   -0.26769E-04  2204   0.393E-02    0.277E-01
RMM:   4    -0.110238306120E+04   -0.21177E-03   -0.22521E-04  2168   0.323E-02    0.350E-01
RMM:   5    -0.110238291335E+04    0.14784E-03   -0.11083E-04  1881   0.249E-02    0.200E-01
RMM:   6    -0.110238290771E+04    0.56445E-05   -0.51258E-05  1698   0.167E-02    0.389E-02
RMM:   7    -0.110238296889E+04   -0.61181E-04   -0.20480E-05  1519   0.974E-03    0.100E-01
RMM:   8    -0.110238295068E+04    0.18215E-04   -0.11966E-05  1488   0.771E-03    0.453E-02
RMM:   9    -0.110238296382E+04   -0.13142E-04   -0.98151E-06  1438   0.760E-03    0.452E-02
RMM:  10    -0.110238296782E+04   -0.40053E-05   -0.94661E-06  1439   0.711E-03    0.432E-02
RMM:  11    -0.110238296931E+04   -0.14900E-05   -0.67643E-06  1368   0.639E-03    0.512E-02
RMM:  12    -0.110238296573E+04    0.35817E-05   -0.39477E-06  1255   0.465E-03    0.471E-02
RMM:  13    -0.110238296296E+04    0.27726E-05   -0.17693E-06  1207   0.337E-03    0.316E-02
RMM:  14    -0.110238296569E+04   -0.27355E-05   -0.79150E-07  1120   0.239E-03    0.129E-02
RMM:  15    -0.110238296951E+04   -0.38159E-05   -0.53557E-07  1110   0.190E-03    0.831E-03
RMM:  16    -0.110238297097E+04   -0.14638E-05   -0.28522E-07  1063   0.147E-03    0.117E-02
RMM:  17    -0.110238297088E+04    0.92165E-07   -0.14662E-07  1008   0.109E-03
  90 F= -.11094608E+04 E0= -.11094368E+04  d E =-.730025E-03  mag=    12.2017
 curvature:  -1.69 expect dE=-0.697E-02 dE for cont linesearch -0.808E-07
 trial: gam= 1.50933 g(F)=  0.413E-02 g(S)=  0.000E+00 ort = 0.291E-04 (trialstep = 0.733E-01)
 search vector abs. value=  0.446E-01
 bond charge predicted
       N       E                     dE             d eps       ncg     rms          rms(c)
DAV:   1    -0.110238302397E+04   -0.52994E-04   -0.55465E-02  1902   0.517E-01    0.702E-02
RMM:   2    -0.110238329679E+04   -0.27282E-03   -0.12635E-03  2199   0.773E-02    0.407E-01
RMM:   3    -0.110238298054E+04    0.31624E-03   -0.21290E-04  2190   0.354E-02    0.185E-01
RMM:   4    -0.110238322449E+04   -0.24395E-03   -0.16292E-04  2112   0.279E-02    0.265E-01
RMM:   5    -0.110238312458E+04    0.99911E-04   -0.64689E-05  1793   0.190E-02    0.167E-01
RMM:   6    -0.110238311548E+04    0.90982E-05   -0.34545E-05  1613   0.136E-02    0.434E-02
RMM:   7    -0.110238317187E+04   -0.56391E-04   -0.24270E-05  1567   0.105E-02    0.130E-01
RMM:   8    -0.110238313747E+04    0.34402E-04   -0.20109E-05  1628   0.952E-03    0.655E-02
RMM:   9    -0.110238315100E+04   -0.13525E-04   -0.16639E-05  1547   0.971E-03    0.499E-02
RMM:  10    -0.110238315718E+04   -0.61784E-05   -0.12287E-05  1463   0.814E-03    0.555E-02
RMM:  11    -0.110238315370E+04    0.34810E-05   -0.66451E-06  1347   0.637E-03    0.585E-02
RMM:  12    -0.110238314925E+04    0.44441E-05   -0.31129E-06  1213   0.410E-03    0.544E-02
RMM:  13    -0.110238314687E+04    0.23838E-05   -0.14166E-06  1154   0.285E-03    0.349E-02
RMM:  14    -0.110238315079E+04   -0.39269E-05   -0.67679E-07  1108   0.215E-03    0.121E-02
RMM:  15    -0.110238315583E+04   -0.50333E-05   -0.60800E-07  1091   0.203E-03    0.107E-02
RMM:  16    -0.110238315737E+04   -0.15452E-05   -0.32598E-07  1055   0.156E-03    0.123E-02
RMM:  17    -0.110238315706E+04    0.30983E-06   -0.17833E-07  1008   0.123E-03
  91 F= -.11094611E+04 E0= -.11094370E+04  d E =-.235312E-03  mag=    12.2011
 trial-energy change:   -0.000235  1 .order   -0.000233   -0.000306   -0.000161
 step:   0.1548(harm=  0.1548)  dis= 0.00142  next Energy= -1109.461168 (dE=-0.323E-03)
 bond charge predicted
       N       E                     dE             d eps       ncg     rms          rms(c)
DAV:   1    -0.110238302915E+04    0.12823E-03   -0.68619E-02  1926   0.575E-01    0.780E-02
RMM:   2    -0.110238335828E+04   -0.32914E-03   -0.15638E-03  2201   0.860E-02    0.434E-01
RMM:   3    -0.110238300741E+04    0.35087E-03   -0.25885E-04  2190   0.391E-02    0.219E-01
RMM:   4    -0.110238327172E+04   -0.26431E-03   -0.19795E-04  2153   0.306E-02    0.298E-01
RMM:   5    -0.110238315732E+04    0.11440E-03   -0.82479E-05  1830   0.215E-02    0.189E-01
RMM:   6    -0.110238314013E+04    0.17192E-04   -0.43467E-05  1665   0.153E-02    0.447E-02
RMM:   7    -0.110238321682E+04   -0.76697E-04   -0.31305E-05  1620   0.115E-02    0.157E-01
RMM:   8    -0.110238316325E+04    0.53580E-04   -0.24755E-05  1696   0.107E-02    0.627E-02
RMM:   9    -0.110238318848E+04   -0.25236E-04   -0.19639E-05  1561   0.103E-02    0.626E-02
RMM:  10    -0.110238319005E+04   -0.15734E-05   -0.15358E-05  1487   0.898E-03    0.564E-02
RMM:  11    -0.110238318855E+04    0.15071E-05   -0.74732E-06  1366   0.684E-03    0.656E-02
RMM:  12    -0.110238318221E+04    0.63404E-05   -0.35505E-06  1217   0.431E-03    0.548E-02
RMM:  13    -0.110238318116E+04    0.10489E-05   -0.14600E-06  1183   0.298E-03    0.358E-02
RMM:  14    -0.110238318549E+04   -0.43285E-05   -0.83658E-07  1131   0.239E-03    0.117E-02
RMM:  15    -0.110238319086E+04   -0.53705E-05   -0.67288E-07  1104   0.210E-03    0.109E-02
RMM:  16    -0.110238319258E+04   -0.17233E-05   -0.34691E-07  1063   0.164E-03    0.123E-02
RMM:  17    -0.110238319237E+04    0.20958E-06   -0.17397E-07  1018   0.118E-03
  92 F= -.11094612E+04 E0= -.11094371E+04  d E =-.325255E-03  mag=    12.2004
 curvature:  -0.83 expect dE=-0.228E-02 dE for cont linesearch -0.557E-09
 trial: gam= 0.68205 g(F)=  0.276E-02 g(S)=  0.000E+00 ort = 0.548E-05 (trialstep = 0.896E-01)
 search vector abs. value=  0.235E-01
 bond charge predicted
       N       E                     dE             d eps       ncg     rms          rms(c)
DAV:   1    -0.110238327261E+04   -0.80029E-04   -0.41798E-02  1944   0.452E-01    0.583E-02
RMM:   2    -0.110238346489E+04   -0.19228E-03   -0.93367E-04  2214   0.679E-02    0.313E-01
RMM:   3    -0.110238327866E+04    0.18623E-03   -0.15938E-04  2203   0.305E-02    0.203E-01
RMM:   4    -0.110238340243E+04   -0.12377E-03   -0.12510E-04  2056   0.243E-02    0.229E-01
RMM:   5    -0.110238335950E+04    0.42924E-04   -0.55692E-05  1762   0.176E-02    0.163E-01
RMM:   6    -0.110238333106E+04    0.28445E-04   -0.26550E-05  1557   0.122E-02    0.292E-02
RMM:   7    -0.110238337070E+04   -0.39639E-04   -0.10749E-05  1413   0.740E-03    0.682E-02
RMM:   8    -0.110238336488E+04    0.58184E-05   -0.62759E-06  1372   0.568E-03    0.397E-02
RMM:   9    -0.110238336967E+04   -0.47917E-05   -0.49042E-06  1351   0.570E-03    0.300E-02
RMM:  10    -0.110238337378E+04   -0.41060E-05   -0.49471E-06  1351   0.525E-03    0.315E-02
RMM:  11    -0.110238337392E+04   -0.13848E-06   -0.31906E-06  1282   0.468E-03
  93 F= -.11094614E+04 E0= -.11094373E+04  d E =-.227749E-03  mag=    12.1998
 ZBRENT: can't locate minimum, use default step
 trial-energy change:   -0.000228  1 .order   -0.000232   -0.000247   -0.000217
 step:   0.3584(harm=  0.7363)  dis= 0.00252  next Energy= -1109.462186 (dE=-0.102E-02)
 bond charge predicted
       N       E                     dE             d eps       ncg     rms          rms(c)
DAV:   1    -0.110238275735E+04    0.61643E-03   -0.37572E-01  1896   0.135E+00    0.174E-01
RMM:   2    -0.110238446646E+04   -0.17091E-02   -0.84328E-03  2207   0.204E-01    0.747E-01
RMM:   3    -0.110238359383E+04    0.87263E-03   -0.14503E-03  2209   0.903E-02    0.434E-01
RMM:   4    -0.110238437341E+04   -0.77959E-03   -0.81238E-04  2327   0.601E-02    0.745E-01
RMM:   5    -0.110238336298E+04    0.10104E-02   -0.46517E-04  2050   0.511E-02    0.343E-01
RMM:   6    -0.110238351721E+04   -0.15423E-03   -0.17001E-04  1880   0.300E-02    0.125E-01
RMM:   7    -0.110238364267E+04   -0.12547E-03   -0.73219E-05  1809   0.188E-02    0.162E-01
RMM:   8    -0.110238364784E+04   -0.51620E-05   -0.57949E-05  1871   0.161E-02    0.141E-01
RMM:   9    -0.110238363230E+04    0.15540E-04   -0.40882E-05  1745   0.144E-02    0.661E-02
RMM:  10    -0.110238368168E+04   -0.49380E-04   -0.46192E-05  1772   0.146E-02    0.113E-01
RMM:  11    -0.110238367126E+04    0.10415E-04   -0.36801E-05  1660   0.121E-02    0.106E-01
RMM:  12    -0.110238365651E+04    0.14751E-04   -0.19326E-05  1501   0.100E-02    0.567E-02
RMM:  13    -0.110238366116E+04   -0.46472E-05   -0.87030E-06  1384   0.681E-03    0.343E-02
RMM:  14    -0.110238366830E+04   -0.71426E-05   -0.38837E-06  1280   0.465E-03    0.279E-02
RMM:  15    -0.110238367098E+04   -0.26851E-05   -0.20251E-06  1229   0.366E-03    0.242E-02
RMM:  16    -0.110238367275E+04   -0.17614E-05   -0.67616E-07  1118   0.223E-03    0.155E-02
RMM:  17    -0.110238367452E+04   -0.17702E-05   -0.38261E-07  1100   0.161E-03    0.849E-03
RMM:  18    -0.110238367684E+04   -0.23241E-05   -0.21121E-07  1043   0.113E-03    0.662E-03
RMM:  19    -0.110238367854E+04   -0.17032E-05   -0.14096E-07  1010   0.952E-04    0.512E-03
RMM:  20    -0.110238368003E+04   -0.14893E-05   -0.86006E-08   984   0.662E-04    0.201E-03
RMM:  21    -0.110238368158E+04   -0.15486E-05   -0.74589E-08   859   0.652E-04    0.335E-03
RMM:  22    -0.110238368258E+04   -0.99756E-06   -0.57337E-08   806   0.553E-04
  94 F= -.11094618E+04 E0= -.11094379E+04  d E =-.674996E-03  mag=    12.1973
 curvature:  -2.07 expect dE=-0.271E-02 dE for cont linesearch -0.848E-04
 ZBRENT: increasing intervall
 opt :   0.8960  next Energy= -1109.461599 (dE=-0.428E-03)
 bond charge predicted
       N       E                     dE             d eps       ncg     rms          rms(c)
DAV:   1    -0.110237953445E+04    0.41471E-02   -0.15041E+00  1896   0.271E+00    0.345E-01
RMM:   2    -0.110238597782E+04   -0.64434E-02   -0.33300E-02  2216   0.404E-01    0.164E+00
RMM:   3    -0.110238264931E+04    0.33285E-02   -0.53738E-03  2221   0.177E-01    0.122E+00
RMM:   4    -0.110238561183E+04   -0.29625E-02   -0.42837E-03  2287   0.140E-01    0.153E+00
RMM:   5    -0.110238359822E+04    0.20136E-02   -0.21876E-03  2119   0.107E-01    0.892E-01
RMM:   6    -0.110238259883E+04    0.99938E-03   -0.99572E-04  2069   0.704E-02    0.137E-01
RMM:   7    -0.110238325241E+04   -0.65357E-03   -0.36220E-04  2129   0.408E-02    0.341E-01
RMM:   8    -0.110238311196E+04    0.14044E-03   -0.21387E-04  2135   0.325E-02    0.239E-01
RMM:   9    -0.110238313348E+04   -0.21519E-04   -0.14077E-04  2000   0.253E-02    0.254E-01
RMM:  10    -0.110238316151E+04   -0.28026E-04   -0.16917E-04  2035   0.276E-02    0.223E-01
RMM:  11    -0.110238319363E+04   -0.32125E-04   -0.13331E-04  1947   0.261E-02    0.241E-01
RMM:  12    -0.110238312157E+04    0.72058E-04   -0.73108E-05  1799   0.198E-02    0.200E-01
RMM:  13    -0.110238310510E+04    0.16475E-04   -0.37459E-05  1651   0.138E-02    0.111E-01
RMM:  14    -0.110238314140E+04   -0.36296E-04   -0.14363E-05  1472   0.925E-03    0.453E-02
RMM:  15    -0.110238317791E+04   -0.36510E-04   -0.10305E-05  1430   0.770E-03    0.522E-02
RMM:  16    -0.110238318377E+04   -0.58610E-05   -0.48111E-06  1333   0.564E-03    0.464E-02
RMM:  17    -0.110238318621E+04   -0.24419E-05   -0.20665E-06  1231   0.383E-03    0.283E-02
RMM:  18    -0.110238319126E+04   -0.50533E-05   -0.11304E-06  1168   0.277E-03    0.149E-02
RMM:  19    -0.110238319769E+04   -0.64294E-05   -0.56112E-07  1113   0.188E-03    0.117E-02
RMM:  20    -0.110238320162E+04   -0.39247E-05   -0.45168E-07  1083   0.161E-03    0.995E-03
RMM:  21    -0.110238320484E+04   -0.32279E-05   -0.32484E-07  1040   0.147E-03    0.485E-03
RMM:  22    -0.110238320991E+04   -0.50698E-05   -0.20360E-07  1033   0.969E-04    0.573E-03
RMM:  23    -0.110238321312E+04   -0.32091E-05   -0.16025E-07   997   0.860E-04    0.431E-03
RMM:  24    -0.110238321524E+04   -0.21190E-05   -0.11483E-07   861   0.688E-04    0.277E-03
RMM:  25    -0.110238321805E+04   -0.28104E-05   -0.91729E-08   793   0.570E-04    0.168E-03
RMM:  26    -0.110238322131E+04   -0.32578E-05   -0.10005E-07   838   0.555E-04    0.172E-03
RMM:  27    -0.110238322418E+04   -0.28717E-05   -0.10516E-07   857   0.550E-04    0.165E-03
RMM:  28    -0.110238322607E+04   -0.18925E-05   -0.88000E-08   741   0.494E-04    0.125E-03
RMM:  29    -0.110238322778E+04   -0.17030E-05   -0.77373E-08   708   0.459E-04    0.937E-04
RMM:  30    -0.110238322972E+04   -0.19450E-05   -0.89798E-08   760   0.450E-04    0.125E-03
RMM:  31    -0.110238323118E+04   -0.14614E-05   -0.85458E-08   790   0.446E-04    0.814E-04
RMM:  32    -0.110238323191E+04   -0.72682E-06   -0.61695E-08   650   0.402E-04
  95 F= -.11094617E+04 E0= -.11094378E+04  d E =-.501256E-03  mag=    12.1914
 curvature:   6.01 expect dE= 0.407E-01 dE for cont linesearch  0.713E-03
 ZBRENT: bracketing found
 ZBRENT: interpolating
 opt :   0.5574  next Energy= -1109.461943 (dE=-0.773E-03)
 bond charge predicted
       N       E                     dE             d eps       ncg     rms          rms(c)
DAV:   1    -0.110238222534E+04    0.10058E-02   -0.59648E-01  1914   0.171E+00    0.216E-01
RMM:   2    -0.110238466678E+04   -0.24414E-02   -0.13150E-02  2217   0.254E-01    0.977E-01
RMM:   3    -0.110238346054E+04    0.12062E-02   -0.21156E-03  2212   0.111E-01    0.806E-01
RMM:   4    -0.110238449259E+04   -0.10321E-02   -0.16689E-03  2283   0.871E-02    0.969E-01
RMM:   5    -0.110238370136E+04    0.79124E-03   -0.88521E-04  2088   0.685E-02    0.617E-01
RMM:   6    -0.110238335966E+04    0.34170E-03   -0.41208E-04  1959   0.478E-02    0.111E-01
RMM:   7    -0.110238367983E+04   -0.32016E-03   -0.15197E-04  1953   0.261E-02    0.274E-01
RMM:   8    -0.110238358812E+04    0.91709E-04   -0.89930E-05  1989   0.202E-02    0.136E-01
RMM:   9    -0.110238363029E+04   -0.42171E-04   -0.64234E-05  1851   0.183E-02    0.101E-01
RMM:  10    -0.110238367419E+04   -0.43905E-04   -0.64968E-05  1883   0.181E-02    0.124E-01
RMM:  11    -0.110238365462E+04    0.19569E-04   -0.38088E-05  1741   0.144E-02    0.106E-01
RMM:  12    -0.110238365014E+04    0.44841E-05   -0.20168E-05  1523   0.102E-02    0.877E-02
RMM:  13    -0.110238365102E+04   -0.88551E-06   -0.10457E-05  1400   0.713E-03    0.520E-02
RMM:  14    -0.110238366645E+04   -0.15430E-04   -0.74397E-06  1374   0.631E-03    0.369E-02
RMM:  15    -0.110238367250E+04   -0.60492E-05   -0.36077E-06  1295   0.451E-03    0.340E-02
RMM:  16    -0.110238367313E+04   -0.62516E-06   -0.15461E-06  1222   0.335E-03
  96 F= -.11094619E+04 E0= -.11094379E+04  d E =-.768126E-03  mag=    12.1934
 curvature:  -0.82 expect dE=-0.186E-02 dE for cont linesearch -0.460E-08
 trial: gam= 0.80291 g(F)=  0.226E-02 g(S)=  0.000E+00 ort = 0.115E-04 (trialstep = 0.183E+00)
 search vector abs. value=  0.174E-01
 bond charge predicted
       N       E                     dE             d eps       ncg     rms          rms(c)
DAV:   1    -0.110238357718E+04    0.95328E-04   -0.12699E-01  2016   0.792E-01    0.101E-01
RMM:   2    -0.110238415093E+04   -0.57375E-03   -0.29526E-03  2224   0.120E-01    0.475E-01
RMM:   3    -0.110238374357E+04    0.40736E-03   -0.44963E-04  2199   0.523E-02    0.224E-01
RMM:   4    -0.110238411686E+04   -0.37329E-03   -0.27315E-04  2279   0.357E-02    0.494E-01
RMM:   5    -0.110238372385E+04    0.39301E-03   -0.15488E-04  1921   0.282E-02    0.217E-01
RMM:   6    -0.110238382656E+04   -0.10270E-03   -0.90082E-05  1756   0.217E-02    0.633E-02
RMM:   7    -0.110238390817E+04   -0.81614E-04   -0.39606E-05  1730   0.134E-02    0.149E-01
RMM:   8    -0.110238386717E+04    0.41002E-04   -0.31522E-05  1748   0.116E-02    0.739E-02
RMM:   9    -0.110238389118E+04   -0.24012E-04   -0.27231E-05  1660   0.118E-02    0.627E-02
RMM:  10    -0.110238391372E+04   -0.22534E-04   -0.24709E-05  1578   0.998E-03    0.104E-01
RMM:  11    -0.110238388990E+04    0.23814E-04   -0.14620E-05  1411   0.859E-03    0.447E-02
RMM:  12    -0.110238389506E+04   -0.51570E-05   -0.49279E-06  1316   0.537E-03    0.340E-02
RMM:  13    -0.110238389615E+04   -0.10904E-05   -0.22620E-06  1233   0.355E-03    0.206E-02
RMM:  14    -0.110238389792E+04   -0.17711E-05   -0.10024E-06  1160   0.272E-03    0.139E-02
RMM:  15    -0.110238389848E+04   -0.56203E-06   -0.41133E-07  1092   0.169E-03
  97 F= -.11094622E+04 E0= -.11094383E+04  d E =-.310829E-03  mag=    12.1932
 trial-energy change:   -0.000311  1 .order   -0.000298   -0.000416   -0.000180
 step:   0.2760(harm=  0.3222)  dis= 0.00167  next Energy= -1109.462296 (dE=-0.358E-03)
 bond charge predicted
       N       E                     dE             d eps       ncg     rms          rms(c)
DAV:   1    -0.110238383481E+04    0.63106E-04   -0.32641E-02  2028   0.402E-01    0.523E-02
RMM:   2    -0.110238399227E+04   -0.15746E-03   -0.76843E-04  2223   0.612E-02    0.303E-01
RMM:   3    -0.110238380429E+04    0.18798E-03   -0.12658E-04  2181   0.276E-02    0.159E-01
RMM:   4    -0.110238393380E+04   -0.12951E-03   -0.96672E-05  2020   0.218E-02    0.183E-01
RMM:   5    -0.110238389494E+04    0.38865E-04   -0.38246E-05  1710   0.148E-02    0.127E-01
RMM:   6    -0.110238388668E+04    0.82585E-05   -0.19252E-05  1504   0.106E-02    0.406E-02
RMM:   7    -0.110238391119E+04   -0.24505E-04   -0.96800E-06  1403   0.712E-03    0.633E-02
RMM:   8    -0.110238390980E+04    0.13849E-05   -0.88997E-06  1443   0.668E-03    0.569E-02
RMM:   9    -0.110238390832E+04    0.14817E-05   -0.71431E-06  1395   0.666E-03    0.345E-02
RMM:  10    -0.110238391379E+04   -0.54732E-05   -0.59711E-06  1358   0.581E-03    0.300E-02
RMM:  11    -0.110238391330E+04    0.49302E-06   -0.30608E-06  1275   0.451E-03
  98 F= -.11094623E+04 E0= -.11094384E+04  d E =-.368975E-03  mag=    12.1926
 curvature:  -1.10 expect dE=-0.334E-02 dE for cont linesearch -0.104E-04
 trial: gam= 1.18929 g(F)=  0.304E-02 g(S)=  0.000E+00 ort = 0.406E-03 (trialstep = 0.123E+00)
 search vector abs. value=  0.287E-01
 bond charge predicted
       N       E                     dE             d eps       ncg     rms          rms(c)
DAV:   1    -0.110238391949E+04   -0.56973E-05   -0.94301E-02  1980   0.686E-01    0.914E-02
RMM:   2    -0.110238456020E+04   -0.64072E-03   -0.23205E-03  2238   0.107E-01    0.556E-01
RMM:   3    -0.110238393812E+04    0.62209E-03   -0.40027E-04  2198   0.497E-02    0.227E-01
RMM:   4    -0.110238427501E+04   -0.33689E-03   -0.24576E-04  2224   0.338E-02    0.405E-01
RMM:   5    -0.110238407569E+04    0.19932E-03   -0.14318E-04  1945   0.269E-02    0.259E-01
RMM:   6    -0.110238405933E+04    0.16359E-04   -0.83399E-05  1778   0.218E-02    0.568E-02
RMM:   7    -0.110238414876E+04   -0.89424E-04   -0.33565E-05  1694   0.131E-02    0.114E-01
RMM:   8    -0.110238414137E+04    0.73899E-05   -0.29231E-05  1753   0.118E-02    0.105E-01
RMM:   9    -0.110238413346E+04    0.79067E-05   -0.23953E-05  1634   0.115E-02    0.589E-02
RMM:  10    -0.110238415044E+04   -0.16979E-04   -0.18559E-05  1563   0.100E-02    0.659E-02
RMM:  11    -0.110238414634E+04    0.40995E-05   -0.10846E-05  1414   0.771E-03    0.484E-02
RMM:  12    -0.110238414618E+04    0.15779E-06   -0.47582E-06  1318   0.517E-03
  99 F= -.11094626E+04 E0= -.11094387E+04  d E =-.296140E-03  mag=    12.1921
 trial-energy change:   -0.000296  1 .order   -0.000309   -0.000432   -0.000187
 step:   0.2159(harm=  0.2159)  dis= 0.00164  next Energy= -1109.462687 (dE=-0.380E-03)
 bond charge predicted
       N       E                     dE             d eps       ncg     rms          rms(c)
DAV:   1    -0.110238402900E+04    0.11734E-03   -0.54408E-02  2016   0.521E-01    0.731E-02
RMM:   2    -0.110238459421E+04   -0.56521E-03   -0.14037E-03  2228   0.838E-02    0.646E-01
RMM:   3    -0.110238378363E+04    0.81058E-03   -0.31622E-04  2189   0.432E-02    0.166E-01
RMM:   4    -0.110238418560E+04   -0.40197E-03   -0.20081E-04  2112   0.315E-02    0.203E-01
RMM:   5    -0.110238418067E+04    0.49317E-05   -0.58201E-05  1817   0.163E-02    0.191E-01
RMM:   6    -0.110238411988E+04    0.60791E-04   -0.35816E-05  1651   0.138E-02    0.745E-02
RMM:   7    -0.110238415433E+04   -0.34453E-04   -0.18686E-05  1525   0.993E-03    0.110E-01
RMM:   8    -0.110238415043E+04    0.38979E-05   -0.18536E-05  1605   0.926E-03    0.875E-02
RMM:   9    -0.110238415403E+04   -0.35977E-05   -0.15959E-05  1545   0.951E-03    0.501E-02
RMM:  10    -0.110238416514E+04   -0.11107E-04   -0.11873E-05  1475   0.819E-03    0.791E-02
RMM:  11    -0.110238415580E+04    0.93339E-05   -0.89314E-06  1370   0.670E-03    0.866E-02
RMM:  12    -0.110238414685E+04    0.89549E-05   -0.45324E-06  1311   0.548E-03    0.704E-02
RMM:  13    -0.110238414872E+04   -0.18745E-05   -0.17960E-06  1220   0.355E-03    0.461E-02
RMM:  14    -0.110238415569E+04   -0.69672E-05   -0.10841E-06  1151   0.272E-03    0.187E-02
RMM:  15    -0.110238416384E+04   -0.81522E-05   -0.92609E-07  1130   0.256E-03    0.972E-03
RMM:  16    -0.110238416752E+04   -0.36744E-05   -0.52945E-07  1090   0.202E-03    0.995E-03
RMM:  17    -0.110238416776E+04   -0.24671E-06   -0.28004E-07  1048   0.155E-03
 100 F= -.11094627E+04 E0= -.11094388E+04  d E =-.365714E-03  mag=    12.1914
 curvature:  -0.88 expect dE=-0.150E-02 dE for cont linesearch -0.106E-06
 trial: gam= 0.82411 g(F)=  0.171E-02 g(S)=  0.000E+00 ort =-0.589E-04 (trialstep = 0.141E+00)
 search vector abs. value=  0.211E-01
 bond charge predicted
       N       E                     dE             d eps       ncg     rms          rms(c)
DAV:   1    -0.110238409395E+04    0.73567E-04   -0.89262E-02  1908   0.668E-01    0.792E-02
RMM:   2    -0.110238440145E+04   -0.30750E-03   -0.20099E-03  2278   0.991E-02    0.330E-01
RMM:   3    -0.110238424835E+04    0.15310E-03   -0.28729E-04  2261   0.402E-02    0.293E-01
RMM:   4    -0.110238440739E+04   -0.15904E-03   -0.22189E-04  2193   0.321E-02    0.368E-01
RMM:   5    -0.110238426120E+04    0.14619E-03   -0.12022E-04  1891   0.255E-02    0.200E-01
RMM:   6    -0.110238425756E+04    0.36391E-05   -0.55274E-05  1698   0.172E-02    0.359E-02
RMM:   7    -0.110238431252E+04   -0.54967E-04   -0.20614E-05  1601   0.103E-02    0.807E-02
RMM:   8    -0.110238430265E+04    0.98708E-05   -0.11647E-05  1500   0.778E-03    0.600E-02
RMM:   9    -0.110238430659E+04   -0.39402E-05   -0.95587E-06  1428   0.715E-03    0.543E-02
RMM:  10    -0.110238431398E+04   -0.73890E-05   -0.11416E-05  1458   0.787E-03    0.544E-02
RMM:  11    -0.110238431439E+04   -0.40471E-06   -0.77467E-06  1386   0.687E-03
 101 F= -.11094629E+04 E0= -.11094390E+04  d E =-.203598E-03  mag=    12.1912
 ZBRENT: can't locate minimum, use default step
 trial-energy change:   -0.000204  1 .order   -0.000213   -0.000234   -0.000191
 step:   0.5654(harm=  0.7636)  dis= 0.00377  next Energy= -1109.463306 (dE=-0.633E-03)
 bond charge predicted
       N       E                     dE             d eps       ncg     rms          rms(c)
DAV:   1    -0.110238238873E+04    0.19252E-02   -0.80256E-01  1896   0.200E+00    0.242E-01
RMM:   2    -0.110238572976E+04   -0.33410E-02   -0.18339E-02  2274   0.301E-01    0.101E+00
RMM:   3    -0.110238439240E+04    0.13374E-02   -0.28174E-03  2269   0.125E-01    0.758E-01
RMM:   4    -0.110238602916E+04   -0.16368E-02   -0.17052E-03  2289   0.878E-02    0.132E+00
RMM:   5    -0.110238378350E+04    0.22457E-02   -0.13325E-03  2095   0.817E-02    0.639E-01
RMM:   6    -0.110238403395E+04   -0.25045E-03   -0.66037E-04  1975   0.603E-02    0.180E-01
RMM:   7    -0.110238431849E+04   -0.28454E-03   -0.17527E-04  1987   0.293E-02    0.212E-01
RMM:   8    -0.110238435010E+04   -0.31615E-04   -0.12134E-04  2078   0.235E-02    0.190E-01
RMM:   9    -0.110238433381E+04    0.16293E-04   -0.91849E-05  1932   0.212E-02    0.113E-01
RMM:  10    -0.110238439974E+04   -0.65933E-04   -0.98957E-05  1974   0.214E-02    0.142E-01
RMM:  11    -0.110238440201E+04   -0.22678E-05   -0.70904E-05  1781   0.163E-02    0.150E-01
RMM:  12    -0.110238437060E+04    0.31410E-04   -0.40192E-05  1704   0.143E-02    0.844E-02
RMM:  13    -0.110238436818E+04    0.24139E-05   -0.15732E-05  1479   0.905E-03    0.630E-02
RMM:  14    -0.110238437246E+04   -0.42807E-05   -0.75048E-06  1377   0.659E-03    0.232E-02
RMM:  15    -0.110238438158E+04   -0.91140E-05   -0.31769E-06  1294   0.443E-03    0.191E-02
RMM:  16    -0.110238438347E+04   -0.18921E-05   -0.13880E-06  1198   0.312E-03    0.181E-02
RMM:  17    -0.110238438434E+04   -0.86465E-06   -0.63212E-07  1118   0.212E-03
 102 F= -.11094631E+04 E0= -.11094393E+04  d E =-.443931E-03  mag=    12.1913
 curvature:  -4.36 expect dE=-0.927E-02 dE for cont linesearch -0.216E-05
 trial: gam= 0.81442 g(F)=  0.213E-02 g(S)=  0.000E+00 ort =-0.102E-03 (trialstep = 0.226E+00)
 search vector abs. value=  0.159E-01
 bond charge predicted
       N       E                     dE             d eps       ncg     rms          rms(c)
DAV:   1    -0.110238423600E+04    0.14747E-03   -0.16782E-01  1968   0.920E-01    0.112E-01
RMM:   2    -0.110238473606E+04   -0.50006E-03   -0.39011E-03  2235   0.136E-01    0.364E-01
RMM:   3    -0.110238471271E+04    0.23355E-04   -0.52753E-04  2200   0.562E-02    0.519E-01
RMM:   4    -0.110238471171E+04    0.99266E-06   -0.48123E-04  2258   0.467E-02    0.428E-01
RMM:   5    -0.110238458008E+04    0.13163E-03   -0.23526E-04  2023   0.361E-02    0.164E-01
RMM:   6    -0.110238460267E+04   -0.22594E-04   -0.60018E-05  1800   0.175E-02    0.679E-02
RMM:   7    -0.110238466320E+04   -0.60522E-04   -0.34126E-05  1731   0.127E-02    0.131E-01
RMM:   8    -0.110238463624E+04    0.26953E-04   -0.24790E-05  1669   0.108E-02    0.107E-01
RMM:   9    -0.110238463377E+04    0.24771E-05   -0.20881E-05  1543   0.103E-02    0.592E-02
RMM:  10    -0.110238465434E+04   -0.20579E-04   -0.23152E-05  1668   0.111E-02    0.639E-02
RMM:  11    -0.110238465539E+04   -0.10489E-05   -0.15172E-05  1509   0.928E-03    0.608E-02
RMM:  12    -0.110238465141E+04    0.39880E-05   -0.86157E-06  1363   0.685E-03    0.510E-02
RMM:  13    -0.110238464838E+04    0.30300E-05   -0.37288E-06  1275   0.453E-03    0.346E-02
RMM:  14    -0.110238465152E+04   -0.31429E-05   -0.17439E-06  1209   0.332E-03    0.209E-02
RMM:  15    -0.110238465445E+04   -0.29285E-05   -0.85590E-07  1142   0.254E-03    0.577E-03
RMM:  16    -0.110238465686E+04   -0.24176E-05   -0.31855E-07  1095   0.152E-03    0.101E-02
RMM:  17    -0.110238465725E+04   -0.38405E-06   -0.20822E-07  1073   0.125E-03
 103 F= -.11094635E+04 E0= -.11094396E+04  d E =-.333296E-03  mag=    12.1915
 trial-energy change:   -0.000333  1 .order   -0.000326   -0.000462   -0.000189
 step:   0.3504(harm=  0.3831)  dis= 0.00209  next Energy= -1109.463503 (dE=-0.387E-03)
 bond charge predicted
       N       E                     dE             d eps       ncg     rms          rms(c)
DAV:   1    -0.110238456064E+04    0.96221E-04   -0.50629E-02  1944   0.505E-01    0.614E-02
RMM:   2    -0.110238472343E+04   -0.16278E-03   -0.11789E-03  2232   0.749E-02    0.253E-01
RMM:   3    -0.110238463202E+04    0.91411E-04   -0.15894E-04  2193   0.309E-02    0.229E-01
RMM:   4    -0.110238471823E+04   -0.86218E-04   -0.14830E-04  2129   0.264E-02    0.216E-01
RMM:   5    -0.110238465899E+04    0.59248E-04   -0.58395E-05  1767   0.176E-02    0.552E-02
RMM:   6    -0.110238467547E+04   -0.16488E-04   -0.12151E-05  1488   0.754E-03    0.532E-02
RMM:   7    -0.110238468374E+04   -0.82696E-05   -0.99836E-06  1443   0.695E-03    0.631E-02
RMM:   8    -0.110238468015E+04    0.35991E-05   -0.70534E-06  1373   0.639E-03    0.496E-02
RMM:   9    -0.110238468202E+04   -0.18731E-05   -0.52821E-06  1325   0.545E-03    0.511E-02
RMM:  10    -0.110238468459E+04   -0.25744E-05   -0.72363E-06  1403   0.642E-03    0.359E-02
RMM:  11    -0.110238468766E+04   -0.30673E-05   -0.47442E-06  1330   0.558E-03    0.393E-02
RMM:  12    -0.110238468590E+04    0.17648E-05   -0.25260E-06  1204   0.381E-03    0.328E-02
RMM:  13    -0.110238468538E+04    0.51962E-06   -0.11567E-06  1138   0.256E-03
 104 F= -.11094635E+04 E0= -.11094396E+04  d E =-.394541E-03  mag=    12.1917
 curvature:  -1.43 expect dE=-0.148E-02 dE for cont linesearch -0.409E-05
 ZBRENT: extrapolating
 opt :   0.3930  next Energy= -1109.463516 (dE=-0.399E-03)
 bond charge predicted
       N       E                     dE             d eps       ncg     rms          rms(c)
DAV:   1    -0.110238466359E+04    0.22309E-04   -0.59333E-03  1992   0.173E-01    0.232E-02
RMM:   2    -0.110238469762E+04   -0.34031E-04   -0.14979E-04  2228   0.276E-02    0.109E-01
RMM:   3    -0.110238466636E+04    0.31262E-04   -0.25859E-05  1879   0.127E-02    0.600E-02
RMM:   4    -0.110238468446E+04   -0.18108E-04   -0.13127E-05  1562   0.823E-03    0.901E-02
RMM:   5    -0.110238467086E+04    0.13605E-04   -0.92810E-06  1398   0.754E-03    0.854E-02
RMM:   6    -0.110238466587E+04    0.49879E-05   -0.69701E-06  1330   0.643E-03    0.311E-02
RMM:   7    -0.110238467643E+04   -0.10563E-04   -0.26795E-06  1241   0.426E-03    0.165E-02
RMM:   8    -0.110238468012E+04   -0.36877E-05   -0.13440E-06  1171   0.294E-03    0.158E-02
RMM:   9    -0.110238468111E+04   -0.99040E-06   -0.11127E-06  1142   0.262E-03
 105 F= -.11094635E+04 E0= -.11094396E+04  d E =-.401627E-03  mag=    12.1917
 curvature:  -1.59 expect dE=-0.201E-02 dE for cont linesearch -0.367E-07
 trial: gam= 0.57718 g(F)=  0.127E-02 g(S)=  0.000E+00 ort =-0.192E-04 (trialstep = 0.260E+00)
 search vector abs. value=  0.656E-02
 bond charge predicted
       N       E                     dE             d eps       ncg     rms          rms(c)
DAV:   1    -0.110238467295E+04    0.71731E-05   -0.90403E-02  1896   0.682E-01    0.786E-02
RMM:   2    -0.110238493031E+04   -0.25736E-03   -0.20944E-03  2230   0.989E-02    0.305E-01
RMM:   3    -0.110238482910E+04    0.10120E-03   -0.26939E-04  2200   0.401E-02    0.310E-01
RMM:   4    -0.110238490636E+04   -0.77255E-04   -0.22470E-04  2217   0.342E-02    0.246E-01
RMM:   5    -0.110238483659E+04    0.69772E-04   -0.86299E-05  1877   0.222E-02    0.932E-02
RMM:   6    -0.110238486700E+04   -0.30411E-04   -0.23950E-05  1651   0.109E-02    0.694E-02
RMM:   7    -0.110238489139E+04   -0.24396E-04   -0.20398E-05  1627   0.101E-02    0.982E-02
RMM:   8    -0.110238488133E+04    0.10068E-04   -0.15960E-05  1516   0.875E-03    0.889E-02
RMM:   9    -0.110238487872E+04    0.26052E-05   -0.16892E-05  1508   0.961E-03    0.609E-02
RMM:  10    -0.110238488773E+04   -0.90136E-05   -0.15002E-05  1472   0.879E-03    0.487E-02
RMM:  11    -0.110238489158E+04   -0.38481E-05   -0.87657E-06  1422   0.720E-03    0.545E-02
RMM:  12    -0.110238488542E+04    0.61650E-05   -0.53931E-06  1300   0.572E-03    0.303E-02
RMM:  13    -0.110238488858E+04   -0.31644E-05   -0.19189E-06  1201   0.335E-03    0.188E-02
RMM:  14    -0.110238489149E+04   -0.29114E-05   -0.12004E-06  1173   0.255E-03    0.202E-02
RMM:  15    -0.110238489082E+04    0.66843E-06   -0.59319E-07  1106   0.218E-03
 106 F= -.11094638E+04 E0= -.11094399E+04  d E =-.245502E-03  mag=    12.1915
 trial-energy change:   -0.000246  1 .order   -0.000252   -0.000326   -0.000178
 step:   0.5708(harm=  0.5708)  dis= 0.00220  next Energy= -1109.463876 (dE=-0.358E-03)
 bond charge predicted
       N       E                     dE             d eps       ncg     rms          rms(c)
DAV:   1    -0.110238463755E+04    0.25394E-03   -0.13018E-01  1896   0.819E-01    0.956E-02
RMM:   2    -0.110238514172E+04   -0.50417E-03   -0.30379E-03  2226   0.119E-01    0.549E-01
RMM:   3    -0.110238463129E+04    0.51043E-03   -0.43540E-04  2187   0.517E-02    0.200E-01
RMM:   4    -0.110238511005E+04   -0.47876E-03   -0.32894E-04  2228   0.397E-02    0.307E-01
RMM:   5    -0.110238490804E+04    0.20201E-03   -0.10862E-04  1902   0.217E-02    0.111E-01
RMM:   6    -0.110238492940E+04   -0.21358E-04   -0.29691E-05  1694   0.109E-02    0.114E-01
RMM:   7    -0.110238494164E+04   -0.12241E-04   -0.30775E-05  1732   0.120E-02    0.104E-01
RMM:   8    -0.110238493871E+04    0.29263E-05   -0.22272E-05  1643   0.101E-02    0.563E-02
RMM:   9    -0.110238496028E+04   -0.21571E-04   -0.17536E-05  1528   0.926E-03    0.116E-01
RMM:  10    -0.110238493319E+04    0.27097E-04   -0.18292E-05  1554   0.960E-03    0.897E-02
RMM:  11    -0.110238493975E+04   -0.65678E-05   -0.11400E-05  1461   0.863E-03    0.883E-02
RMM:  12    -0.110238493481E+04    0.49447E-05   -0.47138E-06  1316   0.541E-03    0.565E-02
RMM:  13    -0.110238494134E+04   -0.65326E-05   -0.20855E-06  1243   0.376E-03    0.236E-02
RMM:  14    -0.110238495166E+04   -0.10323E-04   -0.16269E-06  1209   0.348E-03    0.167E-02
RMM:  15    -0.110238495545E+04   -0.37845E-05   -0.93161E-07  1135   0.263E-03    0.195E-02
RMM:  16    -0.110238495463E+04    0.81936E-06   -0.53642E-07  1106   0.184E-03
 107 F= -.11094639E+04 E0= -.11094400E+04  d E =-.352129E-03  mag=    12.1912
 curvature:  -1.49 expect dE=-0.389E-02 dE for cont linesearch -0.147E-07
 trial: gam= 2.03157 g(F)=  0.260E-02 g(S)=  0.000E+00 ort = 0.804E-05 (trialstep = 0.710E-01)
 search vector abs. value=  0.297E-01
 bond charge predicted
       N       E                     dE             d eps       ncg     rms          rms(c)
DAV:   1    -0.110238500975E+04   -0.54301E-04   -0.30159E-02  1944   0.393E-01    0.487E-02
RMM:   2    -0.110238513427E+04   -0.12452E-03   -0.74652E-04  2246   0.590E-02    0.267E-01
RMM:   3    -0.110238499379E+04    0.14049E-03   -0.10848E-04  2195   0.256E-02    0.127E-01
RMM:   4    -0.110238511324E+04   -0.11945E-03   -0.81704E-05  2011   0.201E-02    0.170E-01
RMM:   5    -0.110238506376E+04    0.49479E-04   -0.29244E-05  1643   0.127E-02    0.921E-02
RMM:   6    -0.110238506765E+04   -0.38913E-05   -0.12942E-05  1432   0.845E-03    0.408E-02
RMM:   7    -0.110238508959E+04   -0.21936E-04   -0.11083E-05  1420   0.741E-03    0.779E-02
RMM:   8    -0.110238507943E+04    0.10162E-04   -0.96805E-06  1416   0.672E-03    0.547E-02
RMM:   9    -0.110238508295E+04   -0.35219E-05   -0.88181E-06  1399   0.711E-03    0.322E-02
RMM:  10    -0.110238508763E+04   -0.46832E-05   -0.63376E-06  1339   0.570E-03    0.408E-02
RMM:  11    -0.110238508469E+04    0.29404E-05   -0.30710E-06  1242   0.448E-03    0.392E-02
RMM:  12    -0.110238508270E+04    0.19957E-05   -0.12861E-06  1160   0.290E-03    0.289E-02
RMM:  13    -0.110238508385E+04   -0.11576E-05   -0.62252E-07  1118   0.181E-03    0.179E-02
RMM:  14    -0.110238508647E+04   -0.26195E-05   -0.34487E-07  1080   0.147E-03    0.730E-03
RMM:  15    -0.110238508838E+04   -0.19035E-05   -0.26011E-07  1050   0.139E-03    0.114E-02
RMM:  16    -0.110238508819E+04    0.18260E-06   -0.15664E-07  1032   0.113E-03
 108 F= -.11094640E+04 E0= -.11094402E+04  d E =-.154855E-03  mag=    12.1909
 trial-energy change:   -0.000155  1 .order   -0.000151   -0.000186   -0.000116
 step:   0.1890(harm=  0.1890)  dis= 0.00154  next Energy= -1109.464118 (dE=-0.248E-03)
 bond charge predicted
       N       E                     dE             d eps       ncg     rms          rms(c)
DAV:   1    -0.110238494355E+04    0.14482E-03   -0.83139E-02  1896   0.652E-01    0.788E-02
RMM:   2    -0.110238519597E+04   -0.25242E-03   -0.20226E-03  2241   0.964E-02    0.319E-01
RMM:   3    -0.110238507035E+04    0.12562E-03   -0.26165E-04  2205   0.394E-02    0.285E-01
RMM:   4    -0.110238518299E+04   -0.11263E-03   -0.20869E-04  2190   0.322E-02    0.263E-01
RMM:   5    -0.110238509062E+04    0.92361E-04   -0.77199E-05  1837   0.203E-02    0.118E-01
RMM:   6    -0.110238512009E+04   -0.29466E-04   -0.28091E-05  1641   0.117E-02    0.726E-02
RMM:   7    -0.110238515721E+04   -0.37122E-04   -0.29279E-05  1701   0.119E-02    0.120E-01
RMM:   8    -0.110238513390E+04    0.23318E-04   -0.23476E-05  1651   0.103E-02    0.865E-02
RMM:   9    -0.110238513792E+04   -0.40249E-05   -0.21651E-05  1558   0.108E-02    0.579E-02
RMM:  10    -0.110238515025E+04   -0.12335E-04   -0.18099E-05  1525   0.921E-03    0.666E-02
RMM:  11    -0.110238514196E+04    0.82985E-05   -0.81705E-06  1380   0.715E-03    0.532E-02
RMM:  12    -0.110238513910E+04    0.28598E-05   -0.33254E-06  1264   0.462E-03    0.308E-02
RMM:  13    -0.110238514411E+04   -0.50155E-05   -0.15469E-06  1164   0.279E-03    0.248E-02
RMM:  14    -0.110238514696E+04   -0.28507E-05   -0.94340E-07  1139   0.231E-03    0.166E-02
RMM:  15    -0.110238514784E+04   -0.87404E-06   -0.44410E-07  1095   0.180E-03
 109 F= -.11094641E+04 E0= -.11094403E+04  d E =-.249807E-03  mag=    12.1904
 curvature:  -1.07 expect dE=-0.205E-02 dE for cont linesearch -0.559E-08
 trial: gam= 0.75863 g(F)=  0.191E-02 g(S)=  0.000E+00 ort = 0.125E-04 (trialstep = 0.946E-01)
 search vector abs. value=  0.190E-01
 bond charge predicted
       N       E                     dE             d eps       ncg     rms          rms(c)
DAV:   1    -0.110238520244E+04   -0.55478E-04   -0.34278E-02  1944   0.419E-01    0.519E-02
RMM:   2    -0.110238543330E+04   -0.23086E-03   -0.83988E-04  2271   0.633E-02    0.455E-01
RMM:   3    -0.110238502356E+04    0.40975E-03   -0.16513E-04  2190   0.317E-02    0.436E-02
RMM:   4    -0.110238531495E+04   -0.29139E-03   -0.90732E-05  2030   0.222E-02    0.178E-01
RMM:   5    -0.110238525581E+04    0.59132E-04   -0.31350E-05  1704   0.136E-02    0.102E-01
RMM:   6    -0.110238526439E+04   -0.85765E-05   -0.16147E-05  1510   0.979E-03    0.873E-02
RMM:   7    -0.110238527068E+04   -0.62841E-05   -0.80030E-06  1409   0.689E-03    0.694E-02
RMM:   8    -0.110238527569E+04   -0.50110E-05   -0.45066E-06  1313   0.539E-03    0.383E-02
RMM:   9    -0.110238528610E+04   -0.10415E-04   -0.45246E-06  1325   0.508E-03    0.427E-02
RMM:  10    -0.110238528980E+04   -0.37013E-05   -0.54908E-06  1333   0.549E-03    0.561E-02
RMM:  11    -0.110238528581E+04    0.39942E-05   -0.35292E-06  1294   0.496E-03    0.620E-02
RMM:  12    -0.110238527849E+04    0.73147E-05   -0.20823E-06  1219   0.386E-03    0.511E-02
RMM:  13    -0.110238527920E+04   -0.71004E-06   -0.11201E-06  1148   0.272E-03
 110 F= -.11094643E+04 E0= -.11094404E+04  d E =-.148762E-03  mag=    12.1902
 ZBRENT: can't locate minimum, use default step
 trial-energy change:   -0.000149  1 .order   -0.000162   -0.000182   -0.000142
 step:   0.3786(harm=  0.4261)  dis= 0.00246  next Energy= -1109.464530 (dE=-0.410E-03)
 bond charge predicted
       N       E                     dE             d eps       ncg     rms          rms(c)
DAV:   1    -0.110238466260E+04    0.61589E-03   -0.30826E-01  1896   0.126E+00    0.145E-01
RMM:   2    -0.110238539309E+04   -0.73048E-03   -0.72432E-03  2283   0.184E-01    0.260E-01
RMM:   3    -0.110238616557E+04   -0.77248E-03   -0.99591E-04  2229   0.763E-02    0.832E-01
RMM:   4    -0.110238528993E+04    0.87564E-03   -0.61532E-04  2279   0.569E-02    0.589E-01
RMM:   5    -0.110238514527E+04    0.14466E-03   -0.36638E-04  2043   0.439E-02    0.192E-01
RMM:   6    -0.110238539764E+04   -0.25236E-03   -0.15484E-04  1896   0.287E-02    0.113E-01
RMM:   7    -0.110238543131E+04   -0.33674E-04   -0.60732E-05  1895   0.169E-02    0.114E-01
RMM:   8    -0.110238541736E+04    0.13954E-04   -0.39727E-05  1774   0.137E-02    0.816E-02
RMM:   9    -0.110238543095E+04   -0.13600E-04   -0.40093E-05  1768   0.138E-02    0.870E-02
RMM:  10    -0.110238545888E+04   -0.27929E-04   -0.35895E-05  1689   0.118E-02    0.163E-01
RMM:  11    -0.110238540754E+04    0.51347E-04   -0.28975E-05  1675   0.122E-02    0.605E-02
RMM:  12    -0.110238543015E+04   -0.22609E-04   -0.14034E-05  1458   0.892E-03    0.498E-02
RMM:  13    -0.110238543282E+04   -0.26722E-05   -0.49371E-06  1313   0.514E-03    0.486E-02
RMM:  14    -0.110238543200E+04    0.81943E-06   -0.28008E-06  1229   0.428E-03
 111 F= -.11094645E+04 E0= -.11094407E+04  d E =-.353634E-03  mag=    12.1899
 curvature:  -2.06 expect dE=-0.203E-02 dE for cont linesearch -0.536E-07
 trial: gam= 0.50836 g(F)=  0.985E-03 g(S)=  0.000E+00 ort = 0.222E-04 (trialstep = 0.151E+00)
 search vector abs. value=  0.592E-02
 bond charge predicted
       N       E                     dE             d eps       ncg     rms          rms(c)
DAV:   1    -0.110238548771E+04   -0.54888E-04   -0.26997E-02  2004   0.372E-01    0.475E-02
RMM:   2    -0.110238564126E+04   -0.15355E-03   -0.66882E-04  2269   0.575E-02    0.314E-01
RMM:   3    -0.110238544257E+04    0.19869E-03   -0.11559E-04  2193   0.263E-02    0.144E-01
RMM:   4    -0.110238555462E+04   -0.11205E-03   -0.79313E-05  1980   0.204E-02    0.130E-01
RMM:   5    -0.110238555525E+04   -0.63430E-06   -0.34296E-05  1733   0.133E-02    0.114E-01
RMM:   6    -0.110238553417E+04    0.21081E-04   -0.16120E-05  1488   0.973E-03    0.292E-02
RMM:   7    -0.110238555806E+04   -0.23888E-04   -0.60240E-06  1360   0.597E-03    0.561E-02
RMM:   8    -0.110238555690E+04    0.11573E-05   -0.55954E-06  1317   0.528E-03    0.440E-02
RMM:   9    -0.110238555882E+04   -0.19212E-05   -0.46111E-06  1274   0.530E-03    0.299E-02
RMM:  10    -0.110238556076E+04   -0.19392E-05   -0.32460E-06  1232   0.412E-03    0.239E-02
RMM:  11    -0.110238556376E+04   -0.30020E-05   -0.23196E-06  1233   0.376E-03    0.242E-02
RMM:  12    -0.110238556320E+04    0.56349E-06   -0.14867E-06  1161   0.310E-03
 112 F= -.11094646E+04 E0= -.11094407E+04  d E =-.144719E-03  mag=    12.1899
 ZBRENT: can't locate minimum, use default step
 trial-energy change:   -0.000145  1 .order   -0.000137   -0.000151   -0.000124
 step:   0.6057(harm=  0.8482)  dis= 0.00216  next Energy= -1109.464897 (dE=-0.422E-03)
 bond charge predicted
       N       E                     dE             d eps       ncg     rms          rms(c)
DAV:   1    -0.110238512230E+04    0.44146E-03   -0.24291E-01  1896   0.111E+00    0.132E-01
RMM:   2    -0.110238578635E+04   -0.66405E-03   -0.57464E-03  2288   0.166E-01    0.301E-01
RMM:   3    -0.110238592778E+04   -0.14143E-03   -0.81890E-04  2222   0.703E-02    0.473E-01
RMM:   4    -0.110238614461E+04   -0.21683E-03   -0.43973E-04  2340   0.436E-02    0.774E-01
RMM:   5    -0.110238526348E+04    0.88113E-03   -0.41212E-04  2007   0.457E-02    0.205E-01
RMM:   6    -0.110238558624E+04   -0.32276E-03   -0.13407E-04  1856   0.266E-02    0.925E-02
RMM:   7    -0.110238574639E+04   -0.16015E-03   -0.54655E-05  1820   0.167E-02    0.182E-01
RMM:   8    -0.110238570712E+04    0.39268E-04   -0.38488E-05  1795   0.139E-02    0.132E-01
RMM:   9    -0.110238570404E+04    0.30858E-05   -0.33134E-05  1685   0.134E-02    0.104E-01
RMM:  10    -0.110238573503E+04   -0.30996E-04   -0.30257E-05  1718   0.121E-02    0.105E-01
RMM:  11    -0.110238572719E+04    0.78420E-05   -0.19768E-05  1523   0.103E-02    0.608E-02
RMM:  12    -0.110238573540E+04   -0.82156E-05   -0.13028E-05  1466   0.857E-03    0.698E-02
RMM:  13    -0.110238573146E+04    0.39404E-05   -0.64300E-06  1354   0.619E-03    0.750E-02
RMM:  14    -0.110238572415E+04    0.73184E-05   -0.33449E-06  1274   0.490E-03    0.589E-02
RMM:  15    -0.110238572654E+04   -0.23913E-05   -0.16178E-06  1186   0.318E-03    0.298E-02
RMM:  16    -0.110238573510E+04   -0.85594E-05   -0.64214E-07  1119   0.210E-03    0.607E-03
RMM:  17    -0.110238574212E+04   -0.70215E-05   -0.56718E-07  1107   0.195E-03    0.899E-03
RMM:  18    -0.110238574375E+04   -0.16275E-05   -0.29160E-07  1075   0.149E-03    0.904E-03
RMM:  19    -0.110238574461E+04   -0.86393E-06   -0.13693E-07  1022   0.104E-03
 113 F= -.11094648E+04 E0= -.11094410E+04  d E =-.366591E-03  mag=    12.1900
 curvature:  -2.22 expect dE=-0.183E-02 dE for cont linesearch -0.124E-04
 ZBRENT: extrapolating
 opt :   0.7353  next Energy= -1109.464852 (dE=-0.378E-03)
 bond charge predicted
       N       E                     dE             d eps       ncg     rms          rms(c)
DAV:   1    -0.110238569707E+04    0.46677E-04   -0.19808E-02  1980   0.318E-01    0.371E-02
RMM:   2    -0.110238574117E+04   -0.44098E-04   -0.46430E-04  2303   0.467E-02    0.720E-02
RMM:   3    -0.110238578650E+04   -0.45337E-04   -0.62120E-05  2194   0.192E-02    0.245E-01
RMM:   4    -0.110238569522E+04    0.91280E-04   -0.50190E-05  1893   0.158E-02    0.156E-01
RMM:   5    -0.110238570828E+04   -0.13054E-04   -0.29320E-05  1607   0.131E-02    0.383E-02
RMM:   6    -0.110238574411E+04   -0.35835E-04   -0.90687E-06  1403   0.737E-03    0.397E-02
RMM:   7    -0.110238574669E+04   -0.25777E-05   -0.37183E-06  1262   0.449E-03    0.410E-02
RMM:   8    -0.110238574542E+04    0.12748E-05   -0.30427E-06  1233   0.441E-03    0.258E-02
RMM:   9    -0.110238574728E+04   -0.18693E-05   -0.24634E-06  1231   0.404E-03    0.202E-02
RMM:  10    -0.110238575060E+04   -0.33166E-05   -0.25404E-06  1221   0.364E-03    0.272E-02
RMM:  11    -0.110238574996E+04    0.63849E-06   -0.18831E-06  1199   0.351E-03
 114 F= -.11094649E+04 E0= -.11094410E+04  d E =-.383463E-03  mag=    12.1901
 curvature:  -2.11 expect dE=-0.244E-02 dE for cont linesearch -0.115E-05
 trial: gam= 1.14796 g(F)=  0.116E-02 g(S)=  0.000E+00 ort = 0.567E-04 (trialstep = 0.175E+00)
 search vector abs. value=  0.909E-02
 bond charge predicted
       N       E                     dE             d eps       ncg     rms          rms(c)
DAV:   1    -0.110238575368E+04   -0.30784E-05   -0.54321E-02  1896   0.523E-01    0.690E-02
RMM:   2    -0.110238609324E+04   -0.33956E-03   -0.13522E-03  2252   0.817E-02    0.461E-01
RMM:   3    -0.110238564381E+04    0.44944E-03   -0.23696E-04  2184   0.382E-02    0.177E-01
RMM:   4    -0.110238592766E+04   -0.28385E-03   -0.15876E-04  2167   0.279E-02    0.271E-01
RMM:   5    -0.110238582743E+04    0.10023E-03   -0.82350E-05  1860   0.216E-02    0.133E-01
RMM:   6    -0.110238586821E+04   -0.40782E-04   -0.33176E-05  1636   0.138E-02    0.814E-02
RMM:   7    -0.110238587861E+04   -0.10403E-04   -0.14708E-05  1469   0.852E-03    0.663E-02
RMM:   8    -0.110238589239E+04   -0.13776E-04   -0.13776E-05  1503   0.829E-03    0.724E-02
RMM:   9    -0.110238588860E+04    0.37901E-05   -0.11093E-05  1409   0.757E-03    0.506E-02
RMM:  10    -0.110238588875E+04   -0.14572E-06   -0.85347E-06  1384   0.676E-03
 115 F= -.11094650E+04 E0= -.11094412E+04  d E =-.160982E-03  mag=    12.1900
 trial-energy change:   -0.000161  1 .order   -0.000178   -0.000213   -0.000142
 step:   0.5221(harm=  0.5221)  dis= 0.00227  next Energy= -1109.465176 (dE=-0.319E-03)
 bond charge predicted
       N       E                     dE             d eps       ncg     rms          rms(c)
DAV:   1    -0.110238539083E+04    0.49777E-03   -0.21463E-01  1914   0.104E+00    0.130E-01
RMM:   2    -0.110238609081E+04   -0.69998E-03   -0.51166E-03  2262   0.157E-01    0.497E-01
RMM:   3    -0.110238589175E+04    0.19906E-03   -0.69897E-04  2228   0.637E-02    0.570E-01
RMM:   4    -0.110238599008E+04   -0.98330E-04   -0.60485E-04  2243   0.559E-02    0.428E-01
RMM:   5    -0.110238584575E+04    0.14434E-03   -0.26907E-04  2046   0.394E-02    0.254E-01
RMM:   6    -0.110238586413E+04   -0.18383E-04   -0.10443E-04  1878   0.233E-02    0.120E-01
RMM:   7    -0.110238592868E+04   -0.64548E-04   -0.60049E-05  1785   0.178E-02    0.108E-01
RMM:   8    -0.110238593464E+04   -0.59582E-05   -0.42760E-05  1766   0.141E-02    0.846E-02
RMM:   9    -0.110238594294E+04   -0.83057E-05   -0.35812E-05  1780   0.133E-02    0.941E-02
RMM:  10    -0.110238593611E+04    0.68367E-05   -0.30089E-05  1631   0.117E-02    0.756E-02
RMM:  11    -0.110238595237E+04   -0.16269E-04   -0.24984E-05  1614   0.109E-02    0.919E-02
RMM:  12    -0.110238593228E+04    0.20098E-04   -0.13852E-05  1449   0.916E-03    0.422E-02
RMM:  13    -0.110238594064E+04   -0.83659E-05   -0.55585E-06  1343   0.582E-03    0.355E-02
RMM:  14    -0.110238594146E+04   -0.81483E-06   -0.27944E-06  1227   0.378E-03
 116 F= -.11094651E+04 E0= -.11094413E+04  d E =-.257717E-03  mag=    12.1898
 curvature:  -1.94 expect dE=-0.536E-02 dE for cont linesearch -0.477E-05
 trial: gam= 2.54691 g(F)=  0.276E-02 g(S)=  0.000E+00 ort =-0.149E-03 (trialstep = 0.364E-01)
 search vector abs. value=  0.610E-01
 bond charge predicted
       N       E                     dE             d eps       ncg     rms          rms(c)
DAV:   1    -0.110238596629E+04   -0.25647E-04   -0.15955E-02  2016   0.283E-01    0.390E-02
RMM:   2    -0.110238613815E+04   -0.17186E-03   -0.40056E-04  2263   0.447E-02    0.404E-01
RMM:   3    -0.110238579954E+04    0.33861E-03   -0.10472E-04  2152   0.245E-02    0.505E-02
RMM:   4    -0.110238600023E+04   -0.20069E-03   -0.55649E-05  1891   0.179E-02    0.110E-01
RMM:   5    -0.110238599878E+04    0.14530E-05   -0.18763E-05  1565   0.103E-02    0.718E-02
RMM:   6    -0.110238600403E+04   -0.52540E-05   -0.10606E-05  1454   0.849E-03    0.750E-02
RMM:   7    -0.110238599771E+04    0.63231E-05   -0.46113E-06  1324   0.534E-03    0.606E-02
RMM:   8    -0.110238600424E+04   -0.65297E-05   -0.30204E-06  1261   0.433E-03    0.388E-02
RMM:   9    -0.110238601159E+04   -0.73537E-05   -0.25822E-06  1227   0.388E-03    0.360E-02
RMM:  10    -0.110238601485E+04   -0.32529E-05   -0.30301E-06  1265   0.419E-03    0.396E-02
RMM:  11    -0.110238601340E+04    0.14419E-05   -0.23799E-06  1231   0.399E-03    0.447E-02
RMM:  12    -0.110238601126E+04    0.21465E-05   -0.13982E-06  1198   0.322E-03    0.423E-02
RMM:  13    -0.110238601107E+04    0.18748E-06   -0.86750E-07  1129   0.223E-03
 117 F= -.11094652E+04 E0= -.11094414E+04  d E =-.793101E-04  mag=    12.1895
 ZBRENT: can't locate minimum, use default step
 trial-energy change:   -0.000079  1 .order   -0.000078   -0.000087   -0.000070
 step:   0.1457(harm=  0.1929)  dis= 0.00166  next Energy= -1109.465345 (dE=-0.229E-03)
 bond charge predicted
       N       E                     dE             d eps       ncg     rms          rms(c)
DAV:   1    -0.110238574234E+04    0.26892E-03   -0.14354E-01  1896   0.846E-01    0.105E-01
RMM:   2    -0.110238643270E+04   -0.69036E-03   -0.33460E-03  2253   0.127E-01    0.693E-01
RMM:   3    -0.110238558533E+04    0.84737E-03   -0.52801E-04  2215   0.566E-02    0.124E-01
RMM:   4    -0.110238624499E+04   -0.65966E-03   -0.32806E-04  2236   0.420E-02    0.282E-01
RMM:   5    -0.110238605579E+04    0.18920E-03   -0.10549E-04  1972   0.226E-02    0.105E-01
RMM:   6    -0.110238609875E+04   -0.42957E-04   -0.43076E-05  1763   0.143E-02    0.151E-01
RMM:   7    -0.110238608865E+04    0.10094E-04   -0.33906E-05  1753   0.121E-02    0.135E-01
RMM:   8    -0.110238608408E+04    0.45723E-05   -0.31250E-05  1696   0.128E-02    0.863E-02
RMM:   9    -0.110238610336E+04   -0.19279E-04   -0.18506E-05  1501   0.951E-03    0.102E-01
RMM:  10    -0.110238609854E+04    0.48175E-05   -0.23354E-05  1624   0.109E-02    0.865E-02
RMM:  11    -0.110238610132E+04   -0.27807E-05   -0.14935E-05  1472   0.948E-03    0.974E-02
RMM:  12    -0.110238609157E+04    0.97482E-05   -0.78355E-06  1349   0.650E-03    0.846E-02
RMM:  13    -0.110238608998E+04    0.15882E-05   -0.39056E-06  1308   0.490E-03    0.517E-02
RMM:  14    -0.110238609834E+04   -0.83520E-05   -0.16418E-06  1188   0.334E-03    0.185E-02
RMM:  15    -0.110238610751E+04   -0.91717E-05   -0.12587E-06  1157   0.296E-03    0.131E-02
RMM:  16    -0.110238611124E+04   -0.37325E-05   -0.85211E-07  1128   0.249E-03    0.118E-02
RMM:  17    -0.110238611206E+04   -0.82273E-06   -0.46153E-07  1085   0.199E-03
 118 F= -.11094653E+04 E0= -.11094415E+04  d E =-.209318E-03  mag=    12.1891
 curvature:  -2.25 expect dE=-0.388E-02 dE for cont linesearch -0.443E-05
 ZBRENT: extrapolating
 opt :   0.1696  next Energy= -1109.465329 (dE=-0.213E-03)
 bond charge predicted
       N       E                     dE             d eps       ncg     rms          rms(c)
DAV:   1    -0.110238609359E+04    0.17647E-04   -0.69016E-03  2040   0.186E-01    0.230E-02
RMM:   2    -0.110238611268E+04   -0.19090E-04   -0.16042E-04  2264   0.278E-02    0.562E-02
RMM:   3    -0.110238611054E+04    0.21415E-05   -0.22791E-05  1888   0.120E-02    0.645E-02
RMM:   4    -0.110238612134E+04   -0.10801E-04   -0.11943E-05  1537   0.789E-03    0.136E-01
RMM:   5    -0.110238607965E+04    0.41697E-04   -0.10380E-05  1395   0.793E-03    0.301E-02
RMM:   6    -0.110238610505E+04   -0.25402E-04   -0.42190E-06  1284   0.524E-03    0.244E-02
RMM:   7    -0.110238611148E+04   -0.64348E-05   -0.18928E-06  1214   0.343E-03    0.265E-02
RMM:   8    -0.110238611347E+04   -0.19900E-05   -0.17421E-06  1195   0.355E-03    0.334E-02
RMM:   9    -0.110238611012E+04    0.33520E-05   -0.12403E-06  1151   0.294E-03    0.313E-02
RMM:  10    -0.110238611109E+04   -0.96857E-06   -0.12016E-06  1158   0.295E-03
 119 F= -.11094653E+04 E0= -.11094415E+04  d E =-.214678E-03  mag=    12.1890
 curvature:  -2.11 expect dE=-0.418E-02 dE for cont linesearch -0.353E-06
 trial: gam= 0.42222 g(F)=  0.198E-02 g(S)=  0.000E+00 ort = 0.101E-03 (trialstep = 0.630E-01)
 search vector abs. value=  0.129E-01
 bond charge predicted
       N       E                     dE             d eps       ncg     rms          rms(c)
DAV:   1    -0.110238620048E+04   -0.90355E-04   -0.96307E-03  1992   0.220E-01    0.295E-02
RMM:   2    -0.110238625276E+04   -0.52288E-04   -0.24311E-04  2249   0.349E-02    0.174E-01
RMM:   3    -0.110238617735E+04    0.75418E-04   -0.42197E-05  2092   0.161E-02    0.942E-02
RMM:   4    -0.110238622428E+04   -0.46930E-04   -0.28618E-05  1739   0.122E-02    0.108E-01
RMM:   5    -0.110238621349E+04    0.10783E-04   -0.16637E-05  1528   0.981E-03    0.613E-02
RMM:   6    -0.110238621754E+04   -0.40444E-05   -0.68633E-06  1372   0.682E-03    0.348E-02
RMM:   7    -0.110238622405E+04   -0.65081E-05   -0.29669E-06  1261   0.442E-03    0.285E-02
RMM:   8    -0.110238622541E+04   -0.13610E-05   -0.21370E-06  1205   0.356E-03    0.226E-02
RMM:   9    -0.110238622768E+04   -0.22701E-05   -0.20188E-06  1182   0.338E-03    0.254E-02
RMM:  10    -0.110238622733E+04    0.34865E-06   -0.15165E-06  1156   0.309E-03
 120 F= -.11094655E+04 E0= -.11094416E+04  d E =-.121553E-03  mag=    12.1888
 ZBRENT: can't locate minimum, use default step
 trial-energy change:   -0.000122  1 .order   -0.000120   -0.000128   -0.000112
 step:   0.2522(harm=  0.5166)  dis= 0.00129  next Energy= -1109.465853 (dE=-0.523E-03)
 bond charge predicted
       N       E                     dE             d eps       ncg     rms          rms(c)
DAV:   1    -0.110238623988E+04   -0.12203E-04   -0.86709E-02  1902   0.659E-01    0.817E-02
RMM:   2    -0.110238645244E+04   -0.21256E-03   -0.20541E-03  2266   0.993E-02    0.170E-01
RMM:   3    -0.110238661659E+04   -0.16416E-03   -0.30708E-04  2211   0.425E-02    0.459E-01
RMM:   4    -0.110238639389E+04    0.22270E-03   -0.22557E-04  2229   0.318E-02    0.350E-01
RMM:   5    -0.110238635478E+04    0.39115E-04   -0.15612E-04  1916   0.289E-02    0.102E-01
RMM:   6    -0.110238643335E+04   -0.78576E-04   -0.39487E-05  1727   0.147E-02    0.964E-02
RMM:   7    -0.110238643944E+04   -0.60839E-05   -0.19200E-05  1551   0.981E-03    0.738E-02
RMM:   8    -0.110238645195E+04   -0.12513E-04   -0.15530E-05  1504   0.884E-03    0.847E-02
RMM:   9    -0.110238644167E+04    0.10281E-04   -0.12601E-05  1479   0.864E-03    0.429E-02
RMM:  10    -0.110238645326E+04   -0.11592E-04   -0.10960E-05  1466   0.785E-03    0.456E-02
RMM:  11    -0.110238645840E+04   -0.51446E-05   -0.92215E-06  1408   0.662E-03    0.524E-02
RMM:  12    -0.110238645275E+04    0.56493E-05   -0.59420E-06  1353   0.614E-03    0.365E-02
RMM:  13    -0.110238645175E+04    0.10006E-05   -0.19983E-06  1208   0.351E-03    0.308E-02
RMM:  14    -0.110238645382E+04   -0.20635E-05   -0.10372E-06  1141   0.281E-03    0.121E-02
RMM:  15    -0.110238645736E+04   -0.35378E-05   -0.47374E-07  1102   0.186E-03    0.704E-03
RMM:  16    -0.110238645901E+04   -0.16577E-05   -0.21613E-07  1070   0.129E-03    0.556E-03
RMM:  17    -0.110238645971E+04   -0.69490E-06   -0.11496E-07  1030   0.946E-04
 121 F= -.11094657E+04 E0= -.11094418E+04  d E =-.369849E-03  mag=    12.1884
 curvature:  -1.09 expect dE=-0.748E-03 dE for cont linesearch -0.682E-04
 ZBRENT: increasing intervall
 opt :   0.6305  next Energy= -1109.465708 (dE=-0.378E-03)
 bond charge predicted
       N       E                     dE             d eps       ncg     rms          rms(c)
DAV:   1    -0.110238557210E+04    0.88692E-03   -0.34736E-01  1896   0.132E+00    0.163E-01
RMM:   2    -0.110238643262E+04   -0.86053E-03   -0.82070E-03  2264   0.198E-01    0.341E-01
RMM:   3    -0.110238705437E+04   -0.62175E-03   -0.11865E-03  2209   0.849E-02    0.872E-01
RMM:   4    -0.110238652862E+04    0.52575E-03   -0.88203E-04  2310   0.640E-02    0.787E-01
RMM:   5    -0.110238597395E+04    0.55466E-03   -0.60954E-04  2045   0.568E-02    0.181E-01
RMM:   6    -0.110238633811E+04   -0.36416E-03   -0.14718E-04  1946   0.277E-02    0.188E-01
RMM:   7    -0.110238642577E+04   -0.87663E-04   -0.86708E-05  1936   0.193E-02    0.180E-01
RMM:   8    -0.110238642156E+04    0.42153E-05   -0.58035E-05  1833   0.170E-02    0.145E-01
RMM:   9    -0.110238640791E+04    0.13648E-04   -0.45206E-05  1752   0.155E-02    0.132E-01
RMM:  10    -0.110238641981E+04   -0.11904E-04   -0.34896E-05  1753   0.127E-02    0.756E-02
RMM:  11    -0.110238644036E+04   -0.20543E-04   -0.25118E-05  1659   0.121E-02    0.988E-02
RMM:  12    -0.110238642340E+04    0.16956E-04   -0.13746E-05  1508   0.933E-03    0.814E-02
RMM:  13    -0.110238642200E+04    0.14060E-05   -0.55134E-06  1340   0.604E-03    0.584E-02
RMM:  14    -0.110238643087E+04   -0.88753E-05   -0.23245E-06  1251   0.389E-03    0.368E-02
RMM:  15    -0.110238644001E+04   -0.91431E-05   -0.18325E-06  1205   0.354E-03    0.161E-02
RMM:  16    -0.110238644549E+04   -0.54780E-05   -0.88923E-07  1144   0.250E-03    0.121E-02
RMM:  17    -0.110238644815E+04   -0.26547E-05   -0.49077E-07  1098   0.197E-03    0.751E-03
RMM:  18    -0.110238644993E+04   -0.17858E-05   -0.29441E-07  1071   0.155E-03    0.500E-03
RMM:  19    -0.110238645204E+04   -0.21104E-05   -0.13546E-07  1011   0.967E-04    0.482E-03
RMM:  20    -0.110238645323E+04   -0.11907E-05   -0.90580E-08   922   0.744E-04    0.382E-03
RMM:  21    -0.110238645441E+04   -0.11743E-05   -0.61205E-08   812   0.628E-04    0.192E-03
RMM:  22    -0.110238645586E+04   -0.14507E-05   -0.52037E-08   889   0.537E-04    0.282E-03
RMM:  23    -0.110238645747E+04   -0.16101E-05   -0.49879E-08   855   0.531E-04    0.414E-03
RMM:  24    -0.110238645874E+04   -0.12680E-05   -0.39562E-08   779   0.447E-04    0.277E-03
RMM:  25    -0.110238645941E+04   -0.67472E-06   -0.24199E-08   621   0.405E-04
 122 F= -.11094657E+04 E0= -.11094419E+04  d E =-.401350E-03  mag=    12.1873
 curvature:  -0.13 expect dE=-0.399E-03 dE for cont linesearch -0.585E-05
 ZBRENT: bracketing found
 ZBRENT: interpolating
 opt :   0.4580  next Energy= -1109.465796 (dE=-0.466E-03)
 bond charge predicted
       N       E                     dE             d eps       ncg     rms          rms(c)
DAV:   1    -0.110238635451E+04    0.10423E-03   -0.72159E-02  1956   0.602E-01    0.744E-02
RMM:   2    -0.110238652455E+04   -0.17004E-03   -0.17023E-03  2265   0.903E-02    0.150E-01
RMM:   3    -0.110238665615E+04   -0.13161E-03   -0.24855E-04  2200   0.389E-02    0.405E-01
RMM:   4    -0.110238650484E+04    0.15131E-03   -0.18232E-04  2214   0.294E-02    0.401E-01
RMM:   5    -0.110238637028E+04    0.13456E-03   -0.13353E-04  1903   0.268E-02    0.103E-01
RMM:   6    -0.110238649669E+04   -0.12641E-03   -0.42065E-05  1684   0.154E-02    0.710E-02
RMM:   7    -0.110238653441E+04   -0.37719E-04   -0.17973E-05  1547   0.895E-03    0.930E-02
RMM:   8    -0.110238652822E+04    0.61896E-05   -0.12775E-05  1473   0.837E-03    0.578E-02
RMM:   9    -0.110238653035E+04   -0.21229E-05   -0.87884E-06  1389   0.720E-03    0.509E-02
RMM:  10    -0.110238653792E+04   -0.75744E-05   -0.88242E-06  1433   0.682E-03    0.420E-02
RMM:  11    -0.110238654025E+04   -0.23284E-05   -0.60731E-06  1347   0.615E-03    0.451E-02
RMM:  12    -0.110238653541E+04    0.48426E-05   -0.40756E-06  1296   0.483E-03    0.443E-02
RMM:  13    -0.110238653332E+04    0.20841E-05   -0.20010E-06  1239   0.374E-03    0.299E-02
RMM:  14    -0.110238653609E+04   -0.27683E-05   -0.75855E-07  1119   0.242E-03    0.165E-02
RMM:  15    -0.110238653945E+04   -0.33596E-05   -0.38428E-07  1093   0.162E-03    0.994E-03
RMM:  16    -0.110238654123E+04   -0.17831E-05   -0.24497E-07  1074   0.140E-03    0.468E-03
RMM:  17    -0.110238654222E+04   -0.98700E-06   -0.13668E-07  1016   0.105E-03
 123 F= -.11094658E+04 E0= -.11094420E+04  d E =-.469683E-03  mag=    12.1874
 curvature:  -1.48 expect dE=-0.194E-02 dE for cont linesearch -0.144E-07
 trial: gam= 0.77457 g(F)=  0.131E-02 g(S)=  0.000E+00 ort = 0.112E-04 (trialstep = 0.142E+00)
 search vector abs. value=  0.909E-02
 bond charge predicted
       N       E                     dE             d eps       ncg     rms          rms(c)
DAV:   1    -0.110238657779E+04   -0.36558E-04   -0.34565E-02  2016   0.417E-01    0.536E-02
RMM:   2    -0.110238665498E+04   -0.77184E-04   -0.85943E-04  2281   0.626E-02    0.857E-02
RMM:   3    -0.110238671512E+04   -0.60143E-04   -0.12057E-04  2204   0.264E-02    0.210E-01
RMM:   4    -0.110238663799E+04    0.77127E-04   -0.54373E-05  2035   0.170E-02    0.166E-01
RMM:   5    -0.110238662311E+04    0.14882E-04   -0.29560E-05  1625   0.133E-02    0.635E-02
RMM:   6    -0.110238665873E+04   -0.35618E-04   -0.13610E-05  1462   0.855E-03    0.702E-02
RMM:   7    -0.110238666728E+04   -0.85572E-05   -0.12915E-05  1479   0.811E-03    0.101E-01
RMM:   8    -0.110238664555E+04    0.21732E-04   -0.11792E-05  1457   0.846E-03    0.424E-02
RMM:   9    -0.110238666403E+04   -0.18477E-04   -0.98844E-06  1401   0.724E-03    0.500E-02
RMM:  10    -0.110238666284E+04    0.11888E-05   -0.61766E-06  1381   0.616E-03    0.331E-02
RMM:  11    -0.110238666278E+04    0.57116E-07   -0.30115E-06  1285   0.477E-03
 124 F= -.11094659E+04 E0= -.11094420E+04  d E =-.132989E-03  mag=    12.1873
 trial-energy change:   -0.000133  1 .order   -0.000139   -0.000187   -0.000092
 step:   0.2783(harm=  0.2783)  dis= 0.00116  next Energy= -1109.465983 (dE=-0.183E-03)
 bond charge predicted
       N       E                     dE             d eps       ncg     rms          rms(c)
DAV:   1    -0.110238660223E+04    0.60610E-04   -0.31720E-02  2016   0.400E-01    0.568E-02
RMM:   2    -0.110238685781E+04   -0.25558E-03   -0.85629E-04  2262   0.647E-02    0.439E-01
RMM:   3    -0.110238646951E+04    0.38830E-03   -0.16588E-04  2195   0.315E-02    0.110E-01
RMM:   4    -0.110238671143E+04   -0.24191E-03   -0.11005E-04  2044   0.240E-02    0.190E-01
RMM:   5    -0.110238667798E+04    0.33444E-04   -0.39375E-05  1738   0.140E-02    0.152E-01
RMM:   6    -0.110238665093E+04    0.27055E-04   -0.26268E-05  1581   0.122E-02    0.488E-02
RMM:   7    -0.110238668118E+04   -0.30251E-04   -0.13790E-05  1452   0.852E-03    0.722E-02
RMM:   8    -0.110238668378E+04   -0.26047E-05   -0.12077E-05  1460   0.739E-03    0.890E-02
RMM:   9    -0.110238666875E+04    0.15034E-04   -0.11765E-05  1441   0.794E-03    0.460E-02
RMM:  10    -0.110238667773E+04   -0.89767E-05   -0.89619E-06  1404   0.716E-03    0.548E-02
RMM:  11    -0.110238667810E+04   -0.37759E-06   -0.48167E-06  1319   0.554E-03
 125 F= -.11094660E+04 E0= -.11094420E+04  d E =-.160216E-03  mag=    12.1870
 curvature:  -0.96 expect dE=-0.206E-02 dE for cont linesearch -0.117E-06
 trial: gam= 1.69759 g(F)=  0.215E-02 g(S)=  0.000E+00 ort =-0.334E-04 (trialstep = 0.545E-01)
 search vector abs. value=  0.282E-01
 bond charge predicted
       N       E                     dE             d eps       ncg     rms          rms(c)
DAV:   1    -0.110238672284E+04   -0.45114E-04   -0.16063E-02  2016   0.286E-01    0.569E-02
RMM:   2    -0.110238758122E+04   -0.85838E-03   -0.60696E-04  2223   0.553E-02    0.942E-01
RMM:   3    -0.110238599385E+04    0.15874E-02   -0.41126E-04  2092   0.463E-02    0.187E-01
RMM:   4    -0.110238657767E+04   -0.58381E-03   -0.15041E-04  1913   0.284E-02    0.105E-01
RMM:   5    -0.110238674315E+04   -0.16549E-03   -0.34073E-05  1781   0.143E-02    0.913E-02
RMM:   6    -0.110238676524E+04   -0.22081E-04   -0.19897E-05  1573   0.114E-02    0.108E-01
RMM:   7    -0.110238674688E+04    0.18355E-04   -0.88077E-06  1426   0.712E-03    0.115E-01
RMM:   8    -0.110238673422E+04    0.12665E-04   -0.40366E-06  1286   0.518E-03    0.835E-02
RMM:   9    -0.110238674452E+04   -0.10301E-04   -0.22202E-06  1215   0.387E-03    0.618E-02
RMM:  10    -0.110238675584E+04   -0.11320E-04   -0.24537E-06  1248   0.376E-03    0.193E-02
RMM:  11    -0.110238677154E+04   -0.15699E-04   -0.29643E-06  1287   0.440E-03    0.376E-02
RMM:  12    -0.110238677251E+04   -0.97538E-06   -0.25297E-06  1220   0.407E-03
 126 F= -.11094661E+04 E0= -.11094423E+04  d E =-.100522E-03  mag=    12.1870
 trial-energy change:   -0.000101  1 .order   -0.000099   -0.000114   -0.000085
 step:   0.2123(harm=  0.2123)  dis= 0.00155  next Energy= -1109.466182 (dE=-0.222E-03)
 bond charge predicted
       N       E                     dE             d eps       ncg     rms          rms(c)
DAV:   1    -0.110238652386E+04    0.24768E-03   -0.13486E-01  1896   0.825E-01    0.109E-01
RMM:   2    -0.110238792286E+04   -0.13990E-02   -0.33602E-03  2254   0.129E-01    0.119E+00
RMM:   3    -0.110238558913E+04    0.23337E-02   -0.84835E-04  2186   0.711E-02    0.197E-01
RMM:   4    -0.110238683969E+04   -0.12506E-02   -0.39556E-04  2227   0.472E-02    0.388E-01
RMM:   5    -0.110238671489E+04    0.12480E-03   -0.15102E-04  2003   0.293E-02    0.174E-01
RMM:   6    -0.110238684377E+04   -0.12888E-03   -0.94487E-05  1858   0.234E-02    0.211E-01
RMM:   7    -0.110238679341E+04    0.50362E-04   -0.45657E-05  1750   0.150E-02    0.191E-01
RMM:   8    -0.110238680744E+04   -0.14030E-04   -0.25716E-05  1691   0.114E-02    0.113E-01
RMM:   9    -0.110238683346E+04   -0.26021E-04   -0.16714E-05  1477   0.914E-03    0.737E-02
RMM:  10    -0.110238686844E+04   -0.34975E-04   -0.22207E-05  1664   0.102E-02    0.103E-01
RMM:  11    -0.110238686027E+04    0.81660E-05   -0.17109E-05  1539   0.996E-03    0.131E-01
RMM:  12    -0.110238682980E+04    0.30469E-04   -0.10635E-05  1488   0.816E-03    0.121E-01
RMM:  13    -0.110238681612E+04    0.13683E-04   -0.36300E-06  1303   0.495E-03    0.750E-02
RMM:  14    -0.110238683606E+04   -0.19942E-04   -0.26097E-06  1203   0.394E-03    0.537E-02
RMM:  15    -0.110238685210E+04   -0.16040E-04   -0.16701E-06  1195   0.309E-03    0.374E-02
RMM:  16    -0.110238686047E+04   -0.83729E-05   -0.11198E-06  1176   0.293E-03    0.261E-02
RMM:  17    -0.110238686517E+04   -0.46985E-05   -0.61894E-07  1108   0.211E-03    0.197E-02
RMM:  18    -0.110238686794E+04   -0.27716E-05   -0.40598E-07  1070   0.185E-03    0.758E-03
RMM:  19    -0.110238687069E+04   -0.27477E-05   -0.23221E-07  1018   0.132E-03    0.483E-03
RMM:  20    -0.110238687198E+04   -0.12891E-05   -0.16005E-07  1025   0.112E-03    0.823E-03
RMM:  21    -0.110238687219E+04   -0.21286E-06   -0.86061E-08   986   0.815E-04
 127 F= -.11094662E+04 E0= -.11094424E+04  d E =-.217845E-03  mag=    12.1868
 curvature:  -1.43 expect dE=-0.138E-02 dE for cont linesearch -0.767E-07
 trial: gam= 0.29663 g(F)=  0.965E-03 g(S)=  0.000E+00 ort =-0.389E-04 (trialstep = 0.861E-01)
 search vector abs. value=  0.343E-02
 bond charge predicted
       N       E                     dE             d eps       ncg     rms          rms(c)
DAV:   1    -0.110238693265E+04   -0.60671E-04   -0.49712E-03  2016   0.156E-01    0.211E-02
RMM:   2    -0.110238695673E+04   -0.24078E-04   -0.12315E-04  2280   0.242E-02    0.132E-01
RMM:   3    -0.110238690885E+04    0.47880E-04   -0.18161E-05  1782   0.109E-02    0.214E-02
RMM:   4    -0.110238694815E+04   -0.39297E-04   -0.94409E-06  1495   0.763E-03    0.462E-02
RMM:   5    -0.110238694088E+04    0.72690E-05   -0.30831E-06  1243   0.485E-03    0.231E-02
RMM:   6    -0.110238694561E+04   -0.47302E-05   -0.24299E-06  1212   0.399E-03    0.315E-02
RMM:   7    -0.110238694534E+04    0.26654E-06   -0.18991E-06  1191   0.344E-03
 128 F= -.11094663E+04 E0= -.11094424E+04  d E =-.737317E-04  mag=    12.1868
 ZBRENT: can't locate minimum, use default step
 trial-energy change:   -0.000074  1 .order   -0.000074   -0.000082   -0.000065
 step:   0.3443(harm=  0.4164)  dis= 0.00084  next Energy= -1109.466376 (dE=-0.198E-03)
 bond charge predicted
       N       E                     dE             d eps       ncg     rms          rms(c)
DAV:   1    -0.110238694343E+04    0.21784E-05   -0.44658E-02  1938   0.468E-01    0.669E-02
RMM:   2    -0.110238721615E+04   -0.27272E-03   -0.11517E-03  2252   0.752E-02    0.384E-01
RMM:   3    -0.110238691866E+04    0.29749E-03   -0.19805E-04  2205   0.348E-02    0.155E-01
RMM:   4    -0.110238711087E+04   -0.19221E-03   -0.11803E-04  2121   0.238E-02    0.312E-01
RMM:   5    -0.110238698224E+04    0.12863E-03   -0.88947E-05  1868   0.213E-02    0.188E-01
RMM:   6    -0.110238700534E+04   -0.23096E-04   -0.45646E-05  1702   0.159E-02    0.717E-02
RMM:   7    -0.110238704908E+04   -0.43743E-04   -0.22116E-05  1556   0.107E-02    0.595E-02
RMM:   8    -0.110238706528E+04   -0.16198E-04   -0.18256E-05  1651   0.925E-03    0.873E-02
RMM:   9    -0.110238704738E+04    0.17902E-04   -0.13320E-05  1417   0.793E-03    0.497E-02
RMM:  10    -0.110238705290E+04   -0.55187E-05   -0.11134E-05  1432   0.751E-03    0.369E-02
RMM:  11    -0.110238705573E+04   -0.28366E-05   -0.53093E-06  1341   0.572E-03    0.395E-02
RMM:  12    -0.110238705515E+04    0.57967E-06   -0.33568E-06  1280   0.477E-03
 129 F= -.11094664E+04 E0= -.11094425E+04  d E =-.185281E-03  mag=    12.1867
 curvature:  -0.71 expect dE=-0.101E-02 dE for cont linesearch -0.422E-05
 trial: gam= 1.34437 g(F)=  0.142E-02 g(S)=  0.000E+00 ort = 0.142E-03 (trialstep = 0.590E-01)
 search vector abs. value=  0.800E-02
 bond charge predicted
       N       E                     dE             d eps       ncg     rms          rms(c)
DAV:   1    -0.110238711645E+04   -0.60715E-04   -0.54290E-03  2028   0.163E-01    0.441E-02
RMM:   2    -0.110238773030E+04   -0.61385E-03   -0.30441E-04  2207   0.389E-02    0.764E-01
RMM:   3    -0.110238657846E+04    0.11518E-02   -0.25935E-04  2006   0.378E-02    0.147E-01
RMM:   4    -0.110238700151E+04   -0.42305E-03   -0.92359E-05  1785   0.227E-02    0.909E-02
RMM:   5    -0.110238711138E+04   -0.10987E-03   -0.23309E-05  1671   0.118E-02    0.704E-02
RMM:   6    -0.110238712968E+04   -0.18309E-04   -0.11242E-05  1484   0.893E-03    0.655E-02
RMM:   7    -0.110238712322E+04    0.64616E-05   -0.49312E-06  1343   0.588E-03    0.666E-02
RMM:   8    -0.110238712302E+04    0.19854E-06   -0.25032E-06  1228   0.417E-03
 130 F= -.11094664E+04 E0= -.11094426E+04  d E =-.679580E-04  mag=    12.1868
 trial-energy change:   -0.000068  1 .order   -0.000080   -0.000095   -0.000064
 step:   0.1793(harm=  0.1793)  dis= 0.00062  next Energy= -1109.466508 (dE=-0.145E-03)
 bond charge predicted
       N       E                     dE             d eps       ncg     rms          rms(c)
DAV:   1    -0.110238713590E+04   -0.12674E-04   -0.22608E-02  1962   0.333E-01    0.648E-02
RMM:   2    -0.110238760980E+04   -0.47390E-03   -0.78634E-04  2224   0.629E-02    0.586E-01
RMM:   3    -0.110238687547E+04    0.73433E-03   -0.25150E-04  2175   0.378E-02    0.209E-01
RMM:   4    -0.110238712380E+04   -0.24833E-03   -0.11750E-04  1972   0.247E-02    0.102E-01
RMM:   5    -0.110238720042E+04   -0.76618E-04   -0.44221E-05  1768   0.162E-02    0.100E-01
RMM:   6    -0.110238718524E+04    0.15185E-04   -0.17083E-05  1509   0.997E-03    0.671E-02
RMM:   7    -0.110238719537E+04   -0.10138E-04   -0.11882E-05  1448   0.795E-03    0.968E-02
RMM:   8    -0.110238719530E+04    0.77336E-07   -0.21045E-05  1577   0.102E-02    0.104E-01
RMM:   9    -0.110238718836E+04    0.69418E-05   -0.22512E-05  1601   0.111E-02    0.821E-02
RMM:  10    -0.110238717789E+04    0.10461E-04   -0.11145E-05  1445   0.820E-03    0.760E-02
RMM:  11    -0.110238717599E+04    0.19093E-05   -0.47771E-06  1332   0.557E-03    0.409E-02
RMM:  12    -0.110238718619E+04   -0.10202E-04   -0.21623E-06  1213   0.380E-03    0.208E-02
RMM:  13    -0.110238719380E+04   -0.76080E-05   -0.13486E-06  1178   0.282E-03    0.168E-02
RMM:  14    -0.110238719580E+04   -0.20062E-05   -0.62709E-07  1113   0.224E-03    0.168E-02
RMM:  15    -0.110238719507E+04    0.72917E-06   -0.38998E-07  1081   0.187E-03
 131 F= -.11094665E+04 E0= -.11094427E+04  d E =-.140182E-03  mag=    12.1868
 curvature:  -0.44 expect dE=-0.327E-03 dE for cont linesearch -0.372E-06
 trial: gam= 0.78035 g(F)=  0.736E-03 g(S)=  0.000E+00 ort =-0.818E-04 (trialstep = 0.831E-01)
 search vector abs. value=  0.548E-02
 bond charge predicted
       N       E                     dE             d eps       ncg     rms          rms(c)
DAV:   1    -0.110238723261E+04   -0.36810E-04   -0.75706E-03  2016   0.195E-01    0.248E-02
RMM:   2    -0.110238727867E+04   -0.46063E-04   -0.17834E-04  2306   0.298E-02    0.198E-01
RMM:   3    -0.110238718058E+04    0.98098E-04   -0.32760E-05  2014   0.139E-02    0.221E-02
RMM:   4    -0.110238725511E+04   -0.74535E-04   -0.19011E-05  1624   0.107E-02    0.790E-02
RMM:   5    -0.110238723792E+04    0.17188E-04   -0.65229E-06  1355   0.670E-03    0.388E-02
RMM:   6    -0.110238724901E+04   -0.11090E-04   -0.42907E-06  1302   0.559E-03    0.350E-02
RMM:   7    -0.110238724697E+04    0.20478E-05   -0.17538E-06  1190   0.349E-03    0.322E-02
RMM:   8    -0.110238724940E+04   -0.24305E-05   -0.12630E-06  1153   0.298E-03    0.232E-02
RMM:   9    -0.110238725097E+04   -0.15709E-05   -0.99338E-07  1140   0.250E-03    0.161E-02
RMM:  10    -0.110238725322E+04   -0.22534E-05   -0.10398E-06  1139   0.252E-03    0.180E-02
RMM:  11    -0.110238725301E+04    0.21377E-06   -0.71819E-07  1108   0.232E-03
 132 F= -.11094666E+04 E0= -.11094428E+04  d E =-.526843E-04  mag=    12.1868
 ZBRENT: can't locate minimum, use default step
 trial-energy change:   -0.000053  1 .order   -0.000052   -0.000056   -0.000048
 step:   0.3322(harm=  0.6131)  dis= 0.00094  next Energy= -1109.466709 (dE=-0.206E-03)
 bond charge predicted
       N       E                     dE             d eps       ncg     rms          rms(c)
DAV:   1    -0.110238719077E+04    0.62452E-04   -0.68031E-02  1902   0.584E-01    0.716E-02
RMM:   2    -0.110238742582E+04   -0.23505E-03   -0.15515E-03  2291   0.872E-02    0.355E-01
RMM:   3    -0.110238721392E+04    0.21190E-03   -0.22431E-04  2267   0.355E-02    0.217E-01
RMM:   4    -0.110238742319E+04   -0.20927E-03   -0.16512E-04  2129   0.296E-02    0.255E-01
RMM:   5    -0.110238728240E+04    0.14079E-03   -0.57769E-05  1777   0.180E-02    0.746E-02
RMM:   6    -0.110238734026E+04   -0.57860E-04   -0.22317E-05  1565   0.108E-02    0.778E-02
RMM:   7    -0.110238735151E+04   -0.11256E-04   -0.11233E-05  1463   0.758E-03    0.829E-02
RMM:   8    -0.110238735106E+04    0.45825E-06   -0.11071E-05  1442   0.789E-03    0.567E-02
RMM:   9    -0.110238735773E+04   -0.66755E-05   -0.96320E-06  1425   0.760E-03    0.508E-02
RMM:  10    -0.110238736125E+04   -0.35140E-05   -0.83673E-06  1370   0.654E-03    0.515E-02
RMM:  11    -0.110238736259E+04   -0.13484E-05   -0.60937E-06  1363   0.602E-03    0.400E-02
RMM:  12    -0.110238736367E+04   -0.10742E-05   -0.35797E-06  1295   0.494E-03    0.357E-02
RMM:  13    -0.110238736229E+04    0.13837E-05   -0.15044E-06  1171   0.306E-03    0.277E-02
RMM:  14    -0.110238736435E+04   -0.20669E-05   -0.97141E-07  1134   0.270E-03    0.138E-02
RMM:  15    -0.110238736690E+04   -0.25474E-05   -0.42264E-07  1096   0.166E-03    0.128E-02
RMM:  16    -0.110238736781E+04   -0.90926E-06   -0.24986E-07  1068   0.134E-03
 133 F= -.11094667E+04 E0= -.11094428E+04  d E =-.151726E-03  mag=    12.1868
 curvature:  -1.80 expect dE=-0.128E-02 dE for cont linesearch -0.168E-04
 ZBRENT: increasing intervall
 opt :   0.8305  next Energy= -1109.466591 (dE=-0.875E-04)
 bond charge predicted
       N       E                     dE             d eps       ncg     rms          rms(c)
DAV:   1    -0.110238665049E+04    0.71641E-03   -0.27238E-01  1896   0.117E+00    0.141E-01
RMM:   2    -0.110238740145E+04   -0.75096E-03   -0.61468E-03  2305   0.173E-01    0.498E-01
RMM:   3    -0.110238731759E+04    0.83863E-04   -0.80069E-04  2290   0.666E-02    0.600E-01
RMM:   4    -0.110238722368E+04    0.93908E-04   -0.55203E-04  2245   0.537E-02    0.345E-01
RMM:   5    -0.110238714364E+04    0.80040E-04   -0.16105E-04  2013   0.294E-02    0.109E-01
RMM:   6    -0.110238732300E+04   -0.17936E-03   -0.72532E-05  1848   0.189E-02    0.174E-01
RMM:   7    -0.110238729822E+04    0.24778E-04   -0.41823E-05  1786   0.138E-02    0.118E-01
RMM:   8    -0.110238732415E+04   -0.25930E-04   -0.38265E-05  1730   0.138E-02    0.101E-01
RMM:   9    -0.110238732907E+04   -0.49217E-05   -0.34892E-05  1707   0.125E-02    0.937E-02
RMM:  10    -0.110238734172E+04   -0.12653E-04   -0.32901E-05  1672   0.119E-02    0.978E-02
RMM:  11    -0.110238733207E+04    0.96473E-05   -0.18394E-05  1581   0.100E-02    0.582E-02
RMM:  12    -0.110238733419E+04   -0.21117E-05   -0.85206E-06  1417   0.718E-03    0.473E-02
RMM:  13    -0.110238733848E+04   -0.42904E-05   -0.48049E-06  1348   0.528E-03    0.352E-02
RMM:  14    -0.110238734196E+04   -0.34876E-05   -0.27355E-06  1253   0.430E-03    0.309E-02
RMM:  15    -0.110238734162E+04    0.34442E-06   -0.13028E-06  1165   0.294E-03
 134 F= -.11094666E+04 E0= -.11094427E+04  d E =-.940162E-04  mag=    12.1868
 curvature:   6.89 expect dE= 0.126E-01 dE for cont linesearch  0.246E-03
 ZBRENT: bracketing found
 ZBRENT: interpolating
 opt :   0.5008  next Energy= -1109.466674 (dE=-0.171E-03)
 bond charge predicted
       N       E                     dE             d eps       ncg     rms          rms(c)
DAV:   1    -0.110238709100E+04    0.25097E-03   -0.11928E-01  1932   0.773E-01    0.928E-02
RMM:   2    -0.110238735004E+04   -0.25904E-03   -0.26850E-03  2313   0.114E-01    0.136E-01
RMM:   3    -0.110238768629E+04   -0.33625E-03   -0.39703E-04  2258   0.478E-02    0.564E-01
RMM:   4    -0.110238719289E+04    0.49339E-03   -0.25571E-04  2199   0.356E-02    0.352E-01
RMM:   5    -0.110238725858E+04   -0.65688E-04   -0.15040E-04  1907   0.289E-02    0.911E-02
RMM:   6    -0.110238738181E+04   -0.12323E-03   -0.51106E-05  1732   0.166E-02    0.808E-02
RMM:   7    -0.110238739099E+04   -0.91823E-05   -0.18898E-05  1624   0.963E-03    0.921E-02
RMM:   8    -0.110238738111E+04    0.98808E-05   -0.13026E-05  1450   0.799E-03    0.685E-02
RMM:   9    -0.110238738951E+04   -0.84002E-05   -0.15511E-05  1515   0.920E-03    0.559E-02
RMM:  10    -0.110238739837E+04   -0.88573E-05   -0.14676E-05  1470   0.824E-03    0.582E-02
RMM:  11    -0.110238740263E+04   -0.42615E-05   -0.12102E-05  1464   0.769E-03    0.684E-02
RMM:  12    -0.110238739208E+04    0.10548E-04   -0.60604E-06  1336   0.601E-03    0.292E-02
RMM:  13    -0.110238739552E+04   -0.34318E-05   -0.22045E-06  1224   0.360E-03    0.207E-02
RMM:  14    -0.110238739747E+04   -0.19547E-05   -0.10369E-06  1148   0.278E-03    0.118E-02
RMM:  15    -0.110238739894E+04   -0.14712E-05   -0.37377E-07  1083   0.164E-03    0.948E-03
RMM:  16    -0.110238739953E+04   -0.58318E-06   -0.21079E-07  1079   0.128E-03
 135 F= -.11094667E+04 E0= -.11094428E+04  d E =-.172778E-03  mag=    12.1869
 curvature:  -0.53 expect dE=-0.497E-03 dE for cont linesearch -0.304E-09
 trial: gam= 0.61140 g(F)=  0.932E-03 g(S)=  0.000E+00 ort =-0.177E-05 (trialstep = 0.167E+00)
 search vector abs. value=  0.298E-02
 bond charge predicted
       N       E                     dE             d eps       ncg     rms          rms(c)
DAV:   1    -0.110238745738E+04   -0.58439E-04   -0.17637E-02  2016   0.285E-01    0.434E-02
RMM:   2    -0.110238751910E+04   -0.61718E-04   -0.45973E-04  2238   0.433E-02    0.171E-01
RMM:   3    -0.110238745233E+04    0.66770E-04   -0.58990E-05  2129   0.191E-02    0.109E-01
RMM:   4    -0.110238752178E+04   -0.69455E-04   -0.39246E-05  1883   0.141E-02    0.183E-01
RMM:   5    -0.110238744156E+04    0.80226E-04   -0.23592E-05  1577   0.122E-02    0.558E-02
RMM:   6    -0.110238748923E+04   -0.47670E-04   -0.11815E-05  1423   0.829E-03    0.646E-02
RMM:   7    -0.110238749929E+04   -0.10059E-04   -0.13364E-05  1494   0.820E-03    0.709E-02
RMM:   8    -0.110238750310E+04   -0.38094E-05   -0.17115E-05  1557   0.949E-03    0.923E-02
RMM:   9    -0.110238748014E+04    0.22953E-04   -0.12607E-05  1466   0.856E-03    0.621E-02
RMM:  10    -0.110238748368E+04   -0.35382E-05   -0.65352E-06  1339   0.590E-03    0.402E-02
RMM:  11    -0.110238749127E+04   -0.75852E-05   -0.30206E-06  1295   0.444E-03    0.185E-02
RMM:  12    -0.110238749734E+04   -0.60724E-05   -0.16500E-06  1199   0.353E-03    0.245E-02
RMM:  13    -0.110238749475E+04    0.25885E-05   -0.68236E-07  1107   0.228E-03    0.237E-02
RMM:  14    -0.110238749413E+04    0.62105E-06   -0.35312E-07  1081   0.167E-03
 136 F= -.11094668E+04 E0= -.11094429E+04  d E =-.829524E-04  mag=    12.1869
 trial-energy change:   -0.000083  1 .order   -0.000085   -0.000155   -0.000016
 step:   0.1856(harm=  0.1856)  dis= 0.00050  next Energy= -1109.466762 (dE=-0.864E-04)
 bond charge predicted
       N       E                     dE             d eps       ncg     rms          rms(c)
DAV:   1    -0.110238749704E+04   -0.22932E-05   -0.22941E-04  2112   0.329E-02    0.990E-03
RMM:   2    -0.110238752685E+04   -0.29802E-04   -0.13892E-05  1631   0.815E-03    0.174E-01
RMM:   3    -0.110238744498E+04    0.81862E-04   -0.13805E-05  1447   0.895E-03    0.415E-02
RMM:   4    -0.110238748204E+04   -0.37056E-04   -0.45278E-06  1261   0.523E-03    0.237E-02
RMM:   5    -0.110238749509E+04   -0.13050E-04   -0.11217E-06  1130   0.275E-03    0.105E-02
RMM:   6    -0.110238749933E+04   -0.42428E-05   -0.59254E-07  1103   0.233E-03    0.131E-02
RMM:   7    -0.110238749919E+04    0.14067E-06   -0.38490E-07  1087   0.182E-03
 137 F= -.11094668E+04 E0= -.11094429E+04  d E =-.866933E-04  mag=    12.1869
 curvature:  -0.30 expect dE=-0.280E-03 dE for cont linesearch -0.212E-09
 trial: gam= 1.01488 g(F)=  0.944E-03 g(S)=  0.000E+00 ort = 0.146E-05 (trialstep = 0.126E+00)
 search vector abs. value=  0.401E-02
 bond charge predicted
       N       E                     dE             d eps       ncg     rms          rms(c)
DAV:   1    -0.110238756878E+04   -0.69447E-04   -0.12701E-02  1932   0.255E-01    0.349E-02
RMM:   2    -0.110238763466E+04   -0.65878E-04   -0.32287E-04  2283   0.398E-02    0.174E-01
RMM:   3    -0.110238755150E+04    0.83153E-04   -0.50182E-05  2127   0.182E-02    0.862E-02
RMM:   4    -0.110238763457E+04   -0.83062E-04   -0.37631E-05  1834   0.139E-02    0.202E-01
RMM:   5    -0.110238754730E+04    0.87266E-04   -0.25877E-05  1582   0.118E-02    0.722E-02
RMM:   6    -0.110238759023E+04   -0.42929E-04   -0.13756E-05  1433   0.900E-03    0.267E-02
RMM:   7    -0.110238760032E+04   -0.10088E-04   -0.41577E-06  1310   0.502E-03    0.395E-02
RMM:   8    -0.110238759954E+04    0.77880E-06   -0.39746E-06  1289   0.475E-03
 138 F= -.11094669E+04 E0= -.11094429E+04  d E =-.942766E-04  mag=    12.1868
 trial-energy change:   -0.000094  1 .order   -0.000098   -0.000120   -0.000076
 step:   0.3504(harm=  0.3504)  dis= 0.00071  next Energy= -1109.466928 (dE=-0.166E-03)
 bond charge predicted
       N       E                     dE             d eps       ncg     rms          rms(c)
DAV:   1    -0.110238756110E+04    0.39222E-04   -0.39761E-02  1926   0.452E-01    0.601E-02
RMM:   2    -0.110238767245E+04   -0.11135E-03   -0.98438E-04  2290   0.686E-02    0.141E-01
RMM:   3    -0.110238768900E+04   -0.16545E-04   -0.14593E-04  2228   0.296E-02    0.236E-01
RMM:   4    -0.110238768158E+04    0.74183E-05   -0.89571E-05  2078   0.194E-02    0.285E-01
RMM:   5    -0.110238758880E+04    0.92775E-04   -0.80420E-05  1817   0.210E-02    0.103E-01
RMM:   6    -0.110238763015E+04   -0.41352E-04   -0.21809E-05  1526   0.108E-02    0.611E-02
RMM:   7    -0.110238765742E+04   -0.27269E-04   -0.12747E-05  1439   0.797E-03    0.795E-02
RMM:   8    -0.110238765481E+04    0.26126E-05   -0.12022E-05  1584   0.823E-03    0.614E-02
RMM:   9    -0.110238765569E+04   -0.88356E-06   -0.10128E-05  1432   0.743E-03    0.715E-02
RMM:  10    -0.110238765212E+04    0.35728E-05   -0.99262E-06  1430   0.748E-03    0.523E-02
RMM:  11    -0.110238765763E+04   -0.55054E-05   -0.58364E-06  1350   0.612E-03    0.363E-02
RMM:  12    -0.110238766041E+04   -0.27801E-05   -0.28889E-06  1231   0.426E-03    0.168E-02
RMM:  13    -0.110238766227E+04   -0.18640E-05   -0.12704E-06  1183   0.304E-03    0.184E-02
RMM:  14    -0.110238766216E+04    0.11441E-06   -0.71123E-07  1121   0.214E-03
 139 F= -.11094669E+04 E0= -.11094430E+04  d E =-.146115E-03  mag=    12.1868
 curvature:  -0.74 expect dE=-0.460E-03 dE for cont linesearch -0.205E-05
 trial: gam= 0.78609 g(F)=  0.618E-03 g(S)=  0.000E+00 ort =-0.105E-03 (trialstep = 0.171E+00)
 search vector abs. value=  0.293E-02
 bond charge predicted
       N       E                     dE             d eps       ncg     rms          rms(c)
DAV:   1    -0.110238769549E+04   -0.33214E-04   -0.17081E-02  2016   0.293E-01    0.371E-02
RMM:   2    -0.110238775922E+04   -0.63739E-04   -0.40050E-04  2278   0.440E-02    0.196E-01
RMM:   3    -0.110238767739E+04    0.81832E-04   -0.59750E-05  2187   0.186E-02    0.971E-02
RMM:   4    -0.110238775691E+04   -0.79514E-04   -0.40381E-05  1893   0.152E-02    0.136E-01
RMM:   5    -0.110238770741E+04    0.49492E-04   -0.15030E-05  1484   0.918E-03    0.577E-02
RMM:   6    -0.110238772502E+04   -0.17604E-04   -0.65813E-06  1356   0.636E-03    0.444E-02
RMM:   7    -0.110238773194E+04   -0.69191E-05   -0.36293E-06  1295   0.459E-03    0.463E-02
RMM:   8    -0.110238773223E+04   -0.29535E-06   -0.30009E-06  1248   0.425E-03
 140 F= -.11094670E+04 E0= -.11094431E+04  d E =-.670532E-04  mag=    12.1867
 trial-energy change:   -0.000067  1 .order   -0.000076   -0.000092   -0.000060
 step:   0.4987(harm=  0.4987)  dis= 0.00088  next Energy= -1109.467042 (dE=-0.134E-03)
 reached required accuracy - stopping structural energy minimisation
