O  C  H  Co Li
 1.0000000000000000
    25.9869300199999991    0.0014776500000000   -0.0002841700000000
    12.9947443200000006   22.5035161499999994   -0.0005769100000000
    -0.0000740900000000   -0.0001328100000000    6.8098320599999997
 O   C   H   Co  Li 
  50  65  16  18   1
Direct
  0.0551096577491962  0.2513501588673072  0.3044295831983467
  0.0294743085075189  0.2923408992245092  0.9074800912253534
  0.1072099808549307  0.2593243866410986  0.7062688295769320
  0.6994087110609859  0.0481373504690911  0.3474046391720811
  0.6856021661235965  0.0224687925295242  0.9503749488459302
  0.6408085665105541  0.0999049618452382  0.7486080478535018
  0.0366704890698745  0.3891459576054535  0.6424947540279726
  0.2535505658793616  0.6877175713165191  0.3540120955882528
  0.3090677379061225  0.6531769714035064  0.9980483702043834
  0.2816637843509334  0.6005155726821398  0.8062274657009052
  0.5818704164955653  0.0242888612299190  0.6701491474370812
  0.3024481123372358  0.0494419942761008  0.3930124769261359
  0.2258857672553168  0.0834743487502027  0.5997395874834758
  0.2763843360631967  0.0911691555837409  0.0000001686086235
  0.6665207455032505  0.2905284615051557  0.4622561217770128
  0.7151687311327607  0.2082084357381098  0.6403381941900872
 -0.0156124999155549  0.6379427667895460  0.7503756182953584
  0.0323331833864400  0.5600928412378883  0.9487721970164221
  0.6624777206207259  0.2608160527857198  0.0396285774851430
  0.0462561658887581  0.6490369700818929  0.4193006703396655
  0.0765046145793690  0.6948750459251182  0.6278197064493857
  0.3746859934866040  0.9869758085236179  0.7256395682688377
  0.4079507177670399  0.0288609969559104  0.9388584427551410
  0.0896630087613032  0.6340819568567092  0.0282106934511178
  0.6967807811734058  0.9501158115339582  0.6132445832448451
  0.7729515244576659  0.9180366538029665  0.4054689946876199
  0.7246222494507679  0.9079446823296209  1.0058866467004302
  0.3467564583103341  0.7091094031196929  0.5239722197578389
  0.2850693840767558  0.7903736982305788  0.3590068292530798
  0.0221011049487438  0.3639303051170296  0.2448032143874865
  0.9759756383145706  0.4416110812934419  0.0443430103420232
  0.3341868925615859  0.7388127296540673 -0.0526311596811747
  0.9604983916925343  0.3509333552524336  0.5725675140626785
  0.9193159682605794  0.3172208228206442  0.3566212383011799
  0.6242395397134411  0.0111556325538192  0.2811437949279755
  0.5925778063150713  0.9676066387525762  0.0686532867602366
  0.9145133378149432  0.3737241202613458  0.9618385268758313
  0.9459188391928764  0.7522664141910699  0.6932061038206982
  0.9742021534965389  0.7105168302677111  0.0859139324260389
  0.8979445510700493  0.7421541227815882  0.2932640353993780
  0.2968607897254366  0.9534547572303472  0.6606569251727689
  0.3122633479642390  0.9771840556167831  0.0569711420724992
  0.3563605064017226  0.8995817632700035  0.2584847688535080
  0.9705034137448041  0.6122841562267672  0.3505758913393553
  0.7731708641470791  0.2838105051295400  0.6933199705740875
  0.7016508478924705  0.3450179553507544  0.0161348883307824
  0.7545637209805419  0.3590511920232051  0.2540387773246011
  0.4175096609110596  0.9730873536591104  0.3367668239867561
  0.7114065027152686  0.5099988477849678  0.6322164147716797
  0.7895440478302804  0.4435288383625099  0.4281462060986219
  0.1078230555272724  0.2132207783416755  0.2211974752077790
  0.1498032055208841  0.1688144395426240  0.3445658909084533
  0.0858202038470530  0.2576690329765641  0.8727573190972799
  0.1245205736698739  0.2149853196083832  0.0218393115938083
  0.6883417302506800  0.0995395555009258  0.2639695679998701
  0.6932431450358056  0.1397720312390996  0.3891030106691324
  0.6648923896549531  0.0783489737505072  0.9140027783623650
  0.6718729552422185  0.1159337203778615  0.0628003336756982
  0.0211881088500281  0.4423871008721724  0.5616801670599726
  0.0235041336568080  0.4839190192601267  0.6877507974945930
  0.2142326706363397  0.6731825291940399  0.2731868258236431
  0.1646837878088115  0.6835515415837541  0.3835869920296928
  0.2739170370015329  0.6312664550499592  0.9636054525210265
  0.2235937162058430  0.6449656154278693  0.0869505415939904
  0.5434363722105944  0.0114272626093296  0.5808394555780467
  0.4980575191948300  0.0140070539961959  0.6990046637678681
  0.2465698010746940  0.0845340929825727  0.4313419066298853
  0.2072801919980609  0.1273293841633701  0.2827837738218117
  0.2238605842192720  0.1290308898962603  0.0833243107791397
  0.1819964085920609  0.1734617485233864  0.9600454047494813
  0.6895454236925735  0.2318734437864901  0.4809513972673645
  0.6831528038691347  0.1956752437706573  0.3267898523284886
  0.0084468382977885  0.5813318103052344  0.7830146499589933
  0.0059320967557809  0.5421296101243638  0.6305657785423650
  0.6688837204967153  0.2106900487225609  0.1240985323994695
  0.6624643368882346  0.1713788195299285  1.0003182777194226
  0.0794873641878018  0.6717004435993918  0.4598092056392629
  0.1233855069425949  0.6675753276755584  0.3166397122571342
  0.4103062644896017  0.0064258313305866  0.7703452984645833
  0.4551028165413388  0.0012872485811107  0.6280932453925211
  0.1290893371471849  0.6447860533182205  0.1205771440264524
  0.1798579573443496  0.6328255181794515  1.0133536460669315
  0.7527251069594805  0.9160981302484570  0.5738945446577716
  0.7928686493146101  0.8735154729368506  0.7209181006819434
  0.7772599438045937  0.8712616712071065  0.9212129619529247
  0.8204265285700455  0.8273715999731442  0.0430650523320701
  0.3142667589025767  0.7673741806206980  0.5154627877861505
  0.3147989577150134  0.8058172707768814  0.6732639928250145
  0.9992512636834602  0.4204921305141414  0.2107850420377214
  1.0020921292733507  0.4593532019200104  0.3628934956120780
  0.3290527889343262  0.7893464255074072  0.8745146992820073
  0.3353608846132825  0.8281916009951110  0.0023528849636042
  0.9247323122137167  0.3316601191985456  0.5356074201019022
  0.8864189016611572  0.3298163471361142  0.6863520002796529
  0.5894759673792422  0.9906464115332160  0.2366089825149317
  0.5447400466203898  0.9954813180366006  0.3787242921528493
  0.8789392761579550  0.3567243016308372  0.8759308379230762
  0.8285593367289612  0.3675931046683334 -0.0173209164635405
  0.8934031474276847  0.7891712113153998  0.7780484594571753
  0.8502811705341839  0.8331111622177979  0.6562916907736254
  0.9181132382777053  0.7443869925895308  0.1251917250753042
  0.8778761316282748  0.7869869330394248  0.9784534102646023
  0.3079425483628176  0.9018931910161837  0.7428223714473513
  0.3033474098422879  0.8621853420407594  0.6147581284884140
  0.3324347644946296  0.9213472440588625  0.0930002416307743
  0.3251456458277877  0.8841247793067361  0.9430270276543220
  0.9865629216603805  0.5591777559730211  0.4319078111217272
  0.9845828465519514  0.5175077905072174  0.3056116211451987
  0.8029498210252778  0.3113126981287986  0.7533449659290516
  0.8492874655531409  0.3059469903093993  0.6344068210741528
  0.7465106773723590  0.3511182901849254  0.0695357859261551
  0.7911338354635662  0.3443408507331582  0.9307184935532888
  0.4562735952036071  0.9855145548150271  0.4258994416858540
  0.5018454021671751  0.9826536950366903  0.3078650790848398
  0.7501483582668650  0.4767189757031289  0.5313557272239684
  0.1362647262641781  0.1670549234264974  0.4948006209535819
  0.7059660828431900  0.1259781814981572  0.5409440698821012
  0.0396113639208173  0.4693932379341472  0.8367608962746337
  0.1568128906118761  0.7058733370148697  0.5257099248539280
  0.4962544057610484  0.0275264267316877  0.8516137667244602
  0.1955981899289887  0.1750665102886965  0.8097928123161240
  0.6499099436763044  0.1849425759378799  0.8482075405731548
  0.1852656083838267  0.6125724506452198  0.8689697804726908
  0.8077753111622969  0.8251480418681313  0.1941180559070840
  0.3483039292468633  0.8141336291720300  0.1535580871476629
  0.8161663613802989  0.4002571027361360  0.1014412796369352
  0.8629042944294709  0.8353512294603580  0.5051950324326342
  0.2907553679433627  0.8763852796072029  0.4631766602197232
  0.9684680464948894  0.5320993381804081  0.1567109259551579
  0.8612726379040324  0.2753918182556059  0.5094380735819017
  0.5036984028352429  0.9690670980723837  0.1552984209180538
  0.7291588032746555  0.3197134320019072  0.4450810209450122
  0.2821298718959532  0.0279496977019323  0.8080802383667559
  0.6588472183946094  0.3250956086955683  0.2077009753640689
  0.9539396159116005  0.6875239194310510  0.5015532597618095
  0.3567087815352857  0.9564653073805620  0.4691406590113067
  0.3520523658839055  0.0304930513030793  0.1454491404353068
  0.7161864363453897  0.9725877575115386  0.1986545140959311
  0.3321154346807624  0.6785995469967184  0.7596880887877948
  0.7153049780328242  0.2665798439419231  0.8404191705009382
  0.9813034410377498  0.3139595209653437  0.1547018943893061
  0.3012076152638584  0.7195308595697180  0.1913291749005342
  0.9782320022431292  0.3855047136409500  0.8275980438700650
  0.6478645733836078  0.9672981447051974  0.8616279518642931
  0.0288593397305878  0.6175048274215159  0.1630181832324355
  0.6409469116351610  0.0431159105598711  0.5375051087550936
  0.0225735000229562  0.6928256263843048  0.8371397843923108
  0.2773666961456320  0.6411953141822231  0.5798357425825956
  0.0533202058390085  0.3136238052885302  0.4936137706917321
  0.8318878561910662  0.3529998306832803  0.3303908593178458
