Co–organic framework                  
           1
    25.986930    0.001478   -0.000284
    12.994744   22.503516   -0.000577
    -0.000074   -0.000133    6.809832
   O    C    H    Co   Li
  50  65  16  18   1
Direct configuration=     1
   0.05911145  0.25513662  0.30275676
   0.03818731  0.30173283  0.95036790
   0.10457326  0.26104454  0.70875925
   0.68999577  0.05449056  0.33604222
   0.67047022  0.03031014  0.97602656
   0.64240673  0.09894063  0.74158211
   0.02179977  0.39389454  0.64769579
   0.26109615  0.67879215  0.35639266
   0.31355931  0.64471501  0.00372287
   0.27996451  0.60074581  0.80034049
   0.59159980  0.01281640  0.65930681
   0.29746445  0.03583018  0.35630084
   0.23023274  0.07735613  0.59451407
   0.27484936  0.08091572  0.99800786
   0.65229735  0.30058553  0.41672611
   0.69646135  0.22663540  0.63174546
   0.99116724  0.63707145  0.73887550
   0.02818919  0.56357521  0.95545308
   0.66512616  0.26254164  0.03104317
   0.04479237  0.65300030  0.41143390
   0.07868737  0.68922714  0.64307347
   0.36855874  0.00109746  0.68828394
   0.41079350  0.02422882  0.93177492
   0.08802424  0.63737372  0.03431775
   0.70973916  0.95993099  0.63840763
   0.77877031  0.92295542  0.40340136
   0.73300169  0.91414045  0.99610435
   0.34997373  0.70134000  0.53643711
   0.29098806  0.78045470  0.36021588
   0.98954034  0.37672960  0.29945019
   0.97457497  0.43954129  0.05308185
   0.32692379  0.73619403  0.94674220
   0.97296085  0.31585139  0.62187742
   0.91661009  0.31727328  0.36586144
   0.64010317  0.98876528  0.30747915
   0.59940884  0.96385596  0.06242710
   0.91303147  0.36972844  0.95858228
   0.95393214  0.74773449  0.69678816
   0.97853731  0.70711450  0.07498003
   0.90580932  0.74483634  0.29339946
   0.31065217  0.94304055  0.66018195
   0.33353416  0.96339156  0.02024036
   0.35775081  0.89611881  0.25646455
   0.97560569  0.61171399  0.35779763
   0.74590294  0.31292130  0.68541736
   0.68120632  0.37964813  0.01545374
   0.75042317  0.35924878  0.25308662
   0.41639708  0.97640403  0.33246567
   0.71560395  0.50252080  0.67736421
   0.78699029  0.44672595  0.43899050
   0.11137093  0.21405983  0.22494218
   0.15240387  0.16849837  0.34652799
   0.08886812  0.26059237  0.88451998
   0.12767641  0.21364950  0.02398900
   0.68117630  0.10584761  0.25971254
   0.68361926  0.14752671  0.38396128
   0.66003655  0.08152555  0.91583431
   0.66860666  0.12036170  0.05605765
   0.01061210  0.44660163  0.57434866
   0.01550712  0.48689836  0.69908408
   0.21994177  0.66585715  0.28371010
   0.17086117  0.67586888  0.39701792
   0.27573077  0.62715271  0.96432698
   0.22588366  0.64091076  0.09377886
   0.55037166  0.00278737  0.57603256
   0.50380693  0.00800894  0.69291836
   0.24655737  0.07682305  0.41855800
   0.20734143  0.12355129  0.27805479
   0.22325852  0.12288169  0.07665589
   0.18260389  0.16871441  0.95544778
   0.67569951  0.24388479  0.46152855
   0.67503071  0.20204832  0.31573273
   0.00826052  0.58293957  0.78386898
   0.00349200  0.54309811  0.63674362
   0.66712318  0.21394101  0.10998831
   0.66258738  0.17357049  0.98627746
   0.08089445  0.67003797  0.46882697
   0.12687959  0.66428351  0.32727952
   0.41036805  0.00888109  0.75509647
   0.45842902  0.99972433  0.61835161
   0.12945209  0.64529249  0.12627235
   0.18038736  0.63246268  0.01911502
   0.76193274  0.92176459  0.57828361
   0.80281648  0.87601798  0.71868487
   0.78624261  0.87539827  0.91876086
   0.82838866  0.83158939  0.04140046
   0.31854790  0.75902927  0.52069937
   0.31829348  0.79920655  0.67473737
   0.98572972  0.42495063  0.23216072
   0.99396165  0.46338528  0.37460940
   0.32702623  0.78484982  0.87884030
   0.33420403  0.82330872  0.00539058
   0.92630261  0.31907857  0.55186420
   0.87894891  0.32905310  0.69262621
   0.59926200  0.97973721  0.23939522
   0.55083895  0.98798919  0.37365040
   0.87305075  0.35891024  0.87586777
   0.81965289  0.37811242  0.97689073
   0.90139857  0.78894840  0.77577486
   0.85940752  0.83350000  0.65298267
   0.92411542  0.74543145  0.12112462
   0.88492287  0.78920916  0.97591531
   0.31692831  0.89259252  0.73750301
   0.31131790  0.85332633  0.61093383
   0.34113394  0.91318979  0.08158545
   0.33005935  0.87630708  0.93970568
   0.98727558  0.55945049  0.43581516
   0.98322070  0.51881119  0.31071708
   0.78401110  0.33044848  0.74837837
   0.83559708  0.31442300  0.63918502
   0.73248071  0.37018105  0.07027941
   0.77661024  0.36302170  0.92444487
   0.45844185  0.98513881  0.41560081
   0.50547154  0.97950188  0.29909259
   0.75110990  0.47449795  0.55910902
   0.14091105  0.16829219  0.50046007
   0.69140075  0.13714055  0.53999245
   0.02787981  0.47419656  0.85188497
   0.16654301  0.69282016  0.54661096
   0.50275535  0.01954337  0.84748041
   0.19427662  0.16906151  0.80181120
   0.65464375  0.18404225  0.83042167
   0.18400952  0.61593607  0.86962730
   0.81678621  0.83060104  0.19460663
   0.34284211  0.81191783  0.16047652
   0.81086313  0.40899434  0.09853326
   0.87097336  0.83451947  0.49974472
   0.30325020  0.86495129  0.45583216
   0.97091588  0.53143530  0.15785245
   0.84375612  0.28535299  0.51209501
   0.50637427  0.96820062  0.14436632
   0.70765705  0.33181501  0.41713204
   0.28893361  0.02128045  0.79398763
   0.65706863  0.33219717  0.15504657
   0.95913244  0.68728185  0.49381115
   0.35764214  0.95547160  0.45590499
   0.35428372  0.02257398  0.12892116
   0.71996574  0.97295086  0.20141192
   0.34074161  0.66779074  0.77272975
   0.69797402  0.28629843  0.82165237
   0.98049850  0.31418058  0.16488241
   0.30319636  0.71315280  0.19275411
   0.97814119  0.37958615  0.84986530
   0.65195373  0.96879288  0.86167309
   0.02795222  0.61923270  0.16008711
   0.64534577  0.04044307  0.54207076
   0.02350059  0.69460210  0.84823689
   0.29318081  0.63776382  0.59034400
   0.04385614  0.31517476  0.50705162
   0.83059830  0.35198846  0.31455482
Direct configuration=     2
   0.05915924  0.25500009  0.30279680
   0.03817801  0.30177338  0.95043245
   0.10453126  0.26106401  0.70867591
   0.68996515  0.05491324  0.33664266
   0.67017097  0.03089464  0.97547042
   0.64228256  0.09897618  0.74081807
   0.02172299  0.39390480  0.64785890
   0.26146837  0.67896320  0.35757056
   0.31374610  0.64492622  0.00281656
   0.27994372  0.60108856  0.79933696
   0.59165226  0.01288101  0.65863352
   0.29747444  0.03585396  0.35623912
   0.23023292  0.07734324  0.59440379
   0.27490038  0.08086780  0.99785249
   0.65224172  0.30032954  0.41780977
   0.69671057  0.22629562  0.63060662
   0.99118718  0.63726055  0.73862780
   0.02819051  0.56352310  0.95496889
   0.66509006  0.26294929  0.03097898
   0.04495659  0.65310141  0.41153903
   0.07882826  0.68919100  0.64334625
   0.36859649  0.00105742  0.68828800
   0.41075911  0.02423187  0.93195152
   0.08829805  0.63733983  0.03476434
   0.70977695  0.95983987  0.63903025
   0.77896152  0.92256689  0.40560389
   0.73378632  0.91366074  0.99479512
   0.35016240  0.70107807  0.53699401
   0.29097175  0.78079119  0.36271563
   0.98958263  0.37669489  0.29949349
   0.97457675  0.43947242  0.05284620
   0.32692461  0.73581383  0.94881343
   0.97301190  0.31585331  0.62200376
   0.91660214  0.31727434  0.36536837
   0.64003051  0.98889196  0.30760447
   0.59936805  0.96393534  0.06255188
   0.91292221  0.36980969  0.95873972
   0.95379993  0.74787038  0.69651324
   0.97848773  0.70720063  0.07549894
   0.90586573  0.74488263  0.29286384
   0.31067923  0.94287103  0.66021730
   0.33355020  0.96331421  0.02027677
   0.35773125  0.89610008  0.25633784
   0.97554250  0.61151143  0.35785464
   0.74532139  0.31280070  0.68513971
   0.68086622  0.37985545  0.01683392
   0.75049095  0.35932929  0.25306244
   0.41626204  0.97644224  0.33214769
   0.71554832  0.50256083  0.67750007
   0.78694026  0.44677049  0.43919423
   0.11122452  0.21416024  0.22511163
   0.15243611  0.16847680  0.34654689
   0.08888016  0.26057384  0.88466451
   0.12763460  0.21368291  0.02385257
   0.68108280  0.10566087  0.25994607
   0.68352015  0.14776166  0.38384344
   0.66017605  0.08109565  0.91698323
   0.66860630  0.12034967  0.05571197
   0.01059935  0.44662796  0.57449270
   0.01549934  0.48686920  0.69898285
   0.21981553  0.66582050  0.28335736
   0.17096898  0.67583324  0.39711805
   0.27574229  0.62710850  0.96467066
   0.22594424  0.64088965  0.09357154
   0.55029939  0.00287520  0.57635037
   0.50376039  0.00807193  0.69283953
   0.24652446  0.07686334  0.41846308
   0.20732048  0.12355904  0.27820290
   0.22319956  0.12294369  0.07655756
   0.18264993  0.16866113  0.95552336
   0.67562949  0.24424626  0.46172615
   0.67510886  0.20177922  0.31558795
   0.00835535  0.58274202  0.78414482
   0.00347313  0.54312973  0.63654491
   0.66712783  0.21379658  0.11068888
   0.66255263  0.17364830  0.98617453
   0.08079593  0.66995526  0.46866324
   0.12690969  0.66426822  0.32725793
   0.41038961  0.00885949  0.75487568
   0.45841609  0.99972989  0.61849304
   0.12936123  0.64529720  0.12599411
   0.18045401  0.63248340  0.01906702
   0.76216247  0.92185967  0.57637958
   0.80284526  0.87595922  0.71926702
   0.78603576  0.87548538  0.91865565
   0.82841705  0.83163517  0.04131827
   0.31814430  0.75938079  0.51889754
   0.31832283  0.79932578  0.67512656
   0.98574735  0.42495970  0.23238861
   0.99397109  0.46336826  0.37456748
   0.32709862  0.78487098  0.87800173
   0.33421431  0.82326280  0.00542984
   0.92622452  0.31909888  0.55236523
   0.87905100  0.32907315  0.69271518
   0.59914395  0.97979569  0.23925922
   0.55086283  0.98793117  0.37366504
   0.87306645  0.35883043  0.87563877
   0.81968047  0.37808963  0.97685041
   0.90132936  0.78893854  0.77610065
   0.85940216  0.83349540  0.65319037
   0.92401106  0.74547800  0.12143963
   0.88491880  0.78920237  0.97560681
   0.31691794  0.89277768  0.73777162
   0.31132420  0.85310636  0.61066532
   0.34114460  0.91321602  0.08164791
   0.33004903  0.87631862  0.93971239
   0.98725247  0.55954590  0.43585479
   0.98323265  0.51884065  0.31080734
   0.78416841  0.33059434  0.74855728
   0.83541969  0.31445970  0.63898329
   0.73256136  0.37001579  0.07063719
   0.77654490  0.36302700  0.92418685
   0.45847175  0.98513162  0.41556620
   0.50544862  0.97951889  0.29922015
   0.75121618  0.47440587  0.55875962
   0.14090502  0.16829528  0.50042350
   0.69138863  0.13716734  0.54000208
   0.02787738  0.47420426  0.85188104
   0.16655526  0.69282036  0.54664711
   0.50275778  0.01953706  0.84748920
   0.19426626  0.16906725  0.80183833
   0.65465595  0.18404092  0.83030826
   0.18401214  0.61595314  0.86962125
   0.81679360  0.83063161  0.19449586
   0.34284833  0.81190847  0.16053617
   0.81084906  0.40902836  0.09867703
   0.87095200  0.83452544  0.49980163
   0.30324772  0.86494660  0.45574486
   0.97093418  0.53142331  0.15796231
   0.84375534  0.28535178  0.51206726
   0.50637754  0.96820859  0.14437865
   0.70776264  0.33191783  0.41380092
   0.28890658  0.02134342  0.79425594
   0.65743500  0.33260118  0.15621092
   0.95921888  0.68715397  0.49424100
   0.35769412  0.95546097  0.45607502
   0.35430210  0.02255664  0.12919681
   0.71925544  0.97287406  0.20043754
   0.34047675  0.66809625  0.77048720
   0.69804972  0.28565680  0.82197959
   0.98046967  0.31416141  0.16454413
   0.30331027  0.71259717  0.19270228
   0.97817285  0.37963307  0.85028217
   0.65217215  0.96859039  0.86449215
   0.02782698  0.61921998  0.16057783
   0.64523094  0.04076897  0.54026488
   0.02351775  0.69465874  0.84728027
   0.29323958  0.63714147  0.59033136
   0.04398552  0.31518760  0.50645055
   0.83061094  0.35199199  0.31456837
Direct configuration=     3
   0.05913138  0.25507967  0.30277347
   0.03818343  0.30174974  0.95039482
   0.10455574  0.26105266  0.70872448
   0.68998300  0.05466688  0.33629269
   0.67034538  0.03055397  0.97579456
   0.64235493  0.09895546  0.74126338
   0.02176774  0.39389882  0.64776383
   0.26125143  0.67886351  0.35688403
   0.31363723  0.64480312  0.00334479
   0.27995584  0.60088879  0.79992186
   0.59162168  0.01284335  0.65902594
   0.29746862  0.03584010  0.35627509
   0.23023282  0.07735075  0.59446807
   0.27487064  0.08089573  0.99794305
   0.65227414  0.30047874  0.41717817
   0.69656531  0.22649366  0.63127038
   0.99117556  0.63715033  0.73877217
   0.02818974  0.56355347  0.95525110
   0.66511110  0.26271169  0.03101639
   0.04486088  0.65304247  0.41147775
   0.07874614  0.68921206  0.64318726
   0.36857449  0.00108076  0.68828563
   0.41077916  0.02423010  0.93184859
   0.08813846  0.63735959  0.03450405
   0.70975493  0.95989298  0.63866736
   0.77885007  0.92279334  0.40432017
   0.73332901  0.91394033  0.99555819
   0.35005244  0.70123073  0.53666942
   0.29098126  0.78059507  0.36125867
   0.98955798  0.37671512  0.29946825
   0.97457571  0.43951256  0.05298355
   0.32692413  0.73603543  0.94760623
   0.97298215  0.31585220  0.62193012
   0.91660677  0.31727372  0.36565575
   0.64007286  0.98881813  0.30753143
   0.59939182  0.96388907  0.06247916
   0.91298589  0.36976233  0.95864796
   0.95387699  0.74779118  0.69667347
   0.97851663  0.70715043  0.07519650
   0.90583285  0.74485565  0.29317602
   0.31066346  0.94296983  0.66019670
   0.33354085  0.96335929  0.02025555
   0.35774265  0.89611100  0.25641169
   0.97557933  0.61162949  0.35782141
   0.74566034  0.31287099  0.68530154
   0.68106444  0.37973461  0.01602949
   0.75045144  0.35928237  0.25307654
   0.41634075  0.97641997  0.33233302
   0.71558074  0.50253750  0.67742088
   0.78696942  0.44674453  0.43907549
   0.11130985  0.21410172  0.22501287
   0.15241732  0.16848937  0.34653587
   0.08887314  0.26058464  0.88458027
   0.12765897  0.21366344  0.02393209
   0.68113730  0.10576971  0.25980996
   0.68357791  0.14762472  0.38391212
   0.66009474  0.08134622  0.91631359
   0.66860651  0.12035668  0.05591345
   0.01060678  0.44661261  0.57440875
   0.01550388  0.48688620  0.69904185
   0.21988911  0.66584186  0.28356295
   0.17090614  0.67585401  0.39705969
   0.27573558  0.62713426  0.96447035
   0.22590893  0.64090195  0.09369238
   0.55034151  0.00282401  0.57616514
   0.50378751  0.00803521  0.69288547
   0.24654364  0.07683985  0.41851841
   0.20733269  0.12355452  0.27811658
   0.22323392  0.12290755  0.07661487
   0.18262309  0.16869218  0.95547931
   0.67567030  0.24403558  0.46161098
   0.67506331  0.20193606  0.31567233
   0.00830008  0.58285716  0.78398405
   0.00348413  0.54311130  0.63666072
   0.66712512  0.21388076  0.11028056
   0.66257289  0.17360295  0.98623452
   0.08085335  0.67000347  0.46875867
   0.12689215  0.66427713  0.32727051
   0.41037704  0.00887208  0.75500437
   0.45842362  0.99972665  0.61841060
   0.12941419  0.64529445  0.12615628
   0.18041516  0.63247132  0.01909499
   0.76202857  0.92180425  0.57748933
   0.80282849  0.87599347  0.71892772
   0.78615632  0.87543461  0.91871697
   0.82840051  0.83160849  0.04136617
   0.31837954  0.75917591  0.51994772
   0.31830573  0.79925629  0.67489972
   0.98573708  0.42495442  0.23225578
   0.99396559  0.46337818  0.37459191
   0.32705643  0.78485865  0.87849049
   0.33420832  0.82328957  0.00540696
   0.92627003  0.31908704  0.55207321
   0.87899150  0.32906146  0.69266332
   0.59921275  0.97976161  0.23933849
   0.55084891  0.98796499  0.37365651
   0.87305730  0.35887695  0.87577224
   0.81966440  0.37810291  0.97687391
   0.90136970  0.78894429  0.77591077
   0.85940528  0.83349808  0.65306931
   0.92407189  0.74545087  0.12125603
   0.88492117  0.78920633  0.97578662
   0.31692398  0.89266976  0.73761506
   0.31132053  0.85323457  0.61082182
   0.34113839  0.91320074  0.08161150
   0.33005504  0.87631189  0.93970848
   0.98726594  0.55949029  0.43583169
   0.98322569  0.51882348  0.31075473
   0.78407672  0.33050933  0.74845301
   0.83552308  0.31443831  0.63910087
   0.73251435  0.37011211  0.07042866
   0.77658298  0.36302391  0.92433723
   0.45845432  0.98513581  0.41558637
   0.50546198  0.97950898  0.29914580
   0.75115423  0.47445954  0.55896327
   0.14090854  0.16829348  0.50044481
   0.69139569  0.13715173  0.53999646
   0.02787880  0.47419977  0.85188333
   0.16654812  0.69282024  0.54662604
   0.50275637  0.01954074  0.84748408
   0.19427230  0.16906390  0.80182252
   0.65464884  0.18404169  0.83037436
   0.18401061  0.61594319  0.86962478
   0.81678929  0.83061379  0.19456042
   0.34284471  0.81191392  0.16050141
   0.81085726  0.40900853  0.09859323
   0.87096445  0.83452196  0.49976846
   0.30324917  0.86494933  0.45579574
   0.97092351  0.53143030  0.15789828
   0.84375579  0.28535248  0.51208343
   0.50637564  0.96820394  0.14437146
   0.70770109  0.33185790  0.41574243
   0.28892233  0.02130672  0.79409956
   0.65722147  0.33236571  0.15553229
   0.95916850  0.68722851  0.49399046
   0.35766382  0.95546717  0.45597592
   0.35429139  0.02256675  0.12903615
   0.71966943  0.97291882  0.20100545
   0.34063112  0.66791819  0.77179425
   0.69800560  0.28603077  0.82178888
   0.98048647  0.31417258  0.16474129
   0.30324387  0.71292101  0.19273249
   0.97815440  0.37960572  0.85003920
   0.65204485  0.96870841  0.86284909
   0.02789998  0.61922740  0.16029182
   0.64529787  0.04057902  0.54131742
   0.02350775  0.69462573  0.84783783
   0.29320533  0.63750420  0.59033873
   0.04391011  0.31518012  0.50680088
   0.83060357  0.35198993  0.31456047
Direct configuration=     4
   0.05912820  0.25508877  0.30277080
   0.03818405  0.30174704  0.95039052
   0.10455854  0.26105136  0.70873004
   0.68998504  0.05463870  0.33625266
   0.67036534  0.03051500  0.97583164
   0.64236321  0.09895309  0.74131432
   0.02177286  0.39389813  0.64775296
   0.26122661  0.67885210  0.35680549
   0.31362478  0.64478904  0.00340522
   0.27995722  0.60086594  0.79998877
   0.59161819  0.01283905  0.65907084
   0.29746795  0.03583852  0.35627921
   0.23023280  0.07735161  0.59447542
   0.27486724  0.08089892  0.99795341
   0.65227785  0.30049581  0.41710592
   0.69654869  0.22651631  0.63134632
   0.99117423  0.63713772  0.73878869
   0.02818966  0.56355694  0.95528338
   0.66511351  0.26268451  0.03102067
   0.04484993  0.65303573  0.41147074
   0.07873675  0.68921447  0.64316907
   0.36857197  0.00108343  0.68828536
   0.41078145  0.02422989  0.93183681
   0.08812021  0.63736185  0.03447427
   0.70975241  0.95989905  0.63862585
   0.77883732  0.92281925  0.40417331
   0.73327669  0.91397232  0.99564548
   0.35003986  0.70124819  0.53663229
   0.29098235  0.78057263  0.36109200
   0.98955516  0.37671743  0.29946537
   0.97457559  0.43951715  0.05299926
   0.32692408  0.73606078  0.94746813
   0.97297874  0.31585207  0.62192170
   0.91660730  0.31727365  0.36568863
   0.64007770  0.98880968  0.30752307
   0.59939454  0.96388378  0.06247084
   0.91299318  0.36975692  0.95863746
   0.95388580  0.74778212  0.69669180
   0.97851993  0.70714469  0.07516190
   0.90582909  0.74485256  0.29321174
   0.31066165  0.94298114  0.66019434
   0.33353978  0.96336445  0.02025312
   0.35774396  0.89611224  0.25642014
   0.97558354  0.61164300  0.35781761
   0.74569912  0.31287903  0.68532005
   0.68108712  0.37972079  0.01593747
   0.75044693  0.35927700  0.25307815
   0.41634975  0.97641742  0.33235422
   0.71558445  0.50253483  0.67741183
   0.78697275  0.44674156  0.43906190
   0.11131962  0.21409502  0.22500157
   0.15241517  0.16849081  0.34653461
   0.08887234  0.26058587  0.88457064
   0.12766176  0.21366121  0.02394118
   0.68114353  0.10578216  0.25979439
   0.68358452  0.14760906  0.38391998
   0.66008544  0.08137488  0.91623699
   0.66860654  0.12035748  0.05593650
   0.01060763  0.44661086  0.57439914
   0.01550440  0.48688814  0.69904860
   0.21989753  0.66584430  0.28358647
   0.17089895  0.67585639  0.39705302
   0.27573481  0.62713721  0.96444744
   0.22590489  0.64090336  0.09370620
   0.55034633  0.00281815  0.57614395
   0.50379062  0.00803101  0.69289073
   0.24654583  0.07683717  0.41852473
   0.20733409  0.12355401  0.27810670
   0.22323785  0.12290342  0.07662142
   0.18262002  0.16869574  0.95547427
   0.67567497  0.24401148  0.46159780
   0.67505810  0.20195400  0.31568199
   0.00829375  0.58287033  0.78396566
   0.00348539  0.54310919  0.63667397
   0.66712481  0.21389039  0.11023385
   0.66257520  0.17359776  0.98624139
   0.08085992  0.67000898  0.46876958
   0.12689014  0.66427815  0.32727195
   0.41037561  0.00887352  0.75501909
   0.45842449  0.99972628  0.61840118
   0.12942024  0.64529414  0.12617483
   0.18041072  0.63246994  0.01909820
   0.76201326  0.92179791  0.57761628
   0.80282657  0.87599738  0.71888890
   0.78617011  0.87542880  0.91872399
   0.82839861  0.83160544  0.04137165
   0.31840645  0.75915247  0.52006786
   0.31830377  0.79924834  0.67487378
   0.98573590  0.42495381  0.23224059
   0.99396496  0.46337932  0.37459471
   0.32705160  0.78485724  0.87854640
   0.33420763  0.82329263  0.00540434
   0.92627524  0.31908569  0.55203980
   0.87898469  0.32906013  0.69265739
   0.59922062  0.97975771  0.23934756
   0.55084732  0.98796886  0.37365553
   0.87305625  0.35888227  0.87578751
   0.81966256  0.37810443  0.97687660
   0.90137431  0.78894494  0.77588905
   0.85940564  0.83349839  0.65305546
   0.92407884  0.74544777  0.12123502
   0.88492144  0.78920678  0.97580719
   0.31692468  0.89265742  0.73759715
   0.31132011  0.85324923  0.61083972
   0.34113768  0.91319899  0.08160734
   0.33005573  0.87631112  0.93970803
   0.98726748  0.55948393  0.43582905
   0.98322489  0.51882151  0.31074871
   0.78406624  0.33049960  0.74844108
   0.83553491  0.31443586  0.63911432
   0.73250897  0.37012313  0.07040480
   0.77658734  0.36302356  0.92435444
   0.45845233  0.98513629  0.41558868
   0.50546351  0.97950785  0.29913729
   0.75114715  0.47446568  0.55898656
   0.14090894  0.16829328  0.50044725
   0.69139650  0.13714994  0.53999582
   0.02787896  0.47419925  0.85188359
   0.16654730  0.69282023  0.54662363
   0.50275620  0.01954116  0.84748349
   0.19427299  0.16906352  0.80182071
   0.65464803  0.18404178  0.83038192
   0.18401043  0.61594205  0.86962518
   0.81678880  0.83061176  0.19456781
   0.34284429  0.81191455  0.16049743
   0.81085820  0.40900626  0.09858365
   0.87096587  0.83452156  0.49976466
   0.30324933  0.86494965  0.45580157
   0.97092230  0.53143110  0.15789095
   0.84375585  0.28535256  0.51208528
   0.50637542  0.96820341  0.14437064
   0.70769405  0.33185104  0.41596454
   0.28892414  0.02130252  0.79408167
   0.65719704  0.33233877  0.15545465
   0.95916273  0.68723703  0.49396180
   0.35766036  0.95546787  0.45596458
   0.35429016  0.02256790  0.12901777
   0.71971679  0.97292394  0.20107042
   0.34064878  0.66789782  0.77194377
   0.69800055  0.28607355  0.82176706
   0.98048839  0.31417386  0.16476385
   0.30323628  0.71295806  0.19273594
   0.97815229  0.37960259  0.85001140
   0.65203028  0.96872191  0.86266113
   0.02790833  0.61922824  0.16025910
   0.64530553  0.04055729  0.54143783
   0.02350661  0.69462195  0.84790161
   0.29320141  0.63754570  0.59033957
   0.04390149  0.31517926  0.50684096
   0.83060273  0.35198970  0.31455957
Direct configuration=     5
   0.05910664  0.25504870  0.30284223
   0.03820371  0.30174532  0.95042850
   0.10454381  0.26104901  0.70876423
   0.69005474  0.05465058  0.33686424
   0.67026862  0.03042369  0.97612388
   0.64230941  0.09889688  0.74143028
   0.02173610  0.39391233  0.64778647
   0.26142738  0.67899931  0.35718433
   0.31375734  0.64499125  0.00268327
   0.27989744  0.60116795  0.79959855
   0.59166612  0.01292603  0.65867614
   0.29748126  0.03584998  0.35627880
   0.23024076  0.07732692  0.59444372
   0.27489235  0.08087997  0.99792043
   0.65218245  0.30032816  0.41802878
   0.69684807  0.22624166  0.63115040
   0.99124144  0.63706541  0.73883640
   0.02822501  0.56350568  0.95536833
   0.66509927  0.26293121  0.03144691
   0.04481515  0.65303534  0.41133584
   0.07879885  0.68918472  0.64318611
   0.36858961  0.00104371  0.68827454
   0.41076169  0.02422044  0.93176857
   0.08818554  0.63733994  0.03460651
   0.70986011  0.95980744  0.63873818
   0.77903618  0.92265200  0.40351677
   0.73347870  0.91393902  0.99533008
   0.35007952  0.70137503  0.53656569
   0.29075306  0.78098215  0.36153395
   0.98958578  0.37670350  0.29945785
   0.97458360  0.43947905  0.05304914
   0.32698184  0.73584869  0.94932901
   0.97299906  0.31585896  0.62195876
   0.91660973  0.31727066  0.36568000
   0.64007851  0.98888930  0.30753600
   0.59940500  0.96391579  0.06235807
   0.91293696  0.36979346  0.95875305
   0.95385407  0.74782599  0.69658924
   0.97854090  0.70716460  0.07527746
   0.90581026  0.74487403  0.29333354
   0.31068060  0.94286633  0.66023813
   0.33353971  0.96333860  0.02024634
   0.35773719  0.89608202  0.25643639
   0.97553461  0.61164907  0.35772511
   0.74525130  0.31282907  0.68510973
   0.68082974  0.37993994  0.01727749
   0.75051689  0.35933265  0.25320566
   0.41628568  0.97646997  0.33218160
   0.71565902  0.50247853  0.67711559
   0.78705939  0.44668165  0.43880783
   0.11132308  0.21407731  0.22493835
   0.15239873  0.16850654  0.34652847
   0.08884561  0.26061371  0.88449639
   0.12765619  0.21364856  0.02401548
   0.68103309  0.10588843  0.25950763
   0.68352076  0.14764047  0.38399613
   0.66004097  0.08159584  0.91574271
   0.66862616  0.12030204  0.05589377
   0.01060085  0.44659118  0.57439365
   0.01549919  0.48690381  0.69903923
   0.21988816  0.66586377  0.28349444
   0.17097988  0.67582912  0.39707715
   0.27581607  0.62707704  0.96450000
   0.22595384  0.64090158  0.09365302
   0.55038422  0.00286633  0.57631248
   0.50371948  0.00808258  0.69297681
   0.24654512  0.07684636  0.41848894
   0.20732999  0.12356047  0.27807132
   0.22324856  0.12288844  0.07664586
   0.18260091  0.16870806  0.95545022
   0.67557901  0.24421888  0.46128523
   0.67511900  0.20191200  0.31568478
   0.00825605  0.58297224  0.78364700
   0.00348526  0.54310632  0.63667350
   0.66710491  0.21385676  0.11008142
   0.66253929  0.17367335  0.98626590
   0.08095649  0.67003330  0.46892653
   0.12688961  0.66424798  0.32723983
   0.41037022  0.00887846  0.75513535
   0.45843579  0.99973500  0.61839858
   0.12945457  0.64530855  0.12622528
   0.18041729  0.63248389  0.01904309
   0.76200090  0.92178153  0.57876096
   0.80282502  0.87602299  0.71871333
   0.78636340  0.87527083  0.91836659
   0.82845559  0.83160227  0.04130420
   0.31848339  0.75904004  0.52058948
   0.31831906  0.79922312  0.67483500
   0.98574049  0.42494270  0.23214911
   0.99397182  0.46340104  0.37461096
   0.32709682  0.78476310  0.87863960
   0.33419484  0.82325531  0.00522778
   0.92625736  0.31910309  0.55210029
   0.87900670  0.32905126  0.69261526
   0.59911407  0.97980502  0.23941076
   0.55086779  0.98793436  0.37372266
   0.87307458  0.35884799  0.87573306
   0.81965034  0.37809440  0.97692023
   0.90136832  0.78892796  0.77588922
   0.85936639  0.83352459  0.65318698
   0.92406168  0.74547967  0.12098856
   0.88490361  0.78919458  0.97591512
   0.31691803  0.89269583  0.73758081
   0.31133643  0.85324305  0.61089664
   0.34114585  0.91321733  0.08167436
   0.33006002  0.87631264  0.93971538
   0.98726647  0.55944647  0.43589332
   0.98323275  0.51880147  0.31081315
   0.78394357  0.33053901  0.74823244
   0.83545410  0.31449292  0.63899191
   0.73256004  0.36997347  0.07039355
   0.77652107  0.36303755  0.92442466
   0.45842333  0.98512987  0.41553967
   0.50545643  0.97950273  0.29912387
   0.75098627  0.47459037  0.55952001
   0.14090312  0.16829223  0.50044789
   0.69138242  0.13718477  0.53995004
   0.02787652  0.47420533  0.85186431
   0.16656002  0.69282568  0.54667051
   0.50275387  0.01953594  0.84748136
   0.19426644  0.16906592  0.80182739
   0.65466375  0.18404071  0.83028092
   0.18401572  0.61595132  0.86959192
   0.81679276  0.83062579  0.19456334
   0.34284642  0.81190944  0.16051773
   0.81085416  0.40902262  0.09863148
   0.87095980  0.83452595  0.49980378
   0.30324970  0.86493759  0.45572471
   0.97093439  0.53142468  0.15793510
   0.84374761  0.28534103  0.51203982
   0.50637366  0.96821273  0.14439491
   0.70780597  0.33192631  0.41285638
   0.28886545  0.02138594  0.79419907
   0.65764402  0.33272993  0.15686605
   0.95918375  0.68718446  0.49417206
   0.35770924  0.95545459  0.45603988
   0.35432763  0.02255513  0.12920853
   0.71921615  0.97292123  0.20025616
   0.34032505  0.66813881  0.76960403
   0.69812093  0.28543390  0.82184395
   0.98045552  0.31417753  0.16465593
   0.30326100  0.71253543  0.19283112
   0.97816352  0.37962250  0.85020146
   0.65206068  0.96849847  0.86500332
   0.02785473  0.61921355  0.16046432
   0.64522668  0.04088248  0.53996735
   0.02348302  0.69465840  0.84750612
   0.29322541  0.63697758  0.59047484
   0.04394244  0.31519834  0.50659145
   0.83060779  0.35198868  0.31457296
Direct configuration=     6
   0.05911029  0.25505550  0.30283011
   0.03820038  0.30174561  0.95042206
   0.10454631  0.26104941  0.70875843
   0.69004292  0.05464857  0.33676052
   0.67028502  0.03043917  0.97607432
   0.64231853  0.09890641  0.74141061
   0.02174234  0.39390993  0.64778079
   0.26139334  0.67897435  0.35712009
   0.31373486  0.64495696  0.00280570
   0.27990758  0.60111674  0.79966472
   0.59165799  0.01291128  0.65874307
   0.29747900  0.03584804  0.35627887
   0.23023941  0.07733110  0.59444910
   0.27488809  0.08088318  0.99792602
   0.65219863  0.30035659  0.41787227
   0.69679730  0.22628824  0.63118362
   0.99123005  0.63707768  0.73882831
   0.02821902  0.56351437  0.95535393
   0.66510168  0.26288937  0.03137463
   0.04482105  0.65303540  0.41135872
   0.07878832  0.68918976  0.64318322
   0.36858661  0.00105045  0.68827637
   0.41076504  0.02422204  0.93178014
   0.08817446  0.63734366  0.03458408
   0.70984184  0.95982297  0.63871913
   0.77900246  0.92268036  0.40362811
   0.73344444  0.91394467  0.99538357
   0.35007279  0.70135352  0.53657699
   0.29079194  0.78091270  0.36145900
   0.98958059  0.37670586  0.29945912
   0.97458224  0.43948551  0.05304068
   0.32697205  0.73588466  0.94901343
   0.97299562  0.31585779  0.62195248
   0.91660932  0.31727117  0.36568146
   0.64007837  0.98887580  0.30753381
   0.59940323  0.96391036  0.06237720
   0.91294649  0.36978727  0.95873345
   0.95385945  0.74781855  0.69660663
   0.97853734  0.70716122  0.07525786
   0.90581345  0.74487039  0.29331288
   0.31067739  0.94288580  0.66023071
   0.33353973  0.96334299  0.02024749
   0.35773833  0.89608714  0.25643363
   0.97554290  0.61164804  0.35774080
   0.74532724  0.31283754  0.68514540
   0.68087339  0.37990278  0.01705024
   0.75050502  0.35932321  0.25318404
   0.41629655  0.97646106  0.33221087
   0.71564638  0.50248808  0.67716583
   0.78704470  0.44669181  0.43885092
   0.11132250  0.21408032  0.22494907
   0.15240152  0.16850387  0.34652951
   0.08885014  0.26060899  0.88450898
   0.12765713  0.21365071  0.02400288
   0.68105182  0.10587041  0.25955626
   0.68353158  0.14763515  0.38398322
   0.66004851  0.08155837  0.91582654
   0.66862283  0.12031144  0.05590101
   0.01060200  0.44659451  0.57439458
   0.01550007  0.48690115  0.69904082
   0.21988975  0.66586047  0.28351004
   0.17096616  0.67583375  0.39707306
   0.27580229  0.62708724  0.96449109
   0.22594554  0.64090188  0.09366204
   0.55037779  0.00285816  0.57628390
   0.50373154  0.00807383  0.69296221
   0.24654524  0.07684480  0.41849501
   0.20733069  0.12355938  0.27807732
   0.22324675  0.12289098  0.07664172
   0.18260415  0.16870597  0.95545430
   0.67559528  0.24418371  0.46133824
   0.67510868  0.20191912  0.31568431
   0.00826244  0.58295495  0.78370104
   0.00348528  0.54310681  0.63667358
   0.66710828  0.21386247  0.11010727
   0.66254538  0.17366053  0.98626175
   0.08094011  0.67002917  0.46889991
   0.12688970  0.66425310  0.32724528
   0.41037114  0.00887762  0.75511564
   0.45843387  0.99973352  0.61839902
   0.12944875  0.64530610  0.12621673
   0.18041618  0.63248153  0.01905244
   0.76200300  0.92178431  0.57856684
   0.80282528  0.87601865  0.71874310
   0.78633062  0.87529762  0.91842720
   0.82844593  0.83160280  0.04131564
   0.31847034  0.75905911  0.52050102
   0.31831647  0.79922740  0.67484157
   0.98573971  0.42494458  0.23216463
   0.99397066  0.46339735  0.37460820
   0.32708915  0.78477907  0.87862379
   0.33419701  0.82326164  0.00525772
   0.92626039  0.31910014  0.55209003
   0.87900297  0.32905276  0.69262241
   0.59913214  0.97979700  0.23940004
   0.55086432  0.98794021  0.37371128
   0.87307148  0.35885381  0.87574229
   0.81965241  0.37809610  0.97691283
   0.90136933  0.78893084  0.77588919
   0.85937305  0.83352014  0.65316468
   0.92406459  0.74547426  0.12103036
   0.88490663  0.78919665  0.97589682
   0.31691916  0.89268932  0.73758358
   0.31133366  0.85324410  0.61088699
   0.34114447  0.91321422  0.08166299
   0.33005929  0.87631239  0.93971413
   0.98726664  0.55945282  0.43588242
   0.98323142  0.51880487  0.31080222
   0.78396438  0.33053233  0.74826782
   0.83546781  0.31448324  0.63901267
   0.73255138  0.36999885  0.07039546
   0.77653231  0.36303517  0.92441275
   0.45842825  0.98513096  0.41554798
   0.50545763  0.97950360  0.29912614
   0.75101355  0.47456922  0.55942954
   0.14090411  0.16829241  0.50044778
   0.69138481  0.13717886  0.53995780
   0.02787693  0.47420430  0.85186758
   0.16655786  0.69282475  0.54666256
   0.50275426  0.01953683  0.84748172
   0.19426755  0.16906551  0.80182625
   0.65466108  0.18404089  0.83029805
   0.18401482  0.61594974  0.86959756
   0.81679209  0.83062341  0.19456410
   0.34284606  0.81191030  0.16051429
   0.81085485  0.40901984  0.09862337
   0.87096083  0.83452521  0.49979714
   0.30324964  0.86493964  0.45573775
   0.97093234  0.53142577  0.15792761
   0.84374901  0.28534299  0.51204753
   0.50637395  0.96821115  0.14439080
   0.70778699  0.33191355  0.41338348
   0.28887540  0.02137179  0.79417916
   0.65756822  0.33266359  0.15662670
   0.95918019  0.68719337  0.49413640
   0.35770095  0.95545684  0.45602711
   0.35432127  0.02255729  0.12917618
   0.71930105  0.97292169  0.20039424
   0.34037995  0.66809794  0.77000082
   0.69810052  0.28554238  0.82183091
   0.98046109  0.31417691  0.16467423
   0.30325681  0.71260711  0.19281498
   0.97816161  0.37961913  0.85016923
   0.65205553  0.96853636  0.86460612
   0.02786382  0.61921604  0.16042952
   0.64524005  0.04082733  0.54021672
   0.02348702  0.69465222  0.84757319
   0.29322134  0.63707392  0.59045190
   0.04393550  0.31519511  0.50663376
   0.83060693  0.35198886  0.31457069
Direct configuration=     7
   0.05906851  0.25504889  0.30287419
   0.03820861  0.30174813  0.95046475
   0.10454708  0.26104248  0.70875347
   0.69014603  0.05456971  0.33710907
   0.67020735  0.03038918  0.97633758
   0.64225757  0.09889254  0.74146694
   0.02172374  0.39391893  0.64776023
   0.26143595  0.67902361  0.35712882
   0.31375321  0.64508034  0.00202685
   0.27982224  0.60129397  0.79977331
   0.59172781  0.01297394  0.65860125
   0.29748839  0.03585724  0.35631479
   0.23024582  0.07730722  0.59443922
   0.27489314  0.08088788  0.99797557
   0.65201248  0.30047111  0.41848142
   0.69705684  0.22608836  0.63092390
   0.99127348  0.63702363  0.73887106
   0.02822644  0.56351505  0.95533821
   0.66509450  0.26298146  0.03216617
   0.04479410  0.65303798  0.41131362
   0.07882057  0.68917543  0.64318963
   0.36859655  0.00101462  0.68828790
   0.41075295  0.02422127  0.93175616
   0.08814697  0.63733227  0.03456694
   0.70983597  0.95983830  0.63882109
   0.77902494  0.92262654  0.40319894
   0.73342717  0.91404499  0.99541399
   0.35013035  0.70151168  0.53609532
   0.29061520  0.78113747  0.36154319
   0.98960574  0.37669616  0.29942560
   0.97458357  0.43947522  0.05308305
   0.32706731  0.73585216  0.95018332
   0.97297871  0.31587161  0.62192882
   0.91661353  0.31726935  0.36589206
   0.64000887  0.98892608  0.30740954
   0.59939163  0.96392502  0.06240565
   0.91291268  0.36980134  0.95879397
   0.95387354  0.74781509  0.69655127
   0.97858085  0.70716403  0.07510741
   0.90579332  0.74488077  0.29342120
   0.31068431  0.94288511  0.66018664
   0.33353253  0.96337350  0.02021634
   0.35774166  0.89606388  0.25654310
   0.97549953  0.61171269  0.35766161
   0.74508042  0.31289111  0.68501900
   0.68074564  0.38015147  0.01810595
   0.75059930  0.35935414  0.25321969
   0.41627432  0.97651276  0.33214931
   0.71538883  0.50269653  0.67797528
   0.78683682  0.44686162  0.43957889
   0.11136010  0.21403200  0.22488895
   0.15238430  0.16851691  0.34650710
   0.08883309  0.26062147  0.88446135
   0.12765784  0.21363674  0.02403320
   0.68097397  0.10599016  0.25938909
   0.68347710  0.14762156  0.38398429
   0.66001426  0.08164173  0.91546345
   0.66862752  0.12033434  0.05583300
   0.01059708  0.44658718  0.57436568
   0.01549890  0.48690942  0.69907307
   0.22002971  0.66592293  0.28369234
   0.17100232  0.67581466  0.39705178
   0.27596969  0.62712357  0.96453912
   0.22600272  0.64089937  0.09366802
   0.55043427  0.00289459  0.57633200
   0.50372842  0.00811044  0.69299785
   0.24656279  0.07683466  0.41848505
   0.20733227  0.12356394  0.27801322
   0.22327286  0.12286206  0.07664164
   0.18258109  0.16872022  0.95545210
   0.67565680  0.24400365  0.46148189
   0.67513785  0.20199255  0.31563406
   0.00826215  0.58299114  0.78365923
   0.00348703  0.54310755  0.63672384
   0.66708759  0.21399447  0.10978404
   0.66251263  0.17368241  0.98619824
   0.08100962  0.67003418  0.46888338
   0.12693591  0.66423435  0.32731882
   0.41035560  0.00887417  0.75517428
   0.45841901  0.99974089  0.61832896
   0.12950630  0.64531490  0.12634557
   0.18043421  0.63249351  0.01902052
   0.76205646  0.92173779  0.57894766
   0.80286782  0.87601180  0.71853471
   0.78658677  0.87512865  0.91813097
   0.82850617  0.83156110  0.04141564
   0.31851430  0.75907537  0.52106785
   0.31834776  0.79911008  0.67498122
   0.98575036  0.42492860  0.23211875
   0.99397818  0.46338593  0.37462490
   0.32711443  0.78458119  0.87931612
   0.33418986  0.82324574  0.00515852
   0.92630547  0.31910480  0.55192246
   0.87895141  0.32903413  0.69254419
   0.59909946  0.97984607  0.23959555
   0.55086694  0.98793012  0.37385855
   0.87306805  0.35885518  0.87584437
   0.81961950  0.37808613  0.97696048
   0.90135598  0.78893978  0.77581543
   0.85938220  0.83351922  0.65305961
   0.92408658  0.74546147  0.12101245
   0.88492682  0.78916283  0.97596525
   0.31692525  0.89259684  0.73757748
   0.31135019  0.85329911  0.61100266
   0.34114723  0.91318201  0.08169615
   0.33006793  0.87629731  0.93972366
   0.98726660  0.55939857  0.43589139
   0.98323146  0.51878649  0.31079536
   0.78363996  0.33048669  0.74781955
   0.83540400  0.31453509  0.63894209
   0.73253930  0.36994115  0.07028329
   0.77647103  0.36301889  0.92440778
   0.45840054  0.98513045  0.41547529
   0.50544429  0.97948955  0.29912933
   0.75148203  0.47420215  0.55785961
   0.14089757  0.16829107  0.50045677
   0.69137117  0.13720713  0.53993516
   0.02787430  0.47421133  0.85184505
   0.16657573  0.69282964  0.54668488
   0.50274119  0.01954039  0.84753819
   0.19426121  0.16906875  0.80181375
   0.65467811  0.18404141  0.83023594
   0.18401943  0.61595537  0.86955225
   0.81679654  0.83063917  0.19453622
   0.34283977  0.81191128  0.16043188
   0.81085686  0.40902106  0.09860805
   0.87095578  0.83452933  0.49988925
   0.30325638  0.86491686  0.45574284
   0.97094334  0.53142014  0.15795828
   0.84373587  0.28533433  0.51200981
   0.50636978  0.96821899  0.14438791
   0.70792903  0.33194029  0.41107728
   0.28881914  0.02143909  0.79420498
   0.65793994  0.33294436  0.15795558
   0.95917123  0.68718595  0.49418322
   0.35773827  0.95543771  0.45605902
   0.35435455  0.02254778  0.12929586
   0.71899310  0.97290746  0.19985886
   0.34002788  0.66827725  0.76812710
   0.69824453  0.28494470  0.82180342
   0.98043382  0.31418636  0.16467986
   0.30323654  0.71234133  0.19314594
   0.97816072  0.37962434  0.85026553
   0.65203888  0.96835933  0.86626335
   0.02784841  0.61919819  0.16047976
   0.64517897  0.04106793  0.53915173
   0.02345110  0.69467657  0.84754407
   0.29321686  0.63663828  0.59011629
   0.04393788  0.31521201  0.50653543
   0.83061414  0.35199265  0.31459760
Direct configuration=     8
   0.05909314  0.25505278  0.30284820
   0.03820376  0.30174664  0.95043958
   0.10454663  0.26104657  0.70875640
   0.69008524  0.05461620  0.33690359
   0.67025314  0.03041865  0.97618239
   0.64229351  0.09890072  0.74143373
   0.02173470  0.39391362  0.64777235
   0.26141083  0.67899457  0.35712367
   0.31374239  0.64500760  0.00248600
   0.27987255  0.60118949  0.79970930
   0.59168665  0.01293700  0.65868486
   0.29748286  0.03585182  0.35629361
   0.23024204  0.07732130  0.59444504
   0.27489017  0.08088511  0.99794636
   0.65212222  0.30040360  0.41812231
   0.69690383  0.22620619  0.63107701
   0.99124787  0.63705549  0.73884586
   0.02822206  0.56351465  0.95534747
   0.66509873  0.26292717  0.03169954
   0.04480999  0.65303646  0.41134021
   0.07880156  0.68918388  0.64318585
   0.36859069  0.00103574  0.68828111
   0.41076008  0.02422172  0.93177030
   0.08816318  0.63733898  0.03457704
   0.70983943  0.95982926  0.63876098
   0.77901169  0.92265827  0.40345195
   0.73343735  0.91398585  0.99539606
   0.35009642  0.70141844  0.53637927
   0.29071940  0.78100496  0.36149356
   0.98959091  0.37670188  0.29944536
   0.97458279  0.43948129  0.05305808
   0.32701115  0.73587132  0.94949364
   0.97298868  0.31586346  0.62194277
   0.91661104  0.31727042  0.36576791
   0.64004984  0.98889644  0.30748280
   0.59939847  0.96391638  0.06238888
   0.91293261  0.36979304  0.95875829
   0.95386523  0.74781713  0.69658391
   0.97855520  0.70716237  0.07519611
   0.90580518  0.74487465  0.29335735
   0.31068023  0.94288552  0.66021262
   0.33353677  0.96335551  0.02023470
   0.35773970  0.89607760  0.25647857
   0.97552510  0.61167458  0.35770829
   0.74522593  0.31285953  0.68509351
   0.68082095  0.38000486  0.01748359
   0.75054372  0.35933591  0.25319867
   0.41628742  0.97648228  0.33218560
   0.71554066  0.50257364  0.67749809
   0.78695937  0.44676151  0.43914974
   0.11133793  0.21406048  0.22492439
   0.15239445  0.16850922  0.34652031
   0.08884315  0.26061411  0.88448943
   0.12765742  0.21364497  0.02401533
   0.68101987  0.10591957  0.25948764
   0.68350921  0.14762957  0.38398366
   0.66003445  0.08159259  0.91567750
   0.66862476  0.12032084  0.05587309
   0.01059998  0.44659150  0.57438272
   0.01549959  0.48690454  0.69905406
   0.21994720  0.66588611  0.28358487
   0.17098100  0.67582591  0.39706433
   0.27587100  0.62710216  0.96451081
   0.22596901  0.64090085  0.09366449
   0.55040098  0.00287311  0.57630364
   0.50373026  0.00808886  0.69297684
   0.24655244  0.07684064  0.41849092
   0.20733134  0.12356125  0.27805101
   0.22325747  0.12287911  0.07664169
   0.18259468  0.16871182  0.95545340
   0.67562053  0.24410980  0.46139720
   0.67512065  0.20194926  0.31566368
   0.00826232  0.58296981  0.78368388
   0.00348600  0.54310711  0.63669421
   0.66709979  0.21391665  0.10997459
   0.66253194  0.17366951  0.98623568
   0.08096865  0.67003123  0.46889313
   0.12690867  0.66424540  0.32727546
   0.41036476  0.00887621  0.75513971
   0.45842777  0.99973655  0.61837026
   0.12947237  0.64530971  0.12626962
   0.18042358  0.63248644  0.01903933
   0.76202494  0.92176521  0.57872316
   0.80284274  0.87601584  0.71865756
   0.78643577  0.87522826  0.91830560
   0.82847066  0.83158569  0.04135669
   0.31848839  0.75906578  0.52073369
   0.31832931  0.79917924  0.67489890
   0.98574408  0.42493802  0.23214579
   0.99397375  0.46339266  0.37461506
   0.32709953  0.78469784  0.87890798
   0.33419407  0.82325511  0.00521700
   0.92627890  0.31910205  0.55202125
   0.87898181  0.32904511  0.69259030
   0.59911872  0.97981714  0.23948029
   0.55086539  0.98793607  0.37377173
   0.87307007  0.35885437  0.87578420
   0.81963890  0.37809201  0.97693239
   0.90136385  0.78893451  0.77585891
   0.85937680  0.83351976  0.65312155
   0.92407362  0.74546901  0.12102301
   0.88491492  0.78918277  0.97592491
   0.31692166  0.89265136  0.73758108
   0.31134044  0.85326668  0.61093447
   0.34114560  0.91320100  0.08167660
   0.33006284  0.87630620  0.93971804
   0.98726662  0.55943055  0.43588611
   0.98323143  0.51879732  0.31079941
   0.78383121  0.33051360  0.74808382
   0.83544162  0.31450453  0.63898370
   0.73254642  0.36997516  0.07034942
   0.77650716  0.36302849  0.92441071
   0.45841688  0.98513075  0.41551814
   0.50545216  0.97949783  0.29912745
   0.75120585  0.47441855  0.55878512
   0.14090142  0.16829186  0.50045147
   0.69137921  0.13719047  0.53994851
   0.02787585  0.47420719  0.85185833
   0.16656520  0.69282676  0.54667172
   0.50274890  0.01953829  0.84750490
   0.19426495  0.16906684  0.80182112
   0.65466807  0.18404110  0.83027255
   0.18401671  0.61595205  0.86957896
   0.81679391  0.83062988  0.19455265
   0.34284348  0.81191070  0.16048046
   0.81085567  0.40902034  0.09861708
   0.87095876  0.83452690  0.49983495
   0.30325240  0.86493029  0.45573983
   0.97093686  0.53142346  0.15794020
   0.84374362  0.28533943  0.51203205
   0.50637224  0.96821437  0.14438961
   0.70784529  0.33192453  0.41243683
   0.28885231  0.02139942  0.79418976
   0.65772080  0.33277884  0.15717217
   0.95917651  0.68719033  0.49415562
   0.35771627  0.95544899  0.45604021
   0.35433493  0.02255339  0.12922530
   0.71917464  0.97291585  0.20017448
   0.34023543  0.66817155  0.76923170
   0.69815963  0.28529704  0.82181963
   0.98044990  0.31418079  0.16467654
   0.30324849  0.71249801  0.19295084
   0.97816125  0.37962127  0.85020876
   0.65204869  0.96846369  0.86528638
   0.02785750  0.61920871  0.16045014
   0.64521498  0.04092609  0.53977956
   0.02347228  0.69466222  0.84756124
   0.29321950  0.63689510  0.59031414
   0.04393648  0.31520204  0.50659340
   0.83060989  0.35199041  0.31458174
Direct configuration=     9
   0.05905525  0.25505553  0.30285444
   0.03820163  0.30175444  0.95047902
   0.10455467  0.26103915  0.70872332
   0.69019611  0.05452816  0.33698289
   0.67017443  0.03046525  0.97631914
   0.64222470  0.09892609  0.74136057
   0.02172746  0.39391738  0.64772609
   0.26138013  0.67897719  0.35698178
   0.31371686  0.64508737  0.00174967
   0.27978382  0.60125702  0.80008218
   0.59176673  0.01297416  0.65871421
   0.29749379  0.03585590  0.35634529
   0.23024543  0.07730194  0.59444166
   0.27488795  0.08090037  0.99803393
   0.65193282  0.30060983  0.41858256
   0.69712976  0.22604418  0.63083353
   0.99126519  0.63704364  0.73885319
   0.02821275  0.56354469  0.95527189
   0.66509826  0.26294561  0.03257624
   0.04481278  0.65305044  0.41137872
   0.07881530  0.68917901  0.64317990
   0.36859350  0.00100594  0.68831168
   0.41075270  0.02422812  0.93179408
   0.08810631  0.63733760  0.03451442
   0.70978215  0.95989492  0.63885390
   0.77890893  0.92267024  0.40340383
   0.73336838  0.91409375  0.99552182
   0.35018566  0.70153802  0.53570554
   0.29062260  0.78106470  0.36157373
   0.98961055  0.37669100  0.29940230
   0.97457845  0.43949013  0.05306538
   0.32712417  0.73591123  0.95014273
   0.97296460  0.31587984  0.62190132
   0.91661381  0.31727064  0.36597933
   0.63995305  0.98893267  0.30732192
   0.59936284  0.96392147  0.06257101
   0.91291895  0.36979391  0.95878917
   0.95389660  0.74779296  0.69656316
   0.97859485  0.70716157  0.07494365
   0.90579666  0.74487489  0.29339011
   0.31068206  0.94293721  0.66014296
   0.33352912  0.96339515  0.02022124
   0.35774504  0.89606480  0.25659236
   0.97549188  0.61174144  0.35767363
   0.74509107  0.31296292  0.68497492
   0.68076607  0.38026497  0.01821135
   0.75065433  0.35935129  0.25313778
   0.41628356  0.97652712  0.33218577
   0.71560054  0.50253106  0.67725625
   0.78702510  0.44671717  0.43896054
   0.11136689  0.21401876  0.22490134
   0.15238870  0.16850900  0.34650048
   0.08883824  0.26061064  0.88447959
   0.12765844  0.21363575  0.02399057
   0.68097895  0.10598715  0.25948595
   0.68346025  0.14763216  0.38388901
   0.66002572  0.08151949  0.91561289
   0.66861557  0.12038932  0.05575967
   0.01059700  0.44659673  0.57435909
   0.01549977  0.48690514  0.69909098
   0.22011681  0.66595157  0.28381876
   0.17101244  0.67581840  0.39703881
   0.27602273  0.62719428  0.96457589
   0.22604190  0.64090551  0.09374927
   0.55045555  0.00290418  0.57631151
   0.50376775  0.00811104  0.69294567
   0.24657312  0.07682521  0.41849511
   0.20733732  0.12356108  0.27800215
   0.22327715  0.12285792  0.07661864
   0.18258324  0.16871473  0.95546445
   0.67573851  0.24381427  0.46169749
   0.67512741  0.20203873  0.31554437
   0.00829305  0.58293771  0.78383792
   0.00348754  0.54310880  0.63674815
   0.66708361  0.21410566  0.10972980
   0.66250515  0.17367907  0.98612458
   0.08098958  0.67001610  0.46877425
   0.12698264  0.66423320  0.32738208
   0.41034911  0.00886523  0.75512344
   0.45840678  0.99974518  0.61829791
   0.12951725  0.64530921  0.12637585
   0.18045922  0.63249755  0.01903893
   0.76208714  0.92174614  0.57835302
   0.80291993  0.87597755  0.71850598
   0.78661938  0.87513464  0.91818185
   0.82852994  0.83152412  0.04152081
   0.31844319  0.75922363  0.52092069
   0.31836781  0.79905708  0.67528034
   0.98575936  0.42492375  0.23216014
   0.99398066  0.46335894  0.37461802
   0.32710624  0.78449981  0.87972738
   0.33419422  0.82325325  0.00524204
   0.92633084  0.31909986  0.55184793
   0.87890227  0.32903471  0.69254167
   0.59911015  0.97985630  0.23968239
   0.55085528  0.98794128  0.37392920
   0.87303985  0.35887106  0.87593150
   0.81959828  0.37807210  0.97694127
   0.90135399  0.78895006  0.77577374
   0.85942109  0.83349580  0.65290088
   0.92411921  0.74542583  0.12117736
   0.88496541  0.78913359  0.97592790
   0.31693500  0.89253795  0.73760592
   0.31135715  0.85328403  0.61106123
   0.34114544  0.91315934  0.08169592
   0.33007253  0.87627106  0.93972573
   0.98726239  0.55939985  0.43584852
   0.98322711  0.51878341  0.31075383
   0.78348249  0.33044597  0.74762569
   0.83534579  0.31454424  0.63895048
   0.73252233  0.36999278  0.07023758
   0.77644884  0.36297850  0.92425031
   0.45840142  0.98513636  0.41545221
   0.50544218  0.97948141  0.29915930
   0.75108096  0.47452194  0.55919311
   0.14089494  0.16829084  0.50045690
   0.69136663  0.13720970  0.53994325
   0.02787424  0.47421315  0.85184743
   0.16658426  0.69282959  0.54666844
   0.50272965  0.01954787  0.84759446
   0.19425794  0.16907114  0.80180268
   0.65468291  0.18404191  0.83022679
   0.18402038  0.61595661  0.86953727
   0.81679645  0.83064673  0.19453185
   0.34283318  0.81191659  0.16035161
   0.81085823  0.40901305  0.09856429
   0.87095925  0.83452993  0.49990503
   0.30326351  0.86490263  0.45580980
   0.97094593  0.53141872  0.15795326
   0.84373008  0.28533535  0.51200326
   0.50636737  0.96822034  0.14436757
   0.70800137  0.33190685  0.41094127
   0.28880540  0.02144529  0.79415509
   0.65799288  0.33295309  0.15831027
   0.95915321  0.68720870  0.49410057
   0.35774131  0.95542655  0.45605068
   0.35436249  0.02254655  0.12928864
   0.71901976  0.97289047  0.19988534
   0.33989290  0.66830160  0.76782083
   0.69830650  0.28477831  0.82174431
   0.98043099  0.31419118  0.16474170
   0.30320756  0.71236640  0.19343873
   0.97815284  0.37961781  0.85024738
   0.65201374  0.96833667  0.86631180
   0.02786613  0.61919142  0.16040929
   0.64517063  0.04108122  0.53907902
   0.02343950  0.69467516  0.84773588
   0.29319508  0.63658129  0.58964873
   0.04391897  0.31521386  0.50658604
   0.83062360  0.35198784  0.31460165
Direct configuration=    10
   0.05906128  0.25505509  0.30285344
   0.03820197  0.30175320  0.95047274
   0.10455339  0.26104033  0.70872859
   0.69017847  0.05454217  0.33697027
   0.67018696  0.03045784  0.97629738
   0.64223565  0.09892205  0.74137221
   0.02172861  0.39391678  0.64773345
   0.26138501  0.67897996  0.35700436
   0.31372093  0.64507467  0.00186685
   0.27979794  0.60124627  0.80002284
   0.59175398  0.01296825  0.65870954
   0.29749205  0.03585525  0.35633707
   0.23024489  0.07730502  0.59444220
   0.27488830  0.08089794  0.99802000
   0.65196296  0.30057701  0.41850932
   0.69709381  0.22606996  0.63087228
   0.99126243  0.63704553  0.73885202
   0.02821423  0.56353991  0.95528392
   0.66509834  0.26294268  0.03243672
   0.04481234  0.65304822  0.41137259
   0.07881311  0.68917978  0.64318085
   0.36859305  0.00101069  0.68830681
   0.41075388  0.02422710  0.93179030
   0.08811536  0.63733782  0.03452438
   0.70979126  0.95988447  0.63883912
   0.77892528  0.92266833  0.40341149
   0.73337936  0.91407658  0.99550181
   0.35017146  0.70151899  0.53581276
   0.29063801  0.78105519  0.36156097
   0.98960742  0.37669273  0.29940915
   0.97457914  0.43948872  0.05306422
   0.32710618  0.73590488  0.95003943
   0.97296843  0.31587723  0.62190791
   0.91661337  0.31727061  0.36594569
   0.63996846  0.98892691  0.30734752
   0.59936851  0.96392066  0.06254203
   0.91292112  0.36979377  0.95878426
   0.95389161  0.74779680  0.69656647
   0.97858854  0.70716170  0.07498383
   0.90579801  0.74487485  0.29338490
   0.31068177  0.94292899  0.66015405
   0.33353034  0.96338884  0.02022339
   0.35774419  0.89606684  0.25657425
   0.97549716  0.61173080  0.35767914
   0.74511253  0.31294647  0.68499379
   0.68077480  0.38022358  0.01809553
   0.75063673  0.35934885  0.25314747
   0.41628417  0.97651999  0.33218574
   0.71559101  0.50253783  0.67729473
   0.78701464  0.44672423  0.43899065
   0.11136228  0.21402540  0.22490501
   0.15238961  0.16850903  0.34650363
   0.08883902  0.26061119  0.88448115
   0.12765828  0.21363721  0.02399451
   0.68098546  0.10597640  0.25948622
   0.68346804  0.14763175  0.38390407
   0.66002711  0.08153112  0.91562317
   0.66861703  0.12037842  0.05577772
   0.01059747  0.44659589  0.57436285
   0.01549974  0.48690504  0.69908510
   0.22008981  0.66594115  0.28378154
   0.17100744  0.67581960  0.39704287
   0.27599858  0.62717962  0.96456553
   0.22603030  0.64090476  0.09373578
   0.55044686  0.00289923  0.57631026
   0.50376178  0.00810751  0.69295063
   0.24656983  0.07682767  0.41849444
   0.20733637  0.12356111  0.27800992
   0.22327402  0.12286129  0.07662231
   0.18258506  0.16871427  0.95546269
   0.67571973  0.24386130  0.46164970
   0.67512634  0.20202449  0.31556336
   0.00828816  0.58294282  0.78381340
   0.00348730  0.54310853  0.63673957
   0.66708619  0.21407558  0.10976875
   0.66250942  0.17367755  0.98614226
   0.08098625  0.67001851  0.46879317
   0.12697087  0.66423515  0.32736512
   0.41035160  0.00886697  0.75512603
   0.45841012  0.99974380  0.61830942
   0.12951011  0.64530929  0.12635894
   0.18045355  0.63249578  0.01903899
   0.76207724  0.92174918  0.57841192
   0.80290764  0.87598364  0.71853010
   0.78659016  0.87514954  0.91820155
   0.82852051  0.83153392  0.04149469
   0.31845038  0.75919851  0.52089093
   0.31836168  0.79907652  0.67521964
   0.98575693  0.42492602  0.23215786
   0.99397956  0.46336430  0.37461755
   0.32710517  0.78453133  0.87959698
   0.33419419  0.82325355  0.00523805
   0.92632257  0.31910021  0.55187552
   0.87891493  0.32903637  0.69254941
   0.59911152  0.97985006  0.23965023
   0.55085689  0.98794045  0.37390414
   0.87304466  0.35886841  0.87590806
   0.81960475  0.37807527  0.97693986
   0.90135556  0.78894758  0.77578730
   0.85941404  0.83349961  0.65293600
   0.92411195  0.74543270  0.12115279
   0.88495737  0.78914141  0.97592742
   0.31693287  0.89255600  0.73760196
   0.31135449  0.85328127  0.61104105
   0.34114547  0.91316597  0.08169285
   0.33007098  0.87627665  0.93972451
   0.98726306  0.55940474  0.43585450
   0.98322779  0.51878563  0.31076108
   0.78353798  0.33045673  0.74769860
   0.83536104  0.31453792  0.63895576
   0.73252616  0.36998997  0.07025538
   0.77645812  0.36298646  0.92427583
   0.45840388  0.98513546  0.41546271
   0.50544377  0.97948402  0.29915424
   0.75110084  0.47450549  0.55912818
   0.14089597  0.16829100  0.50045604
   0.69136863  0.13720664  0.53994409
   0.02787450  0.47421220  0.85184916
   0.16658123  0.69282914  0.54666896
   0.50273271  0.01954635  0.84758021
   0.19425906  0.16907045  0.80180562
   0.65468055  0.18404178  0.83023407
   0.18401980  0.61595589  0.86954391
   0.81679604  0.83064405  0.19453516
   0.34283482  0.81191566  0.16037211
   0.81085782  0.40901421  0.09857269
   0.87095917  0.83452945  0.49989388
   0.30326174  0.86490703  0.45579867
   0.97094448  0.53141948  0.15795118
   0.84373224  0.28533600  0.51200784
   0.50636814  0.96821939  0.14437108
   0.70797653  0.33190967  0.41117928
   0.28881287  0.02143799  0.79416061
   0.65794958  0.33292536  0.15812915
   0.95915691  0.68720578  0.49410933
   0.35773732  0.95543012  0.45604902
   0.35435811  0.02254764  0.12927856
   0.71904441  0.97289451  0.19993136
   0.33994741  0.66828090  0.76804536
   0.69828313  0.28486086  0.82175630
   0.98043400  0.31418952  0.16473133
   0.30321407  0.71238734  0.19336108
   0.97815417  0.37961836  0.85024123
   0.65201930  0.96835688  0.86614861
   0.02786476  0.61919417  0.16041579
   0.64517769  0.04105653  0.53919051
   0.02344471  0.69467310  0.84770809
   0.29319896  0.63663123  0.58975463
   0.04392176  0.31521198  0.50658721
   0.83062142  0.35198825  0.31459848
Direct configuration=    11
   0.05905740  0.25504476  0.30281382
   0.03819987  0.30175754  0.95048601
   0.10455779  0.26103643  0.70871726
   0.69026368  0.05450853  0.33677187
   0.67012425  0.03052805  0.97632785
   0.64218788  0.09894886  0.74130696
   0.02172862  0.39391645  0.64769460
   0.26139740  0.67894417  0.35695683
   0.31375376  0.64515920  0.00144064
   0.27974652  0.60121264  0.80033369
   0.59181390  0.01297266  0.65882504
   0.29751111  0.03584860  0.35637820
   0.23024276  0.07729697  0.59443404
   0.27489540  0.08090542  0.99808133
   0.65192394  0.30057292  0.41900999
   0.69727737  0.22591408  0.63089466
   0.99126233  0.63705407  0.73883846
   0.02821768  0.56355324  0.95534991
   0.66511002  0.26299766  0.03291623
   0.04483244  0.65306238  0.41141018
   0.07881159  0.68917561  0.64311737
   0.36858734  0.00099283  0.68834433
   0.41074997  0.02423287  0.93179785
   0.08810366  0.63734690  0.03453728
   0.70979619  0.95990802  0.63882548
   0.77880495  0.92270573  0.40336117
   0.73341898  0.91406583  0.99549778
   0.35026700  0.70156416  0.53525522
   0.29060173  0.78102227  0.36168010
   0.98961962  0.37667739  0.29937557
   0.97457420  0.43950499  0.05306076
   0.32720115  0.73586078  0.95031558
   0.97297746  0.31588931  0.62191243
   0.91661831  0.31726840  0.36590871
   0.63993235  0.98896442  0.30730798
   0.59931462  0.96391505  0.06280020
   0.91292790  0.36978749  0.95880775
   0.95390943  0.74778101  0.69658771
   0.97859397  0.70716240  0.07488114
   0.90580954  0.74485987  0.29338347
   0.31068812  0.94293599  0.66016994
   0.33353043  0.96337022  0.02028404
   0.35774168  0.89606871  0.25657234
   0.97548718  0.61173997  0.35770907
   0.74497493  0.31301361  0.68477564
   0.68071685  0.38044625  0.01831970
   0.75073768  0.35935147  0.25296660
   0.41627499  0.97654491  0.33219714
   0.71558039  0.50255040  0.67729657
   0.78699944  0.44674178  0.43906225
   0.11134132  0.21403048  0.22492233
   0.15240332  0.16848858  0.34651258
   0.08884214  0.26060211  0.88448007
   0.12765633  0.21363358  0.02395466
   0.68098711  0.10595227  0.25957212
   0.68343486  0.14768883  0.38377417
   0.66001566  0.08145617  0.91569774
   0.66860199  0.12041431  0.05569187
   0.01059796  0.44660118  0.57436548
   0.01549759  0.48690548  0.69908035
   0.22009791  0.66594724  0.28373526
   0.17107866  0.67583012  0.39706452
   0.27597126  0.62724718  0.96459709
   0.22610840  0.64093067  0.09392240
   0.55048121  0.00292563  0.57637291
   0.50378550  0.00811462  0.69289345
   0.24657494  0.07682387  0.41850020
   0.20734649  0.12355189  0.27801902
   0.22326532  0.12286861  0.07661296
   0.18259596  0.16869982  0.95544766
   0.67572685  0.24387305  0.46155890
   0.67511849  0.20201651  0.31541267
   0.00830363  0.58291641  0.78385954
   0.00348808  0.54310182  0.63674462
   0.66707900  0.21413089  0.10987342
   0.66249733  0.17374179  0.98609604
   0.08097503  0.67000857  0.46878484
   0.12702676  0.66422055  0.32737390
   0.41035042  0.00885860  0.75509417
   0.45842260  0.99975658  0.61831336
   0.12951482  0.64529587  0.12632994
   0.18050207  0.63250607  0.01909214
   0.76200348  0.92181973  0.57807538
   0.80297271  0.87595155  0.71845323
   0.78656583  0.87521134  0.91835605
   0.82856292  0.83149072  0.04151065
   0.31836103  0.75936275  0.52060939
   0.31837982  0.79906907  0.67574472
   0.98576815  0.42491917  0.23217485
   0.99398263  0.46334368  0.37459942
   0.32709598  0.78450978  0.87989613
   0.33419869  0.82324888  0.00539016
   0.92629309  0.31910170  0.55194772
   0.87885352  0.32905051  0.69260649
   0.59905065  0.97985867  0.23971521
   0.55084345  0.98795176  0.37396666
   0.87299019  0.35887100  0.87592288
   0.81956860  0.37803836  0.97685085
   0.90138434  0.78893025  0.77574538
   0.85945742  0.83346873  0.65283522
   0.92416241  0.74539200  0.12121661
   0.88501221  0.78909515  0.97591056
   0.31694350  0.89256995  0.73761351
   0.31137202  0.85316721  0.61118663
   0.34114450  0.91317696  0.08171651
   0.33007787  0.87623144  0.93973367
   0.98725174  0.55943517  0.43580485
   0.98322566  0.51877426  0.31074188
   0.78344194  0.33045628  0.74757892
   0.83521697  0.31455055  0.63896363
   0.73256852  0.37005878  0.07029573
   0.77641315  0.36291713  0.92393094
   0.45840755  0.98514793  0.41546870
   0.50545667  0.97947348  0.29919541
   0.75112774  0.47448999  0.55903362
   0.14089200  0.16829016  0.50044525
   0.69135668  0.13721673  0.53990718
   0.02787594  0.47421284  0.85187039
   0.16659472  0.69282905  0.54664923
   0.50271609  0.01955581  0.84763223
   0.19425194  0.16907461  0.80180147
   0.65468579  0.18404242  0.83016542
   0.18402398  0.61596346  0.86954253
   0.81679394  0.83065483  0.19459425
   0.34283034  0.81192344  0.16033230
   0.81085116  0.40900226  0.09851563
   0.87097764  0.83452859  0.49979205
   0.30327406  0.86488016  0.45591255
   0.97094809  0.53141694  0.15792430
   0.84372282  0.28533851  0.51198481
   0.50636526  0.96822320  0.14435750
   0.70811245  0.33184766  0.41076168
   0.28878760  0.02145109  0.79409886
   0.65805482  0.33297295  0.15878814
   0.95913732  0.68722827  0.49403126
   0.35774528  0.95541068  0.45605537
   0.35437533  0.02254510  0.12928217
   0.71902775  0.97287536  0.19989496
   0.33969911  0.66836018  0.76723698
   0.69839212  0.28454101  0.82169793
   0.98042554  0.31419701  0.16480356
   0.30318822  0.71238870  0.19384389
   0.97814186  0.37961217  0.85023572
   0.65199118  0.96829958  0.86639598
   0.02788476  0.61918672  0.16035043
   0.64515876  0.04110486  0.53895614
   0.02344029  0.69466989  0.84787562
   0.29316619  0.63646259  0.58910007
   0.04390190  0.31521341  0.50663020
   0.83063371  0.35198685  0.31461906
Direct configuration=    12
   0.05905483  0.25503792  0.30278759
   0.03819848  0.30176041  0.95049479
   0.10456070  0.26103385  0.70870977
   0.69032009  0.05448627  0.33664054
   0.67008274  0.03057452  0.97634803
   0.64215626  0.09896661  0.74126376
   0.02172863  0.39391623  0.64766888
   0.26140559  0.67892048  0.35692536
   0.31377549  0.64521516  0.00115852
   0.27971248  0.60119037  0.80053945
   0.59185356  0.01297559  0.65890149
   0.29752372  0.03584420  0.35640543
   0.23024136  0.07729165  0.59442863
   0.27490009  0.08091037  0.99812194
   0.65189811  0.30057021  0.41934140
   0.69739887  0.22581089  0.63090947
   0.99126226  0.63705972  0.73882949
   0.02821996  0.56356206  0.95539359
   0.66511775  0.26303406  0.03323363
   0.04484575  0.65307176  0.41143506
   0.07881059  0.68917285  0.64307536
   0.36858357  0.00098102  0.68836916
   0.41074738  0.02423670  0.93180285
   0.08809592  0.63735292  0.03454582
   0.70979945  0.95992361  0.63881646
   0.77872529  0.92273049  0.40332786
   0.73344522  0.91405872  0.99549511
   0.35033024  0.70159406  0.53488617
   0.29057772  0.78100048  0.36175896
   0.98962769  0.37666724  0.29935334
   0.97457093  0.43951576  0.05305848
   0.32726401  0.73583159  0.95049837
   0.97298343  0.31589731  0.62191543
   0.91662158  0.31726693  0.36588424
   0.63990846  0.98898925  0.30728180
   0.59927894  0.96391134  0.06297109
   0.91293239  0.36978333  0.95882330
   0.95392122  0.74777055  0.69660177
   0.97859756  0.70716286  0.07481316
   0.90581717  0.74484995  0.29338252
   0.31069233  0.94294062  0.66018047
   0.33353050  0.96335789  0.02032419
   0.35774002  0.89606996  0.25657108
   0.97548057  0.61174603  0.35772887
   0.74488385  0.31305805  0.68463124
   0.68067848  0.38059364  0.01846808
   0.75080451  0.35935322  0.25284687
   0.41626891  0.97656141  0.33220468
   0.71557337  0.50255872  0.67729779
   0.78698938  0.44675339  0.43910964
   0.11132745  0.21403384  0.22493380
   0.15241239  0.16847504  0.34651850
   0.08884420  0.26059610  0.88447936
   0.12765504  0.21363117  0.02392828
   0.68098820  0.10593630  0.25962898
   0.68341289  0.14772661  0.38368818
   0.66000808  0.08140655  0.91574710
   0.66859203  0.12043807  0.05563504
   0.01059828  0.44660469  0.57436722
   0.01549617  0.48690578  0.69907720
   0.22010328  0.66595128  0.28370463
   0.17112581  0.67583708  0.39707885
   0.27595318  0.62729190  0.96461798
   0.22616010  0.64094781  0.09404594
   0.55050395  0.00294310  0.57641438
   0.50380120  0.00811933  0.69285560
   0.24657832  0.07682135  0.41850401
   0.20735320  0.12354579  0.27802504
   0.22325956  0.12287345  0.07660677
   0.18260317  0.16869025  0.95543771
   0.67573156  0.24388082  0.46149879
   0.67511330  0.20201122  0.31531292
   0.00831387  0.58289892  0.78389007
   0.00348860  0.54309737  0.63674796
   0.66707425  0.21416750  0.10994271
   0.66248933  0.17378432  0.98606544
   0.08096761  0.67000200  0.46877933
   0.12706375  0.66421089  0.32737972
   0.41034964  0.00885306  0.75507308
   0.45843086  0.99976504  0.61831596
   0.12951794  0.64528699  0.12631074
   0.18053419  0.63251288  0.01912732
   0.76195466  0.92186643  0.57785261
   0.80301578  0.87593031  0.71840234
   0.78654972  0.87525225  0.91845832
   0.82859099  0.83146213  0.04152122
   0.31830188  0.75947147  0.52042304
   0.31839182  0.79906414  0.67609229
   0.98577558  0.42491463  0.23218610
   0.99398467  0.46333003  0.37458743
   0.32708990  0.78449552  0.88009415
   0.33420167  0.82324578  0.00549085
   0.92627357  0.31910268  0.55199551
   0.87881287  0.32905987  0.69264427
   0.59901036  0.97986436  0.23975823
   0.55083456  0.98795924  0.37400804
   0.87295413  0.35887271  0.87593269
   0.81954467  0.37801393  0.97679193
   0.90140339  0.78891877  0.77571763
   0.85948614  0.83344829  0.65276850
   0.92419581  0.74536507  0.12125886
   0.88504851  0.78906452  0.97589939
   0.31695054  0.89257918  0.73762115
   0.31138362  0.85309171  0.61128300
   0.34114386  0.91318424  0.08173217
   0.33008243  0.87620152  0.93973973
   0.98724424  0.55945532  0.43577199
   0.98322425  0.51876674  0.31072917
   0.78337837  0.33045598  0.74749970
   0.83512160  0.31455892  0.63896884
   0.73259656  0.37010433  0.07032245
   0.77638339  0.36287124  0.92370265
   0.45840998  0.98515617  0.41547267
   0.50546521  0.97946651  0.29922266
   0.75114554  0.47447974  0.55897102
   0.14088937  0.16828961  0.50043810
   0.69134878  0.13722342  0.53988276
   0.02787690  0.47421326  0.85188444
   0.16660365  0.69282899  0.54663617
   0.50270509  0.01956207  0.84766667
   0.19424722  0.16907736  0.80179872
   0.65468925  0.18404285  0.83011997
   0.18402675  0.61596848  0.86954161
   0.81679255  0.83066197  0.19463337
   0.34282737  0.81192859  0.16030595
   0.81084676  0.40899435  0.09847786
   0.87098987  0.83452802  0.49972465
   0.30328221  0.86486238  0.45598794
   0.97095048  0.53141526  0.15790650
   0.84371658  0.28534017  0.51196957
   0.50636335  0.96822572  0.14434852
   0.70820241  0.33180662  0.41048526
   0.28877087  0.02145976  0.79405798
   0.65812448  0.33300444  0.15922434
   0.95912435  0.68724316  0.49397958
   0.35775055  0.95539782  0.45605957
   0.35438673  0.02254342  0.12928455
   0.71901673  0.97286268  0.19987088
   0.33953475  0.66841266  0.76670188
   0.69846427  0.28432930  0.82165930
   0.98041994  0.31420197  0.16485137
   0.30317111  0.71238960  0.19416348
   0.97813371  0.37960808  0.85023208
   0.65197257  0.96826165  0.86655971
   0.02789800  0.61918179  0.16030716
   0.64514623  0.04113685  0.53880100
   0.02343736  0.69466776  0.84798652
   0.29314450  0.63635096  0.58866679
   0.04388875  0.31521436  0.50665865
   0.83064184  0.35198592  0.31463269
Direct configuration=    13
   0.05905402  0.25502732  0.30275445
   0.03820414  0.30175719  0.95049516
   0.10456157  0.26103114  0.70871314
   0.69041030  0.05444606  0.33640908
   0.67003532  0.03055011  0.97644750
   0.64212394  0.09896770  0.74131631
   0.02172951  0.39391517  0.64764742
   0.26145322  0.67888663  0.35689882
   0.31378891  0.64531377  0.00077140
   0.27967493  0.60113636  0.80075130
   0.59189954  0.01296470  0.65903482
   0.29754077  0.03583940  0.35645487
   0.23023517  0.07728742  0.59441833
   0.27491274  0.08091133  0.99816267
   0.65189952  0.30051899  0.41991105
   0.69755781  0.22565861  0.63067438
   0.99126732  0.63704431  0.73882753
   0.02823042  0.56356389  0.95550907
   0.66514217  0.26312768  0.03357792
   0.04483999  0.65307098  0.41139330
   0.07880268  0.68917489  0.64306353
   0.36858627  0.00096305  0.68841341
   0.41074484  0.02423795  0.93175563
   0.08811011  0.63736388  0.03458882
   0.70977881  0.95997236  0.63882038
   0.77862050  0.92277682  0.40293964
   0.73347788  0.91404526  0.99550457
   0.35040528  0.70167329  0.53435055
   0.29045975  0.78105397  0.36158058
   0.98964051  0.37665272  0.29931636
   0.97456822  0.43952913  0.05308564
   0.32735733  0.73573488  0.95069900
   0.97295625  0.31591349  0.62192015
   0.91662378  0.31726422  0.36584930
   0.63986892  0.98903373  0.30726079
   0.59921387  0.96388394  0.06311647
   0.91290733  0.36976871  0.95880974
   0.95395123  0.74774550  0.69662576
   0.97861713  0.70713838  0.07483150
   0.90584392  0.74482074  0.29339209
   0.31070088  0.94291977  0.66022614
   0.33352646  0.96334718  0.02037123
   0.35773856  0.89607300  0.25657645
   0.97547710  0.61174901  0.35774886
   0.74471348  0.31311452  0.68437406
   0.68063423  0.38081846  0.01865081
   0.75093138  0.35934613  0.25267583
   0.41626118  0.97658291  0.33223230
   0.71560150  0.50254111  0.67716942
   0.78703167  0.44672664  0.43898930
   0.11131565  0.21403200  0.22492332
   0.15241510  0.16846419  0.34651392
   0.08884295  0.26059300  0.88446849
   0.12765333  0.21362242  0.02393151
   0.68099374  0.10594021  0.25951937
   0.68339493  0.14773489  0.38369059
   0.65995571  0.08148384  0.91562997
   0.66857737  0.12045538  0.05563084
   0.01059984  0.44659985  0.57436346
   0.01549538  0.48690296  0.69907899
   0.22007990  0.66594877  0.28363831
   0.17115337  0.67584460  0.39708644
   0.27592429  0.62734721  0.96459000
   0.22618164  0.64097101  0.09411312
   0.55053110  0.00296816  0.57649720
   0.50381915  0.00813306  0.69289869
   0.24658942  0.07681237  0.41849837
   0.20736076  0.12353696  0.27804759
   0.22325637  0.12287690  0.07662331
   0.18260384  0.16868502  0.95541378
   0.67575777  0.24391798  0.46158978
   0.67509632  0.20202148  0.31528914
   0.00831093  0.58291119  0.78385886
   0.00348667  0.54309931  0.63671595
   0.66706278  0.21416067  0.11006127
   0.66248259  0.17384729  0.98607492
   0.08099858  0.67000289  0.46880336
   0.12710888  0.66419676  0.32738062
   0.41035396  0.00885101  0.75508146
   0.45844963  0.99977845  0.61832170
   0.12955077  0.64527280  0.12626804
   0.18058286  0.63252474  0.01921885
   0.76188580  0.92189027  0.57793980
   0.80301036  0.87595978  0.71836283
   0.78656679  0.87528214  0.91851554
   0.82860370  0.83145455  0.04146966
   0.31831658  0.75948671  0.52050245
   0.31837901  0.79905722  0.67636296
   0.98578193  0.42490603  0.23214827
   0.99398759  0.46333091  0.37458440
   0.32709263  0.78451938  0.88036685
   0.33419968  0.82323423  0.00560259
   0.92623473  0.31910469  0.55213196
   0.87872198  0.32906473  0.69265232
   0.59895714  0.97987933  0.23991959
   0.55082428  0.98797929  0.37410927
   0.87292420  0.35886842  0.87592686
   0.81949004  0.37796962  0.97665330
   0.90145398  0.78888043  0.77571919
   0.85951832  0.83342618  0.65271903
   0.92421812  0.74535337  0.12120615
   0.88508741  0.78903309  0.97589303
   0.31696266  0.89257427  0.73759601
   0.31140039  0.85305358  0.61152054
   0.34114143  0.91317758  0.08173966
   0.33008793  0.87620175  0.93975739
   0.98723564  0.55947200  0.43575544
   0.98322279  0.51876860  0.31073395
   0.78332311  0.33046160  0.74738854
   0.83504620  0.31456487  0.63892891
   0.73259155  0.37020473  0.07025402
   0.77637011  0.36284435  0.92351362
   0.45841535  0.98517129  0.41551008
   0.50547619  0.97945891  0.29924805
   0.75107582  0.47454171  0.55919715
   0.14088703  0.16828649  0.50042983
   0.69132988  0.13724538  0.53975353
   0.02787806  0.47421322  0.85190184
   0.16662239  0.69283374  0.54664999
   0.50268915  0.01956900  0.84765768
   0.19424214  0.16908003  0.80178681
   0.65469071  0.18405097  0.83002267
   0.18403865  0.61598469  0.86960041
   0.81679851  0.83066472  0.19469649
   0.34283290  0.81193261  0.16042589
   0.81082921  0.40896520  0.09836150
   0.87102116  0.83452198  0.49954224
   0.30330004  0.86481138  0.45618506
   0.97095300  0.53141074  0.15786690
   0.84369772  0.28534210  0.51193612
   0.50636274  0.96823077  0.14436823
   0.70836379  0.33171968  0.41046281
   0.28875090  0.02146603  0.79400793
   0.65817696  0.33303334  0.15970625
   0.95910860  0.68726455  0.49392022
   0.35775530  0.95537712  0.45605900
   0.35440006  0.02254426  0.12926759
   0.71903212  0.97285206  0.19988898
   0.33929218  0.66850528  0.76590987
   0.69857642  0.28404777  0.82162601
   0.98041300  0.31420791  0.16492046
   0.30316917  0.71241092  0.19461452
   0.97812075  0.37960129  0.85020308
   0.65194912  0.96822338  0.86656936
   0.02792222  0.61917680  0.16024720
   0.64513718  0.04115813  0.53870450
   0.02345026  0.69465901  0.84807105
   0.29310383  0.63617964  0.58813479
   0.04386784  0.31521235  0.50671471
   0.83066006  0.35198373  0.31465482
Direct configuration=    14
   0.05905354  0.25502102  0.30273475
   0.03820751  0.30175527  0.95049537
   0.10456208  0.26102953  0.70871514
   0.69046392  0.05442216  0.33627152
   0.67000713  0.03053560  0.97650663
   0.64210473  0.09896836  0.74134755
   0.02173004  0.39391455  0.64763466
   0.26148152  0.67886651  0.35688305
   0.31379689  0.64537237  0.00054131
   0.27965262  0.60110426  0.80087722
   0.59192687  0.01295823  0.65911407
   0.29755091  0.03583654  0.35648425
   0.23023149  0.07728491  0.59441221
   0.27492025  0.08091190  0.99818687
   0.65190035  0.30048855  0.42024963
   0.69765228  0.22556811  0.63053466
   0.99127032  0.63703515  0.73882637
   0.02823663  0.56356498  0.95557771
   0.66515668  0.26318332  0.03378255
   0.04483657  0.65307051  0.41136847
   0.07879798  0.68917610  0.64305651
   0.36858788  0.00095237  0.68843971
   0.41074333  0.02423869  0.93172757
   0.08811854  0.63737039  0.03461438
   0.70976655  0.96000133  0.63882271
   0.77855822  0.92280435  0.40270890
   0.73349729  0.91403726  0.99551019
   0.35044988  0.70172039  0.53403221
   0.29038964  0.78108576  0.36147456
   0.98964812  0.37664409  0.29929439
   0.97456661  0.43953708  0.05310178
   0.32741279  0.73567740  0.95081825
   0.97294010  0.31592310  0.62192296
   0.91662509  0.31726261  0.36582853
   0.63984541  0.98906016  0.30724830
   0.59917519  0.96386765  0.06320288
   0.91289243  0.36976002  0.95880169
   0.95396907  0.74773061  0.69664002
   0.97862877  0.70712383  0.07484240
   0.90585981  0.74480339  0.29339778
   0.31070597  0.94290737  0.66025328
   0.33352405  0.96334081  0.02039918
   0.35773769  0.89607481  0.25657964
   0.97547503  0.61175077  0.35776073
   0.74461223  0.31314808  0.68422120
   0.68060792  0.38095209  0.01875941
   0.75100678  0.35934192  0.25257417
   0.41625658  0.97659568  0.33224872
   0.71561822  0.50253064  0.67709312
   0.78705681  0.44671074  0.43891778
   0.11130864  0.21403092  0.22491709
   0.15241671  0.16845775  0.34651120
   0.08884220  0.26059116  0.88446204
   0.12765232  0.21361723  0.02393343
   0.68099703  0.10594253  0.25945422
   0.68338425  0.14773982  0.38369201
   0.65992458  0.08152977  0.91556036
   0.66856865  0.12046567  0.05562835
   0.01060078  0.44659698  0.57436122
   0.01549491  0.48690129  0.69908005
   0.22006600  0.66594728  0.28359890
   0.17116975  0.67584907  0.39709095
   0.27590712  0.62738008  0.96457336
   0.22619445  0.64098479  0.09415305
   0.55054724  0.00298305  0.57654642
   0.50382981  0.00814122  0.69292430
   0.24659601  0.07680703  0.41849502
   0.20736525  0.12353170  0.27806098
   0.22325447  0.12287895  0.07663315
   0.18260424  0.16868192  0.95539956
   0.67577335  0.24394006  0.46164386
   0.67508623  0.20202758  0.31527500
   0.00830919  0.58291848  0.78384031
   0.00348552  0.54310047  0.63669692
   0.66705597  0.21415661  0.11013174
   0.66247858  0.17388471  0.98608055
   0.08101698  0.67000342  0.46881764
   0.12713570  0.66418836  0.32738116
   0.41035653  0.00884979  0.75508643
   0.45846078  0.99978642  0.61832511
   0.12957028  0.64526436  0.12624266
   0.18061179  0.63253178  0.01927325
   0.76184488  0.92190444  0.57799162
   0.80300714  0.87597729  0.71833935
   0.78657693  0.87529990  0.91854955
   0.82861126  0.83145005  0.04143902
   0.31832532  0.75949578  0.52054964
   0.31837140  0.79905311  0.67652383
   0.98578570  0.42490092  0.23212578
   0.99398933  0.46333144  0.37458261
   0.32709425  0.78453357  0.88052894
   0.33419850  0.82322737  0.00566900
   0.92621165  0.31910589  0.55221306
   0.87866796  0.32906761  0.69265710
   0.59892551  0.97988823  0.24001550
   0.55081817  0.98799121  0.37416945
   0.87290640  0.35886588  0.87592340
   0.81945757  0.37794328  0.97657091
   0.90148404  0.78885764  0.77572011
   0.85953745  0.83341304  0.65268963
   0.92423138  0.74534643  0.12117483
   0.88511053  0.78901441  0.97588925
   0.31696987  0.89257135  0.73758107
   0.31141036  0.85303092  0.61166172
   0.34113999  0.91317362  0.08174411
   0.33009120  0.87620188  0.93976788
   0.98723053  0.55948192  0.43574560
   0.98322192  0.51876970  0.31073679
   0.78329027  0.33046495  0.74732248
   0.83500139  0.31456841  0.63890518
   0.73258856  0.37026441  0.07021335
   0.77636222  0.36282837  0.92340127
   0.45841854  0.98518028  0.41553232
   0.50548272  0.97945439  0.29926314
   0.75103438  0.47457854  0.55933154
   0.14088564  0.16828464  0.50042492
   0.69131865  0.13725843  0.53967673
   0.02787875  0.47421319  0.85191218
   0.16663352  0.69283656  0.54665820
   0.50267967  0.01957311  0.84765233
   0.19423912  0.16908162  0.80177973
   0.65469157  0.18405579  0.82996483
   0.18404572  0.61599433  0.86963535
   0.81680205  0.83066635  0.19473401
   0.34283619  0.81193500  0.16049717
   0.81081878  0.40894788  0.09829234
   0.87103976  0.83451839  0.49943382
   0.30331064  0.86478107  0.45630222
   0.97095449  0.53140805  0.15784336
   0.84368652  0.28534325  0.51191623
   0.50636237  0.96823376  0.14437994
   0.70845970  0.33166800  0.41044947
   0.28873903  0.02146976  0.79397818
   0.65820814  0.33305052  0.15999267
   0.95909924  0.68727726  0.49388494
   0.35775813  0.95536483  0.45605866
   0.35440798  0.02254476  0.12925751
   0.71904126  0.97284576  0.19989974
   0.33914801  0.66856033  0.76543914
   0.69864307  0.28388044  0.82160622
   0.98040888  0.31421144  0.16496152
   0.30316802  0.71242359  0.19488259
   0.97811304  0.37959725  0.85018585
   0.65193519  0.96820064  0.86657509
   0.02793661  0.61917383  0.16021157
   0.64513180  0.04117078  0.53864715
   0.02345793  0.69465381  0.84812129
   0.29307966  0.63607782  0.58781859
   0.04385540  0.31521116  0.50674803
   0.83067089  0.35198244  0.31466798
Direct configuration=    15
   0.05905151  0.25501528  0.30272041
   0.03821157  0.30175232  0.95049389
   0.10456158  0.26102793  0.70871631
   0.69052558  0.05439543  0.33611824
   0.66996922  0.03052996  0.97654795
   0.64207987  0.09897106  0.74135677
   0.02173081  0.39391168  0.64763018
   0.26151995  0.67884093  0.35685265
   0.31377899  0.64544334  0.00026604
   0.27963427  0.60106608  0.80097440
   0.59195209  0.01294630  0.65920387
   0.29756246  0.03583391  0.35652075
   0.23022636  0.07728258  0.59440168
   0.27492932  0.08091108  0.99820674
   0.65190214  0.30047257  0.42064698
   0.69776574  0.22545411  0.63033052
   0.99127311  0.63702552  0.73882017
   0.02824092  0.56356749  0.95562117
   0.66518052  0.26324060  0.03399233
   0.04483609  0.65306954  0.41132632
   0.07879313  0.68918056  0.64307799
   0.36859641  0.00093884  0.68847150
   0.41074295  0.02423986  0.93169781
   0.08814086  0.63737788  0.03464874
   0.70973799  0.96004626  0.63885258
   0.77848151  0.92283231  0.40248782
   0.73351045  0.91403222  0.99552486
   0.35050601  0.70176738  0.53369661
   0.29029879  0.78114532  0.36141178
   0.98965767  0.37663587  0.29926557
   0.97456431  0.43954459  0.05311138
   0.32747736  0.73560830  0.95091273
   0.97290139  0.31593702  0.62194038
   0.91662472  0.31726076  0.36585105
   0.63981190  0.98909427  0.30723546
   0.59912970  0.96384232  0.06328934
   0.91286056  0.36974697  0.95877615
   0.95399871  0.74770671  0.69665377
   0.97864826  0.70709862  0.07489020
   0.90588354  0.74478069  0.29338279
   0.31071240  0.94288764  0.66027824
   0.33351824  0.96334184  0.02041845
   0.35773806  0.89607504  0.25659724
   0.97547376  0.61175442  0.35776392
   0.74449674  0.31318831  0.68406872
   0.68057451  0.38110934  0.01890255
   0.75109964  0.35933323  0.25244528
   0.41625373  0.97661042  0.33227980
   0.71556883  0.50257340  0.67723185
   0.78702583  0.44673987  0.43903675
   0.11130867  0.21402234  0.22490180
   0.15241298  0.16845508  0.34650214
   0.08884099  0.26058939  0.88445875
   0.12765076  0.21361010  0.02394167
   0.68100432  0.10595062  0.25932593
   0.68337324  0.14773665  0.38369040
   0.65989008  0.08158093  0.91553759
   0.66855556  0.12048573  0.05561639
   0.01060195  0.44659249  0.57435612
   0.01549460  0.48689979  0.69908178
   0.22005807  0.66594917  0.28358400
   0.17116701  0.67585355  0.39710220
   0.27590658  0.62741252  0.96451969
   0.22619034  0.64099993  0.09413988
   0.55055771  0.00299911  0.57661768
   0.50384038  0.00815288  0.69297148
   0.24660511  0.07679919  0.41849318
   0.20736803  0.12352754  0.27807452
   0.22325757  0.12287749  0.07664791
   0.18260035  0.16868132  0.95539147
   0.67580667  0.24393441  0.46173386
   0.67507313  0.20203882  0.31534714
   0.00830865  0.58292503  0.78384352
   0.00348439  0.54310393  0.63667849
   0.66704593  0.21416038  0.11019233
   0.66247358  0.17391204  0.98608026
   0.08104147  0.67000118  0.46881160
   0.12715692  0.66417888  0.32738339
   0.41036085  0.00884877  0.75508209
   0.45847261  0.99979662  0.61833692
   0.12960460  0.64525737  0.12623906
   0.18063569  0.63253688  0.01931304
   0.76181974  0.92190383  0.57802951
   0.80299152  0.87600880  0.71831666
   0.78660823  0.87530444  0.91852833
   0.82861674  0.83145148  0.04141362
   0.31833715  0.75949000  0.52057475
   0.31835097  0.79904765  0.67661064
   0.98578958  0.42489550  0.23210344
   0.99399143  0.46333745  0.37458384
   0.32710167  0.78453068  0.88070281
   0.33419656  0.82323232  0.00576440
   0.92618072  0.31910622  0.55227344
   0.87861054  0.32906720  0.69264274
   0.59890141  0.97989843  0.24011372
   0.55080981  0.98800884  0.37426604
   0.87288663  0.35885782  0.87590507
   0.81943144  0.37791874  0.97647902
   0.90151584  0.78883418  0.77572182
   0.85955000  0.83340822  0.65265521
   0.92423772  0.74534349  0.12113509
   0.88512332  0.78900560  0.97588371
   0.31698152  0.89255730  0.73761053
   0.31141833  0.85303346  0.61181279
   0.34113806  0.91316255  0.08174496
   0.33009426  0.87621227  0.93978649
   0.98722649  0.55948432  0.43574866
   0.98322012  0.51877662  0.31073604
   0.78324525  0.33046444  0.74721741
   0.83497364  0.31456631  0.63884504
   0.73256645  0.37034168  0.07015448
   0.77635458  0.36282704  0.92331803
   0.45842202  0.98519036  0.41555767
   0.50548692  0.97945291  0.29929198
   0.75111588  0.47451967  0.55905389
   0.14088451  0.16828144  0.50042061
   0.69130499  0.13727485  0.53958873
   0.02787912  0.47421344  0.85191937
   0.16664960  0.69284173  0.54667820
   0.50266902  0.01957870  0.84764631
   0.19423663  0.16908278  0.80176558
   0.65469237  0.18406560  0.82990709
   0.18405873  0.61601013  0.86970713
   0.81681142  0.83066539  0.19475009
   0.34284340  0.81193709  0.16063643
   0.81080033  0.40891709  0.09817819
   0.87106417  0.83451123  0.49931334
   0.30332559  0.86473477  0.45647807
   0.97095668  0.53140346  0.15782056
   0.84366851  0.28534364  0.51188222
   0.50636372  0.96823754  0.14440636
   0.70858528  0.33160084  0.41055149
   0.28872773  0.02147170  0.79395568
   0.65822917  0.33307265  0.16026271
   0.95909278  0.68728910  0.49385435
   0.35776082  0.95534977  0.45605572
   0.35441510  0.02254622  0.12923999
   0.71905830  0.97284351  0.19991628
   0.33898099  0.66863429  0.76487159
   0.69872451  0.28369803  0.82160152
   0.98040455  0.31421396  0.16500745
   0.30317786  0.71244349  0.19516229
   0.97810375  0.37959206  0.85015843
   0.65191965  0.96818124  0.86652647
   0.02795512  0.61916926  0.16017952
   0.64513066  0.04117653  0.53860855
   0.02347342  0.69464553  0.84814353
   0.29304621  0.63594756  0.58753253
   0.04384044  0.31520859  0.50678775
   0.83068589  0.35198250  0.31468490
Direct configuration=    16
   0.05905035  0.25501199  0.30271219
   0.03821390  0.30175063  0.95049304
   0.10456130  0.26102701  0.70871698
   0.69056093  0.05438010  0.33603034
   0.66994748  0.03052673  0.97657165
   0.64206561  0.09897261  0.74136206
   0.02173125  0.39391004  0.64762761
   0.26154199  0.67882626  0.35683523
   0.31376872  0.64548403  0.00010818
   0.27962374  0.60104419  0.80103013
   0.59196655  0.01293946  0.65925537
   0.29756908  0.03583240  0.35654167
   0.23022342  0.07728124  0.59439563
   0.27493452  0.08091061  0.99821813
   0.65190316  0.30046340  0.42087484
   0.69783080  0.22538873  0.63021345
   0.99127471  0.63701999  0.73881661
   0.02824338  0.56356892  0.95564609
   0.66519419  0.26327345  0.03411263
   0.04483582  0.65306898  0.41130216
   0.07879035  0.68918311  0.64309031
   0.36860131  0.00093109  0.68848973
   0.41074273  0.02424053  0.93168074
   0.08815366  0.63738218  0.03466844
   0.70972161  0.96007202  0.63886971
   0.77843753  0.92284835  0.40236103
   0.73351800  0.91402933  0.99553327
   0.35053820  0.70179432  0.53350416
   0.29024670  0.78117947  0.36137577
   0.98966315  0.37663116  0.29924905
   0.97456299  0.43954890  0.05311689
   0.32751438  0.73556868  0.95096692
   0.97287919  0.31594500  0.62195038
   0.91662451  0.31725971  0.36586397
   0.63979269  0.98911383  0.30722809
   0.59910361  0.96382780  0.06333892
   0.91284228  0.36973949  0.95876151
   0.95401571  0.74769301  0.69666166
   0.97865944  0.70708416  0.07491761
   0.90589715  0.74476768  0.29337420
   0.31071610  0.94287633  0.66029256
   0.33351491  0.96334244  0.02042950
   0.35773828  0.89607517  0.25660734
   0.97547302  0.61175650  0.35776575
   0.74443052  0.31321137  0.68398128
   0.68055536  0.38119951  0.01898463
   0.75115288  0.35932824  0.25237137
   0.41625210  0.97661887  0.33229763
   0.71554050  0.50259792  0.67731140
   0.78700807  0.44675658  0.43910497
   0.11130869  0.21401743  0.22489303
   0.15241084  0.16845355  0.34649694
   0.08884030  0.26058837  0.88445686
   0.12764987  0.21360602  0.02394639
   0.68100850  0.10595526  0.25925237
   0.68336693  0.14773484  0.38368948
   0.65987030  0.08161027  0.91552453
   0.66854805  0.12049724  0.05560953
   0.01060262  0.44658991  0.57435319
   0.01549443  0.48689893  0.69908277
   0.22005353  0.66595025  0.28357545
   0.17116544  0.67585612  0.39710864
   0.27590627  0.62743112  0.96448891
   0.22618798  0.64100861  0.09413233
   0.55056371  0.00300832  0.57665854
   0.50384643  0.00815957  0.69299853
   0.24661033  0.07679470  0.41849213
   0.20736961  0.12352515  0.27808228
   0.22325934  0.12287665  0.07665638
   0.18259812  0.16868099  0.95538683
   0.67582578  0.24393117  0.46178547
   0.67506562  0.20204527  0.31538850
   0.00830834  0.58292879  0.78384536
   0.00348373  0.54310592  0.63666793
   0.66704018  0.21416254  0.11022708
   0.66247072  0.17392771  0.98608009
   0.08105551  0.66999990  0.46880814
   0.12716909  0.66417344  0.32738468
   0.41036332  0.00884818  0.75507960
   0.45847940  0.99980247  0.61834369
   0.12962429  0.64525337  0.12623699
   0.18064940  0.63253980  0.01933586
   0.76180532  0.92190347  0.57805123
   0.80298257  0.87602688  0.71830365
   0.78662618  0.87530704  0.91851616
   0.82861988  0.83145229  0.04139905
   0.31834393  0.75948669  0.52058915
   0.31833925  0.79904452  0.67666043
   0.98579181  0.42489240  0.23209063
   0.99399263  0.46334090  0.37458454
   0.32710592  0.78452902  0.88080251
   0.33419545  0.82323516  0.00581912
   0.92616298  0.31910641  0.55230807
   0.87857761  0.32906697  0.69263450
   0.59888759  0.97990427  0.24017005
   0.55080502  0.98801895  0.37432143
   0.87287529  0.35885320  0.87589456
   0.81941646  0.37790466  0.97642632
   0.90153407  0.78882073  0.77572281
   0.85955719  0.83340546  0.65263548
   0.92424135  0.74534181  0.12111231
   0.88513065  0.78900055  0.97588052
   0.31698821  0.89254924  0.73762742
   0.31142291  0.85303492  0.61189941
   0.34113696  0.91315620  0.08174544
   0.33009602  0.87621823  0.93979717
   0.98722418  0.55948570  0.43575042
   0.98321908  0.51878059  0.31073561
   0.78321944  0.33046416  0.74715717
   0.83495773  0.31456511  0.63881055
   0.73255377  0.37038598  0.07012072
   0.77635019  0.36282628  0.92327029
   0.45842402  0.98519614  0.41557220
   0.50548933  0.97945206  0.29930852
   0.75116262  0.47448591  0.55889467
   0.14088386  0.16827960  0.50041814
   0.69129715  0.13728426  0.53953827
   0.02787934  0.47421358  0.85192350
   0.16665881  0.69284470  0.54668967
   0.50266292  0.01958190  0.84764286
   0.19423520  0.16908345  0.80175746
   0.65469283  0.18407122  0.82987398
   0.18406619  0.61601919  0.86974828
   0.81681680  0.83066484  0.19475932
   0.34284753  0.81193830  0.16071628
   0.81078974  0.40889943  0.09811273
   0.87107818  0.83450712  0.49924424
   0.30333417  0.86470823  0.45657891
   0.97095793  0.53140083  0.15780749
   0.84365818  0.28534387  0.51186271
   0.50636449  0.96823970  0.14442151
   0.70865729  0.33156232  0.41060999
   0.28872124  0.02147281  0.79394278
   0.65824123  0.33308534  0.16041756
   0.95908908  0.68729589  0.49383681
   0.35776236  0.95534114  0.45605403
   0.35441918  0.02254706  0.12922994
   0.71906807  0.97284222  0.19992576
   0.33888521  0.66867669  0.76454613
   0.69877121  0.28359342  0.82159882
   0.98040206  0.31421540  0.16503378
   0.30318351  0.71245489  0.19532268
   0.97809841  0.37958909  0.85014270
   0.65191074  0.96817012  0.86649858
   0.02796573  0.61916663  0.16016114
   0.64513000  0.04117983  0.53858642
   0.02348230  0.69464078  0.84815629
   0.29302703  0.63587287  0.58736849
   0.04383185  0.31520712  0.50681053
   0.83069450  0.35198253  0.31469461
Direct configuration=    17
   0.05904737  0.25500921  0.30271193
   0.03821448  0.30174952  0.95049249
   0.10455979  0.26102591  0.70871465
   0.69060277  0.05436629  0.33592948
   0.66990920  0.03055927  0.97655111
   0.64204229  0.09898213  0.74132227
   0.02173174  0.39390523  0.64763535
   0.26157203  0.67880239  0.35679685
   0.31372172  0.64554020 -0.00010934
   0.27962092  0.60101696  0.80104590
   0.59197727  0.01292753  0.65931376
   0.29757814  0.03583076  0.35656939
   0.23021934  0.07727940  0.59438474
   0.27494024  0.08090934  0.99822367
   0.65190240  0.30048340  0.42115848
   0.69792943  0.22528693  0.63009056
   0.99127466  0.63701983  0.73880334
   0.02824212  0.56357336  0.95562421
   0.66522037  0.26329237  0.03424516
   0.04484741  0.65307103  0.41126991
   0.07879015  0.68918771  0.64312163
   0.36861484  0.00091916  0.68851013
   0.41074435  0.02424293  0.93167530
   0.08818399  0.63738705  0.03469469
   0.70969625  0.96010763  0.63891843
   0.77837529  0.92285799  0.40233932
   0.73352088  0.91402844  0.99554425
   0.35059188  0.70180461  0.53330402
   0.29018332  0.78123789  0.36148261
   0.98967087  0.37662760  0.29922528
   0.97456012  0.43955193  0.05310410
   0.32756179  0.73552502  0.95098241
   0.97283164  0.31595819  0.62199051
   0.91661968  0.31725876  0.36592787
   0.63976359  0.98914308  0.30721746
   0.59907410  0.96380457  0.06341000
   0.91280738  0.36972742  0.95872921
   0.95404500  0.74767039  0.69666961
   0.97867649  0.70706155  0.07497484
   0.90591689  0.74475168  0.29333427
   0.31072159  0.94285999  0.66029723
   0.33350737  0.96335027  0.02043172
   0.35773969  0.89607265  0.25663157
   0.97547327  0.61176070  0.35775634
   0.74435887  0.31324380  0.68392519
   0.68051831  0.38131662  0.01912318
   0.75122070  0.35931862  0.25226260
   0.41625277  0.97663004  0.33233478
   0.71554734  0.50259583  0.67726855
   0.78701695  0.44675425  0.43908865
   0.11131516  0.21400493  0.22487964
   0.15240438  0.16845434  0.34648817
   0.08884013  0.26058604  0.88446212
   0.12764795  0.21360069  0.02394819
   0.68101975  0.10595962  0.25913894
   0.68335779  0.14773210  0.38365100
   0.65985326  0.08161400  0.91560718
   0.66853405  0.12052391  0.05556684
   0.01060341  0.44658776  0.57434905
   0.01549415  0.48689956  0.69908137
   0.22006113  0.66595678  0.28359934
   0.17114778  0.67585984  0.39713155
   0.27592447  0.62744661  0.96441143
   0.22617456  0.64102098  0.09407277
   0.55056034  0.00301803  0.57672776
   0.50384991  0.00816967  0.69303564
   0.24661647  0.07678890  0.41849592
   0.20736904  0.12352441  0.27808590
   0.22326677  0.12287212  0.07666557
   0.18259350  0.16868102  0.95539273
   0.67586243  0.24388748  0.46182786
   0.67505439  0.20205337  0.31551285
   0.00831225  0.58292421  0.78388482
   0.00348428  0.54310792  0.63667270
   0.66703120  0.21418828  0.11025461
   0.66246470  0.17393248  0.98605690
   0.08106566  0.66999323  0.46877982
   0.12717119  0.66416706  0.32739098
   0.41036850  0.00884713  0.75505730
   0.45848521  0.99981131  0.61836376
   0.12965568  0.64525260  0.12627482
   0.18065351  0.63253944  0.01932675
   0.76180366  0.92189905  0.57797683
   0.80297489  0.87604858  0.71827469
   0.78665712  0.87530139  0.91845089
   0.82862663  0.83145567  0.04140189
   0.31832946  0.75949689  0.52048790
   0.31831472  0.79904400  0.67664999
   0.98579485  0.42489139  0.23209030
   0.99399418  0.46334758  0.37458459
   0.32711669  0.78449508  0.88088964
   0.33419478  0.82325380  0.00592538
   0.92613443  0.31910516  0.55230380
   0.87855390  0.32906338  0.69260432
   0.59888280  0.97990884  0.24019222
   0.55079619  0.98803494  0.37441411
   0.87285630  0.35884001  0.87585643
   0.81941753  0.37789528  0.97636638
   0.90154591  0.78881499  0.77570710
   0.85955608  0.83341444  0.65260028
   0.92424319  0.74533766  0.12109761
   0.88512508  0.78900828  0.97587022
   0.31700065  0.89253408  0.73772241
   0.31142417  0.85304998  0.61198284
   0.34113589  0.91314849  0.08174967
   0.33009792  0.87622740  0.93983131
   0.98722294  0.55948102  0.43576420
   0.98321676  0.51878950  0.31072518
   0.78317507  0.33045990  0.74705131
   0.83494908  0.31455629  0.63873501
   0.73252588  0.37044699  0.07009222
   0.77633770  0.36283923  0.92322150
   0.45842563  0.98520276  0.41558890
   0.50548927  0.97945692  0.29935212
   0.75114764  0.47450217  0.55893735
   0.14088328  0.16827627  0.50041545
   0.69128805  0.13729393  0.53950038
   0.02787905  0.47421424  0.85192254
   0.16667353  0.69285004  0.54671113
   0.50265562  0.01958837  0.84765919
   0.19423412  0.16908361  0.80174349
   0.65469385  0.18408313  0.82985443
   0.18408145  0.61603452  0.86982237
   0.81682937  0.83066172  0.19473086
   0.34285565  0.81194099  0.16086452
   0.81076809  0.40886679  0.09799897
   0.87109714  0.83449838  0.49918703
   0.30334695  0.86466528  0.45673502
   0.97096026  0.53139606  0.15779909
   0.84364018  0.28534158  0.51181643
   0.50636806  0.96824272  0.14445538
   0.70876456  0.33150768  0.41077845
   0.28871654  0.02147089  0.79394148
   0.65824397  0.33310881  0.16055557
   0.95909137  0.68729918  0.49382669
   0.35776410  0.95532920  0.45605068
   0.35442236  0.02254854  0.12921194
   0.71908270  0.97284806  0.19992923
   0.33876381  0.66874211  0.76410227
   0.69883549  0.28347351  0.82162065
   0.98039980  0.31421467  0.16506359
   0.30320345  0.71247463  0.19547769
   0.97809038  0.37958446  0.85011821
   0.65189927  0.96816293  0.86642612
   0.02798148  0.61916116  0.16015226
   0.64513576  0.04117580  0.53857505
   0.02350079  0.69463147  0.84813965
   0.29299551  0.63576231  0.58725475
   0.04381999  0.31520371  0.50683897
   0.83070947  0.35198249  0.31470382
Direct configuration=    18
   0.05904169  0.25500393  0.30271143
   0.03821560  0.30174739  0.95049144
   0.10455692  0.26102381  0.70871022
   0.69068232  0.05434005  0.33573770
   0.66983642  0.03062116  0.97651204
   0.64199795  0.09900023  0.74124661
   0.02173266  0.39389607  0.64765006
   0.26162916  0.67875700  0.35672389
   0.31363234  0.64564700 -0.00052293
   0.27961554  0.60096518  0.80107587
   0.59199765  0.01290485  0.65942478
   0.29759539  0.03582763  0.35662207
   0.23021157  0.07727590  0.59436402
   0.27495113  0.08090694  0.99823420
   0.65190096  0.30052143  0.42169779
   0.69811695  0.22509335  0.62985689
   0.99127457  0.63701951  0.73877811
   0.02823971  0.56358180  0.95558261
   0.66527016  0.26332834  0.03449714
   0.04486946  0.65307492  0.41120860
   0.07878976  0.68919646  0.64318117
   0.36864056  0.00089649  0.68854892
   0.41074745  0.02424749  0.93166494
   0.08824165  0.63739631  0.03474461
   0.70964803  0.96017536  0.63901108
   0.77825695  0.92287631  0.40229802
   0.73352635  0.91402673  0.99556511
   0.35069397  0.70182416  0.53292349
   0.29006281  0.78134899  0.36168574
   0.98968557  0.37662084  0.29918008
   0.97455468  0.43955770  0.05307978
   0.32765192  0.73544200  0.95101187
   0.97274123  0.31598326  0.62206683
   0.91661049  0.31725697  0.36604937
   0.63970826  0.98919870  0.30719725
   0.59901800  0.96376039  0.06354516
   0.91274101  0.36970448  0.95866781
   0.95410069  0.74762738  0.69668474
   0.97870889  0.70701857  0.07508365
   0.90595442  0.74472127  0.29325836
   0.31073203  0.94282891  0.66030611
   0.33349304  0.96336516  0.02043596
   0.35774236  0.89606785  0.25667763
   0.97547374  0.61176869  0.35773845
   0.74422264  0.31330546  0.68381856
   0.68044787  0.38153930  0.01938662
   0.75134963  0.35930032  0.25205579
   0.41625406  0.97665128  0.33240542
   0.71556034  0.50259186  0.67718706
   0.78703383  0.44674982  0.43905761
   0.11132744  0.21398116  0.22485416
   0.15239208  0.16845584  0.34647148
   0.08883982  0.26058160  0.88447210
   0.12764432  0.21359057  0.02395162
   0.68104113  0.10596790  0.25892329
   0.68334040  0.14772690  0.38357784
   0.65982086  0.08162110  0.91576434
   0.66850744  0.12057462  0.05548567
   0.01060490  0.44658366  0.57434117
   0.01549362  0.48690078  0.69907870
   0.22007557  0.66596919  0.28364476
   0.17111419  0.67586691  0.39717509
   0.27595909  0.62747604  0.96426410
   0.22614905  0.64104451  0.09395952
   0.55055393  0.00303649  0.57685938
   0.50385653  0.00818888  0.69310621
   0.24662814  0.07677787  0.41850314
   0.20736795  0.12352302  0.27809278
   0.22328090  0.12286351  0.07668304
   0.18258473  0.16868107  0.95540394
   0.67593212  0.24380443  0.46190845
   0.67503302  0.20206877  0.31574928
   0.00831969  0.58291549  0.78395985
   0.00348531  0.54311173  0.63668178
   0.66701414  0.21423722  0.11030694
   0.66245324  0.17394155  0.98601282
   0.08108495  0.66998053  0.46872597
   0.12717519  0.66415492  0.32740296
   0.41037834  0.00884514  0.75501488
   0.45849625  0.99982812  0.61840191
   0.12971537  0.64525115  0.12634674
   0.18066134  0.63253875  0.01930942
   0.76180050  0.92189062  0.57783536
   0.80296030  0.87608984  0.71821961
   0.78671596  0.87529063  0.91832678
   0.82863947  0.83146208  0.04140727
   0.31830195  0.75951627  0.52029539
   0.31826808  0.79904302  0.67663014
   0.98580062  0.42488948  0.23208969
   0.99399714  0.46336028  0.37458468
   0.32713718  0.78443055  0.88105530
   0.33419351  0.82328924  0.00612744
   0.92608014  0.31910277  0.55229568
   0.87850880  0.32905655  0.69254694
   0.59887369  0.97991752  0.24023438
   0.55077940  0.98806535  0.37459034
   0.87282021  0.35881492  0.87578394
   0.81941955  0.37787744  0.97625241
   0.90156841  0.78880409  0.77567723
   0.85955397  0.83343153  0.65253336
   0.92424667  0.74532977  0.12106966
   0.88511448  0.78902298  0.97585062
   0.31702429  0.89250525  0.73790302
   0.31142656  0.85307863  0.61214147
   0.34113384  0.91313384  0.08175771
   0.33010153  0.87624482  0.93989622
   0.98722057  0.55947213  0.43579038
   0.98321236  0.51880645  0.31070533
   0.78309071  0.33045181  0.74685002
   0.83493263  0.31453953  0.63859137
   0.73247283  0.37056300  0.07003804
   0.77631395  0.36286385  0.92312875
   0.45842870  0.98521535  0.41562066
   0.50548915  0.97946617  0.29943502
   0.75111916  0.47453308  0.55901849
   0.14088217  0.16826993  0.50041034
   0.69127074  0.13731233  0.53942834
   0.02787851  0.47421550  0.85192074
   0.16670152  0.69286020  0.54675193
   0.50264174  0.01960068  0.84769023
   0.19423207  0.16908391  0.80171693
   0.65469578  0.18410577  0.82981725
   0.18411045  0.61606368  0.86996323
   0.81685328  0.83065578  0.19467675
   0.34287109  0.81194611  0.16114638
   0.81072691  0.40880474  0.09778266
   0.87113318  0.83448176  0.49907825
   0.30337124  0.86458362  0.45703184
   0.97096470  0.53138698  0.15778311
   0.84360594  0.28533723  0.51172842
   0.50637485  0.96824846  0.14451977
   0.70896851  0.33140379  0.41109876
   0.28870759  0.02146724  0.79393902
   0.65824916  0.33315345  0.16081797
   0.95909572  0.68730544  0.49380745
   0.35776741  0.95530649  0.45604431
   0.35442842  0.02255133  0.12917773
   0.71911053  0.97285915  0.19993583
   0.33853298  0.66886650  0.76325832
   0.69895772  0.28324550  0.82166216
   0.98039551  0.31421328  0.16512026
   0.30324138  0.71251214  0.19577241
   0.97807512  0.37957565  0.85007164
   0.65187746  0.96814926  0.86628834
   0.02801143  0.61915076  0.16013538
   0.64514670  0.04116813  0.53855341
   0.02353593  0.69461377  0.84810802
   0.29293559  0.63555210  0.58703848
   0.04379743  0.31519724  0.50689304
   0.83073792  0.35198242  0.31472134
Direct configuration=    19
   0.05903936  0.25500176  0.30271122
   0.03821606  0.30174651  0.95049101
   0.10455574  0.26102295  0.70870840
   0.69071500  0.05432926  0.33565891
   0.66980651  0.03064658  0.97649599
   0.64197973  0.09900767  0.74121552
   0.02173304  0.39389231  0.64765610
   0.26165264  0.67873836  0.35669392
   0.31359562  0.64569088 -0.00069286
   0.27961334  0.60094391  0.80108819
   0.59200602  0.01289553  0.65947040
   0.29760247  0.03582634  0.35664372
   0.23020837  0.07727446  0.59435551
   0.27495560  0.08090595  0.99823853
   0.65190037  0.30053705  0.42191937
   0.69819400  0.22501382  0.62976088
   0.99127453  0.63701938  0.73876774
   0.02823872  0.56358527  0.95556552
   0.66529061  0.26334312  0.03460067
   0.04487851  0.65307652  0.41118341
   0.07878960  0.68920006  0.64320563
   0.36865113  0.00088717  0.68856486
   0.41074872  0.02424936  0.93166069
   0.08826534  0.63740011  0.03476512
   0.70962822  0.96020318  0.63904915
   0.77820833  0.92288384  0.40228105
   0.73352860  0.91402603  0.99557369
   0.35073591  0.70183219  0.53276714
   0.29001329  0.78139463  0.36176920
   0.98969160  0.37661806  0.29916150
   0.97455244  0.43956007  0.05306979
   0.32768895  0.73540790  0.95102398
   0.97270409  0.31599356  0.62209819
   0.91660671  0.31725624  0.36609929
   0.63968553  0.98922156  0.30718894
   0.59899495  0.96374224  0.06360069
   0.91271374  0.36969505  0.95864258
   0.95412357  0.74760971  0.69669095
   0.97872221  0.70700091  0.07512835
   0.90596984  0.74470877  0.29322717
   0.31073632  0.94281614  0.66030975
   0.33348715  0.96337128  0.02043770
   0.35774346  0.89606588  0.25669656
   0.97547393  0.61177197  0.35773110
   0.74416666  0.31333080  0.68377475
   0.68041893  0.38163079  0.01949486
   0.75140261  0.35929280  0.25197082
   0.41625459  0.97666001  0.33243444
   0.71556568  0.50259023  0.67715359
   0.78704077  0.44674800  0.43904485
   0.11133249  0.21397140  0.22484370
   0.15238702  0.16845646  0.34646463
   0.08883969  0.26057977  0.88447620
   0.12764283  0.21358641  0.02395303
   0.68104992  0.10597130  0.25883468
   0.68333326  0.14772476  0.38354778
   0.65980754  0.08162402  0.91582891
   0.66849650  0.12059546  0.05545233
   0.01060551  0.44658198  0.57433794
   0.01549341  0.48690127  0.69907761
   0.22008151  0.66597430  0.28366342
   0.17110040  0.67586981  0.39719299
   0.27597332  0.62748814  0.96420357
   0.22613857  0.64105418  0.09391299
   0.55055129  0.00304407  0.57691345
   0.50385924  0.00819677  0.69313520
   0.24663294  0.07677334  0.41850610
   0.20736750  0.12352245  0.27809560
   0.22328671  0.12285997  0.07669022
   0.18258113  0.16868109  0.95540854
   0.67596076  0.24377030  0.46194156
   0.67502424  0.20207510  0.31584643
   0.00832275  0.58291191  0.78399068
   0.00348573  0.54311329  0.63668551
   0.66700713  0.21425732  0.11032845
   0.66244854  0.17394527  0.98599471
   0.08109287  0.66997531  0.46870385
   0.12717683  0.66414994  0.32740788
   0.41038238  0.00884432  0.75499746
   0.45850078  0.99983503  0.61841758
   0.12973990  0.64525055  0.12637629
   0.18066455  0.63253847  0.01930230
   0.76179920  0.92188716  0.57777723
   0.80295430  0.87610679  0.71819698
   0.78674013  0.87528621  0.91827578
   0.82864474  0.83146472  0.04140949
   0.31829065  0.75952424  0.52021629
   0.31824891  0.79904262  0.67662199
   0.98580300  0.42488869  0.23208944
   0.99399835  0.46336550  0.37458472
   0.32714560  0.78440404  0.88112336
   0.33419299  0.82330380  0.00621046
   0.92605783  0.31910179  0.55229234
   0.87849027  0.32905375  0.69252337
   0.59886994  0.97992109  0.24025170
   0.55077250  0.98807784  0.37466275
   0.87280538  0.35880461  0.87575416
   0.81942038  0.37787012  0.97620559
   0.90157765  0.78879962  0.77566496
   0.85955310  0.83343855  0.65250586
   0.92424811  0.74532653  0.12105818
   0.88511013  0.78902902  0.97584257
   0.31703401  0.89249341  0.73797722
   0.31142755  0.85309040  0.61220665
   0.34113300  0.91312781  0.08176101
   0.33010301  0.87625198  0.93992290
   0.98721960  0.55946848  0.43580114
   0.98321055  0.51881341  0.31069718
   0.78305604  0.33044849  0.74676732
   0.83492588  0.31453265  0.63853235
   0.73245103  0.37061066  0.07001578
   0.77630419  0.36287397  0.92309064
   0.45842996  0.98522053  0.41563370
   0.50548910  0.97946996  0.29946908
   0.75110746  0.47454578  0.55905184
   0.14088172  0.16826733  0.50040824
   0.69126362  0.13731989  0.53939874
   0.02787829  0.47421602  0.85191999
   0.16671302  0.69286437  0.54676870
   0.50263604  0.01960574  0.84770299
   0.19423122  0.16908403  0.80170601
   0.65469657  0.18411507  0.82980198
   0.18412236  0.61607566  0.87002111
   0.81686310  0.83065333  0.19465452
   0.34287743  0.81194821  0.16126219
   0.81070999  0.40877924  0.09769379
   0.87114800  0.83447494  0.49903355
   0.30338123  0.86455007  0.45715380
   0.97096652  0.53138325  0.15777655
   0.84359188  0.28533544  0.51169226
   0.50637764  0.96825082  0.14454622
   0.70905231  0.33136110  0.41123037
   0.28870391  0.02146574  0.79393801
   0.65825130  0.33317179  0.16092578
   0.95909751  0.68730801  0.49379955
   0.35776877  0.95529716  0.45604169
   0.35443091  0.02255248  0.12916367
   0.71912196  0.97286371  0.19993854
   0.33843814  0.66891761  0.76291157
   0.69900793  0.28315183  0.82167922
   0.98039374  0.31421271  0.16514354
   0.30325696  0.71252756  0.19589351
   0.97806884  0.37957204  0.85005250
   0.65186849  0.96814365  0.86623174
   0.02802373  0.61914648  0.16012844
   0.64515119  0.04116499  0.53854452
   0.02355038  0.69460650  0.84809502
   0.29291097  0.63546573  0.58694962
   0.04378816  0.31519459  0.50691526
   0.83074961  0.35198240  0.31472853
Direct configuration=    20
   0.05904075  0.25499564  0.30271767
   0.03821053  0.30174805  0.95049468
   0.10455164  0.26102095  0.70871368
   0.69074889  0.05432931  0.33556384
   0.66976262  0.03069265  0.97648577
   0.64196261  0.09901701  0.74125524
   0.02173214  0.39388865  0.64766626
   0.26168957  0.67870018  0.35667776
   0.31352724  0.64577163 -0.00093287
   0.27963113  0.60090538  0.80104741
   0.59200489  0.01288373  0.65951696
   0.29761362  0.03582488  0.35666932
   0.23020490  0.07727019  0.59435225
   0.27495896  0.08090515  0.99823136
   0.65192580  0.30054599  0.42220755
   0.69833252  0.22487667  0.62977957
   0.99127561  0.63702159  0.73875726
   0.02824229  0.56358248  0.95555814
   0.66533201  0.26331838  0.03469470
   0.04489877  0.65307926  0.41115105
   0.07879997  0.68919546  0.64316067
   0.36866795  0.00086953  0.68856335
   0.41075304  0.02425346  0.93166728
   0.08830572  0.63740218  0.03478522
   0.70964951  0.96020266  0.63908740
   0.77816640  0.92286463  0.40232652
   0.73354510  0.91401753  0.99554536
   0.35080203  0.70181249  0.53257033
   0.28993562  0.78147729  0.36195683
   0.98970078  0.37661795  0.29914304
   0.97454883  0.43955704  0.05305106
   0.32773515  0.73537119  0.95098844
   0.97265568  0.31600880  0.62219986
   0.91658740  0.31725332  0.36610008
   0.63966895  0.98925854  0.30715709
   0.59898639  0.96371366  0.06367414
   0.91268958  0.36968052  0.95861340
   0.95413823  0.74760162  0.69670870
   0.97873007  0.70698886  0.07515799
   0.90597567  0.74470256  0.29320411
   0.31074542  0.94280218  0.66031582
   0.33347794  0.96337110  0.02045217
   0.35774355  0.89606247  0.25670225
   0.97547970  0.61176941  0.35771824
   0.74412202  0.31336125  0.68384268
   0.68033785  0.38175297  0.01970675
   0.75145221  0.35927891  0.25185391
   0.41625432  0.97667173  0.33248257
   0.71555686  0.50260193  0.67715853
   0.78703306  0.44676070  0.43908689
   0.11132605  0.21396869  0.22484589
   0.15238887  0.16844724  0.34647100
   0.08883924  0.26057702  0.88448046
   0.12764056  0.21358160  0.02393446
   0.68107111  0.10596513  0.25878123
   0.68332502  0.14772496  0.38348686
   0.65977523  0.08162908  0.91578151
   0.66848044  0.12061016  0.05536932
   0.01060610  0.44658345  0.57434100
   0.01549340  0.48690297  0.69907179
   0.22008079  0.66597782  0.28364390
   0.17110904  0.67587593  0.39722885
   0.27595531  0.62748567  0.96410309
   0.22614482  0.64107678  0.09387448
   0.55053925  0.00304886  0.57698869
   0.50384377  0.00820925  0.69318368
   0.24663272  0.07677339  0.41850954
   0.20736826  0.12352068  0.27808816
   0.22329160  0.12285865  0.07669110
   0.18258721  0.16867180  0.95540811
   0.67598588  0.24374437  0.46192141
   0.67500113  0.20208230  0.31582176
   0.00831901  0.58291349  0.78396555
   0.00348904  0.54310745  0.63672730
   0.66699926  0.21428780  0.11040166
   0.66243530  0.17398504  0.98596673
   0.08108551  0.66997449  0.46874183
   0.12716802  0.66414810  0.32744449
   0.41039403  0.00884655  0.75499832
   0.45849974  0.99984505  0.61843767
   0.12974997  0.64525417  0.12644944
   0.18066797  0.63254277  0.01930864
   0.76174363  0.92192684  0.57777611
   0.80297880  0.87610513  0.71809857
   0.78673017  0.87530289  0.91825193
   0.82865852  0.83147395  0.04138195
   0.31825620  0.75956763  0.52012790
   0.31822568  0.79905444  0.67665920
   0.98580468  0.42489799  0.23208349
   0.99399963  0.46336698  0.37457431
   0.32716187  0.78437836  0.88109941
   0.33419352  0.82329028  0.00632028
   0.92601993  0.31910162  0.55229762
   0.87848859  0.32904019  0.69245558
   0.59885595  0.97992119  0.24022125
   0.55076318  0.98809185  0.37472154
   0.87278798  0.35877755  0.87564835
   0.81942116  0.37785761  0.97609189
   0.90156711  0.78881817  0.77558935
   0.85955733  0.83344979  0.65245279
   0.92427109  0.74530378  0.12102297
   0.88511248  0.78903407  0.97580694
   0.31704489  0.89249801  0.73809301
   0.31142804  0.85305978  0.61235046
   0.34113407  0.91314945  0.08180777
   0.33010767  0.87624339  0.94005822
   0.98721774  0.55947684  0.43580987
   0.98320966  0.51881505  0.31069060
   0.78302814  0.33045951  0.74670345
   0.83488736  0.31452151  0.63848043
   0.73244227  0.37066514  0.07006352
   0.77627321  0.36289047  0.92291993
   0.45842787  0.98522866  0.41568117
   0.50549133  0.97948544  0.29954022
   0.75112541  0.47453660  0.55898111
   0.14088028  0.16826345  0.50040253
   0.69125612  0.13731887  0.53939879
   0.02787729  0.47421713  0.85191047
   0.16672711  0.69287071  0.54679196
   0.50262936  0.01961817  0.84778181
   0.19422888  0.16908342  0.80171051
   0.65469751  0.18413381  0.82980985
   0.18414408  0.61608513  0.87002318
   0.81687888  0.83064900  0.19459842
   0.34288738  0.81196066  0.16142391
   0.81067420  0.40875277  0.09761777
   0.87116473  0.83446268  0.49904729
   0.30338947  0.86451298  0.45724343
   0.97096872  0.53137942  0.15776855
   0.84357116  0.28532274  0.51157811
   0.50638641  0.96825537  0.14461493
   0.70917391  0.33130475  0.41140678
   0.28870708  0.02145620  0.79395028
   0.65824756  0.33321095  0.16103201
   0.95911440  0.68729780  0.49381002
   0.35777117  0.95528447  0.45604538
   0.35443420  0.02255295  0.12914162
   0.71912364  0.97288683  0.19989417
   0.33831727  0.66899228  0.76243269
   0.69907609  0.28305343  0.82173884
   0.98039295  0.31420754  0.16516049
   0.30329641  0.71254898  0.19593581
   0.97805238  0.37956489  0.85003617
   0.65185702  0.96814082  0.86615574
   0.02804476  0.61913833  0.16014398
   0.64516772  0.04115871  0.53854349
   0.02357915  0.69458868  0.84807521
   0.29286764  0.63534637  0.58690920
   0.04377023  0.31518814  0.50694473
   0.83076895  0.35198462  0.31473029
Direct configuration=    21
   0.05904374  0.25498245  0.30273153
   0.03819864  0.30175135  0.95050258
   0.10454281  0.26101667  0.70872504
   0.69082183  0.05432941  0.33535919
   0.66966814  0.03079182  0.97646378
   0.64192577  0.09903711  0.74134074
   0.02173019  0.39388076  0.64768812
   0.26176907  0.67861801  0.35664298
   0.31338003  0.64594547 -0.00144955
   0.27966944  0.60082242  0.80095962
   0.59200245  0.01285832  0.65961721
   0.29763763  0.03582175  0.35672442
   0.23019742  0.07726101  0.59434524
   0.27496620  0.08090342  0.99821593
   0.65198054  0.30056524  0.42282791
   0.69863072  0.22458142  0.62981979
   0.99127794  0.63702636  0.73873469
   0.02824996  0.56357648  0.95554224
   0.66542113  0.26326513  0.03489712
   0.04494237  0.65308517  0.41108140
   0.07882229  0.68918556  0.64306388
   0.36870416  0.00083156  0.68856010
   0.41076235  0.02426229  0.93168146
   0.08839266  0.63740662  0.03482850
   0.70969533  0.96020152  0.63916976
   0.77807614  0.92282326  0.40242440
   0.73358063  0.91399923  0.99548437
   0.35094437  0.70177008  0.53214665
   0.28976840  0.78165524  0.36236075
   0.98972054  0.37661772  0.29910330
   0.97454104  0.43955053  0.05301074
   0.32783460  0.73529216  0.95091193
   0.97255146  0.31604159  0.62241873
   0.91654582  0.31724703  0.36610180
   0.63963327  0.98933815  0.30708851
   0.59896795  0.96365215  0.06383228
   0.91263758  0.36964925  0.95855058
   0.95416980  0.74758420  0.69674691
   0.97874700  0.70696293  0.07522178
   0.90598822  0.74468918  0.29315448
   0.31076502  0.94277212  0.66032889
   0.33345811  0.96337072  0.02048333
   0.35774373  0.89605513  0.25671451
   0.97549211  0.61176389  0.35769057
   0.74402592  0.31342680  0.68398893
   0.68016331  0.38201600  0.02016290
   0.75155898  0.35924901  0.25160223
   0.41625373  0.97669695  0.33258620
   0.71553785  0.50262712  0.67716917
   0.78701645  0.44678804  0.43917740
   0.11131219  0.21396285  0.22485061
   0.15239286  0.16842740  0.34648471
   0.08883828  0.26057108  0.88448963
   0.12763567  0.21357126  0.02389447
   0.68111674  0.10595183  0.25866616
   0.68330729  0.14772540  0.38335571
   0.65970566  0.08163998  0.91567947
   0.66844586  0.12064181  0.05519062
   0.01060736  0.44658662  0.57434760
   0.01549338  0.48690662  0.69905927
   0.22007925  0.66598540  0.28360189
   0.17112765  0.67588911  0.39730606
   0.27591653  0.62748036  0.96388679
   0.22615828  0.64112544  0.09379159
   0.55051333  0.00305916  0.57715066
   0.50381045  0.00823611  0.69328803
   0.24663223  0.07677348  0.41851694
   0.20736988  0.12351687  0.27807214
   0.22330212  0.12285583  0.07669300
   0.18260029  0.16865180  0.95540718
   0.67603996  0.24368854  0.46187805
   0.67495137  0.20209781  0.31576865
   0.00831097  0.58291689  0.78391147
   0.00349616  0.54309487  0.63681727
   0.66698233  0.21435341  0.11055926
   0.66240681  0.17407064  0.98590649
   0.08106966  0.66997272  0.46882360
   0.12714905  0.66414415  0.32752329
   0.41041911  0.00885136  0.75500018
   0.45849749  0.99986661  0.61848090
   0.12977165  0.64526196  0.12660693
   0.18067532  0.63255202  0.01932230
   0.76162401  0.92201225  0.57777370
   0.80303154  0.87610154  0.71788673
   0.78670872  0.87533878  0.91820058
   0.82868817  0.83149381  0.04132268
   0.31818205  0.75966104  0.51993761
   0.31817565  0.79907989  0.67673932
   0.98580830  0.42491801  0.23207068
   0.99400239  0.46337016  0.37455189
   0.32719689  0.78432308  0.88104785
   0.33419467  0.82326118  0.00655669
   0.92593835  0.31910125  0.55230899
   0.87848496  0.32901100  0.69230964
   0.59882583  0.97992142  0.24015569
   0.55074312  0.98812202  0.37484811
   0.87275053  0.35871928  0.87542057
   0.81942283  0.37783068  0.97584712
   0.90154440  0.78885810  0.77542656
   0.85956646  0.83347397  0.65233855
   0.92432057  0.74525479  0.12094716
   0.88511755  0.78904495  0.97573023
   0.31706832  0.89250791  0.73834228
   0.31142910  0.85299385  0.61266006
   0.34113637  0.91319604  0.08190844
   0.33011770  0.87622491  0.94034954
   0.98721372  0.55949484  0.43582867
   0.98320775  0.51881859  0.31067643
   0.78296806  0.33048324  0.74656595
   0.83480443  0.31449753  0.63836865
   0.73242339  0.37078242  0.07016629
   0.77620652  0.36292599  0.92255243
   0.45842337  0.98524618  0.41578336
   0.50549615  0.97951877  0.29969336
   0.75116406  0.47451684  0.55882885
   0.14087718  0.16825510  0.50039024
   0.69123997  0.13731667  0.53939890
   0.02787514  0.47421953  0.85188996
   0.16675746  0.69288434  0.54684205
   0.50261499  0.01964495  0.84795150
   0.19422384  0.16908209  0.80172020
   0.65469953  0.18417414  0.82982680
   0.18419083  0.61610552  0.87002766
   0.81691284  0.83063967  0.19447764
   0.34290879  0.81198746  0.16177206
   0.81059715  0.40869578  0.09745413
   0.87120076  0.83443630  0.49907686
   0.30340721  0.86443314  0.45743638
   0.97097346  0.53137120  0.15775134
   0.84352656  0.28529541  0.51133236
   0.50640531  0.96826516  0.14476284
   0.70943569  0.33118344  0.41178657
   0.28871388  0.02143566  0.79397670
   0.65823951  0.33329525  0.16126071
   0.95915076  0.68727581  0.49383254
   0.35777635  0.95525714  0.45605332
   0.35444128  0.02255395  0.12909416
   0.71912725  0.97293661  0.19979866
   0.33805706  0.66915303  0.76140177
   0.69922282  0.28284162  0.82186718
   0.98039123  0.31419640  0.16519698
   0.30338132  0.71259509  0.19602688
   0.97801693  0.37954952  0.85000100
   0.65183231  0.96813475  0.86599213
   0.02809003  0.61912078  0.16017743
   0.64520332  0.04114519  0.53854127
   0.02364108  0.69455032  0.84803257
   0.29277438  0.63508941  0.58682220
   0.04373164  0.31517428  0.50700819
   0.83081057  0.35198940  0.31473407
Direct configuration=    22
   0.05904458  0.25497719  0.30274117
   0.03819415  0.30175129  0.95050623
   0.10453824  0.26101481  0.70872823
   0.69084667  0.05432717  0.33530489
   0.66963463  0.03080923  0.97648132
   0.64190744  0.09904938  0.74133212
   0.02172772  0.39388138  0.64769548
   0.26180412  0.67857784  0.35665331
   0.31331387  0.64602085 -0.00167038
   0.27968893  0.60077695  0.80093555
   0.59199844  0.01284980  0.65965216
   0.29764405  0.03582353  0.35674546
   0.23019539  0.07725614  0.59434468
   0.27496871  0.08090200  0.99820550
   0.65202067  0.30055124  0.42306030
   0.69874048  0.22447605  0.62976499
   0.99128019  0.63702716  0.73872745
   0.02825362  0.56357379  0.95553402
   0.66546024  0.26324488  0.03495467
   0.04494807  0.65308305  0.41105067
   0.07883261  0.68918257  0.64304668
   0.36872100  0.00081569  0.68856006
   0.41076656  0.02426636  0.93169026
   0.08841674  0.63740518  0.03483086
   0.70969444  0.96021461  0.63923810
   0.77805201  0.92280099  0.40241930
   0.73358674  0.91400040  0.99545237
   0.35098193  0.70177711  0.53194961
   0.28969140  0.78173192  0.36247088
   0.98972859  0.37661985  0.29909248
   0.97453764  0.43954687  0.05299721
   0.32787009  0.73526531  0.95085805
   0.97251531  0.31605393  0.62250827
   0.91652544  0.31724324  0.36606575
   0.63961825  0.98936913  0.30703436
   0.59897328  0.96362455  0.06385840
   0.91262393  0.36963469  0.95852360
   0.95416927  0.74758852  0.69675662
   0.97876033  0.70695100  0.07521084
   0.90598897  0.74468702  0.29313314
   0.31077409  0.94276214  0.66034292
   0.33344958  0.96337858  0.02049560
   0.35774594  0.89605469  0.25673955
   0.97549964  0.61176052  0.35768229
   0.74399968  0.31344643  0.68409549
   0.68010090  0.38211160  0.02039255
   0.75159363  0.35923442  0.25153952
   0.41625249  0.97670623  0.33262473
   0.71555495  0.50261802  0.67709015
   0.78703953  0.44677619  0.43911405
   0.11130644  0.21396093  0.22485366
   0.15239488  0.16841938  0.34648352
   0.08883478  0.26057049  0.88449478
   0.12763507  0.21356574  0.02388498
   0.68113245  0.10594927  0.25861117
   0.68330305  0.14772523  0.38333480
   0.65967650  0.08166455  0.91562572
   0.66843335  0.12065883  0.05512217
   0.01060773  0.44658606  0.57434885
   0.01549481  0.48690360  0.69906347
   0.22008091  0.66598870  0.28357399
   0.17113917  0.67589180  0.39731783
   0.27589425  0.62747968  0.96381409
   0.22615931  0.64114233  0.09375887
   0.55050161  0.00306079  0.57720150
   0.50379566  0.00824855  0.69335193
   0.24663311  0.07677266  0.41851854
   0.20737235  0.12351350  0.27806727
   0.22330516  0.12285524  0.07668895
   0.18260476  0.16864500  0.95540490
   0.67607091  0.24367012  0.46196581
   0.67492921  0.20210730  0.31572235
   0.00830791  0.58291938  0.78388980
   0.00349581  0.54309478  0.63682969
   0.66697589  0.21436433  0.11059720
   0.66239480  0.17410148  0.98592360
   0.08107144  0.66997372  0.46884034
   0.12715053  0.66414846  0.32758625
   0.41042439  0.00885379  0.75501405
   0.45849004  0.99987530  0.61850030
   0.12977660  0.64526565  0.12666321
   0.18068474  0.63256097  0.01935629
   0.76160352  0.92202170  0.57781764
   0.80303899  0.87610661  0.71783821
   0.78670610  0.87534690  0.91816016
   0.82869759  0.83150692  0.04127719
   0.31817063  0.75967811  0.51996903
   0.31816445  0.79907479  0.67681047
   0.98580900  0.42492380  0.23205412
   0.99400367  0.46337010  0.37454731
   0.32721392  0.78431420  0.88104368
   0.33419676  0.82323290  0.00662703
   0.92591465  0.31910005  0.55231324
   0.87846905  0.32899078  0.69223186
   0.59881768  0.97992540  0.24016741
   0.55073949  0.98813197  0.37488184
   0.87274909  0.35869623  0.87533279
   0.81940546  0.37781733  0.97572217
   0.90153890  0.78887099  0.77537920
   0.85957553  0.83348108  0.65228490
   0.92433255  0.74524122  0.12092216
   0.88512902  0.78904386  0.97567855
   0.31707528  0.89250307  0.73842970
   0.31142601  0.85298209  0.61277353
   0.34113693  0.91320771  0.08195943
   0.33012059  0.87621575  0.94047441
   0.98721356  0.55949993  0.43583580
   0.98320819  0.51881946  0.31068304
   0.78295016  0.33049777  0.74653049
   0.83477941  0.31448671  0.63831348
   0.73240116  0.37082461  0.07016688
   0.77617609  0.36294980  0.92242349
   0.45842119  0.98525391  0.41582825
   0.50549296  0.97953402  0.29974850
   0.75112508  0.47455198  0.55894884
   0.14087573  0.16825116  0.50038921
   0.69123333  0.13731284  0.53938685
   0.02787418  0.47422018  0.85188055
   0.16676880  0.69289035  0.54686453
   0.50260900  0.01965663  0.84802877
   0.19422232  0.16908064  0.80172819
   0.65469867  0.18419622  0.82982421
   0.18420902  0.61611015  0.86999512
   0.81692634  0.83063604  0.19443088
   0.34291679  0.81200021  0.16188958
   0.81056427  0.40867914  0.09741152
   0.87121475  0.83442603  0.49908813
   0.30341229  0.86440581  0.45750138
   0.97097502  0.53136903  0.15774358
   0.84350611  0.28528326  0.51122730
   0.50641455  0.96827019  0.14483813
   0.70953417  0.33114000  0.41189365
   0.28872022  0.02142583  0.79398656
   0.65823895  0.33332928  0.16134891
   0.95916855  0.68726464  0.49384741
   0.35777956  0.95524714  0.45606059
   0.35444415  0.02255454  0.12907841
   0.71912181  0.97296087  0.19974103
   0.33795871  0.66921138  0.76102426
   0.69927808  0.28277160  0.82192823
   0.98039030  0.31419147  0.16520467
   0.30341986  0.71260967  0.19600641
   0.97799914  0.37954270  0.84999242
   0.65182354  0.96813422  0.86595016
   0.02811027  0.61911203  0.16019145
   0.64521960  0.04114169  0.53853573
   0.02366535  0.69453477  0.84802833
   0.29273523  0.63500188  0.58676944
   0.04371182  0.31516925  0.50703450
   0.83082844  0.35199192  0.31472952
Direct configuration=    23
   0.05904627  0.25496662  0.30276055
   0.03818512  0.30175119  0.95051358
   0.10452904  0.26101108  0.70873463
   0.69089661  0.05432266  0.33519573
   0.66956724  0.03084425  0.97651658
   0.64187058  0.09907404  0.74131480
   0.02172276  0.39388263  0.64771029
   0.26187459  0.67849706  0.35667409
   0.31318084  0.64617243 -0.00211440
   0.27972811  0.60068551  0.80088713
   0.59199039  0.01283267  0.65972242
   0.29765697  0.03582713  0.35678776
   0.23019130  0.07724634  0.59434355
   0.27497375  0.08089917  0.99818454
   0.65210135  0.30052309  0.42352756
   0.69896118  0.22426418  0.62965481
   0.99128471  0.63702877  0.73871290
   0.02826096  0.56356839  0.95551747
   0.66553888  0.26320417  0.03507038
   0.04495953  0.65307878  0.41098888
   0.07885337  0.68917656  0.64301210
   0.36875488  0.00078377  0.68855999
   0.41077502  0.02427454  0.93170796
   0.08846516  0.63740230  0.03483561
   0.70969265  0.96024093  0.63937552
   0.77800347  0.92275623  0.40240906
   0.73359904  0.91400276  0.99538803
   0.35105745  0.70179124  0.53155340
   0.28953657  0.78188610  0.36269231
   0.98974477  0.37662412  0.29907072
   0.97453080  0.43953951  0.05297000
   0.32794143  0.73521132  0.95074972
   0.97244261  0.31607873  0.62268832
   0.91648446  0.31723562  0.36599326
   0.63958803  0.98943142  0.30692548
   0.59898399  0.96356905  0.06391092
   0.91259647  0.36960543  0.95846937
   0.95416821  0.74759719  0.69677613
   0.97878714  0.70692702  0.07518884
   0.90599047  0.74468267  0.29309023
   0.31079232  0.94274209  0.66037111
   0.33343242  0.96339440  0.02052028
   0.35775039  0.89605381  0.25678989
   0.97551476  0.61175374  0.35766565
   0.74394692  0.31348589  0.68430975
   0.67997541  0.38230382  0.02085432
   0.75166329  0.35920508  0.25141343
   0.41624999  0.97672489  0.33270221
   0.71558934  0.50259973  0.67693125
   0.78708594  0.44675235  0.43898668
   0.11129486  0.21395707  0.22485979
   0.15239894  0.16840327  0.34648113
   0.08882774  0.26056930  0.88450514
   0.12763385  0.21355466  0.02386589
   0.68116405  0.10594413  0.25850060
   0.68329452  0.14772489  0.38329276
   0.65961787  0.08171396  0.91551763
   0.66840820  0.12069305  0.05498455
   0.01060847  0.44658494  0.57435134
   0.01549769  0.48689751  0.69907191
   0.22008424  0.66599534  0.28351790
   0.17116233  0.67589721  0.39734151
   0.27584945  0.62747831  0.96366791
   0.22616140  0.64117630  0.09369309
   0.55047805  0.00306407  0.57730372
   0.50376592  0.00827356  0.69348042
   0.24663488  0.07677101  0.41852177
   0.20737733  0.12350673  0.27805750
   0.22331128  0.12285405  0.07668081
   0.18261376  0.16863132  0.95540030
   0.67613314  0.24363307  0.46214227
   0.67488467  0.20212639  0.31562926
   0.00830177  0.58292437  0.78384622
   0.00349511  0.54309459  0.63685465
   0.66696294  0.21438630  0.11067350
   0.66237065  0.17416350  0.98595799
   0.08107501  0.66997574  0.46887400
   0.12715351  0.66415711  0.32771284
   0.41043502  0.00885866  0.75504195
   0.45847508  0.99989277  0.61853930
   0.12978655  0.64527306  0.12677637
   0.18070368  0.63257898  0.01942465
   0.76156231  0.92204070  0.57790601
   0.80305399  0.87611681  0.71774065
   0.78670082  0.87536322  0.91807887
   0.82871652  0.83153328  0.04118573
   0.31814766  0.75971244  0.52003221
   0.31814191  0.79906453  0.67695354
   0.98581041  0.42493546  0.23202084
   0.99400624  0.46336996  0.37453809
   0.32724816  0.78429634  0.88103529
   0.33420097  0.82317604  0.00676846
   0.92586700  0.31909762  0.55232178
   0.87843705  0.32895013  0.69207546
   0.59880130  0.97993339  0.24019096
   0.55073220  0.98815199  0.37494967
   0.87274621  0.35864989  0.87515628
   0.81937053  0.37779047  0.97547093
   0.90152784  0.78889690  0.77528398
   0.85959378  0.83349537  0.65217701
   0.92435665  0.74521391  0.12087190
   0.88515209  0.78904167  0.97557466
   0.31708929  0.89249332  0.73860547
   0.31141981  0.85295846  0.61300169
   0.34113806  0.91323118  0.08206196
   0.33012641  0.87619732  0.94072549
   0.98721323  0.55951017  0.43585014
   0.98320909  0.51882120  0.31069636
   0.78291417  0.33052699  0.74645920
   0.83472910  0.31446495  0.63820253
   0.73235647  0.37090944  0.07016808
   0.77611490  0.36299768  0.92216423
   0.45841680  0.98526946  0.41591852
   0.50548655  0.97956470  0.29985936
   0.75104671  0.47462262  0.55919012
   0.14087283  0.16824324  0.50038714
   0.69121998  0.13730512  0.53936263
   0.02787226  0.47422148  0.85186165
   0.16679160  0.69290246  0.54690973
   0.50259695  0.01968011  0.84818413
   0.19421924  0.16907771  0.80174426
   0.65469694  0.18424060  0.82981900
   0.18424560  0.61611947  0.86992971
   0.81695348  0.83062873  0.19433686
   0.34293289  0.81202585  0.16212587
   0.81049816  0.40864566  0.09732584
   0.87124290  0.83440539  0.49911081
   0.30342251  0.86435084  0.45763209
   0.97097815  0.53136468  0.15772798
   0.84346499  0.28525884  0.51101605
   0.50643311  0.96828030  0.14498951
   0.70973217  0.33105266  0.41210895
   0.28873297  0.02140605  0.79400637
   0.65823782  0.33339772  0.16152625
   0.95920433  0.68724220  0.49387729
   0.35778603  0.95522703  0.45607522
   0.35444993  0.02255571  0.12904674
   0.71911087  0.97300966  0.19962516
   0.33776096  0.66932871  0.76026517
   0.69938918  0.28263082  0.82205098
   0.98038843  0.31418156  0.16522013
   0.30349736  0.71263898  0.19596526
   0.97796338  0.37952899  0.84997516
   0.65180590  0.96813316  0.86586578
   0.02815097  0.61909442  0.16021963
   0.64525234  0.04113466  0.53852460
   0.02371414  0.69450352  0.84801980
   0.29265651  0.63482589  0.58666337
   0.04367198  0.31515914  0.50708741
   0.83086437  0.35199699  0.31472037
Direct configuration=    24
   0.05904564  0.25497060  0.30275324
   0.03818852  0.30175123  0.95051081
   0.10453250  0.26101248  0.70873222
   0.69087779  0.05432436  0.33523688
   0.66959264  0.03083105  0.97650328
   0.64188447  0.09906474  0.74132133
   0.02172463  0.39388216  0.64770471
   0.26184802  0.67852751  0.35666626
   0.31323099  0.64611529 -0.00194701
   0.27971334  0.60071998  0.80090538
   0.59199343  0.01283913  0.65969593
   0.29765210  0.03582578  0.35677181
   0.23019284  0.07725003  0.59434398
   0.27497185  0.08090024  0.99819244
   0.65207094  0.30053370  0.42335141
   0.69887798  0.22434405  0.62969635
   0.99128301  0.63702817  0.73871838
   0.02825819  0.56357043  0.95552371
   0.66550924  0.26321952  0.03502676
   0.04495521  0.65308039  0.41101218
   0.07884554  0.68917883  0.64302514
   0.36874211  0.00079581  0.68856002
   0.41077183  0.02427146  0.93170129
   0.08844691  0.63740338  0.03483382
   0.70969332  0.96023101  0.63932371
   0.77802177  0.92277311  0.40241292
   0.73359441  0.91400187  0.99541228
   0.35102898  0.70178591  0.53170276
   0.28959494  0.78182798  0.36260883
   0.98973867  0.37662251  0.29907892
   0.97453338  0.43954229  0.05298025
   0.32791454  0.73523167  0.95079056
   0.97247002  0.31606938  0.62262045
   0.91649991  0.31723850  0.36602058
   0.63959942  0.98940794  0.30696653
   0.59897995  0.96358997  0.06389112
   0.91260682  0.36961646  0.95848982
   0.95416861  0.74759392  0.69676877
   0.97877703  0.70693606  0.07519713
   0.90598990  0.74468431  0.29310640
   0.31078545  0.94274965  0.66036048
   0.33343889  0.96338844  0.02051097
   0.35774871  0.89605414  0.25677091
   0.97550906  0.61175630  0.35767192
   0.74396681  0.31347102  0.68422898
   0.68002272  0.38223136  0.02068024
   0.75163703  0.35921614  0.25146096
   0.41625093  0.97671786  0.33267300
   0.71557638  0.50260663  0.67699115
   0.78706845  0.44676134  0.43903470
   0.11129923  0.21395852  0.22485748
   0.15239741  0.16840935  0.34648203
   0.08883039  0.26056975  0.88450123
   0.12763431  0.21355884  0.02387309
   0.68115214  0.10594607  0.25854228
   0.68329773  0.14772502  0.38330861
   0.65963997  0.08169534  0.91555838
   0.66841768  0.12068015  0.05503643
   0.01060819  0.44658536  0.57435040
   0.01549661  0.48689980  0.69906873
   0.22008298  0.66599284  0.28353904
   0.17115360  0.67589517  0.39733258
   0.27586634  0.62747882  0.96372302
   0.22616061  0.64116349  0.09371789
   0.55048693  0.00306283  0.57726518
   0.50377713  0.00826413  0.69343199
   0.24663422  0.07677163  0.41852056
   0.20737546  0.12350928  0.27806118
   0.22330897  0.12285450  0.07668388
   0.18261037  0.16863647  0.95540203
   0.67610968  0.24364703  0.46207575
   0.67490146  0.20211919  0.31566436
   0.00830409  0.58292249  0.78386265
   0.00349537  0.54309466  0.63684524
   0.66696782  0.21437802  0.11064474
   0.66237975  0.17414012  0.98594503
   0.08107367  0.66997498  0.46886131
   0.12715238  0.66415385  0.32766512
   0.41043102  0.00885683  0.75503143
   0.45848072  0.99988619  0.61852460
   0.12978280  0.64527027  0.12673371
   0.18069654  0.63257219  0.01939888
   0.76157785  0.92203354  0.57787270
   0.80304834  0.87611297  0.71777743
   0.78670281  0.87535706  0.91810952
   0.82870938  0.83152334  0.04122021
   0.31815632  0.75969950  0.52000839
   0.31815041  0.79906840  0.67689961
   0.98580988  0.42493106  0.23203339
   0.99400527  0.46337001  0.37454157
   0.32723525  0.78430307  0.88103845
   0.33419938  0.82319747  0.00671515
   0.92588497  0.31909854  0.55231856
   0.87844911  0.32896545  0.69213442
   0.59880748  0.97993038  0.24018208
   0.55073495  0.98814444  0.37492410
   0.87274729  0.35866736  0.87522282
   0.81938370  0.37780059  0.97556564
   0.90153201  0.78888713  0.77531988
   0.85958690  0.83348998  0.65221768
   0.92434757  0.74522421  0.12089085
   0.88514339  0.78904249  0.97561382
   0.31708401  0.89249700  0.73853921
   0.31142215  0.85296737  0.61291568
   0.34113763  0.91322234  0.08202331
   0.33012422  0.87620427  0.94063084
   0.98721335  0.55950631  0.43584473
   0.98320875  0.51882055  0.31069134
   0.78292774  0.33051598  0.74648607
   0.83474806  0.31447316  0.63824436
   0.73237332  0.37087746  0.07016763
   0.77613797  0.36297963  0.92226196
   0.45841845  0.98526360  0.41588449
   0.50548897  0.97955313  0.29981757
   0.75107625  0.47459599  0.55909916
   0.14087392  0.16824623  0.50038792
   0.69122501  0.13730803  0.53937176
   0.02787298  0.47422099  0.85186878
   0.16678301  0.69289789  0.54689269
   0.50260149  0.01967126  0.84812556
   0.19422040  0.16907881  0.80173820
   0.65469759  0.18422387  0.82982096
   0.18423181  0.61611595  0.86995437
   0.81694325  0.83063149  0.19437230
   0.34292682  0.81201618  0.16203679
   0.81052308  0.40865828  0.09735814
   0.87123229  0.83441317  0.49910226
   0.30341866  0.86437156  0.45758281
   0.97097697  0.53136632  0.15773386
   0.84348049  0.28526805  0.51109568
   0.50642611  0.96827649  0.14493245
   0.70965753  0.33108559  0.41202779
   0.28872816  0.02141350  0.79399890
   0.65823825  0.33337192  0.16145940
   0.95919084  0.68725066  0.49386602
   0.35778359  0.95523461  0.45606970
   0.35444775  0.02255527  0.12905867
   0.71911499  0.97299127  0.19966884
   0.33783550  0.66928448  0.76055133
   0.69934730  0.28268389  0.82200471
   0.98038914  0.31418529  0.16521430
   0.30346814  0.71262793  0.19598077
   0.97797686  0.37953416  0.84998167
   0.65181255  0.96813356  0.86589759
   0.02813563  0.61910105  0.16020900
   0.64524000  0.04113731  0.53852880
   0.02369575  0.69451530  0.84802301
   0.29268618  0.63489224  0.58670336
   0.04368700  0.31516295  0.50706746
   0.83085083  0.35199508  0.31472382
Direct configuration=    25
   0.05904420  0.25496672  0.30276721
   0.03818532  0.30174897  0.95051510
   0.10452653  0.26101096  0.70873215
   0.69089590  0.05431782  0.33522185
   0.66956474  0.03082905  0.97653595
   0.64186052  0.09908326  0.74123402
   0.02171982  0.39388660  0.64771160
   0.26188487  0.67848151  0.35670019
   0.31315981  0.64619004 -0.00217458
   0.27973303  0.60066076  0.80092374
   0.59198739  0.01283399  0.65972063
   0.29765424  0.03583101  0.35678921
   0.23019252  0.07724400  0.59434390
   0.27497400  0.08089796  0.99817905
   0.65212995  0.30049555  0.42354479
   0.69896564  0.22426710  0.62956514
   0.99128673  0.63702775  0.73871379
   0.02826112  0.56356949  0.95550638
   0.66554791  0.26321186  0.03505304
   0.04494762  0.65307389  0.41098829
   0.07885471  0.68917862  0.64305366
   0.36875878  0.00078114  0.68856904
   0.41077528  0.02427616  0.93171563
   0.08845331  0.63739753  0.03481942
   0.70966545  0.96026292  0.63943031
   0.77800973  0.92274947  0.40235963
   0.73358733  0.91401570  0.99537623
   0.35103676  0.70182652  0.53148243
   0.28952137  0.78189329  0.36267668
   0.98974614  0.37662542  0.29907549
   0.97452934  0.43953920  0.05296658
   0.32794209  0.73521249  0.95071361
   0.97244375  0.31607938  0.62268796
   0.91648193  0.31723309  0.36596336
   0.63958286  0.98943539  0.30688774
   0.59899938  0.96356245  0.06388389
   0.91260202  0.36959975  0.95845926
   0.95415542  0.74760859  0.69676283
   0.97879660  0.70692304  0.07514630
   0.90598813  0.74468446  0.29307681
   0.31079556  0.94274037  0.66039198
   0.33343118  0.96340476  0.02052689
   0.35775452  0.89605814  0.25683075
   0.97551867  0.61175316  0.35766840
   0.74395415  0.31347894  0.68437330
   0.67997851  0.38230822  0.02094034
   0.75165999  0.35919973  0.25144027
   0.41624836  0.97672522  0.33270152
   0.71555425  0.50262865  0.67704177
   0.78706125  0.44677302  0.43907019
   0.11129788  0.21395388  0.22485765
   0.15239754  0.16840421  0.34647029
   0.08882400  0.26057040  0.88450767
   0.12763469  0.21355263  0.02387860
   0.68116057  0.10594907  0.25847275
   0.68329597  0.14772714  0.38331754
   0.65961703  0.08173234  0.91553360
   0.66840883  0.12070216  0.05499425
   0.01060837  0.44658171  0.57434960
   0.01549871  0.48689375  0.69907702
   0.22009167  0.66599726  0.28351267
   0.17116618  0.67589547  0.39732671
   0.27584710  0.62748390  0.96366765
   0.22615357  0.64117374  0.09369066
   0.55047621  0.00306243  0.57729611
   0.50376477  0.00827687  0.69351179
   0.24663728  0.07676864  0.41852395
   0.20737956  0.12350424  0.27805984
   0.22331145  0.12285300  0.07667599
   0.18261013  0.16863460  0.95540067
   0.67615129  0.24362782  0.46225425
   0.67488234  0.20213063  0.31565432
   0.00830408  0.58292368  0.78386031
   0.00349067  0.54310054  0.63682165
   0.66696251  0.21437107  0.11063950
   0.66236731  0.17415522  0.98598740
   0.08108647  0.66997599  0.46884240
   0.12716669  0.66416346  0.32774183
   0.41042801  0.00885881  0.75505678
   0.45846801  0.99989511  0.61855571
   0.12978855  0.64527406  0.12677001
   0.18070736  0.63258426  0.01943884
   0.76160020  0.92200704  0.57793481
   0.80303594  0.87612635  0.71779075
   0.78671392  0.87535391  0.91804461
   0.82871778  0.83153716  0.04115737
   0.31816021  0.75969453  0.52012016
   0.31815231  0.79904825  0.67700135
   0.98581014  0.42493100  0.23200848
   0.99400651  0.46336989  0.37454355
   0.32725439  0.78430175  0.88108419
   0.33420529  0.82316642  0.00676352
   0.92587458  0.31909419  0.55229983
   0.87841710  0.32893823  0.69205301
   0.59880798  0.97993778  0.24022758
   0.55073582  0.98815125  0.37494312
   0.87275517  0.35864921  0.87516085
   0.81935140  0.37779171  0.97543976
   0.90153720  0.78889029  0.77530573
   0.85959633  0.83349585  0.65218052
   0.92434657  0.74522225  0.12087251
   0.88516042  0.78903824  0.97555517
   0.31708738  0.89247911  0.73861007
   0.31141430  0.85297984  0.61298728
   0.34113637  0.91321882  0.08207397
   0.33012405  0.87619339  0.94072831
   0.98721556  0.55950501  0.43585022
   0.98321032  0.51882164  0.31070844
   0.78291619  0.33053223  0.74646837
   0.83473942  0.31445922  0.63816407
   0.73233411  0.37090920  0.07012090
   0.77610184  0.36301461  0.92219210
   0.45841565  0.98527182  0.41592304
   0.50547912  0.97956825  0.29985836
   0.75110726  0.47457597  0.55898749
   0.14087277  0.16824149  0.50039101
   0.69121865  0.13730163  0.53934109
   0.02787251  0.47422049  0.85186494
   0.16679352  0.69290341  0.54691054
   0.50259515  0.01968265  0.84820064
   0.19422024  0.16907612  0.80174508
   0.65469474  0.18425200  0.82981266
   0.18424624  0.61611892  0.86991057
   0.81695545  0.83062897  0.19432950
   0.34293294  0.81202742  0.16210910
   0.81049267  0.40864677  0.09732938
   0.87124619  0.83440494  0.49908513
   0.30342119  0.86435195  0.45764449
   0.97097836  0.53136550  0.15773006
   0.84345680  0.28525801  0.51100549
   0.50643590  0.96828231  0.14501432
   0.70973682  0.33105300  0.41205669
   0.28873799  0.02140358  0.79400270
   0.65824377  0.33339799  0.16155053
   0.95920870  0.68724024  0.49388297
   0.35778836  0.95522726  0.45608223
   0.35445049  0.02255654  0.12905145
   0.71910296  0.97301584  0.19959751
   0.33775179  0.66932771  0.76025722
   0.69939373  0.28263601  0.82207226
   0.98038745  0.31418105  0.16521565
   0.30350601  0.71263741  0.19590385
   0.97795709  0.37952760  0.84997889
   0.65180546  0.96813509  0.86589653
   0.02815646  0.61909064  0.16021669
   0.64525580  0.04113674  0.53851277
   0.02371424  0.69450352  0.84803435
   0.29264942  0.63483535  0.58661186
   0.04366293  0.31516016  0.50709403
   0.83086733  0.35199973  0.31471239
Direct configuration=    26
   0.05904195  0.25496063  0.30278916
   0.03818029  0.30174542  0.95052183
   0.10451714  0.26100857  0.70873205
   0.69092436  0.05430754  0.33519825
   0.66952090  0.03082592  0.97658725
   0.64182290  0.09911236  0.74109687
   0.02171225  0.39389359  0.64772244
   0.26194275  0.67840926  0.35675350
   0.31304800  0.64630747 -0.00253206
   0.27976396  0.60056773  0.80095259
   0.59197792  0.01282592  0.65975944
   0.29765762  0.03583924  0.35681654
   0.23019201  0.07723453  0.59434378
   0.27497738  0.08089438  0.99815800
   0.65222265  0.30043562  0.42384857
   0.69910335  0.22414621  0.62935904
   0.99129259  0.63702708  0.73870656
   0.02826573  0.56356801  0.95547917
   0.66560865  0.26319982  0.03509432
   0.04493571  0.65306368  0.41095078
   0.07886910  0.68917828  0.64309846
   0.36878498  0.00075811  0.68858322
   0.41078070  0.02428354  0.93173815
   0.08846337  0.63738832  0.03479681
   0.70962167  0.96031304  0.63959777
   0.77799081  0.92271234  0.40227592
   0.73357620  0.91403741  0.99531959
   0.35104897  0.70189030  0.53113631
   0.28940581  0.78199588  0.36278326
   0.98975787  0.37663000  0.29907011
   0.97452300  0.43953435  0.05294509
   0.32798538  0.73518235  0.95059273
   0.97240248  0.31609510  0.62279403
   0.91645370  0.31722459  0.36587347
   0.63955684  0.98947851  0.30676397
   0.59902991  0.96351921  0.06387253
   0.91259448  0.36957350  0.95841125
   0.95413469  0.74763165  0.69675351
   0.97882734  0.70690259  0.07506645
   0.90598534  0.74468469  0.29303031
   0.31081145  0.94272578  0.66044145
   0.33341907  0.96343039  0.02055190
   0.35776364  0.89606443  0.25692474
   0.97553377  0.61174822  0.35766287
   0.74393425  0.31349139  0.68460000
   0.67990908  0.38242896  0.02134893
   0.75169605  0.35917394  0.25140777
   0.41624430  0.97673678  0.33274631
   0.71551948  0.50266326  0.67712129
   0.78704996  0.44679137  0.43912594
   0.11129576  0.21394660  0.22485793
   0.15239775  0.16839613  0.34645183
   0.08881395  0.26057142  0.88451778
   0.12763527  0.21354288  0.02388726
   0.68117380  0.10595379  0.25836351
   0.68329320  0.14773046  0.38333156
   0.65958099  0.08179047  0.91549468
   0.66839491  0.12073675  0.05492798
   0.01060866  0.44657598  0.57434833
   0.01550200  0.48688423  0.69909004
   0.22010531  0.66600421  0.28347123
   0.17118594  0.67589594  0.39731749
   0.27581687  0.62749188  0.96358068
   0.22614251  0.64118984  0.09364787
   0.55045936  0.00306180  0.57734469
   0.50374535  0.00829687  0.69363715
   0.24664209  0.07676394  0.41852929
   0.20738602  0.12349632  0.27805773
   0.22331535  0.12285064  0.07666360
   0.18260974  0.16863166  0.95539854
   0.67621665  0.24359763  0.46253465
   0.67485231  0.20214859  0.31563854
   0.00830406  0.58292554  0.78385663
   0.00348330  0.54310978  0.63678459
   0.66695417  0.21436016  0.11063128
   0.66234776  0.17417894  0.98605398
   0.08110658  0.66997758  0.46881269
   0.12718916  0.66417856  0.32786233
   0.41042328  0.00886193  0.75509661
   0.45844804  0.99990913  0.61860459
   0.12979759  0.64528003  0.12682702
   0.18072437  0.63260323  0.01950161
   0.76163532  0.92196541  0.57803238
   0.80301648  0.87614737  0.71781168
   0.78673137  0.87534895  0.91794265
   0.82873096  0.83155888  0.04105866
   0.31816634  0.75968671  0.52029574
   0.31815529  0.79901661  0.67716119
   0.98581055  0.42493091  0.23196935
   0.99400846  0.46336971  0.37454668
   0.32728446  0.78429967  0.88115603
   0.33421457  0.82311763  0.00683952
   0.92585825  0.31908735  0.55227042
   0.87836682  0.32889546  0.69192512
   0.59880878  0.97994941  0.24029905
   0.55073718  0.98816195  0.37497300
   0.87276754  0.35862070  0.87506350
   0.81930065  0.37777775  0.97524203
   0.90154534  0.78889524  0.77528350
   0.85961115  0.83350507  0.65212214
   0.92434500  0.74521918  0.12084370
   0.88518716  0.78903157  0.97546303
   0.31709267  0.89245101  0.73872140
   0.31140198  0.85299943  0.61309975
   0.34113437  0.91321328  0.08215355
   0.33012379  0.87617631  0.94088142
   0.98721903  0.55950297  0.43585883
   0.98321277  0.51882337  0.31073531
   0.78289805  0.33055776  0.74644056
   0.83472585  0.31443734  0.63803796
   0.73227253  0.37095905  0.07004748
   0.77604508  0.36306955  0.92208234
   0.45841125  0.98528474  0.41598360
   0.50546366  0.97959200  0.29992244
   0.75115596  0.47454453  0.55881207
   0.14087094  0.16823405  0.50039586
   0.69120866  0.13729159  0.53929291
   0.02787177  0.47421971  0.85185891
   0.16681003  0.69291207  0.54693857
   0.50258519  0.01970055  0.84831858
   0.19421998  0.16907190  0.80175588
   0.65469025  0.18429620  0.82979962
   0.18426891  0.61612357  0.86984177
   0.81697463  0.83062502  0.19426227
   0.34294254  0.81204507  0.16222268
   0.81044491  0.40862868  0.09728419
   0.87126803  0.83439200  0.49905821
   0.30342518  0.86432115  0.45774138
   0.97098054  0.53136422  0.15772409
   0.84341957  0.28524224  0.51086380
   0.50645128  0.96829146  0.14514294
   0.70986137  0.33100181  0.41210211
   0.28875343  0.02138798  0.79400867
   0.65825245  0.33343894  0.16169368
   0.95923676  0.68722386  0.49390960
   0.35779584  0.95521571  0.45610191
   0.35445480  0.02255853  0.12904010
   0.71908407  0.97305444  0.19948546
   0.33762029  0.66939563  0.75979521
   0.69946667  0.28256080  0.82217839
   0.98038480  0.31417438  0.16521776
   0.30356551  0.71265231  0.19578302
   0.97792603  0.37951731  0.84997452
   0.65179432  0.96813749  0.86589488
   0.02818918  0.61907429  0.16022876
   0.64528062  0.04113585  0.53848760
   0.02374330  0.69448502  0.84805216
   0.29259166  0.63474598  0.58646811
   0.04362512  0.31515579  0.50713577
   0.83089326  0.35200704  0.31469443
Direct configuration=    27
   0.05903744  0.25495717  0.30280755
   0.03817578  0.30174197  0.95053001
   0.10450711  0.26100766  0.70873205
   0.69093780  0.05430307  0.33520001
   0.66948503  0.03084679  0.97659216
   0.64179487  0.09913659  0.74097463
   0.02170371  0.39389794  0.64773650
   0.26198893  0.67835227  0.35678954
   0.31296009  0.64639568 -0.00280496
   0.27978604  0.60048644  0.80103897
   0.59196934  0.01282475  0.65977130
   0.29766033  0.03584523  0.35682966
   0.23019383  0.07722597  0.59434429
   0.27497903  0.08089190  0.99814041
   0.65230702  0.30038220  0.42402968
   0.69920327  0.22407214  0.62929375
   0.99129856  0.63702665  0.73870651
   0.02826923  0.56356793  0.95545572
   0.66565186  0.26320106  0.03510017
   0.04493300  0.65305857  0.41095496
   0.07887796  0.68917618  0.64314242
   0.36879670  0.00074254  0.68860789
   0.41078132  0.02429054  0.93176799
   0.08846103  0.63737717  0.03478285
   0.70960761  0.96033625  0.63970452
   0.77798236  0.92268317  0.40223977
   0.73356624  0.91405787  0.99526456
   0.35104301  0.70194125  0.53088177
   0.28934587  0.78203927  0.36293026
   0.98976539  0.37662886  0.29907417
   0.97451655  0.43953249  0.05291929
   0.32801063  0.73516546  0.95048915
   0.97237948  0.31610403  0.62282676
   0.91644389  0.31721663  0.36581486
   0.63954241  0.98951057  0.30667490
   0.59906456  0.96349211  0.06389077
   0.91259610  0.36955075  0.95836864
   0.95411948  0.74764869  0.69671982
   0.97883976  0.70689637  0.07499449
   0.90598334  0.74468543  0.29298380
   0.31082567  0.94270914  0.66051247
   0.33341380  0.96343912  0.02059741
   0.35777278  0.89607492  0.25701700
   0.97554682  0.61174449  0.35766254
   0.74393101  0.31348636  0.68478932
   0.67985654  0.38250659  0.02164175
   0.75171013  0.35915509  0.25138144
   0.41623957  0.97674344  0.33276697
   0.71553957  0.50265280  0.67702635
   0.78707374  0.44677994  0.43905855
   0.11129893  0.21393821  0.22485698
   0.15239658  0.16839181  0.34643932
   0.08880792  0.26056922  0.88452358
   0.12763333  0.21353878  0.02390399
   0.68117574  0.10595948  0.25830667
   0.68328937  0.14774005  0.38331923
   0.65956297  0.08181282  0.91548329
   0.66838924  0.12075241  0.05492249
   0.01060841  0.44657097  0.57434947
   0.01550179  0.48688354  0.69908021
   0.22012295  0.66600917  0.28345360
   0.17120755  0.67589969  0.39732781
   0.27580049  0.62750077  0.96350481
   0.22613664  0.64119676  0.09364310
   0.55045025  0.00306170  0.57737433
   0.50373253  0.00830904  0.69371487
   0.24664515  0.07676011  0.41854122
   0.20739041  0.12349073  0.27805576
   0.22331842  0.12284647  0.07665472
   0.18260471  0.16863408  0.95540155
   0.67626368  0.24356849  0.46263649
   0.67483887  0.20215798  0.31571743
   0.00830719  0.58292475  0.78386403
   0.00347731  0.54311312  0.63675187
   0.66695098  0.21435286  0.11061699
   0.66232902  0.17418661  0.98604140
   0.08111801  0.66997763  0.46878939
   0.12720948  0.66418828  0.32789942
   0.41041539  0.00886345  0.75513677
   0.45843564  0.99992137  0.61866897
   0.12980575  0.64528486  0.12684422
   0.18072049  0.63261330  0.01948633
   0.76165613  0.92194168  0.57806594
   0.80300760  0.87615261  0.71784662
   0.78674010  0.87534775  0.91789564
   0.82874865  0.83156437  0.04098940
   0.31814563  0.75970346  0.52034222
   0.31816834  0.79900803  0.67727413
   0.98581143  0.42492739  0.23194609
   0.99400912  0.46337007  0.37454657
   0.32730736  0.78428514  0.88124665
   0.33422895  0.82310654  0.00691627
   0.92585044  0.31907595  0.55220698
   0.87834297  0.32886506  0.69185672
   0.59881461  0.97995326  0.24030452
   0.55073639  0.98816684  0.37499056
   0.87275872  0.35860520  0.87501939
   0.81927320  0.37778626  0.97514432
   0.90155835  0.78889509  0.77527225
   0.85961121  0.83351642  0.65213666
   0.92434541  0.74522006  0.12080614
   0.88519980  0.78903193  0.97542838
   0.31709243  0.89243248  0.73880020
   0.31139083  0.85300777  0.61314673
   0.34112990  0.91320513  0.08220801
   0.33011979  0.87615701  0.94094666
   0.98722329  0.55949812  0.43585512
   0.98321482  0.51882270  0.31074650
   0.78288972  0.33057455  0.74643191
   0.83471444  0.31441665  0.63791847
   0.73223454  0.37098030  0.07002279
   0.77598853  0.36311431  0.92204123
   0.45840431  0.98529575  0.41602044
   0.50545133  0.97960935  0.29996634
   0.75111396  0.47458316  0.55894308
   0.14087070  0.16822733  0.50039519
   0.69120282  0.13728002  0.53925538
   0.02787245  0.47421710  0.85186886
   0.16682353  0.69291605  0.54694020
   0.50257710  0.01971384  0.84840545
   0.19422134  0.16906762  0.80175771
   0.65468587  0.18433347  0.82981428
   0.18428008  0.61613096  0.86982849
   0.81698811  0.83062472  0.19419958
   0.34294779  0.81205203  0.16226027
   0.81041412  0.40861394  0.09723258
   0.87128444  0.83438569  0.49899567
   0.30342421  0.86430916  0.45780811
   0.97098289  0.53136409  0.15773470
   0.84338721  0.28523319  0.51077836
   0.50646193  0.96829806  0.14522445
   0.70993030  0.33097500  0.41204992
   0.28876780  0.02137670  0.79400275
   0.65826715  0.33345232  0.16182415
   0.95925487  0.68721473  0.49392496
   0.35780291  0.95521126  0.45612558
   0.35445818  0.02256105  0.12904544
   0.71906554  0.97307938  0.19939712
   0.33753897  0.66942924  0.75953399
   0.69951243  0.28252730  0.82226716
   0.98038265  0.31417030  0.16521560
   0.30360452  0.71266316  0.19565641
   0.97790341  0.37951092  0.84997368
   0.65178672  0.96814065  0.86593810
   0.02821234  0.61906099  0.16022887
   0.64529676  0.04113700  0.53845681
   0.02375521  0.69447858  0.84806818
   0.29255316  0.63470947  0.58633565
   0.04359379  0.31515570  0.50716714
   0.83091004  0.35201427  0.31466636
Direct configuration=    28
   0.05903395  0.25495450  0.30282175
   0.03817231  0.30173930  0.95053633
   0.10449936  0.26100695  0.70873204
   0.69094819  0.05429961  0.33520137
   0.66945733  0.03086291  0.97659595
   0.64177321  0.09915532  0.74088021
   0.02169711  0.39390131  0.64774736
   0.26202459  0.67830826  0.35681738
   0.31289220  0.64646381 -0.00301574
   0.27980309  0.60042365  0.80110569
   0.59196272  0.01282385  0.65978047
   0.29766243  0.03584985  0.35683979
   0.23019524  0.07721937  0.59434468
   0.27498030  0.08088998  0.99812683
   0.65237218  0.30034093  0.42416957
   0.69928046  0.22401493  0.62924333
   0.99130318  0.63702631  0.73870647
   0.02827194  0.56356786  0.95543761
   0.66568523  0.26320202  0.03510469
   0.04493092  0.65305462  0.41095820
   0.07888480  0.68917455  0.64317638
   0.36880575  0.00073050  0.68862694
   0.41078180  0.02429595  0.93179104
   0.08845922  0.63736855  0.03477207
   0.70959676  0.96035418  0.63978697
   0.77797583  0.92266064  0.40221184
   0.73355855  0.91407368  0.99522207
   0.35103841  0.70198060  0.53068516
   0.28929957  0.78207278  0.36304380
   0.98977120  0.37662797  0.29907730
   0.97451157  0.43953106  0.05289935
   0.32803013  0.73515242  0.95040915
   0.97236172  0.31611093  0.62285205
   0.91643632  0.31721048  0.36576959
   0.63953127  0.98953533  0.30660610
   0.59909132  0.96347118  0.06390487
   0.91259735  0.36953318  0.95833572
   0.95410774  0.74766186  0.69669381
   0.97884936  0.70689157  0.07493891
   0.90598179  0.74468600  0.29294788
   0.31083666  0.94269628  0.66056732
   0.33340972  0.96344587  0.02063256
   0.35777983  0.89608302  0.25708827
   0.97555690  0.61174160  0.35766228
   0.74392851  0.31348247  0.68493555
   0.67981596  0.38256654  0.02186793
   0.75172101  0.35914054  0.25136110
   0.41623591  0.97674858  0.33278293
   0.71555510  0.50264472  0.67695302
   0.78709211  0.44677111  0.43900649
   0.11130138  0.21393173  0.22485625
   0.15239567  0.16838847  0.34642966
   0.08880326  0.26056752  0.88452805
   0.12763183  0.21353561  0.02391691
   0.68117723  0.10596387  0.25826277
   0.68328642  0.14774746  0.38330970
   0.65954905  0.08183009  0.91547448
   0.66838486  0.12076451  0.05491826
   0.01060822  0.44656710  0.57435034
   0.01550163  0.48688300  0.69907261
   0.22013659  0.66601300  0.28343998
   0.17122424  0.67590258  0.39733579
   0.27578784  0.62750764  0.96344621
   0.22613211  0.64120211  0.09363942
   0.55044322  0.00306162  0.57739723
   0.50372263  0.00831844  0.69377490
   0.24664752  0.07675715  0.41855043
   0.20739379  0.12348641  0.27805425
   0.22332080  0.12284325  0.07664786
   0.18260082  0.16863596  0.95540389
   0.67630002  0.24354598  0.46271515
   0.67482849  0.20216524  0.31577835
   0.00830961  0.58292414  0.78386974
   0.00347269  0.54311569  0.63672659
   0.66694852  0.21434722  0.11060596
   0.66231454  0.17419253  0.98603168
   0.08112683  0.66997766  0.46877140
   0.12722517  0.66419580  0.32792806
   0.41040930  0.00886462  0.75516778
   0.45842607  0.99993082  0.61871870
   0.12981206  0.64528858  0.12685751
   0.18071750  0.63262108  0.01947453
   0.76167221  0.92192334  0.57809187
   0.80300075  0.87615665  0.71787360
   0.78674684  0.87534683  0.91785933
   0.82876230  0.83156861  0.04093591
   0.31812963  0.75971639  0.52037812
   0.31817841  0.79900140  0.67736137
   0.98581211  0.42492466  0.23192812
   0.99400963  0.46337035  0.37454649
   0.32732505  0.78427392  0.88131665
   0.33424005  0.82309796  0.00697556
   0.92584441  0.31906714  0.55215798
   0.87832455  0.32884158  0.69180389
   0.59881912  0.97995624  0.24030874
   0.55073578  0.98817062  0.37500413
   0.87275191  0.35859323  0.87498533
   0.81925199  0.37779283  0.97506884
   0.90156840  0.78889498  0.77526356
   0.85961126  0.83352519  0.65214788
   0.92434573  0.74522074  0.12077713
   0.88520956  0.78903220  0.97540162
   0.31709224  0.89241816  0.73886107
   0.31138222  0.85301420  0.61318302
   0.34112644  0.91319883  0.08225007
   0.33011669  0.87614210  0.94099705
   0.98722657  0.55949437  0.43585226
   0.98321640  0.51882219  0.31075515
   0.78288329  0.33058752  0.74642522
   0.83470563  0.31440067  0.63782619
   0.73220520  0.37099671  0.07000371
   0.77594486  0.36314889  0.92200948
   0.45839895  0.98530425  0.41604890
   0.50544180  0.97962274  0.30000024
   0.75108152  0.47461300  0.55904428
   0.14087051  0.16822214  0.50039468
   0.69119830  0.13727109  0.53922640
   0.02787298  0.47421508  0.85187654
   0.16683396  0.69291912  0.54694146
   0.50257085  0.01972410  0.84847255
   0.19422239  0.16906432  0.80175912
   0.65468248  0.18436226  0.82982561
   0.18428870  0.61613667  0.86981824
   0.81699851  0.83062449  0.19415116
   0.34295184  0.81205740  0.16228929
   0.81039035  0.40860256  0.09719272
   0.87129711  0.83438081  0.49894737
   0.30342345  0.86429991  0.45785966
   0.97098471  0.53136400  0.15774290
   0.84336220  0.28522619  0.51071237
   0.50647016  0.96830316  0.14528740
   0.70998354  0.33095430  0.41200960
   0.28877889  0.02136798  0.79399817
   0.65827850  0.33346265  0.16192493
   0.95926886  0.68720767  0.49393682
   0.35780838  0.95520782  0.45614387
   0.35446079  0.02256299  0.12904956
   0.71905122  0.97309865  0.19932888
   0.33747615  0.66945520  0.75933223
   0.69954777  0.28250143  0.82233573
   0.98038100  0.31416715  0.16521392
   0.30363466  0.71267153  0.19555861
   0.97788594  0.37950599  0.84997304
   0.65178086  0.96814310  0.86597149
   0.02823022  0.61905073  0.16022895
   0.64530922  0.04113790  0.53843303
   0.02376442  0.69447361  0.84808055
   0.29252343  0.63468127  0.58623334
   0.04356960  0.31515563  0.50719137
   0.83092300  0.35201986  0.31464469
Direct configuration=    29
   0.05902900  0.25494988  0.30283870
   0.03816651  0.30173556  0.95054718
   0.10448627  0.26100641  0.70873405
   0.69095714  0.05430204  0.33520186
   0.66941546  0.03090977  0.97656646
   0.64175018  0.09917733  0.74080106
   0.02168595  0.39390316  0.64776936
   0.26207617  0.67825134  0.35682671
   0.31280074  0.64655919 -0.00330030
   0.27982691  0.60033368  0.80122274
   0.59195429  0.01282611  0.65978126
   0.29766794  0.03585387  0.35684847
   0.23019846  0.07720927  0.59434961
   0.27498117  0.08088806  0.99810741
   0.65246659  0.30029019  0.42431836
   0.69938924  0.22394408  0.62928116
   0.99131071  0.63702587  0.73871156
   0.02827705  0.56356660  0.95542134
   0.66572806  0.26320215  0.03510949
   0.04494132  0.65305361  0.41099020
   0.07889341  0.68916777  0.64319937
   0.36880959  0.00071526  0.68866505
   0.41077795  0.02430457  0.93183324
   0.08845735  0.63735510  0.03477580
   0.70961552  0.96035430  0.63985627
   0.77796769  0.92262956  0.40221605
   0.73355459  0.91409235  0.99515590
   0.35103186  0.70201563  0.53044735
   0.28924986  0.78210014  0.36322642
   0.98977769  0.37662207  0.29908358
   0.97450375  0.43952965  0.05287028
   0.32805270  0.73513456  0.95030837
   0.97234026  0.31611793  0.62284163
   0.91643704  0.31720026  0.36571557
   0.63952228  0.98957101  0.30653185
   0.59913248  0.96344606  0.06394790
   0.91260014  0.36950599  0.95828376
   0.95410102  0.74767261  0.69663728
   0.97884800  0.70689506  0.07487217
   0.90598199  0.74468547  0.29289069
   0.31085376  0.94267330  0.66067056
   0.33340744  0.96343812  0.02070602
   0.35778882  0.89609741  0.25717805
   0.97557200  0.61173666  0.35766304
   0.74393083  0.31346720  0.68512732
   0.67974853  0.38264380  0.02213963
   0.75172929  0.35912086  0.25131588
   0.41623044  0.97675449  0.33279810
   0.71554305  0.50266014  0.67696141
   0.78708132  0.44678704  0.43905384
   0.11130382  0.21392417  0.22486140
   0.15239565  0.16838273  0.34642511
   0.08879864  0.26056249  0.88453306
   0.12762719  0.21353511  0.02393262
   0.68117448  0.10596961  0.25824428
   0.68328058  0.14775753  0.38327872
   0.65953165  0.08183792  0.91543001
   0.66838041  0.12076632  0.05492639
   0.01060698  0.44656368  0.57435228
   0.01549940  0.48688724  0.69905230
   0.22015784  0.66601575  0.28343166
   0.17125120  0.67590978  0.39735881
   0.27576926  0.62751533  0.96335539
   0.22613037  0.64120634  0.09364690
   0.55043658  0.00306310  0.57742918
   0.50371134  0.00832849  0.69383673
   0.24664909  0.07675433  0.41856487
   0.20739683  0.12348172  0.27805101
   0.22332306  0.12283808  0.07664024
   0.18259521  0.16863884  0.95541016
   0.67634974  0.24350518  0.46271920
   0.67482122  0.20217194  0.31588223
   0.00831345  0.58292284  0.78386699
   0.00346850  0.54311417  0.63670948
   0.66694810  0.21434971  0.11061117
   0.66229282  0.17420275  0.98597721
   0.08113164  0.66997804  0.46877538
   0.12724354  0.66420281  0.32791153
   0.41040193  0.00886601  0.75521913
   0.45841661  0.99994424  0.61879653
   0.12981651  0.64529353  0.12685116
   0.18070147  0.63262902  0.01941949
   0.76166613  0.92192363  0.57808782
   0.80300452  0.87614972  0.71789453
   0.78674478  0.87535324  0.91785876
   0.82878239  0.83156790  0.04088505
   0.31808428  0.75976206  0.52036089
   0.31819635  0.79901000  0.67745578
   0.98581327  0.42492112  0.23191037
   0.99400967  0.46336929  0.37454010
   0.32734894  0.78425201  0.88141232
   0.33425989  0.82310082  0.00706873
   0.92583528  0.31905097  0.55208033
   0.87831986  0.32881328  0.69175333
   0.59882538  0.97995584  0.24027557
   0.55073272  0.98817383  0.37502249
   0.87272542  0.35857995  0.87495010
   0.81923214  0.37781607  0.97500806
   0.90157937  0.78889924  0.77524590
   0.85960713  0.83353822  0.65218144
   0.92435334  0.74521967  0.12072362
   0.88521773  0.78903651  0.97539122
   0.31708848  0.89240759  0.73893294
   0.31137217  0.85300742  0.61322848
   0.34112061  0.91319475  0.08231144
   0.33011094  0.87612478  0.94103873
   0.98723132  0.55949036  0.43583679
   0.98321845  0.51881918  0.31075340
   0.78287417  0.33060188  0.74642683
   0.83468610  0.31438116  0.63771373
   0.73218163  0.37100771  0.07003708
   0.77588397  0.36319359  0.92197070
   0.45838777  0.98531773  0.41608931
   0.50543138  0.97964030  0.30004894
   0.75110684  0.47459931  0.55895209
   0.14087126  0.16821424  0.50038694
   0.69119359  0.13725581  0.53919046
   0.02787394  0.47421180  0.85189005
   0.16684980  0.69292185  0.54693392
   0.50256196  0.01973784  0.84855911
   0.19422426  0.16905951  0.80175786
   0.65467672  0.18440335  0.82985239
   0.18429581  0.61614730  0.86982996
   0.81701272  0.83062634  0.19407123
   0.34295738  0.81205861  0.16231589
   0.81036164  0.40858827  0.09712999
   0.87131137  0.83437741  0.49887972
   0.30341849  0.86429659  0.45791666
   0.97098778  0.53136437  0.15776456
   0.84332501  0.28521596  0.51062689
   0.50647973  0.96830942  0.14535110
   0.71003964  0.33093246  0.41191089
   0.28879492  0.02135626  0.79398577
   0.65829907  0.33346165  0.16208228
   0.95928390  0.68720152  0.49394470
   0.35781614  0.95520664  0.45617765
   0.35446423  0.02256644  0.12906656
   0.71903055  0.97311981  0.19923998
   0.33740374  0.66948033  0.75909595
   0.69959072  0.28248021  0.82243173
   0.98037896  0.31416351  0.16520910
   0.30366982  0.71268401  0.19541794
   0.97786390  0.37950030  0.84997111
   0.65177375  0.96814729  0.86603967
   0.02825226  0.61903685  0.16022355
   0.64532326  0.04113961  0.53839614
   0.02376927  0.69447322  0.84808704
   0.29248827  0.63465620  0.58611456
   0.04353608  0.31515775  0.50722359
   0.83093717  0.35203043  0.31460426
Direct configuration=    30
   0.05902244  0.25494376  0.30286115
   0.03815882  0.30173060  0.95056155
   0.10446892  0.26100569  0.70873670
   0.69096899  0.05430526  0.33520251
   0.66936000  0.03097183  0.97652740
   0.64171967  0.09920649  0.74069622
   0.02167116  0.39390562  0.64779851
   0.26214449  0.67817595  0.35683907
   0.31267959  0.64668554 -0.00367725
   0.27985846  0.60021448  0.80137778
   0.59194311  0.01282911  0.65978232
   0.29767524  0.03585920  0.35685996
   0.23020273  0.07719589  0.59435613
   0.27498233  0.08088552  0.99808168
   0.65259166  0.30022298  0.42451547
   0.69953334  0.22385022  0.62933128
   0.99132069  0.63702528  0.73871831
   0.02828383  0.56356494  0.95539978
   0.66578479  0.26320234  0.03511585
   0.04495511  0.65305228  0.41103259
   0.07890481  0.68915878  0.64322983
   0.36881467  0.00069506  0.68871554
   0.41077286  0.02431599  0.93188915
   0.08845489  0.63733727  0.03478075
   0.70964038  0.96035446  0.63994806
   0.77795691  0.92258840  0.40222162
   0.73354934  0.91411708  0.99506826
   0.35102319  0.70206203  0.53013232
   0.28918400  0.78213639  0.36346833
   0.98978629  0.37661424  0.29909190
   0.97449340  0.43952778  0.05283176
   0.32808259  0.73511091  0.95017487
   0.97231183  0.31612721  0.62282782
   0.91643800  0.31718672  0.36564399
   0.63951037  0.98961827  0.30643350
   0.59918700  0.96341279  0.06400491
   0.91260383  0.36946997  0.95821494
   0.95409212  0.74768684  0.69656240
   0.97884619  0.70689970  0.07478377
   0.90598224  0.74468477  0.29281494
   0.31087641  0.94264285  0.66080732
   0.33340442  0.96342785  0.02080334
   0.35780071  0.89611648  0.25729700
   0.97559199  0.61173013  0.35766405
   0.74393391  0.31344698  0.68538137
   0.67965920  0.38274614  0.02249956
   0.75174026  0.35909481  0.25125598
   0.41622319  0.97676231  0.33281819
   0.71552709  0.50268055  0.67697252
   0.78706702  0.44680814  0.43911656
   0.11130705  0.21391416  0.22486823
   0.15239563  0.16837512  0.34641908
   0.08879252  0.26055584  0.88453970
   0.12762103  0.21353444  0.02395343
   0.68117085  0.10597721  0.25821978
   0.68327285  0.14777087  0.38323769
   0.65950861  0.08184829  0.91537111
   0.66837451  0.12076871  0.05493717
   0.01060534  0.44655914  0.57435485
   0.01549646  0.48689286  0.69902539
   0.22018599  0.66601939  0.28342063
   0.17128692  0.67591932  0.39738931
   0.27574464  0.62752552  0.96323508
   0.22612807  0.64121194  0.09365681
   0.55042777  0.00306506  0.57747151
   0.50369638  0.00834180  0.69391865
   0.24665116  0.07675060  0.41858400
   0.20740084  0.12347550  0.27804673
   0.22332605  0.12283124  0.07663015
   0.18258778  0.16864265  0.95541848
   0.67641561  0.24345114  0.46272457
   0.67481159  0.20218081  0.31601984
   0.00831854  0.58292112  0.78386335
   0.00346295  0.54311215  0.63668681
   0.66694754  0.21435302  0.11061809
   0.66226406  0.17421628  0.98590506
   0.08113801  0.66997854  0.46878065
   0.12726788  0.66421209  0.32788963
   0.41039218  0.00886786  0.75528714
   0.45840409  0.99996202  0.61889964
   0.12982240  0.64530009  0.12684275
   0.18068022  0.63263953  0.01934659
   0.76165809  0.92192400  0.57808246
   0.80300953  0.87614054  0.71792224
   0.78674205  0.87536172  0.91785801
   0.82880900  0.83156696  0.04081767
   0.31802421  0.75982256  0.52033806
   0.31822011  0.79902139  0.67758084
   0.98581480  0.42491644  0.23188686
   0.99400972  0.46336788  0.37453163
   0.32738059  0.78422299  0.88153906
   0.33428616  0.82310461  0.00719216
   0.92582319  0.31902955  0.55197747
   0.87831365  0.32877579  0.69168636
   0.59883367  0.97995531  0.24023163
   0.55072867  0.98817809  0.37504682
   0.87269033  0.35856235  0.87490344
   0.81920585  0.37784686  0.97492753
   0.90159391  0.78890489  0.77522251
   0.85960167  0.83355547  0.65222589
   0.92436343  0.74521824  0.12065273
   0.88522856  0.78904223  0.97537745
   0.31708350  0.89239357  0.73902814
   0.31135886  0.85299843  0.61328869
   0.34111289  0.91318935  0.08239275
   0.33010331  0.87610184  0.94109395
   0.98723760  0.55948504  0.43581631
   0.98322116  0.51881519  0.31075107
   0.78286210  0.33062090  0.74642897
   0.83466023  0.31435533  0.63756476
   0.73215041  0.37102229  0.07008129
   0.77580331  0.36325281  0.92191934
   0.45837296  0.98533558  0.41614286
   0.50541757  0.97966357  0.30011345
   0.75114039  0.47458117  0.55882997
   0.14087225  0.16820377  0.50037668
   0.69118736  0.13723558  0.53914286
   0.02787521  0.47420745  0.85190794
   0.16687078  0.69292548  0.54692392
   0.50255018  0.01975604  0.84867378
   0.19422675  0.16905314  0.80175618
   0.65466908  0.18445777  0.82988786
   0.18430521  0.61616139  0.86984549
   0.81703155  0.83062878  0.19396535
   0.34296471  0.81206021  0.16235112
   0.81032362  0.40856934  0.09704690
   0.87133025  0.83437291  0.49879011
   0.30341190  0.86429218  0.45799218
   0.97099185  0.53136487  0.15779325
   0.84327574  0.28520242  0.51051366
   0.50649241  0.96831770  0.14543549
   0.71011395  0.33090354  0.41178012
   0.28881616  0.02134073  0.79396934
   0.65832631  0.33346033  0.16229074
   0.95930383  0.68719337  0.49395513
   0.35782642  0.95520507  0.45622240
   0.35446878  0.02257101  0.12908907
   0.71900317  0.97314784  0.19912222
   0.33730782  0.66951360  0.75878295
   0.69964761  0.28245211  0.82255890
   0.98037626  0.31415870  0.16520272
   0.30371639  0.71270053  0.19523159
   0.97783471  0.37949278  0.84996855
   0.65176432  0.96815286  0.86612999
   0.02828145  0.61901846  0.16021640
   0.64534185  0.04114187  0.53834726
   0.02377569  0.69447270  0.84809565
   0.29244169  0.63462298  0.58595720
   0.04349168  0.31516055  0.50726627
   0.83095594  0.35204444  0.31455070
Direct configuration=    31
   0.05902145  0.25493656  0.30286656
   0.03815384  0.30172734  0.95056951
   0.10445684  0.26100480  0.70873898
   0.69097180  0.05431522  0.33519465
   0.66932863  0.03101064  0.97648430
   0.64171381  0.09921565  0.74072418
   0.02166007  0.39390470  0.64782288
   0.26218674  0.67814641  0.35677755
   0.31261888  0.64675947 -0.00387375
   0.27987964  0.60014973  0.80143660
   0.59194219  0.01283363  0.65977771
   0.29768233  0.03585923  0.35686518
   0.23020600  0.07718735  0.59436839
   0.27498198  0.08088485  0.99806706
   0.65266169  0.30019860  0.42456229
   0.69960691  0.22381315  0.62939951
   0.99132765  0.63702396  0.73872592
   0.02829022  0.56356079  0.95540330
   0.66581160  0.26319026  0.03514777
   0.04497574  0.65305444  0.41107129
   0.07891183  0.68914870  0.64321397
   0.36881050  0.00068536  0.68876471
   0.41076237  0.02432362  0.93193033
   0.08845984  0.63732792  0.03481712
   0.70967817  0.96033938  0.63995053
   0.77794912  0.92256951  0.40223830
   0.73355521  0.91412616  0.99502767
   0.35101976  0.70206047  0.53002820
   0.28913319  0.78216389  0.36350589
   0.98978834  0.37660682  0.29908834
   0.97448750  0.43952523  0.05282635
   0.32809579  0.73509330  0.95013776
   0.97229674  0.31612833  0.62276104
   0.91644904  0.31717634  0.36559217
   0.63950714  0.98964767  0.30641246
   0.59921571  0.96339306  0.06402383
   0.91259831  0.36944432  0.95816591
   0.95410459  0.74768165  0.69650260
   0.97883421  0.70690831  0.07475496
   0.90598859  0.74467983  0.29276645
   0.31089077  0.94262433  0.66090540
   0.33340406  0.96340687  0.02087270
   0.35780410  0.89612646  0.25733345
   0.97560527  0.61172458  0.35766249
   0.74393867  0.31342656  0.68547369
   0.67960060  0.38279781  0.02264079
   0.75174953  0.35907830  0.25122861
   0.41622087  0.97676620  0.33283044
   0.71553832  0.50267630  0.67690923
   0.78708176  0.44680195  0.43907442
   0.11130157  0.21391488  0.22488778
   0.15239894  0.16836788  0.34642632
   0.08878818  0.26055178  0.88454583
   0.12761645  0.21353727  0.02395360
   0.68116363  0.10598161  0.25824900
   0.68326815  0.14776649  0.38323356
   0.65949047  0.08186201  0.91527131
   0.66836739  0.12076009  0.05490843
   0.01060215  0.44656020  0.57435274
   0.01549514  0.48689349  0.69902738
   0.22020164  0.66601468  0.28341813
   0.17130082  0.67592437  0.39738418
   0.27572135  0.62752599  0.96317469
   0.22612471  0.64121075  0.09364293
   0.55042547  0.00306910  0.57749483
   0.50369500  0.00834699  0.69395063
   0.24665156  0.07674978  0.41858623
   0.20740075  0.12347318  0.27804570
   0.22332425  0.12282914  0.07662609
   0.18258771  0.16864094  0.95542357
   0.67647095  0.24340300  0.46274970
   0.67481307  0.20218288  0.31601094
   0.00832069  0.58292050  0.78383915
   0.00346331  0.54311000  0.63669999
   0.66695046  0.21436800  0.11065448
   0.66225223  0.17423237  0.98591045
   0.08114258  0.66998064  0.46882053
   0.12727513  0.66421587  0.32784010
   0.41039020  0.00886908  0.75533474
   0.45839811  0.99996985  0.61893707
   0.12981309  0.64530299  0.12680601
   0.18067015  0.63264867  0.01932849
   0.76163362  0.92194007  0.57805506
   0.80301844  0.87613100  0.71790672
   0.78673544  0.87536997  0.91790201
   0.82881062  0.83157003  0.04082014
   0.31799199  0.75986262  0.52036215
   0.31823315  0.79903069  0.67761373
   0.98581494  0.42491497  0.23187701
   0.99400953  0.46336220  0.37451997
   0.32739867  0.78421914  0.88157448
   0.33430194  0.82309681  0.00723302
   0.92581716  0.31901545  0.55195837
   0.87832422  0.32875850  0.69165490
   0.59883720  0.97995590  0.24023137
   0.55072834  0.98817896  0.37506201
   0.87266858  0.35855471  0.87487670
   0.81918251  0.37786862  0.97489817
   0.90159176  0.78891787  0.77521113
   0.85960821  0.83355832  0.65219668
   0.92437147  0.74521806  0.12061657
   0.88523672  0.78904584  0.97536680
   0.31707693  0.89239401  0.73905303
   0.31135611  0.85298986  0.61333683
   0.34111023  0.91319079  0.08245534
   0.33010028  0.87611110  0.94112325
   0.98724099  0.55948468  0.43579529
   0.98322311  0.51881098  0.31073958
   0.78284581  0.33062601  0.74644706
   0.83464254  0.31435499  0.63754859
   0.73213943  0.37102662  0.07014334
   0.77578097  0.36327953  0.92188592
   0.45836118  0.98534864  0.41618557
   0.50541275  0.97967397  0.30014867
   0.75111642  0.47460530  0.55890465
   0.14087377  0.16819692  0.50036482
   0.69118527  0.13722186  0.53911614
   0.02787425  0.47420687  0.85190002
   0.16688459  0.69292819  0.54692944
   0.50254361  0.01976483  0.84871624
   0.19422725  0.16905010  0.80175753
   0.65466145  0.18448972  0.82988118
   0.18430477  0.61616826  0.86984157
   0.81704228  0.83063181  0.19390660
   0.34297196  0.81205321  0.16240043
   0.81030595  0.40857175  0.09702595
   0.87133112  0.83437538  0.49879770
   0.30340279  0.86430011  0.45801491
   0.97099397  0.53136615  0.15780772
   0.84324485  0.28519045  0.51044462
   0.50649590  0.96832149  0.14545108
   0.71013989  0.33089044  0.41170796
   0.28882682  0.02133189  0.79396150
   0.65834431  0.33344263  0.16241708
   0.95930730  0.68719509  0.49394331
   0.35783090  0.95520819  0.45626037
   0.35446973  0.02257424  0.12911466
   0.71898995  0.97315504  0.19907232
   0.33727182  0.66952567  0.75861362
   0.69967399  0.28244791  0.82262062
   0.98037547  0.31415651  0.16519456
   0.30373362  0.71270919  0.19514814
   0.97782220  0.37948942  0.84996181
   0.65176218  0.96815800  0.86618423
   0.02829296  0.61901007  0.16020804
   0.64534671  0.04114253  0.53832240
   0.02377084  0.69447989  0.84807458
   0.29242557  0.63460447  0.58596375
   0.04346924  0.31516411  0.50728691
   0.83096261  0.35205453  0.31450567
Direct configuration=    32
   0.05902026  0.25492796  0.30287302
   0.03814789  0.30172345  0.95057902
   0.10444239  0.26100373  0.70874170
   0.69097516  0.05432714  0.33518524
   0.66929111  0.03105706  0.97643275
   0.64170682  0.09922660  0.74075761
   0.02164680  0.39390359  0.64785202
   0.26223727  0.67811108  0.35670396
   0.31254626  0.64684791 -0.00410881
   0.27990498  0.60007227  0.80150695
   0.59194108  0.01283904  0.65977220
   0.29769082  0.03585928  0.35687142
   0.23020993  0.07717715  0.59438306
   0.27498157  0.08088404  0.99804958
   0.65274545  0.30016943  0.42461830
   0.69969491  0.22376881  0.62948112
   0.99133597  0.63702239  0.73873503
   0.02829786  0.56355583  0.95540751
   0.66584367  0.26317581  0.03518595
   0.04500042  0.65305703  0.41111759
   0.07892022  0.68913666  0.64319500
   0.36880552  0.00067377  0.68882352
   0.41074982  0.02433275  0.93197958
   0.08846577  0.63731674  0.03486062
   0.70972337  0.96032134  0.63995349
   0.77793980  0.92254691  0.40225826
   0.73356223  0.91413702  0.99497911
   0.35101566  0.70205859  0.52990364
   0.28907240  0.78219679  0.36355083
   0.98979078  0.37659794  0.29908409
   0.97448044  0.43952218  0.05281988
   0.32811158  0.73507223  0.95009337
   0.97227869  0.31612968  0.62268115
   0.91646225  0.31716392  0.36553019
   0.63950328  0.98968284  0.30638730
   0.59925006  0.96336947  0.06404646
   0.91259170  0.36941363  0.95810726
   0.95411951  0.74767544  0.69643108
   0.97881988  0.70691862  0.07472049
   0.90599618  0.74467392  0.29270846
   0.31090794  0.94260217  0.66102272
   0.33340362  0.96338178  0.02095568
   0.35780816  0.89613840  0.25737706
   0.97562116  0.61171794  0.35766063
   0.74394436  0.31340214  0.68558413
   0.67953050  0.38285962  0.02280974
   0.75176062  0.35905854  0.25119586
   0.41621810  0.97677084  0.33284510
   0.71555176  0.50267121  0.67683353
   0.78709940  0.44679456  0.43902400
   0.11129502  0.21391574  0.22491115
   0.15240289  0.16835923  0.34643497
   0.08878298  0.26054692  0.88455317
   0.12761098  0.21354064  0.02395380
   0.68115499  0.10598686  0.25828395
   0.68326252  0.14776126  0.38322863
   0.65946878  0.08187843  0.91515194
   0.66835888  0.12074979  0.05487405
   0.01059834  0.44656147  0.57435021
   0.01549356  0.48689425  0.69902976
   0.22022035  0.66600904  0.28341513
   0.17131744  0.67593042  0.39737804
   0.27569349  0.62752656  0.96310245
   0.22612070  0.64120931  0.09362633
   0.55042271  0.00307393  0.57752272
   0.50369334  0.00835319  0.69398888
   0.24665204  0.07674880  0.41858889
   0.20740063  0.12347040  0.27804447
   0.22332211  0.12282663  0.07662122
   0.18258762  0.16863889  0.95542965
   0.67653715  0.24334540  0.46277976
   0.67481484  0.20218536  0.31600028
   0.00832327  0.58291976  0.78381020
   0.00346373  0.54310744  0.63671576
   0.66695394  0.21438593  0.11069801
   0.66223809  0.17425161  0.98591689
   0.08114806  0.66998317  0.46886823
   0.12728379  0.66422040  0.32778086
   0.41038783  0.00887054  0.75539167
   0.45839097  0.99997922  0.61898184
   0.12980195  0.64530645  0.12676207
   0.18065811  0.63265961  0.01930684
   0.76160436  0.92195929  0.57802228
   0.80302910  0.87611958  0.71788816
   0.78672753  0.87537983  0.91795464
   0.82881255  0.83157370  0.04082309
   0.31795346  0.75991053  0.52039095
   0.31824874  0.79904181  0.67765307
   0.98581511  0.42491321  0.23186522
   0.99400931  0.46335539  0.37450602
   0.32742029  0.78421453  0.88161684
   0.33432081  0.82308749  0.00728190
   0.92580996  0.31899858  0.55193552
   0.87833688  0.32873782  0.69161728
   0.59884142  0.97995659  0.24023105
   0.55072795  0.98818001  0.37508017
   0.87264257  0.35854557  0.87484471
   0.81915459  0.37789466  0.97486305
   0.90158920  0.78893339  0.77519751
   0.85961604  0.83356172  0.65216173
   0.92438109  0.74521784  0.12057332
   0.88524648  0.78905015  0.97535406
   0.31706908  0.89239453  0.73908279
   0.31135283  0.85297959  0.61339441
   0.34110704  0.91319252  0.08253022
   0.33009665  0.87612218  0.94115831
   0.98724505  0.55948425  0.43577013
   0.98322544  0.51880594  0.31072584
   0.78282632  0.33063213  0.74646870
   0.83462138  0.31435459  0.63752925
   0.73212629  0.37103181  0.07021756
   0.77575424  0.36331149  0.92184595
   0.45834709  0.98536427  0.41623667
   0.50540698  0.97968641  0.30019080
   0.75108775  0.47463417  0.55899398
   0.14087559  0.16818873  0.50035064
   0.69118278  0.13720545  0.53908419
   0.02787311  0.47420619  0.85189055
   0.16690110  0.69293144  0.54693605
   0.50253574  0.01977533  0.84876702
   0.19422784  0.16904647  0.80175915
   0.65465231  0.18452793  0.82987319
   0.18430423  0.61617647  0.86983688
   0.81705512  0.83063543  0.19383633
   0.34298062  0.81204484  0.16245941
   0.81028482  0.40857462  0.09700090
   0.87133216  0.83437833  0.49880678
   0.30339190  0.86430959  0.45804209
   0.97099651  0.53136768  0.15782501
   0.84320790  0.28517614  0.51036204
   0.50650009  0.96832603  0.14546972
   0.71017093  0.33087478  0.41162163
   0.28883958  0.02132133  0.79395212
   0.65836585  0.33342146  0.16256820
   0.95931145  0.68719716  0.49392917
   0.35783627  0.95521192  0.45630578
   0.35447086  0.02257811  0.12914527
   0.71897415  0.97316365  0.19901263
   0.33722876  0.66954011  0.75841107
   0.69970554  0.28244289  0.82269445
   0.98037454  0.31415389  0.16518481
   0.30375422  0.71271955  0.19504831
   0.97780723  0.37948540  0.84995375
   0.65175961  0.96816416  0.86624910
   0.02830672  0.61900002  0.16019805
   0.64535251  0.04114332  0.53829267
   0.02376503  0.69448849  0.84804937
   0.29240628  0.63458234  0.58597157
   0.04344240  0.31516837  0.50731160
   0.83097060  0.35206660  0.31445180
Direct configuration=    33
   0.05901927  0.25492042  0.30287767
   0.03814240  0.30172049  0.95058586
   0.10443021  0.26100233  0.70874143
   0.69097700  0.05433444  0.33518373
   0.66926425  0.03108231  0.97639244
   0.64170050  0.09923823  0.74075708
   0.02163462  0.39390431  0.64787445
   0.26227759  0.67808917  0.35661516
   0.31248897  0.64691465 -0.00428799
   0.27992668  0.60001486  0.80153913
   0.59194438  0.01284392  0.65976918
   0.29769684  0.03585948  0.35687881
   0.23021387  0.07716878  0.59439141
   0.27498073  0.08088335  0.99803718
   0.65281367  0.30014297  0.42464088
   0.69975563  0.22374316  0.62953050
   0.99134275  0.63702065  0.73873968
   0.02830386  0.56355149  0.95540641
   0.66586605  0.26316253  0.03522764
   0.04501849  0.65305746  0.41114700
   0.07892785  0.68912912  0.64319760
   0.36880310  0.00066565  0.68888389
   0.41073679  0.02434038  0.93202104
   0.08846893  0.63730888  0.03489892
   0.70974391  0.96032013  0.63995618
   0.77793201  0.92253366  0.40224224
   0.73356670  0.91414679  0.99495698
   0.35100448  0.70205929  0.52984406
   0.28901937  0.78222697  0.36355120
   0.98979113  0.37659194  0.29907286
   0.97447479  0.43951908  0.05282276
   0.32812272  0.73505876  0.95007425
   0.97226916  0.31612798  0.62260330
   0.91647497  0.31715256  0.36548075
   0.63949741  0.98971098  0.30638173
   0.59927389  0.96335025  0.06406122
   0.91258281  0.36938730  0.95806104
   0.95413404  0.74766899  0.69637669
   0.97881301  0.70692281  0.07469544
   0.90600404  0.74466728  0.29266909
   0.31092103  0.94258972  0.66110737
   0.33340153  0.96336866  0.02101219
   0.35781136  0.89614306  0.25741720
   0.97563462  0.61171258  0.35765597
   0.74394864  0.31337986  0.68563468
   0.67948512  0.38290111  0.02291945
   0.75177337  0.35904113  0.25118668
   0.41621733  0.97677454  0.33286135
   0.71553365  0.50269010  0.67686781
   0.78709018  0.44680656  0.43906036
   0.11128949  0.21391702  0.22492980
   0.15240521  0.16835371  0.34643984
   0.08877734  0.26054416  0.88455961
   0.12760801  0.21354244  0.02395583
   0.68114420  0.10599179  0.25829815
   0.68325693  0.14775624  0.38322960
   0.65945375  0.08189782  0.91508753
   0.66834910  0.12075105  0.05483392
   0.01059430  0.44656196  0.57434921
   0.01549236  0.48689230  0.69903757
   0.22023614  0.66600092  0.28340616
   0.17132432  0.67593383  0.39735555
   0.27567306  0.62752578  0.96305258
   0.22611441  0.64120719  0.09360655
   0.55042214  0.00307930  0.57754317
   0.50369500  0.00835737  0.69401385
   0.24665351  0.07674699  0.41859027
   0.20740042  0.12346762  0.27804518
   0.22331948  0.12282511  0.07661777
   0.18258777  0.16863697  0.95543342
   0.67659876  0.24330135  0.46284041
   0.67482265  0.20218075  0.31597426
   0.00832684  0.58291803  0.78379609
   0.00346489  0.54310674  0.63672597
   0.66695797  0.21439929  0.11073334
   0.66223050  0.17426490  0.98595510
   0.08116119  0.66998422  0.46888948
   0.12728721  0.66422533  0.32773924
   0.41038478  0.00887149  0.75543543
   0.45838527  0.99998561  0.61900904
   0.12979119  0.64530984  0.12672918
   0.18065141  0.63266939  0.01930296
   0.76159861  0.92195869  0.57799781
   0.80303422  0.87611355  0.71786911
   0.78672862  0.87538349  0.91797859
   0.82881045  0.83157773  0.04082713
   0.31793183  0.75993269  0.52041369
   0.31825972  0.79904285  0.67767117
   0.98581466  0.42490943  0.23186014
   0.99400919  0.46334923  0.37449545
   0.32743795  0.78421368  0.88163060
   0.33433530  0.82307763  0.00730431
   0.92580553  0.31898510  0.55191816
   0.87834084  0.32872378  0.69159333
   0.59884672  0.97995893  0.24025457
   0.55073017  0.98818049  0.37509590
   0.87262743  0.35853952  0.87481513
   0.81912869  0.37791433  0.97483212
   0.90158992  0.78894338  0.77518386
   0.85962343  0.83356248  0.65212265
   0.92438339  0.74522230  0.12054547
   0.88525177  0.78905687  0.97533622
   0.31706319  0.89239584  0.73911261
   0.31135109  0.85298148  0.61342296
   0.34110559  0.91319018  0.08258837
   0.33009543  0.87613455  0.94119446
   0.98724921  0.55948225  0.43575650
   0.98322809  0.51880140  0.31071857
   0.78280974  0.33063418  0.74649176
   0.83460819  0.31435773  0.63753290
   0.73210730  0.37103961  0.07025425
   0.77573910  0.36333242  0.92182601
   0.45833692  0.98537709  0.41627429
   0.50540252  0.97969388  0.30021617
   0.75111738  0.47461603  0.55889086
   0.14087731  0.16818154  0.50034256
   0.69118190  0.13719159  0.53906482
   0.02787151  0.47420631  0.85187710
   0.16691486  0.69293418  0.54694463
   0.50252992  0.01978256  0.84879186
   0.19422772  0.16904393  0.80176270
   0.65464359  0.18455802  0.82986072
   0.18430081  0.61618194  0.86982138
   0.81706388  0.83063857  0.19380643
   0.34298921  0.81203453  0.16251949
   0.81026979  0.40858625  0.09700130
   0.87132919  0.83438321  0.49882838
   0.30338119  0.86432084  0.45806577
   0.97099793  0.53136958  0.15782962
   0.84317597  0.28516714  0.51031481
   0.50650089  0.96832980  0.14547616
   0.71018945  0.33086227  0.41157405
   0.28884781  0.02131312  0.79395174
   0.65838288  0.33339847  0.16267788
   0.95931114  0.68720221  0.49390869
   0.35783913  0.95521648  0.45634838
   0.35446963  0.02258105  0.12917439
   0.71896376  0.97316654  0.19897633
   0.33720400  0.66954960  0.75825338
   0.69972682  0.28244351  0.82274841
   0.98037372  0.31415204  0.16517556
   0.30376469  0.71272724  0.19498974
   0.97779728  0.37948223  0.84994553
   0.65176023  0.96817104  0.86629434
   0.02831450  0.61899379  0.16018910
   0.64535400  0.04114319  0.53827231
   0.02375718  0.69449779  0.84801796
   0.29239602  0.63456294  0.58602572
   0.04342373  0.31517233  0.50732719
   0.83097528  0.35207735  0.31440436
Direct configuration=    34
   0.05901790  0.25490990  0.30288415
   0.03813474  0.30171635  0.95059539
   0.10441322  0.26100038  0.70874104
   0.69097957  0.05434462  0.33518163
   0.66922679  0.03111753  0.97633622
   0.64169170  0.09925447  0.74075633
   0.02161762  0.39390532  0.64790574
   0.26233383  0.67805861  0.35649130
   0.31240906  0.64700774 -0.00453794
   0.27995695  0.59993478  0.80158400
   0.59194898  0.01285072  0.65976497
   0.29770524  0.03585975  0.35688911
   0.23021937  0.07715711  0.59440305
   0.27497956  0.08088239  0.99801987
   0.65290884  0.30010605  0.42467237
   0.69984032  0.22370739  0.62959938
   0.99135220  0.63701824  0.73874617
   0.02831222  0.56354543  0.95540489
   0.66589726  0.26314400  0.03528579
   0.04504369  0.65305805  0.41118801
   0.07893848  0.68911862  0.64320124
   0.36879973  0.00065432  0.68896809
   0.41071861  0.02435102  0.93207886
   0.08847334  0.63729792  0.03495233
   0.70977256  0.96031845  0.63995993
   0.77792113  0.92251518  0.40221989
   0.73357294  0.91416043  0.99492610
   0.35098888  0.70206027  0.52976094
   0.28894540  0.78226908  0.36355172
   0.98979161  0.37658356  0.29905720
   0.97446691  0.43951476  0.05282677
   0.32813827  0.73503997  0.95004757
   0.97225587  0.31612561  0.62249472
   0.91649271  0.31713671  0.36541179
   0.63948922  0.98975023  0.30637396
   0.59930712  0.96332344  0.06408180
   0.91257042  0.36935058  0.95799656
   0.95415430  0.74765999  0.69630081
   0.97880342  0.70692866  0.07466051
   0.90601500  0.74465800  0.29261418
   0.31093929  0.94257236  0.66122545
   0.33339862  0.96335036  0.02109101
   0.35781584  0.89614957  0.25747318
   0.97565341  0.61170509  0.35764947
   0.74395462  0.31334878  0.68570518
   0.67942182  0.38295897  0.02307249
   0.75179116  0.35901684  0.25117388
   0.41621626  0.97677969  0.33288403
   0.71550839  0.50271645  0.67691562
   0.78707732  0.44682329  0.43911108
   0.11128178  0.21391880  0.22495582
   0.15240844  0.16834602  0.34644662
   0.08876947  0.26054031  0.88456859
   0.12760386  0.21354495  0.02395867
   0.68112916  0.10599867  0.25831796
   0.68324914  0.14774925  0.38323096
   0.65943279  0.08192487  0.91499769
   0.66833546  0.12075282  0.05477793
   0.01058867  0.44656264  0.57434781
   0.01549070  0.48688958  0.69904845
   0.22025815  0.66598959  0.28339364
   0.17133391  0.67593857  0.39732417
   0.27564455  0.62752469  0.96298302
   0.22610565  0.64120424  0.09357895
   0.55042134  0.00308679  0.57757170
   0.50369732  0.00836319  0.69404868
   0.24665558  0.07674447  0.41859218
   0.20740012  0.12346375  0.27804617
   0.22331581  0.12282299  0.07661295
   0.18258797  0.16863430  0.95543868
   0.67668470  0.24323990  0.46292501
   0.67483353  0.20217432  0.31593797
   0.00833183  0.58291561  0.78377639
   0.00346651  0.54310578  0.63674020
   0.66696359  0.21441793  0.11078262
   0.66221992  0.17428343  0.98600841
   0.08117952  0.66998568  0.46891912
   0.12729197  0.66423220  0.32768118
   0.41038054  0.00887281  0.75549646
   0.45837734  0.99999453  0.61904698
   0.12977618  0.64531456  0.12668330
   0.18064207  0.63268303  0.01929756
   0.76159060  0.92195784  0.57796367
   0.80304135  0.87610514  0.71784253
   0.78673013  0.87538861  0.91801200
   0.82880752  0.83158334  0.04083277
   0.31790165  0.75996360  0.52044540
   0.31827504  0.79904431  0.67769642
   0.98581403  0.42490415  0.23185304
   0.99400902  0.46334063  0.37448070
   0.32746258  0.78421249  0.88164980
   0.33435550  0.82306387  0.00733555
   0.92579935  0.31896630  0.55189395
   0.87834636  0.32870418  0.69155992
   0.59885412  0.97996220  0.24028738
   0.55073327  0.98818117  0.37511784
   0.87260630  0.35853107  0.87477385
   0.81909257  0.37794177  0.97478897
   0.90159092  0.78895731  0.77516483
   0.85963373  0.83356355  0.65206813
   0.92438660  0.74522853  0.12050662
   0.88525915  0.78906625  0.97531133
   0.31705497  0.89239766  0.73915421
   0.31134868  0.85298412  0.61346279
   0.34110357  0.91318692  0.08266947
   0.33009373  0.87615180  0.94124489
   0.98725501  0.55947945  0.43573748
   0.98323179  0.51879508  0.31070842
   0.78278661  0.33063704  0.74652394
   0.83458979  0.31436212  0.63753799
   0.73208081  0.37105051  0.07030542
   0.77571797  0.36336162  0.92179819
   0.45832273  0.98539496  0.41632677
   0.50539630  0.97970431  0.30025156
   0.75115872  0.47459074  0.55874701
   0.14087972  0.16817152  0.50033128
   0.69118067  0.13717227  0.53903780
   0.02786928  0.47420648  0.85185834
   0.16693405  0.69293801  0.54695660
   0.50252180  0.01979264  0.84882650
   0.19422754  0.16904040  0.80176766
   0.65463142  0.18460000  0.82984333
   0.18429603  0.61618955  0.86979976
   0.81707611  0.83064295  0.19376474
   0.34300118  0.81202015  0.16260330
   0.81024882  0.40860247  0.09700186
   0.87132505  0.83439003  0.49885849
   0.30336625  0.86433655  0.45809879
   0.97099992  0.53137225  0.15783605
   0.84313144  0.28515458  0.51024893
   0.50650202  0.96833507  0.14548514
   0.71021528  0.33084481  0.41150766
   0.28885930  0.02130168  0.79395121
   0.65840663  0.33336641  0.16283088
   0.95931070  0.68720926  0.49388012
   0.35784313  0.95522285  0.45640779
   0.35446791  0.02258514  0.12921502
   0.71894928  0.97317058  0.19892570
   0.33716944  0.66956284  0.75803341
   0.69975651  0.28244438  0.82282369
   0.98037259  0.31414947  0.16516265
   0.30377930  0.71273796  0.19490803
   0.97778340  0.37947781  0.84993405
   0.65176109  0.96818064  0.86635743
   0.02832536  0.61898510  0.16017662
   0.64535608  0.04114299  0.53824392
   0.02374622  0.69451078  0.84797413
   0.29238170  0.63453588  0.58610125
   0.04339768  0.31517786  0.50734895
   0.83098181  0.35209234  0.31433817
Direct configuration=    35
   0.05901543  0.25490264  0.30289158
   0.03812779  0.30171372  0.95060199
   0.10439995  0.26099843  0.70873815
   0.69098140  0.05434756  0.33518674
   0.66920129  0.03113432  0.97629865
   0.64168162  0.09927199  0.74070663
   0.02160354  0.39390848  0.64792557
   0.26237517  0.67803696  0.35638860
   0.31234609  0.64707332 -0.00472479
   0.27998043  0.59987829  0.80160624
   0.59195508  0.01285580  0.65976467
   0.29771025  0.03586081  0.35689997
   0.23022423  0.07714823  0.59440547
   0.27497816  0.08088149  0.99800903
   0.65298380  0.30006934  0.42469320
   0.69989903  0.22368432  0.62964072
   0.99135919  0.63701602  0.73874649
   0.02831806  0.56354101  0.95539607
   0.66591898  0.26313315  0.03533001
   0.04505866  0.65305628  0.41120749
   0.07894823  0.68911404  0.64322851
   0.36880049  0.00064614  0.68903959
   0.41070384  0.02435925  0.93212220
   0.08847241  0.63729072  0.03498460
   0.70977637  0.96033158  0.63997113
   0.77791331  0.92250432  0.40216875
   0.73357571  0.91417211  0.99491626
   0.35096790  0.70207079  0.52971774
   0.28889233  0.78229949  0.36356042
   0.98979099  0.37657837  0.29904066
   0.97446065  0.43951127  0.05283201
   0.32814979  0.73503184  0.95003333
   0.97225097  0.31612172  0.62241584
   0.91650474  0.31712389  0.36536318
   0.63947943  0.98977966  0.30637561
   0.59932926  0.96330376  0.06410873
   0.91256110  0.36932238  0.95795376
   0.95416621  0.74765662  0.69625252
   0.97880285  0.70692816  0.07463006
   0.90602269  0.74465080  0.29258314
   0.31095190  0.94256598  0.66129846
   0.33339419  0.96334778  0.02113859
   0.35782012  0.89614903  0.25753109
   0.97566813  0.61169947  0.35764169
   0.74395859  0.31332468  0.68573190
   0.67938655  0.38299556  0.02317690
   0.75180680  0.35899785  0.25117480
   0.41621608  0.97678386  0.33290659
   0.71550850  0.50272142  0.67688740
   0.78708398  0.44682305  0.43909447
   0.11127852  0.21391834  0.22496899
   0.15240891  0.16834257  0.34644725
   0.08876249  0.26053825  0.88457465
   0.12760229  0.21354513  0.02396694
   0.68111461  0.10600453  0.25830474
   0.68324182  0.14774697  0.38322727
   0.65942040  0.08194666  0.91497515
   0.66832342  0.12076601  0.05474323
   0.01058380  0.44656155  0.57434988
   0.01548872  0.48688700  0.69905234
   0.22027555  0.66597936  0.28337568
   0.17133850  0.67594154  0.39729359
   0.27562843  0.62752365  0.96293185
   0.22609831  0.64120231  0.09355937
   0.55042240  0.00309336  0.57759169
   0.50369926  0.00836733  0.69407039
   0.24665826  0.07674124  0.41859607
   0.20740036  0.12345989  0.27804773
   0.22331341  0.12282098  0.07660977
   0.18258668  0.16863343  0.95544192
   0.67675206  0.24320164  0.46299624
   0.67484853  0.20216314  0.31593355
   0.00833733  0.58291293  0.78377585
   0.00346802  0.54310534  0.63674164
   0.66696888  0.21442544  0.11081402
   0.66221353  0.17429527  0.98605095
   0.08120002  0.66998525  0.46891750
   0.12729350  0.66423908  0.32765147
   0.41037561  0.00887380  0.75554040
   0.45837188  0.00000117  0.61907650
   0.12976740  0.64531925  0.12666300
   0.18063502  0.63269236  0.01929059
   0.76160268  0.92194133  0.57794415
   0.80304368  0.87610144  0.71782549
   0.78673803  0.87538914  0.91800601
   0.82880681  0.83158665  0.04082632
   0.31788329  0.75997225  0.52043948
   0.31828467  0.79903980  0.67770424
   0.98581300  0.42489781  0.23185159
   0.99400898  0.46333498  0.37447292
   0.32748170  0.78420825  0.88165269
   0.33437061  0.82305624  0.00735809
   0.92579624  0.31895228  0.55186205
   0.87834127  0.32869163  0.69153943
   0.59886138  0.97996523  0.24032005
   0.55073692  0.98818176  0.37513540
   0.87259352  0.35852580  0.87473941
   0.81906647  0.37796182  0.97475373
   0.90159854  0.78896203  0.77514217
   0.85963872  0.83356431  0.65204266
   0.92438461  0.74523666  0.12048022
   0.88526093  0.78907706  0.97528777
   0.31705061  0.89239900  0.73920239
   0.31134684  0.85299396  0.61347495
   0.34110282  0.91318105  0.08272539
   0.33009403  0.87615857  0.94129276
   0.98726067  0.55947492  0.43573317
   0.98323530  0.51879018  0.31070583
   0.78277248  0.33063757  0.74654854
   0.83457789  0.31436349  0.63753703
   0.73205309  0.37106341  0.07031501
   0.77569815  0.36337983  0.92179205
   0.45831462  0.98540778  0.41635723
   0.50539195  0.97971042  0.30027015
   0.75115432  0.47459984  0.55875597
   0.14088162  0.16816333  0.50032826
   0.69118069  0.13715719  0.53902511
   0.02786755  0.47420640  0.85184643
   0.16694883  0.69294020  0.54695959
   0.50251620  0.01979955  0.84884279
   0.19422701  0.16903795  0.80177277
   0.65462192  0.18463055  0.82984349
   0.18429034  0.61619514  0.86977926
   0.81708356  0.83064625  0.19376298
   0.34301105  0.81200739  0.16266531
   0.81023416  0.40862065  0.09701081
   0.87132107  0.83439678  0.49887126
   0.30335377  0.86435057  0.45812914
   0.97100099  0.53137458  0.15783255
   0.84309518  0.28515043  0.51022777
   0.50650085  0.96833962  0.14549258
   0.71023251  0.33083050  0.41148193
   0.28886592  0.02129336  0.79395956
   0.65842389  0.33334012  0.16292936
   0.95930927  0.68721606  0.49385291
   0.35784502  0.95522841  0.45645681
   0.35446454  0.02258774  0.12924808
   0.71893977  0.97317212  0.19889548
   0.33714881  0.66957220  0.75787431
   0.69977589  0.28244717  0.82288148
   0.98037159  0.31414727  0.16515241
   0.30378548  0.71274629  0.19486277
   0.97777369  0.37947415  0.84992608
   0.65176376  0.96818954  0.86639631
   0.02833124  0.61898014  0.16016813
   0.64535567  0.04114252  0.53822612
   0.02373723  0.69452068  0.84793593
   0.29237321  0.63451452  0.58617552
   0.04338060  0.31518197  0.50736103
   0.83098655  0.35210333  0.31428457
Direct configuration=    36
   0.05900801  0.25488086  0.30291386
   0.03810696  0.30170583  0.95062179
   0.10436014  0.26099257  0.70872946
   0.69098692  0.05435637  0.33520206
   0.66912480  0.03118470  0.97618597
   0.64165140  0.09932454  0.74055751
   0.02156128  0.39391798  0.64798505
   0.26249918  0.67797200  0.35608051
   0.31215717  0.64727006 -0.00528535
   0.28005086  0.59970880  0.80167293
   0.59197340  0.01287104  0.65976377
   0.29772526  0.03586399  0.35693257
   0.23023884  0.07712162  0.59441272
   0.27497397  0.08087879  0.99797651
   0.65320870  0.29995918  0.42475570
   0.70007515  0.22361513  0.62976474
   0.99138016  0.63700935  0.73874747
   0.02833560  0.56352772  0.95536963
   0.66598416  0.26310059  0.03546266
   0.04510356  0.65305098  0.41126592
   0.07897747  0.68910032  0.64331033
   0.36880276  0.00062161  0.68925412
   0.41065953  0.02438392  0.93225221
   0.08846962  0.63726914  0.03508140
   0.70978778  0.96037094  0.64000470
   0.77788987  0.92247176  0.40201531
   0.73358402  0.91420717  0.99488673
   0.35090494  0.70210233  0.52958815
   0.28873310  0.78239073  0.36358650
   0.98978913  0.37656278  0.29899104
   0.97444186  0.43950079  0.05284772
   0.32818436  0.73500747  0.94999062
   0.97223626  0.31611004  0.62217923
   0.91654083  0.31708545  0.36521734
   0.63945003  0.98986794  0.30638056
   0.59939567  0.96324472  0.06418952
   0.91253314  0.36923776  0.95782537
   0.95420196  0.74764653  0.69610766
   0.97880115  0.70692664  0.07453869
   0.90604576  0.74462920  0.29249003
   0.31098973  0.94254685  0.66151749
   0.33338088  0.96334004  0.02128135
   0.35783295  0.89614743  0.25770479
   0.97571230  0.61168261  0.35761833
   0.74397048  0.31325240  0.68581207
   0.67928077  0.38310532  0.02349013
   0.75185373  0.35894087  0.25117758
   0.41621554  0.97679635  0.33297429
   0.71550883  0.50273632  0.67680273
   0.78710397  0.44682232  0.43904463
   0.11126875  0.21391694  0.22500849
   0.15241032  0.16833221  0.34644912
   0.08874157  0.26053206  0.88459283
   0.12759758  0.21354566  0.02399176
   0.68107099  0.10602212  0.25826509
   0.68321984  0.14774012  0.38321622
   0.65938321  0.08201201  0.91490752
   0.66828729  0.12080558  0.05463914
   0.01056922  0.44655828  0.57435610
   0.01548279  0.48687927  0.69906399
   0.22032772  0.66594866  0.28332182
   0.17135226  0.67595043  0.39720185
   0.27558006  0.62752050  0.96277833
   0.22607630  0.64119651  0.09350060
   0.55042557  0.00311306  0.57765163
   0.50370508  0.00837973  0.69413551
   0.24666630  0.07673155  0.41860774
   0.20740109  0.12344834  0.27805244
   0.22330619  0.12281495  0.07660020
   0.18258284  0.16863084  0.95545161
   0.67695414  0.24308685  0.46320996
   0.67489353  0.20212957  0.31592029
   0.00835384  0.58290488  0.78377420
   0.00347256  0.54310403  0.63674593
   0.66698473  0.21444798  0.11090823
   0.66219435  0.17433079  0.98617859
   0.08126154  0.66998394  0.46891262
   0.12729808  0.66425972  0.32756236
   0.41036083  0.00887677  0.75567220
   0.45835551  0.00002110  0.61916505
   0.12974106  0.64533330  0.12660211
   0.18061387  0.63272035  0.01926968
   0.76163892  0.92189180  0.57788557
   0.80305065  0.87609036  0.71777438
   0.78676174  0.87539073  0.91798802
   0.82880466  0.83159656  0.04080697
   0.31782822  0.75999819  0.52042171
   0.31831357  0.79902628  0.67772772
   0.98580988  0.42487880  0.23184724
   0.99400888  0.46331800  0.37444959
   0.32753905  0.78419553  0.88166136
   0.33441596  0.82303334  0.00742569
   0.92578692  0.31891020  0.55176635
   0.87832603  0.32865396  0.69147794
   0.59888315  0.97997434  0.24041806
   0.55074788  0.98818353  0.37518808
   0.87255518  0.35850999  0.87463606
   0.81898815  0.37802197  0.97464800
   0.90162137  0.78897619  0.77507416
   0.85965367  0.83356661  0.65196623
   0.92437863  0.74526105  0.12040102
   0.88526625  0.78910950  0.97521710
   0.31703752  0.89240303  0.73934692
   0.31134134  0.85302348  0.61351143
   0.34110056  0.91316344  0.08289314
   0.33009496  0.87617889  0.94143638
   0.98727767  0.55946132  0.43572023
   0.98324582  0.51877549  0.31069804
   0.78273009  0.33063916  0.74662234
   0.83454219  0.31436760  0.63753416
   0.73196992  0.37110213  0.07034379
   0.77563868  0.36343448  0.92177363
   0.45829029  0.98544623  0.41644862
   0.50537890  0.97972874  0.30032593
   0.75114113  0.47462714  0.55878286
   0.14088730  0.16813876  0.50031919
   0.69118077  0.13711193  0.53898705
   0.02786239  0.47420617  0.85181072
   0.16699315  0.69294675  0.54696858
   0.50249941  0.01982028  0.84889166
   0.19422542  0.16903060  0.80178808
   0.65459343  0.18472222  0.82984396
   0.18427325  0.61621189  0.86971774
   0.81710590  0.83065614  0.19375773
   0.34304063  0.81196914  0.16285137
   0.81019017  0.40867519  0.09703766
   0.87130912  0.83441703  0.49890957
   0.30331635  0.86439263  0.45822018
   0.97100419  0.53138159  0.15782203
   0.84298641  0.28513800  0.51016429
   0.50649731  0.96835330  0.14551489
   0.71028420  0.33078758  0.41140474
   0.28888578  0.02126841  0.79398460
   0.65847567  0.33326125  0.16322481
   0.95930500  0.68723646  0.49377128
   0.35785069  0.95524510  0.45660387
   0.35445443  0.02259555  0.12934727
   0.71891127  0.97317674  0.19880483
   0.33708692  0.66960031  0.75739699
   0.69983402  0.28245553  0.82305488
   0.98036860  0.31414067  0.16512166
   0.30380401  0.71277129  0.19472699
   0.97774457  0.37946316  0.84990214
   0.65177174  0.96821625  0.86651293
   0.02834888  0.61896528  0.16014265
   0.64535447  0.04114111  0.53817273
   0.02371027  0.69455040  0.84782134
   0.29234774  0.63445042  0.58639831
   0.04332939  0.31519431  0.50739726
   0.83100075  0.35213628  0.31412377
Direct configuration=    37
   0.05900290  0.25488000  0.30292450
   0.03810090  0.30170572  0.95062326
   0.10435275  0.26099058  0.70872581
   0.69098738  0.05434970  0.33520150
   0.66911585  0.03118931  0.97617854
   0.64164405  0.09933971  0.74048623
   0.02155257  0.39392324  0.64798389
   0.26251491  0.67795454  0.35605359
   0.31212126  0.64729377 -0.00537887
   0.28006174  0.59968862  0.80168609
   0.59197744  0.01287277  0.65977156
   0.29772648  0.03586543  0.35694353
   0.23024174  0.07711748  0.59440456
   0.27497184  0.08087827  0.99797732
   0.65325055  0.29992383  0.42478262
   0.70010435  0.22360043  0.62980159
   0.99138303  0.63700731  0.73873645
   0.02833883  0.56352478  0.95536037
   0.66599293  0.26310657  0.03546879
   0.04510658  0.65304778  0.41125553
   0.07898848  0.68910233  0.64333989
   0.36880855  0.00061631  0.68928879
   0.41065353  0.02438840  0.93227004
   0.08846015  0.63726879  0.03506941
   0.70978193  0.96038385  0.64000705
   0.77788789  0.92246691  0.40195793
   0.73358848  0.91420999  0.99489190
   0.35088247  0.70212312  0.52956844
   0.28872249  0.78239412  0.36365440
   0.98978792  0.37655956  0.29898338
   0.97443750  0.43949905  0.05284585
   0.32819196  0.73501649  0.94998643
   0.97224047  0.31610495  0.62217005
   0.91653860  0.31707771  0.36520162
   0.63944027  0.98988217  0.30639063
   0.59940235  0.96323791  0.06424979
   0.91253772  0.36922530  0.95782684
   0.95419478  0.74765739  0.69610698
   0.97880742  0.70692250  0.07451201
   0.90604429  0.74462918  0.29249392
   0.31099288  0.94255690  0.66152085
   0.33337537  0.96335489  0.02129463
   0.35783592  0.89613800  0.25775550
   0.97572038  0.61167823  0.35761131
   0.74397269  0.31324314  0.68579071
   0.67927862  0.38311234  0.02352570
   0.75185802  0.35893367  0.25116137
   0.41621458  0.97679950  0.33299723
   0.71551976  0.50273090  0.67675093
   0.78711089  0.44681957  0.43902494
   0.11127381  0.21391158  0.22499751
   0.15240752  0.16833363  0.34644462
   0.08873743  0.26053147  0.88459263
   0.12759830  0.21354337  0.02400588
   0.68105994  0.10602550  0.25821035
   0.68321449  0.14774383  0.38320207
   0.65937835  0.08201652  0.91492670
   0.66828017  0.12082568  0.05467135
   0.01056541  0.44655561  0.57436321
   0.01547897  0.48688147  0.69904258
   0.22033505  0.66594455  0.28329831
   0.17136035  0.67595298  0.39719712
   0.27558258  0.62751875  0.96274151
   0.22607823  0.64119629  0.09349509
   0.55042957  0.00311693  0.57765795
   0.50370208  0.00838206  0.69413560
   0.24666809  0.07672879  0.41861444
   0.20740188  0.12344516  0.27805209
   0.22330710  0.12281218  0.07660091
   0.18257855  0.16863317  0.95545413
   0.67698246  0.24308395  0.46318918
   0.67491541  0.20211759  0.31601117
   0.00835810  0.58290417  0.78378741
   0.00347452  0.54310038  0.63673114
   0.66699073  0.21443226  0.11091993
   0.66218965  0.17434201  0.98613824
   0.08126971  0.66998226  0.46889649
   0.12729849  0.66426587  0.32757655
   0.41035841  0.00887855  0.75569621
   0.45835573  0.00002553  0.61919172
   0.12974498  0.64533748  0.12662768
   0.18060469  0.63271956  0.01923438
   0.76164796  0.92188238  0.57788015
   0.80305154  0.87608932  0.71777312
   0.78676629  0.87539325  0.91793694
   0.82881137  0.83159523  0.04078289
   0.31781343  0.75999385  0.52034193
   0.31831247  0.79902578  0.67769332
   0.98580766  0.42487509  0.23184966
   0.99400895  0.46331794  0.37445598
   0.32754909  0.78418196  0.88164875
   0.33442438  0.82303598  0.00746287
   0.92578860  0.31890430  0.55171799
   0.87830963  0.32865152  0.69146294
   0.59888519  0.97997401  0.24041840
   0.55074869  0.98818466  0.37519803
   0.87254415  0.35850992  0.87461587
   0.81898360  0.37803408  0.97463827
   0.90163724  0.78896816  0.77504172
   0.85964998  0.83356618  0.65201102
   0.92437862  0.74526358  0.12038612
   0.88526388  0.78911726  0.97520257
   0.31704079  0.89240538  0.73939773
   0.31134154  0.85302765  0.61351625
   0.34110188  0.91316330  0.08291787
   0.33009835  0.87615952  0.94147876
   0.98728291  0.55945611  0.43573381
   0.98324824  0.51877345  0.31069988
   0.78273447  0.33063739  0.74662677
   0.83453254  0.31435832  0.63750580
   0.73195887  0.37111366  0.07033322
   0.77561107  0.36343598  0.92178857
   0.45829347  0.98544951  0.41644210
   0.50538078  0.97972993  0.30032552
   0.75112471  0.47464303  0.55883192
   0.14088814  0.16813369  0.50032792
   0.69118214  0.13710396  0.53899117
   0.02786221  0.47420449  0.85182046
   0.16700070  0.69294439  0.54693696
   0.50249804  0.01982312  0.84889087
   0.19422442  0.16902987  0.80179110
   0.65458985  0.18473332  0.82990386
   0.18426686  0.61621604  0.86971272
   0.81710670  0.83065788  0.19380234
   0.34304586  0.81196166  0.16285051
   0.81018520  0.40868899  0.09702879
   0.87130868  0.83442257  0.49886754
   0.30330774  0.86440444  0.45823598
   0.97100483  0.53138214  0.15781228
   0.84296350  0.28514929  0.51021782
   0.50649307  0.96835714  0.14552934
   0.71029521  0.33077734  0.41144216
   0.28888403  0.02126542  0.79400810
   0.65848238  0.33325050  0.16322513
   0.95930718  0.68723832  0.49375116
   0.35785004  0.95524831  0.45663333
   0.35444899  0.02259558  0.12936607
   0.71890780  0.97317865  0.19880456
   0.33708135  0.66960472  0.75735114
   0.69983815  0.28245734  0.82309662
   0.98036767  0.31413785  0.16511736
   0.30379732  0.71277805  0.19472769
   0.97773926  0.37946018  0.84990426
   0.65177585  0.96822250  0.86650849
   0.02834811  0.61896634  0.16014553
   0.64535180  0.04114236  0.53817423
   0.02370956  0.69455046  0.84780397
   0.29234384  0.63444128  0.58640607
   0.04332718  0.31519486  0.50739232
   0.83100320  0.35214073  0.31409168
Direct configuration=    38
   0.05899525  0.25487871  0.30294043
   0.03809185  0.30170555  0.95062546
   0.10434168  0.26098761  0.70872036
   0.69098806  0.05433973  0.33520065
   0.66910247  0.03119622  0.97616741
   0.64163304  0.09936242  0.74037954
   0.02153954  0.39393111  0.64798215
   0.26253845  0.67792841  0.35601329
   0.31206751  0.64732925 -0.00551885
   0.28007801  0.59965842  0.80170580
   0.59198350  0.01287537  0.65978323
   0.29772830  0.03586759  0.35695994
   0.23024610  0.07711129  0.59439233
   0.27496866  0.08087749  0.99797852
   0.65331318  0.29987092  0.42482292
   0.70014804  0.22357843  0.62985673
   0.99138733  0.63700426  0.73871997
   0.02834366  0.56352038  0.95534650
   0.66600606  0.26311552  0.03547797
   0.04511108  0.65304299  0.41123998
   0.07900496  0.68910534  0.64338413
   0.36881721  0.00060837  0.68934068
   0.41064454  0.02439509  0.93229673
   0.08844598  0.63726827  0.03505146
   0.70977316  0.96040317  0.64001056
   0.77788493  0.92245966  0.40187205
   0.73359515  0.91421421  0.99489963
   0.35084884  0.70215424  0.52953894
   0.28870660  0.78239919  0.36375603
   0.98978612  0.37655474  0.29897193
   0.97443098  0.43949646  0.05284304
   0.32820335  0.73502999  0.94998016
   0.97224676  0.31609732  0.62215630
   0.91653527  0.31706611  0.36517808
   0.63942564  0.98990348  0.30640570
   0.59941234  0.96322772  0.06434000
   0.91254456  0.36920666  0.95782903
   0.95418403  0.74767365  0.69610597
   0.97881679  0.70691631  0.07447207
   0.90604208  0.74462913  0.29249973
   0.31099760  0.94257195  0.66152587
   0.33336712  0.96337711  0.02131451
   0.35784037  0.89612390  0.25783139
   0.97573248  0.61167168  0.35760079
   0.74397599  0.31322929  0.68575874
   0.67927540  0.38312285  0.02357894
   0.75186444  0.35892290  0.25113711
   0.41621314  0.97680423  0.33303158
   0.71553611  0.50272279  0.67667341
   0.78712125  0.44681544  0.43899547
   0.11128139  0.21390356  0.22498107
   0.15240333  0.16833576  0.34643789
   0.08873122  0.26053060  0.88459234
   0.12759939  0.21353995  0.02402702
   0.68104339  0.10603056  0.25812842
   0.68320649  0.14774937  0.38318088
   0.65937108  0.08202328  0.91495542
   0.66826950  0.12085576  0.05471955
   0.01055971  0.44655160  0.57437386
   0.01547325  0.48688477  0.69901053
   0.22034602  0.66593840  0.28326313
   0.17137248  0.67595680  0.39719004
   0.27558634  0.62751612  0.96268641
   0.22608113  0.64119596  0.09348683
   0.55043554  0.00312274  0.57766740
   0.50369761  0.00838555  0.69413574
   0.24667076  0.07672466  0.41862448
   0.20740306  0.12344041  0.27805158
   0.22330847  0.12280804  0.07660196
   0.18257214  0.16863665  0.95545790
   0.67702485  0.24307961  0.46315809
   0.67494817  0.20209965  0.31614720
   0.00836446  0.58290312  0.78380718
   0.00347745  0.54309492  0.63670901
   0.66699972  0.21440873  0.11093744
   0.66218261  0.17435880  0.98607783
   0.08128193  0.66997975  0.46887236
   0.12729909  0.66427507  0.32759780
   0.41035479  0.00888121  0.75573214
   0.45835606  0.00003217  0.61923165
   0.12975084  0.64534374  0.12666596
   0.18059095  0.63271838  0.01918154
   0.76166150  0.92186829  0.57787203
   0.80305287  0.87608775  0.71777122
   0.78677311  0.87539703  0.91786047
   0.82882141  0.83159324  0.04074685
   0.31779130  0.75998735  0.52022251
   0.31831082  0.79902503  0.67764183
   0.98580434  0.42486953  0.23185327
   0.99400906  0.46331785  0.37446555
   0.32756412  0.78416166  0.88162988
   0.33443699  0.82303993  0.00751852
   0.92579113  0.31889548  0.55164561
   0.87828509  0.32864788  0.69144048
   0.59888823  0.97997350  0.24041892
   0.55074991  0.98818636  0.37521293
   0.87252765  0.35850982  0.87458564
   0.81897678  0.37805219  0.97462372
   0.90166099  0.78895616  0.77499315
   0.85964447  0.83356552  0.65207807
   0.92437860  0.74526738  0.12036382
   0.88526033  0.78912888  0.97518082
   0.31704569  0.89240890  0.73947378
   0.31134183  0.85303388  0.61352347
   0.34110387  0.91316309  0.08295489
   0.33010341  0.87613053  0.94154220
   0.98729076  0.55944831  0.43575414
   0.98325185  0.51877040  0.31070263
   0.78274103  0.33063473  0.74663341
   0.83451811  0.31434443  0.63746334
   0.73194231  0.37113092  0.07031740
   0.77556975  0.36343821  0.92181095
   0.45829822  0.98545442  0.41643234
   0.50538359  0.97973172  0.30032491
   0.75110013  0.47466682  0.55890536
   0.14088938  0.16812609  0.50034098
   0.69118420  0.13709203  0.53899734
   0.02786195  0.47420199  0.85183504
   0.16701201  0.69294087  0.54688963
   0.50249599  0.01982738  0.84888969
   0.19422292  0.16902876  0.80179562
   0.65458449  0.18474994  0.82999353
   0.18425728  0.61622226  0.86970521
   0.81710791  0.83066047  0.19386912
   0.34305369  0.81195047  0.16284924
   0.81017777  0.40870964  0.09701550
   0.87130800  0.83443087  0.49880463
   0.30329485  0.86442210  0.45825962
   0.97100580  0.53138296  0.15779768
   0.84292921  0.28516618  0.51029794
   0.50648672  0.96836290  0.14555096
   0.71031170  0.33076202  0.41149818
   0.28888142  0.02126095  0.79404326
   0.65849242  0.33323441  0.16322560
   0.95931046  0.68724110  0.49372104
   0.35784907  0.95525312  0.45667741
   0.35444085  0.02259563  0.12939422
   0.71890261  0.97318152  0.19880415
   0.33707301  0.66961134  0.75728250
   0.69984433  0.28246006  0.82315910
   0.98036628  0.31413363  0.16511092
   0.30378731  0.71278818  0.19472874
   0.97773130  0.37945571  0.84990743
   0.65178199  0.96823186  0.86650185
   0.02834697  0.61896792  0.16014985
   0.64534781  0.04114423  0.53817649
   0.02370851  0.69455055  0.84777797
   0.29233802  0.63442760  0.58641768
   0.04332388  0.31519570  0.50738492
   0.83100686  0.35214739  0.31404365
Direct configuration=    39
   0.05899022  0.25487698  0.30295063
   0.03808503  0.30170470  0.95062356
   0.10433286  0.26098414  0.70871699
   0.69098656  0.05433299  0.33517824
   0.66909434  0.03120357  0.97616502
   0.64163007  0.09937754  0.74033515
   0.02152866  0.39393666  0.64797638
   0.26255301  0.67790277  0.35600690
   0.31203281  0.64735430 -0.00561635
   0.28008955  0.59963982  0.80170828
   0.59198771  0.01287684  0.65980066
   0.29773074  0.03586838  0.35697539
   0.23024832  0.07710720  0.59438754
   0.27496536  0.08087688  0.99798402
   0.65335657  0.29983470  0.42484709
   0.70017885  0.22356236  0.62988421
   0.99139012  0.63700173  0.73869941
   0.02834857  0.56351582  0.95534211
   0.66601408  0.26312142  0.03549085
   0.04511521  0.65303992  0.41122182
   0.07902189  0.68910701  0.64339449
   0.36882561  0.00060094  0.68937411
   0.41063923  0.02440128  0.93232015
   0.08843508  0.63727201  0.03503172
   0.70977508  0.96041164  0.63999611
   0.77788244  0.92245287  0.40181964
   0.73360514  0.91421340  0.99490376
   0.35082347  0.70217224  0.52951096
   0.28869077  0.78240493  0.36378991
   0.98978397  0.37654991  0.29896676
   0.97442511  0.43949409  0.05284204
   0.32821378  0.73504165  0.94998914
   0.97225020  0.31608919  0.62215983
   0.91652667  0.31705562  0.36515555
   0.63941293  0.98991952  0.30642533
   0.59941775  0.96321894  0.06440662
   0.91255411  0.36919274  0.95784064
   0.95417533  0.74768825  0.69610933
   0.97882181  0.70691337  0.07444089
   0.90603872  0.74463182  0.29250003
   0.31099908  0.94258721  0.66152371
   0.33336046  0.96339241  0.02134031
   0.35784150  0.89611144  0.25787436
   0.97574247  0.61166415  0.35759404
   0.74398034  0.31322164  0.68571224
   0.67927568  0.38312399  0.02360009
   0.75186546  0.35891724  0.25110743
   0.41621169  0.97680896  0.33306589
   0.71551213  0.50274609  0.67673287
   0.78710100  0.44683444  0.43906732
   0.11128530  0.21389858  0.22497142
   0.15240154  0.16833554  0.34643743
   0.08872512  0.26053043  0.88459331
   0.12759927  0.21353834  0.02403580
   0.68103060  0.10603430  0.25807598
   0.68320291  0.14774752  0.38318830
   0.65936055  0.08203188  0.91494290
   0.66825747  0.12087830  0.05474538
   0.01055321  0.44655084  0.57437838
   0.01546910  0.48688578  0.69899461
   0.22035213  0.66593503  0.28322772
   0.17138483  0.67595858  0.39717807
   0.27558677  0.62751187  0.96264626
   0.22608334  0.64119259  0.09345646
   0.55043952  0.00312697  0.57767034
   0.50369583  0.00838945  0.69413302
   0.24667191  0.07672238  0.41862738
   0.20740311  0.12343704  0.27805123
   0.22330860  0.12280580  0.07660471
   0.18256840  0.16863774  0.95546254
   0.67706461  0.24306765  0.46316099
   0.67498154  0.20208494  0.31624547
   0.00836915  0.58290187  0.78381276
   0.00348135  0.54309074  0.63669435
   0.66701095  0.21438763  0.11096404
   0.66217859  0.17437451  0.98604857
   0.08128409  0.66997974  0.46887656
   0.12730330  0.66428365  0.32763116
   0.41035516  0.00888439  0.75576102
   0.45835694  0.00003670  0.61925090
   0.12975302  0.64534799  0.12669711
   0.18058399  0.63271700  0.01915341
   0.76166170  0.92186955  0.57784469
   0.80305126  0.87608996  0.71776444
   0.78677550  0.87540160  0.91780790
   0.82882546  0.83159547  0.04073115
   0.31777576  0.75998688  0.52017655
   0.31830572  0.79902405  0.67758477
   0.98580002  0.42486770  0.23185444
   0.99400851  0.46331771  0.37447447
   0.32757528  0.78415332  0.88159832
   0.33444595  0.82302947  0.00754996
   0.92579407  0.31889053  0.55160497
   0.87826341  0.32864628  0.69140033
   0.59888637  0.97997476  0.24044186
   0.55075125  0.98818877  0.37522724
   0.87251472  0.35851202  0.87456522
   0.81896400  0.37806473  0.97461326
   0.90167430  0.78894922  0.77496924
   0.85964584  0.83356100  0.65210131
   0.92438126  0.74526668  0.12035555
   0.88526469  0.78913135  0.97515975
   0.31705296  0.89241077  0.73952245
   0.31134359  0.85303943  0.61354390
   0.34110719  0.91316783  0.08299568
   0.33010984  0.87611140  0.94159708
   0.98729749  0.55944243  0.43576357
   0.98325474  0.51876892  0.31070241
   0.78274298  0.33063122  0.74663848
   0.83450635  0.31433618  0.63745277
   0.73193580  0.37114389  0.07032075
   0.77554698  0.36343701  0.92182577
   0.45830543  0.98545630  0.41642548
   0.50538864  0.97973242  0.30032494
   0.75114657  0.47463374  0.55874276
   0.14089019  0.16811990  0.50035273
   0.69118614  0.13708244  0.53899745
   0.02786077  0.47420040  0.85184234
   0.16702110  0.69293706  0.54684015
   0.50249562  0.01983021  0.84888217
   0.19422066  0.16902869  0.80180007
   0.65457903  0.18476230  0.83006262
   0.18424648  0.61622633  0.86968651
   0.81710910  0.83066300  0.19392113
   0.34306126  0.81194013  0.16283828
   0.81017420  0.40872961  0.09699072
   0.87130494  0.83443900  0.49876123
   0.30328266  0.86444066  0.45827672
   0.97100735  0.53138235  0.15778694
   0.84290106  0.28518137  0.51037353
   0.50647926  0.96836809  0.14556905
   0.71032777  0.33074877  0.41157425
   0.28887508  0.02125921  0.79408281
   0.65849955  0.33322526  0.16318519
   0.95931596  0.68724079  0.49369146
   0.35784782  0.95525690  0.45671456
   0.35443263  0.02259539  0.12941907
   0.71889932  0.97318459  0.19881684
   0.33706962  0.66961606  0.75726134
   0.69984544  0.28246109  0.82321192
   0.98036475  0.31412842  0.16510482
   0.30377139  0.71279710  0.19474190
   0.97772460  0.37945173  0.84991375
   0.65178875  0.96823919  0.86647981
   0.02834316  0.61897199  0.16015931
   0.64534230  0.04114839  0.53818665
   0.02371276  0.69454587  0.84776050
   0.29233458  0.63441789  0.58639736
   0.04332712  0.31519476  0.50736897
   0.83100864  0.35215256  0.31400148
Direct configuration=    40
   0.05899003  0.25487692  0.30295099
   0.03808478  0.30170467  0.95062349
   0.10433255  0.26098402  0.70871686
   0.69098651  0.05433275  0.33517743
   0.66909405  0.03120383  0.97616493
   0.64162996  0.09937808  0.74033355
   0.02152826  0.39393686  0.64797617
   0.26255354  0.67790185  0.35600667
   0.31203156  0.64735520 -0.00561987
   0.28008996  0.59963915  0.80170837
   0.59198786  0.01287689  0.65980128
   0.29773083  0.03586841  0.35697594
   0.23024840  0.07710705  0.59438737
   0.27496524  0.08087686  0.99798422
   0.65335813  0.29983340  0.42484796
   0.70017996  0.22356178  0.62988520
   0.99139022  0.63700164  0.73869867
   0.02834875  0.56351566  0.95534196
   0.66601437  0.26312163  0.03549132
   0.04511536  0.65303981  0.41122117
   0.07902250  0.68910707  0.64339486
   0.36882591  0.00060068  0.68937531
   0.41063903  0.02440151  0.93232099
   0.08843469  0.63727214  0.03503101
   0.70977515  0.96041195  0.63999558
   0.77788235  0.92245263  0.40181775
   0.73360550  0.91421337  0.99490391
   0.35082255  0.70217289  0.52950995
   0.28869020  0.78240514  0.36379113
   0.98978389  0.37654974  0.29896658
   0.97442490  0.43949401  0.05284200
   0.32821415  0.73504207  0.94998946
   0.97225033  0.31608890  0.62215995
   0.91652636  0.31705524  0.36515474
   0.63941247  0.98992010  0.30642603
   0.59941795  0.96321862  0.06440902
   0.91255446  0.36919224  0.95784106
   0.95417501  0.74768877  0.69610945
   0.97882199  0.70691326  0.07443977
   0.90603860  0.74463191  0.29250005
   0.31099913  0.94258775  0.66152363
   0.33336022  0.96339297  0.02134123
   0.35784154  0.89611099  0.25787591
   0.97574283  0.61166388  0.35759380
   0.74398050  0.31322137  0.68571057
   0.67927569  0.38312403  0.02360085
   0.75186550  0.35891704  0.25110636
   0.41621164  0.97680913  0.33306713
   0.71551126  0.50274693  0.67673501
   0.78710027  0.44683513  0.43906991
   0.11128544  0.21389840  0.22497107
   0.15240148  0.16833553  0.34643742
   0.08872490  0.26053043  0.88459335
   0.12759927  0.21353828  0.02403612
   0.68103014  0.10603443  0.25807409
   0.68320278  0.14774746  0.38318857
   0.65936017  0.08203219  0.91494244
   0.66825704  0.12087911  0.05474631
   0.01055298  0.44655081  0.57437854
   0.01546895  0.48688582  0.69899404
   0.22035235  0.66593491  0.28322645
   0.17138527  0.67595865  0.39717763
   0.27558679  0.62751172  0.96264481
   0.22608342  0.64119247  0.09345537
   0.55043967  0.00312713  0.57767045
   0.50369577  0.00838959  0.69413293
   0.24667195  0.07672230  0.41862749
   0.20740312  0.12343692  0.27805122
   0.22330860  0.12280572  0.07660480
   0.18256827  0.16863778  0.95546271
   0.67706604  0.24306722  0.46316109
   0.67498274  0.20208441  0.31624901
   0.00836932  0.58290183  0.78381296
   0.00348149  0.54309059  0.63669383
   0.66701135  0.21438687  0.11096500
   0.66217845  0.17437507  0.98604752
   0.08128417  0.66997974  0.46887671
   0.12730345  0.66428396  0.32763236
   0.41035517  0.00888451  0.75576206
   0.45835697  0.00003686  0.61925159
   0.12975310  0.64534814  0.12669823
   0.18058374  0.63271695  0.01915239
   0.76166171  0.92186960  0.57784370
   0.80305120  0.87609004  0.71776420
   0.78677558  0.87540176  0.91780601
   0.82882560  0.83159555  0.04073059
   0.31777520  0.75998686  0.52017489
   0.31830553  0.79902402  0.67758271
   0.98579986  0.42486764  0.23185448
   0.99400849  0.46331770  0.37447479
   0.32757568  0.78415302  0.88159719
   0.33444627  0.82302910  0.00755110
   0.92579417  0.31889036  0.55160351
   0.87826263  0.32864622  0.69139888
   0.59888630  0.97997481  0.24044268
   0.55075130  0.98818885  0.37522776
   0.87251425  0.35851210  0.87456448
   0.81896354  0.37806518  0.97461288
   0.90167478  0.78894897  0.77496838
   0.85964589  0.83356083  0.65210214
   0.92438136  0.74526665  0.12035525
   0.88526485  0.78913144  0.97515899
   0.31705322  0.89241084  0.73952421
   0.31134366  0.85303963  0.61354464
   0.34110731  0.91316800  0.08299714
   0.33011008  0.87611071  0.94159906
   0.98729774  0.55944221  0.43576391
   0.98325485  0.51876887  0.31070240
   0.78274305  0.33063110  0.74663867
   0.83450593  0.31433588  0.63745239
   0.73193556  0.37114435  0.07032087
   0.77554616  0.36343697  0.92182630
   0.45830569  0.98545637  0.41642523
   0.50538883  0.97973244  0.30032494
   0.75114824  0.47463255  0.55873690
   0.14089022  0.16811968  0.50035315
   0.69118621  0.13708210  0.53899746
   0.02786073  0.47420034  0.85184261
   0.16702143  0.69293692  0.54683837
   0.50249561  0.01983032  0.84888190
   0.19422058  0.16902868  0.80180023
   0.65457884  0.18476274  0.83006511
   0.18424609  0.61622648  0.86968584
   0.81710914  0.83066310  0.19392300
   0.34306153  0.81193975  0.16283788
   0.81017407  0.40873033  0.09698983
   0.87130483  0.83443929  0.49875967
   0.30328222  0.86444132  0.45827733
   0.97100741  0.53138233  0.15778655
   0.84290005  0.28518192  0.51037626
   0.50647899  0.96836828  0.14556970
   0.71032835  0.33074830  0.41157698
   0.28887485  0.02125915  0.79408423
   0.65849981  0.33322493  0.16318373
   0.95931615  0.68724078  0.49369040
   0.35784777  0.95525704  0.45671590
   0.35443234  0.02259538  0.12941997
   0.71889920  0.97318470  0.19881730
   0.33706950  0.66961624  0.75726058
   0.69984548  0.28246113  0.82321382
   0.98036469  0.31412823  0.16510460
   0.30377082  0.71279742  0.19474237
   0.97772436  0.37945158  0.84991398
   0.65178899  0.96823945  0.86647902
   0.02834302  0.61897213  0.16015965
   0.64534210  0.04114854  0.53818702
   0.02371291  0.69454570  0.84775987
   0.29233445  0.63441754  0.58639663
   0.04332723  0.31519473  0.50736839
   0.83100871  0.35215275  0.31399996
Direct configuration=    41
   0.05898880  0.25487390  0.30295324
   0.03808084  0.30170303  0.95061925
   0.10432647  0.26098059  0.70871572
   0.69098299  0.05433173  0.33513968
   0.66908952  0.03121241  0.97616460
   0.64163340  0.09938499  0.74034535
   0.02152018  0.39393886  0.64797104
   0.26256126  0.67788067  0.35601859
   0.31201621  0.64737244 -0.00567310
   0.28009706  0.59962913  0.80169285
   0.59198990  0.01287761  0.65981966
   0.29773372  0.03586798  0.35698812
   0.23024851  0.07710501  0.59439058
   0.27496252  0.08087637  0.99799128
   0.65338150  0.29981873  0.42485156
   0.70019967  0.22355139  0.62989342
   0.99139192  0.63699986  0.73867969
   0.02835293  0.56351204  0.95534441
   0.66601811  0.26311998  0.03551368
   0.04511977  0.65303916  0.41120943
   0.07903586  0.68910679  0.64337841
   0.36883218  0.00059474  0.68939333
   0.41063688  0.02440684  0.93234111
   0.08843044  0.63727839  0.03502127
   0.70978454  0.96041193  0.63997027
   0.77788005  0.92244686  0.40180002
   0.73361487  0.91421082  0.99490279
   0.35080883  0.70217446  0.52948636
   0.28867212  0.78241351  0.36375559
   0.98978170  0.37654606  0.29896625
   0.97442020  0.43949212  0.05284377
   0.32822250  0.73504695  0.95000845
   0.97224920  0.31608168  0.62216720
   0.91651695  0.31704688  0.36513489
   0.63940379  0.98993094  0.30644647
   0.59942065  0.96321093  0.06443919
   0.91256095  0.36918247  0.95785057
   0.95417414  0.74769588  0.69610793
   0.97882171  0.70691365  0.07442272
   0.90603638  0.74463536  0.29249089
   0.31099870  0.94259707  0.66152775
   0.33335632  0.96339710  0.02137430
   0.35783993  0.89610380  0.25788642
   0.97575013  0.61165691  0.35759122
   0.74398490  0.31321823  0.68566717
   0.67927541  0.38312027  0.02359873
   0.75186388  0.35891541  0.25108776
   0.41621086  0.97681330  0.33309517
   0.71551036  0.50275116  0.67672244
   0.78710507  0.44683369  0.43905747
   0.11128405  0.21389774  0.22497357
   0.15240235  0.16833269  0.34644353
   0.08871978  0.26053039  0.88459561
   0.12759762  0.21353892  0.02403209
   0.68102242  0.10603689  0.25806555
   0.68320368  0.14773945  0.38321690
   0.65934890  0.08204292  0.91490381
   0.66824471  0.12088976  0.05473459
   0.01054676  0.44655329  0.57437694
   0.01546712  0.48688419  0.69899911
   0.22035466  0.66593307  0.28319457
   0.17139459  0.67595818  0.39715799
   0.27558200  0.62750697  0.96262157
   0.22608339  0.64118719  0.09341241
   0.55044055  0.00312971  0.57767093
   0.50369741  0.00839348  0.69412999
   0.24667170  0.07672179  0.41862496
   0.20740207  0.12343527  0.27805163
   0.22330685  0.12280585  0.07660839
   0.18256793  0.16863619  0.95546684
   0.67710123  0.24304638  0.46320049
   0.67501048  0.20207283  0.31627798
   0.00837223  0.58289993  0.78380428
   0.00348571  0.54308839  0.63669184
   0.66702324  0.21437768  0.11100140
   0.66217783  0.17438501  0.98606930
   0.08128080  0.66998192  0.46890107
   0.12730905  0.66428986  0.32765971
   0.41035836  0.00888733  0.75578094
   0.45835792  0.00003913  0.61924952
   0.12974992  0.64535014  0.12671101
   0.18058345  0.63271665  0.01915270
   0.76165379  0.92188021  0.57780558
   0.80304889  0.87609410  0.71774640
   0.78677544  0.87540479  0.91779320
   0.82882433  0.83160050  0.04073709
   0.31776633  0.75999413  0.52020133
   0.31829994  0.79902387  0.67754363
   0.98579562  0.42486850  0.23185423
   0.99400705  0.46331709  0.37447714
   0.32758247  0.78415655  0.88156020
   0.33445137  0.82300973  0.00754889
   0.92579476  0.31888826  0.55159993
   0.87825076  0.32864692  0.69135635
   0.59888162  0.97997758  0.24048227
   0.55075270  0.98819152  0.37524093
   0.87250673  0.35851521  0.87455435
   0.81894693  0.37807157  0.97460353
   0.90167464  0.78895016  0.77497118
   0.85965190  0.83355587  0.65207319
   0.92438507  0.74526356  0.12035679
   0.88527370  0.78912726  0.97514719
   0.31706059  0.89241113  0.73954241
   0.31134565  0.85304464  0.61356698
   0.34111052  0.91317379  0.08303503
   0.33011637  0.87610765  0.94163502
   0.98730252  0.55943890  0.43575880
   0.98325686  0.51876815  0.31069886
   0.78273720  0.33062822  0.74664648
   0.83449768  0.31433653  0.63747742
   0.73193503  0.37115146  0.07033701
   0.77554503  0.36343524  0.92182794
   0.45831162  0.98545654  0.41642901
   0.50539369  0.97973277  0.30032912
   0.75114587  0.47463696  0.55873724
   0.14089066  0.16811534  0.50035963
   0.69118784  0.13707462  0.53899412
   0.02785861  0.47420006  0.85183897
   0.16702829  0.69293447  0.54680296
   0.50249635  0.01983205  0.84887296
   0.19421804  0.16902931  0.80180426
   0.65457299  0.18477253  0.83009110
   0.18423570  0.61622836  0.86965970
   0.81711122  0.83066553  0.19394337
   0.34306857  0.81193019  0.16283140
   0.81017311  0.40874698  0.09695849
   0.87129974  0.83444595  0.49874865
   0.30327217  0.86445810  0.45829145
   0.97100940  0.53138071  0.15778222
   0.84288043  0.28518973  0.51042014
   0.50647225  0.96837218  0.14557950
   0.71034180  0.33073865  0.41164707
   0.28886742  0.02125972  0.79411881
   0.65850506  0.33322104  0.16312636
   0.95932218  0.68723843  0.49366503
   0.35784715  0.95525947  0.45674390
   0.35442600  0.02259536  0.12944010
   0.71889729  0.97318733  0.19883483
   0.33706901  0.66961926  0.75727050
   0.69984394  0.28246073  0.82325051
   0.98036321  0.31412288  0.16509916
   0.30375368  0.71280424  0.19475811
   0.97771948  0.37944880  0.84992034
   0.65179491  0.96824386  0.86645494
   0.02833824  0.61897693  0.16016978
   0.64533638  0.04115391  0.53819908
   0.02372007  0.69453919  0.84775002
   0.29233382  0.63441066  0.58636301
   0.04333390  0.31519284  0.50734965
   0.83100929  0.35215553  0.31396484
Direct configuration=    42
   0.05898513  0.25486486  0.30295994
   0.03806906  0.30169814  0.95060658
   0.10430829  0.26097036  0.70871229
   0.69097248  0.05432869  0.33502682
   0.66907596  0.03123807  0.97616359
   0.64164366  0.09940565  0.74038060
   0.02149603  0.39394484  0.64795568
   0.26258434  0.67781734  0.35605421
   0.31197030  0.64742399 -0.00583226
   0.28011827  0.59959916  0.80164647
   0.59199599  0.01287977  0.65987462
   0.29774237  0.03586668  0.35702454
   0.23024884  0.07709891  0.59440018
   0.27495439  0.08087489  0.99801241
   0.65345136  0.29977487  0.42486232
   0.70025860  0.22352034  0.62991798
   0.99139697  0.63699456  0.73862294
   0.02836546  0.56350123  0.95535173
   0.66602931  0.26311505  0.03558056
   0.04513296  0.65303724  0.41117435
   0.07907584  0.68910595  0.64332920
   0.36885093  0.00057701  0.68944720
   0.41063044  0.02442277  0.93240125
   0.08841774  0.63729706  0.03499215
   0.70981263  0.96041189  0.63989457
   0.77787317  0.92242959  0.40174700
   0.73364288  0.91420320  0.99489941
   0.35076780  0.70217916  0.52941584
   0.28861805  0.78243854  0.36364933
   0.98977513  0.37653506  0.29896528
   0.97440613  0.43948649  0.05284906
   0.32824747  0.73506154  0.95006523
   0.97224583  0.31606009  0.62218888
   0.91648880  0.31702189  0.36507553
   0.63937786  0.98996336  0.30650758
   0.59942874  0.96318793  0.06452942
   0.91258036  0.36915325  0.95787901
   0.95417154  0.74771714  0.69610337
   0.97882087  0.70691482  0.07437174
   0.90602976  0.74464565  0.29246350
   0.31099742  0.94262493  0.66154008
   0.33334465  0.96340945  0.02147318
   0.35783512  0.89608231  0.25791784
   0.97577194  0.61163607  0.35758350
   0.74399806  0.31320886  0.68553740
   0.67927460  0.38310901  0.02359239
   0.75185903  0.35891053  0.25103213
   0.41620854  0.97682579  0.33317900
   0.71550766  0.50276383  0.67668488
   0.78711943  0.44682941  0.43902028
   0.11127988  0.21389573  0.22498104
   0.15240497  0.16832421  0.34646181
   0.08870444  0.26053028  0.88460236
   0.12759270  0.21354082  0.02402004
   0.68099932  0.10604424  0.25804001
   0.68320639  0.14771551  0.38330161
   0.65931520  0.08207500  0.91478828
   0.66820784  0.12092160  0.05469957
   0.01052815  0.44656070  0.57437215
   0.01546165  0.48687931  0.69901427
   0.22036158  0.66592755  0.28309927
   0.17142247  0.67595677  0.39709926
   0.27556767  0.62749275  0.96255206
   0.22608329  0.64117142  0.09328397
   0.55044320  0.00313742  0.57767238
   0.50370233  0.00840510  0.69412121
   0.24667098  0.07672027  0.41861739
   0.20739894  0.12343032  0.27805286
   0.22330162  0.12280623  0.07661911
   0.18256691  0.16863146  0.95547919
   0.67720646  0.24298407  0.46331830
   0.67509344  0.20203821  0.31636460
   0.00838090  0.58289426  0.78377832
   0.00349833  0.54308179  0.63668588
   0.66705877  0.21435020  0.11111025
   0.66217599  0.17441473  0.98613442
   0.08127074  0.66998841  0.46897392
   0.12732577  0.66430752  0.32774149
   0.41036791  0.00889578  0.75583737
   0.45836077  0.00004592  0.61924333
   0.12974043  0.64535610  0.12674923
   0.18058261  0.63271578  0.01915362
   0.76163013  0.92191195  0.57769160
   0.80304200  0.87610622  0.71769318
   0.78677501  0.87541387  0.91775492
   0.82882051  0.83161531  0.04075652
   0.31773979  0.76001586  0.52028037
   0.31828321  0.79902345  0.67742677
   0.98578294  0.42487109  0.23185349
   0.99400273  0.46331523  0.37448416
   0.32760277  0.78416711  0.88144962
   0.33446663  0.82295184  0.00754231
   0.92579650  0.31888201  0.55158923
   0.87821526  0.32864901  0.69122919
   0.59886762  0.97998589  0.24060063
   0.55075688  0.98819949  0.37528032
   0.87248425  0.35852452  0.87452405
   0.81889726  0.37809069  0.97457555
   0.90167422  0.78895372  0.77497954
   0.85966989  0.83354103  0.65198662
   0.92439620  0.74525430  0.12036138
   0.88530016  0.78911475  0.97511191
   0.31708265  0.89241201  0.73959683
   0.31135162  0.85305962  0.61363376
   0.34112013  0.91319112  0.08314830
   0.33013520  0.87609852  0.94174257
   0.98731680  0.55942898  0.43574354
   0.98326286  0.51876601  0.31068829
   0.78271973  0.33061964  0.74666984
   0.83447300  0.31433846  0.63755229
   0.73193342  0.37117270  0.07038528
   0.77554166  0.36343009  0.92183284
   0.45832936  0.98545705  0.41644030
   0.50540824  0.97973375  0.30034159
   0.75113879  0.47465015  0.55873826
   0.14089199  0.16810237  0.50037902
   0.69119274  0.13705227  0.53898413
   0.02785227  0.47419921  0.85182809
   0.16704881  0.69292715  0.54669709
   0.50249855  0.01983725  0.84884623
   0.19421043  0.16903118  0.80181631
   0.65455552  0.18480179  0.83016881
   0.18420465  0.61623397  0.86958154
   0.81711741  0.83067280  0.19400424
   0.34308962  0.81190161  0.16281202
   0.81017025  0.40879678  0.09686479
   0.87128454  0.83446587  0.49871568
   0.30324212  0.86450826  0.45833366
   0.97101534  0.53137585  0.15776929
   0.84282177  0.28521309  0.51055137
   0.50645209  0.96838382  0.14560882
   0.71038201  0.33070980  0.41185664
   0.28884518  0.02126140  0.79422219
   0.65852077  0.33320940  0.16295481
   0.95934022  0.68723140  0.49358918
   0.35784528  0.95526674  0.45682762
   0.35440704  0.02259530  0.12950028
   0.71889156  0.97319518  0.19888725
   0.33706753  0.66962832  0.75730015
   0.69983932  0.28245954  0.82336020
   0.98035876  0.31410688  0.16508287
   0.30370243  0.71282464  0.19480518
   0.97770488  0.37944050  0.84993934
   0.65181259  0.96825705  0.86638292
   0.02832396  0.61899127  0.16020007
   0.64531925  0.04116994  0.53823513
   0.02374145  0.69451971  0.84772058
   0.29233194  0.63439009  0.58626248
   0.04335385  0.31518720  0.50729361
   0.83101105  0.35216385  0.31385980
Direct configuration=    43
   0.05898518  0.25485865  0.30295845
   0.03806241  0.30169587  0.95060288
   0.10430005  0.26096446  0.70870842
   0.69096280  0.05433062  0.33496418
   0.66906813  0.03125510  0.97614972
   0.64164389  0.09941982  0.74034421
   0.02148267  0.39394588  0.64794913
   0.26259565  0.67778734  0.35605591
   0.31195012  0.64744740 -0.00588648
   0.28012806  0.59958583  0.80159973
   0.59199705  0.01288113  0.65990143
   0.29774555  0.03586705  0.35704470
   0.23024782  0.07709719  0.59440074
   0.27495078  0.08087363  0.99802582
   0.65348466  0.29975739  0.42486142
   0.70029882  0.22349608  0.62999765
   0.99140059  0.63699071  0.73859614
   0.02836941  0.56349971  0.95534058
   0.66603367  0.26310306  0.03563486
   0.04513815  0.65303874  0.41117190
   0.07908864  0.68910803  0.64333726
   0.36886109  0.00056946  0.68948264
   0.41062971  0.02443125  0.93242819
   0.08841668  0.63730869  0.03499451
   0.70981060  0.96042571  0.63986213
   0.77787142  0.92242251  0.40169233
   0.73364596  0.91420852  0.99489983
   0.35074591  0.70218060  0.52938891
   0.28859942  0.78244479  0.36363598
   0.98977094  0.37653348  0.29896382
   0.97439800  0.43948482  0.05285196
   0.32825998  0.73506254  0.95008522
   0.97224181  0.31604830  0.62219045
   0.91647973  0.31700873  0.36507396
   0.63936708  0.98997951  0.30654536
   0.59943431  0.96317789  0.06457763
   0.91257687  0.36913798  0.95787695
   0.95418234  0.74771737  0.69609115
   0.97882191  0.70691219  0.07435954
   0.90602879  0.74464943  0.29245153
   0.31099623  0.94262843  0.66156874
   0.33333989  0.96341268  0.02153778
   0.35783440  0.89607595  0.25795431
   0.97578214  0.61162843  0.35757843
   0.74399968  0.31320253  0.68549068
   0.67927690  0.38310144  0.02357858
   0.75185780  0.35890944  0.25104619
   0.41620926  0.97683241  0.33321671
   0.71551375  0.50276480  0.67663920
   0.78712629  0.44682759  0.43900244
   0.11127689  0.21389466  0.22499090
   0.15240441  0.16832084  0.34647234
   0.08869863  0.26052771  0.88460113
   0.12758910  0.21354166  0.02401943
   0.68098842  0.10604916  0.25804598
   0.68321071  0.14770778  0.38331023
   0.65930685  0.08208788  0.91481210
   0.66818781  0.12093233  0.05467174
   0.01051904  0.44656410  0.57437502
   0.01545848  0.48687906  0.69902153
   0.22036561  0.66592022  0.28303328
   0.17143203  0.67595482  0.39706028
   0.27556442  0.62748692  0.96250486
   0.22608408  0.64116632  0.09324485
   0.55044354  0.00314184  0.57768840
   0.50370411  0.00841120  0.69411105
   0.24667072  0.07671836  0.41862603
   0.20739715  0.12342804  0.27805671
   0.22329716  0.12280758  0.07662702
   0.18256535  0.16863041  0.95548164
   0.67725060  0.24295912  0.46332811
   0.67513767  0.20200755  0.31637489
   0.00838725  0.58288910  0.78377102
   0.00350591  0.54307582  0.63669077
   0.66708166  0.21435395  0.11118752
   0.66217558  0.17441713  0.98619619
   0.08127873  0.66999039  0.46896872
   0.12732536  0.66431028  0.32774199
   0.41037130  0.00889915  0.75585689
   0.45836589  0.00005022  0.61924398
   0.12973684  0.64536019  0.12676366
   0.18057553  0.63271200  0.01913408
   0.76163635  0.92191085  0.57766036
   0.80304830  0.87610669  0.71763491
   0.78678304  0.87541137  0.91775737
   0.82882966  0.83161437  0.04076270
   0.31771557  0.76003109  0.52023607
   0.31827621  0.79903587  0.67741492
   0.98577662  0.42486863  0.23186170
   0.99399761  0.46331638  0.37447159
   0.32761050  0.78416128  0.88139250
   0.33447465  0.82294965  0.00751050
   0.92578516  0.31887726  0.55157060
   0.87820988  0.32866079  0.69122243
   0.59886480  0.97998744  0.24062585
   0.55075641  0.98820413  0.37530437
   0.87247382  0.35852808  0.87450495
   0.81889151  0.37810065  0.97455891
   0.90166922  0.78895970  0.77497569
   0.85966249  0.83354725  0.65195164
   0.92439873  0.74525365  0.12034570
   0.88529767  0.78911800  0.97513510
   0.31709559  0.89241452  0.73963598
   0.31135144  0.85306731  0.61362751
   0.34112155  0.91318831  0.08317977
   0.33014581  0.87609610  0.94177099
   0.98732499  0.55942220  0.43573239
   0.98326627  0.51876153  0.31067948
   0.78270824  0.33061935  0.74669667
   0.83445941  0.31434487  0.63760067
   0.73192815  0.37117918  0.07039028
   0.77553875  0.36342855  0.92182604
   0.45833358  0.98545694  0.41645874
   0.50541212  0.97973463  0.30035585
   0.75112831  0.47466261  0.55876042
   0.14089267  0.16809581  0.50038530
   0.69119748  0.13703662  0.53900983
   0.02784851  0.47419842  0.85182438
   0.16706140  0.69292572  0.54666214
   0.50250077  0.01984057  0.84883877
   0.19420633  0.16903218  0.80182214
   0.65454443  0.18482009  0.83018620
   0.18418594  0.61623865  0.86955684
   0.81712206  0.83067783  0.19400579
   0.34310223  0.81188040  0.16281054
   0.81016783  0.40882083  0.09679473
   0.87127829  0.83447472  0.49869422
   0.30322683  0.86453588  0.45837680
   0.97101933  0.53137238  0.15776596
   0.84279375  0.28521741  0.51058548
   0.50644251  0.96838954  0.14561676
   0.71039958  0.33069752  0.41193263
   0.28883401  0.02126415  0.79427028
   0.65853273  0.33320279  0.16286903
   0.95934970  0.68722731  0.49355169
   0.35784652  0.95526939  0.45686930
   0.35439954  0.02259638  0.12953325
   0.71888766  0.97319937  0.19890798
   0.33706619  0.66963364  0.75732474
   0.69983650  0.28245916  0.82340874
   0.98035486  0.31409767  0.16507740
   0.30367316  0.71283659  0.19483045
   0.97769834  0.37943761  0.84994679
   0.65182085  0.96826169  0.86636257
   0.02831606  0.61899902  0.16020922
   0.64530995  0.04117976  0.53824875
   0.02375316  0.69451135  0.84770548
   0.29233700  0.63437553  0.58622700
   0.04336503  0.31518415  0.50726377
   0.83101104  0.35216734  0.31380203
Direct configuration=    44
   0.05898531  0.25484474  0.30295513
   0.03804753  0.30169080  0.95059460
   0.10428162  0.26095128  0.70869975
   0.69094117  0.05433493  0.33482412
   0.66905064  0.03129320  0.97611870
   0.64164438  0.09945152  0.74026285
   0.02145281  0.39394822  0.64793450
   0.26262095  0.67772027  0.35605972
   0.31190499  0.64749973 -0.00600773
   0.28014995  0.59955603  0.80149523
   0.59199941  0.01288417  0.65996137
   0.29775264  0.03586788  0.35708978
   0.23024555  0.07709334  0.59440200
   0.27494270  0.08087082  0.99805582
   0.65355913  0.29971830  0.42485941
   0.70038874  0.22344186  0.63017575
   0.99140866  0.63698212  0.73853624
   0.02837825  0.56349630  0.95531568
   0.66604341  0.26307624  0.03575626
   0.04514975  0.65304210  0.41116644
   0.07911725  0.68911269  0.64335527
   0.36888380  0.00055259  0.68956187
   0.41062807  0.02445021  0.93248842
   0.08841430  0.63733469  0.03499980
   0.70980606  0.96045661  0.63978961
   0.77786751  0.92240669  0.40157009
   0.73365284  0.91422043  0.99490076
   0.35069697  0.70218381  0.52932869
   0.28855776  0.78245876  0.36360613
   0.98976158  0.37652993  0.29896057
   0.97437981  0.43948107  0.05285842
   0.32828793  0.73506477  0.95012991
   0.97223282  0.31602195  0.62219397
   0.91645943  0.31697931  0.36507045
   0.63934296  0.99001563  0.30662985
   0.59944675  0.96315543  0.06468542
   0.91256906  0.36910385  0.95787235
   0.95420651  0.74771789  0.69606385
   0.97882424  0.70690629  0.07433227
   0.90602663  0.74465787  0.29242476
   0.31099357  0.94263626  0.66163282
   0.33332923  0.96341989  0.02168222
   0.35783280  0.89606171  0.25803585
   0.97580493  0.61161137  0.35756710
   0.74400329  0.31318838  0.68538621
   0.67928203  0.38308451  0.02354770
   0.75185504  0.35890700  0.25107763
   0.41621088  0.97684721  0.33330102
   0.71552737  0.50276699  0.67653707
   0.78714162  0.44682350  0.43896256
   0.11127019  0.21389226  0.22501294
   0.15240315  0.16831332  0.34649589
   0.08868564  0.26052197  0.88459838
   0.12758105  0.21354353  0.02401808
   0.68096404  0.10606016  0.25805935
   0.68322039  0.14769049  0.38332951
   0.65928819  0.08211666  0.91486534
   0.66814302  0.12095632  0.05460951
   0.01049866  0.44657171  0.57438142
   0.01545138  0.48687852  0.69903775
   0.22037463  0.66590385  0.28288574
   0.17145339  0.67595047  0.39697313
   0.27555717  0.62747390  0.96239933
   0.22608584  0.64115491  0.09315738
   0.55044432  0.00315172  0.57772422
   0.50370807  0.00842483  0.69408833
   0.24667014  0.07671409  0.41864533
   0.20739313  0.12342293  0.27806532
   0.22328720  0.12281061  0.07664470
   0.18256187  0.16862807  0.95548712
   0.67734931  0.24290335  0.46335006
   0.67523657  0.20193900  0.31639790
   0.00840143  0.58287757  0.78375470
   0.00352285  0.54306246  0.63670170
   0.66713283  0.21436233  0.11136028
   0.66217467  0.17442249  0.98633431
   0.08129662  0.66999480  0.46895710
   0.12732444  0.66431644  0.32774310
   0.41037888  0.00890668  0.75590053
   0.45837731  0.00005983  0.61924542
   0.12972881  0.64536933  0.12679593
   0.18055971  0.63270355  0.01909039
   0.76165027  0.92190839  0.57759049
   0.80306238  0.87610774  0.71750464
   0.78680097  0.87540578  0.91776284
   0.82885011  0.83161225  0.04077651
   0.31766141  0.76006516  0.52013703
   0.31826055  0.79906362  0.67738843
   0.98576249  0.42486316  0.23188008
   0.99398616  0.46331894  0.37444350
   0.32762779  0.78414823  0.88126479
   0.33449257  0.82294475  0.00743940
   0.92575979  0.31886662  0.55152896
   0.87819783  0.32868712  0.69120731
   0.59885850  0.97999092  0.24068224
   0.55075537  0.98821448  0.37535814
   0.87245051  0.35853602  0.87446224
   0.81887867  0.37812292  0.97452170
   0.90165805  0.78897305  0.77496708
   0.85964594  0.83356116  0.65187342
   0.92440438  0.74525218  0.12031064
   0.88529211  0.78912526  0.97518696
   0.31712453  0.89242014  0.73972349
   0.31135105  0.85308450  0.61361354
   0.34112472  0.91318203  0.08325012
   0.33016955  0.87609067  0.94183454
   0.98734329  0.55940704  0.43570744
   0.98327390  0.51875153  0.31065980
   0.78268256  0.33061871  0.74675667
   0.83442901  0.31435919  0.63770883
   0.73191638  0.37119368  0.07040146
   0.77553224  0.36342511  0.92181084
   0.45834301  0.98545670  0.41649999
   0.50542078  0.97973659  0.30038774
   0.75110489  0.47469047  0.55880995
   0.14089420  0.16808117  0.50039935
   0.69120809  0.13700162  0.53906730
   0.02784010  0.47419666  0.85181608
   0.16708956  0.69292253  0.54658401
   0.50250574  0.01984799  0.84882210
   0.19419716  0.16903439  0.80183519
   0.65451964  0.18486099  0.83022508
   0.18414411  0.61624911  0.86950161
   0.81713245  0.83068907  0.19400925
   0.34313040  0.81183298  0.16280725
   0.81016243  0.40887459  0.09663809
   0.87126430  0.83449451  0.49864623
   0.30319266  0.86459761  0.45847326
   0.97102825  0.53136462  0.15775852
   0.84273111  0.28522707  0.51066176
   0.50642111  0.96840232  0.14563452
   0.71043887  0.33067006  0.41210252
   0.28880903  0.02127031  0.79437782
   0.65855948  0.33318801  0.16267724
   0.95937089  0.68721817  0.49346787
   0.35784929  0.95527531  0.45696249
   0.35438276  0.02259880  0.12960696
   0.71887893  0.97320875  0.19895433
   0.33706317  0.66964556  0.75737969
   0.69983019  0.28245832  0.82351725
   0.98034614  0.31407708  0.16506516
   0.30360773  0.71286332  0.19488695
   0.97768373  0.37943118  0.84996344
   0.65183931  0.96827206  0.86631707
   0.02829840  0.61901636  0.16022969
   0.64528915  0.04120169  0.53827921
   0.02377933  0.69449266  0.84767173
   0.29234830  0.63434297  0.58614767
   0.04339004  0.31517732  0.50719706
   0.83101102  0.35217512  0.31367287
Direct configuration=    45
   0.05898467  0.25484117  0.30295484
   0.03804312  0.30168912  0.95059315
   0.10427669  0.26094714  0.70869552
   0.69093331  0.05433657  0.33478734
   0.66904555  0.03130292  0.97610971
   0.64164463  0.09946015  0.74024146
   0.02144341  0.39394933  0.64792975
   0.26262882  0.67770184  0.35604922
   0.31189090  0.64751360 -0.00603780
   0.28015614  0.59954772  0.80146400
   0.59199961  0.01288535  0.65997921
   0.29775417  0.03586855  0.35710471
   0.23024431  0.07709246  0.59440407
   0.27494028  0.08087006  0.99806569
   0.65358290  0.29970406  0.42485956
   0.70041493  0.22342688  0.63021979
   0.99141171  0.63697876  0.73852009
   0.02838060  0.56349619  0.95530778
   0.66604636  0.26307050  0.03579340
   0.04515373  0.65304410  0.41117071
   0.07912385  0.68911383  0.64336295
   0.36888965  0.00054802  0.68958859
   0.41062816  0.02445562  0.93250152
   0.08841292  0.63734240  0.03500505
   0.70980553  0.96046551  0.63976708
   0.77786675  0.92240222  0.40153196
   0.73365423  0.91422492  0.99489855
   0.35067946  0.70218903  0.52931158
   0.28854468  0.78246406  0.36359691
   0.98975873  0.37652863  0.29896071
   0.97437409  0.43948017  0.05286157
   0.32829575  0.73506331  0.95013792
   0.97222853  0.31601400  0.62218604
   0.91645477  0.31697031  0.36507223
   0.63933616  0.99002601  0.30665274
   0.59945176  0.96314892  0.06471292
   0.91256498  0.36909424  0.95786953
   0.95421267  0.74771834  0.69605750
   0.97882531  0.70690386  0.07432516
   0.90602722  0.74465951  0.29241685
   0.31099284  0.94263729  0.66165860
   0.33332605  0.96342084  0.02172682
   0.35783269  0.89605891  0.25806392
   0.97581148  0.61160702  0.35756324
   0.74400230  0.31318340  0.68536838
   0.67928300  0.38308023  0.02353643
   0.75185372  0.35890729  0.25109202
   0.41621114  0.97685143  0.33332321
   0.71551885  0.50277772  0.67654740
   0.78713558  0.44683060  0.43898559
   0.11126944  0.21389035  0.22501725
   0.15240199  0.16831166  0.34650106
   0.08868180  0.26051983  0.88459702
   0.12757888  0.21354327  0.02402192
   0.68095667  0.10606356  0.25805703
   0.68322570  0.14768270  0.38333671
   0.65928208  0.08212686  0.91487135
   0.66813128  0.12096292  0.05461148
   0.01049276  0.44657312  0.57438294
   0.01544912  0.48687825  0.69903958
   0.22037702  0.66589821  0.28284789
   0.17145683  0.67594897  0.39694623
   0.27555692  0.62747118  0.96236439
   0.22608574  0.64115084  0.09312730
   0.55044519  0.00315473  0.57773647
   0.50370854  0.00842925  0.69408740
   0.24667022  0.07671259  0.41865202
   0.20739180  0.12342152  0.27806992
   0.22328430  0.12281127  0.07665010
   0.18255956  0.16862855  0.95548932
   0.67737855  0.24288722  0.46336530
   0.67526557  0.20192126  0.31641070
   0.00840571  0.58287470  0.78374867
   0.00352755  0.54305843  0.63670081
   0.66714868  0.21435982  0.11140189
   0.66217330  0.17442631  0.98636521
   0.08130377  0.66999626  0.46894957
   0.12732391  0.66431716  0.32773420
   0.41038146  0.00890894  0.75591502
   0.45837993  0.00006314  0.61925161
   0.12972780  0.64537192  0.12679890
   0.18055509  0.63270090  0.01907613
   0.76165435  0.92190718  0.57757335
   0.80306419  0.87610896  0.71748140
   0.78680727  0.87540429  0.91775904
   0.82885441  0.83161302  0.04078166
   0.31764727  0.76007172  0.52010611
   0.31825628  0.79907181  0.67737727
   0.98575802  0.42486157  0.23188297
   0.99398252  0.46331893  0.37443754
   0.32763263  0.78414442  0.88124277
   0.33449906  0.82294598  0.00742210
   0.92575291  0.31886298  0.55152051
   0.87819262  0.32869549  0.69121163
   0.59885863  0.97999185  0.24069416
   0.55075447  0.98821731  0.37537233
   0.87244543  0.35853815  0.87445030
   0.81887713  0.37812922  0.97450730
   0.90165613  0.78897604  0.77495974
   0.85964243  0.83356414  0.65185479
   0.92440506  0.74525265  0.12030100
   0.88529087  0.78912755  0.97519386
   0.31713238  0.89242004  0.73974161
   0.31135084  0.85309168  0.61361739
   0.34112536  0.91317778  0.08327202
   0.33017672  0.87609003  0.94184326
   0.98734928  0.55940168  0.43570335
   0.98327617  0.51874852  0.31065269
   0.78267616  0.33061935  0.74677352
   0.83442258  0.31436341  0.63773303
   0.73191442  0.37119549  0.07040467
   0.77552834  0.36342678  0.92181562
   0.45834496  0.98545692  0.41651439
   0.50542163  0.97973729  0.30039829
   0.75112127  0.47468054  0.55874704
   0.14089452  0.16807681  0.50040371
   0.69121155  0.13699055  0.53908568
   0.02783760  0.47419578  0.85181688
   0.16709896  0.69292185  0.54656295
   0.50250741  0.01985050  0.84881877
   0.19419458  0.16903492  0.80183787
   0.65451224  0.18487346  0.83024680
   0.18413084  0.61625254  0.86948816
   0.81713590  0.83069277  0.19400454
   0.34313877  0.81181812  0.16279657
   0.81016017  0.40889053  0.09658777
   0.87126095  0.83449982  0.49862780
   0.30318201  0.86461704  0.45849893
   0.97103109  0.53136217  0.15775549
   0.84271278  0.28522941  0.51068180
   0.50641532  0.96840622  0.14564019
   0.71044873  0.33066309  0.41213435
   0.28880281  0.02127213  0.79440701
   0.65856933  0.33318231  0.16262761
   0.95937708  0.68721561  0.49344451
   0.35785087  0.95527663  0.45698940
   0.35437910  0.02259992  0.12962847
   0.71887536  0.97321194  0.19896450
   0.33706145  0.66964946  0.75739300
   0.69982850  0.28245791  0.82354677
   0.98034302  0.31407095  0.16506292
   0.30358840  0.71287096  0.19490055
   0.97767922  0.37942964  0.84996754
   0.65184416  0.96827448  0.86631079
   0.02829369  0.61902132  0.16023262
   0.64528311  0.04120922  0.53828649
   0.02378639  0.69448834  0.84766268
   0.29235423  0.63433183  0.58613264
   0.04339613  0.31517537  0.50717932
   0.83101050  0.35217746  0.31363344
Direct configuration=    46
   0.05898408  0.25483791  0.30295458
   0.03803911  0.30168759  0.95059182
   0.10427220  0.26094337  0.70869167
   0.69092616  0.05433807  0.33475386
   0.66904093  0.03131177  0.97610152
   0.64164485  0.09946801  0.74022198
   0.02143484  0.39395034  0.64792544
   0.26263600  0.67768507  0.35603966
   0.31187807  0.64752624 -0.00606518
   0.28016179  0.59954016  0.80143557
   0.59199979  0.01288642  0.65999545
   0.29775556  0.03586917  0.35711831
   0.23024318  0.07709166  0.59440596
   0.27493807  0.08086937  0.99807468
   0.65360454  0.29969108  0.42485969
   0.70043877  0.22341324  0.63025989
   0.99141449  0.63697570  0.73850539
   0.02838274  0.56349609  0.95530060
   0.66604904  0.26306528  0.03582721
   0.04515735  0.65304591  0.41117460
   0.07912986  0.68911487  0.64336994
   0.36889498  0.00054386  0.68961291
   0.41062825  0.02446054  0.93251345
   0.08841166  0.63734942  0.03500983
   0.70980504  0.96047361  0.63974657
   0.77786606  0.92239815  0.40149724
   0.73365550  0.91422901  0.99489655
   0.35066352  0.70219379  0.52929600
   0.28853277  0.78246888  0.36358851
   0.98975613  0.37652745  0.29896084
   0.97436888  0.43947934  0.05286444
   0.32830288  0.73506199  0.95014520
   0.97222463  0.31600677  0.62217881
   0.91645052  0.31696212  0.36507384
   0.63932998  0.99003546  0.30667359
   0.59945633  0.96314300  0.06473797
   0.91256127  0.36908548  0.95786697
   0.95421828  0.74771875  0.69605171
   0.97882628  0.70690164  0.07431868
   0.90602776  0.74466101  0.29240965
   0.31099218  0.94263823  0.66168208
   0.33332316  0.96342171  0.02176743
   0.35783258  0.89605637  0.25808949
   0.97581743  0.61160305  0.35755972
   0.74400139  0.31317886  0.68535215
   0.67928389  0.38307633  0.02352616
   0.75185252  0.35890756  0.25110513
   0.41621137  0.97685527  0.33334343
   0.71551108  0.50278750  0.67655681
   0.78713008  0.44683707  0.43900656
   0.11126876  0.21388862  0.22502117
   0.15240093  0.16831016  0.34650576
   0.08867831  0.26051789  0.88459578
   0.12757690  0.21354303  0.02402542
   0.68094995  0.10606666  0.25805493
   0.68323054  0.14767560  0.38334326
   0.65927653  0.08213614  0.91487682
   0.66812059  0.12096893  0.05461327
   0.01048738  0.44657440  0.57438431
   0.01544706  0.48687800  0.69904125
   0.22037920  0.66589308  0.28281342
   0.17145995  0.67594761  0.39692173
   0.27555670  0.62746870  0.96233258
   0.22608565  0.64114712  0.09309991
   0.55044598  0.00315746  0.57774762
   0.50370898  0.00843327  0.69408655
   0.24667030  0.07671123  0.41865811
   0.20739059  0.12342023  0.27807410
   0.22328166  0.12281187  0.07665502
   0.18255745  0.16862899  0.95549133
   0.67740518  0.24287253  0.46337918
   0.67529198  0.20190512  0.31642235
   0.00840959  0.58287210  0.78374319
   0.00353182  0.54305476  0.63670001
   0.66716311  0.21435753  0.11143978
   0.66217204  0.17442978  0.98639335
   0.08131029  0.66999760  0.46894272
   0.12732342  0.66431783  0.32772610
   0.41038381  0.00891099  0.75592822
   0.45838232  0.00006616  0.61925724
   0.12972689  0.64537427  0.12680160
   0.18055089  0.63269848  0.01906314
   0.76165806  0.92190608  0.57755774
   0.80306584  0.87611007  0.71746023
   0.78681301  0.87540293  0.91775558
   0.82885832  0.83161372  0.04078636
   0.31763440  0.76007770  0.52007796
   0.31825239  0.79907927  0.67736711
   0.98575395  0.42486012  0.23188560
   0.99397921  0.46331893  0.37443211
   0.32763704  0.78414096  0.88122272
   0.33450498  0.82294711  0.00740636
   0.92574665  0.31885967  0.55151283
   0.87818787  0.32870310  0.69121557
   0.59885875  0.97999269  0.24070501
   0.55075366  0.98821989  0.37538525
   0.87244080  0.35854009  0.87443942
   0.81887572  0.37813496  0.97449420
   0.90165438  0.78897876  0.77495306
   0.85963924  0.83356686  0.65183783
   0.92440567  0.74525309  0.12029222
   0.88528974  0.78912964  0.97520014
   0.31713954  0.89241996  0.73975811
   0.31135064  0.85309821  0.61362091
   0.34112594  0.91317392  0.08329196
   0.33018326  0.87608945  0.94185119
   0.98735474  0.55939681  0.43569963
   0.98327824  0.51874578  0.31064622
   0.78267034  0.33061994  0.74678886
   0.83441673  0.31436724  0.63775507
   0.73191263  0.37119714  0.07040759
   0.77552478  0.36342831  0.92181998
   0.45834673  0.98545712  0.41652750
   0.50542240  0.97973794  0.30040790
   0.75113618  0.47467149  0.55868977
   0.14089481  0.16807285  0.50040768
   0.69121471  0.13698048  0.53910242
   0.02783533  0.47419498  0.85181761
   0.16710752  0.69292123  0.54654378
   0.50250893  0.01985279  0.84881573
   0.19419222  0.16903541  0.80184030
   0.65450551  0.18488481  0.83026657
   0.18411875  0.61625567  0.86947592
   0.81713904  0.83069614  0.19400026
   0.34314639  0.81180459  0.16278685
   0.81015811  0.40890505  0.09654196
   0.87125791  0.83450465  0.49861102
   0.30317231  0.86463472  0.45852231
   0.97103367  0.53135993  0.15775272
   0.84269609  0.28523155  0.51070006
   0.50641004  0.96840977  0.14564535
   0.71045771  0.33065674  0.41216333
   0.28879715  0.02127379  0.79443360
   0.65857829  0.33317712  0.16258242
   0.95938272  0.68721329  0.49342324
   0.35785231  0.95527782  0.45701390
   0.35437577  0.02260094  0.12964806
   0.71887212  0.97321484  0.19897376
   0.33705988  0.66965301  0.75740511
   0.69982696  0.28245754  0.82357365
   0.98034018  0.31406537  0.16506088
   0.30357080  0.71287791  0.19491293
   0.97767512  0.37942824  0.84997127
   0.65184857  0.96827668  0.86630508
   0.02828940  0.61902584  0.16023528
   0.64527762  0.04121607  0.53829313
   0.02379281  0.69448440  0.84765443
   0.29235963  0.63432169  0.58611896
   0.04340167  0.31517358  0.50716317
   0.83101004  0.35217958  0.31359754
Direct configuration=    47
   0.05898292  0.25483140  0.30295405
   0.03803109  0.30168452  0.95058917
   0.10426321  0.26093584  0.70868398
   0.69091185  0.05434106  0.33468689
   0.66903167  0.03132948  0.97608514
   0.64164529  0.09948374  0.74018303
   0.02141771  0.39395236  0.64791680
   0.26265034  0.67765151  0.35602054
   0.31185241  0.64755151 -0.00611994
   0.28017307  0.59952503  0.80137870
   0.59200015  0.01288856  0.66002794
   0.29775835  0.03587040  0.35714551
   0.23024091  0.07709005  0.59440974
   0.27493366  0.08086799  0.99809266
   0.65364783  0.29966514  0.42485996
   0.70048645  0.22338595  0.63034009
   0.99142004  0.63696957  0.73847598
   0.02838702  0.56349588  0.95528623
   0.66605440  0.26305483  0.03589484
   0.04516459  0.65304955  0.41118237
   0.07914188  0.68911695  0.64338393
   0.36890563  0.00053554  0.68966155
   0.41062843  0.02447038  0.93253731
   0.08840915  0.63736346  0.03501939
   0.70980407  0.96048981  0.63970554
   0.77786467  0.92239001  0.40142780
   0.73365803  0.91423719  0.99489253
   0.35063163  0.70220329  0.52926485
   0.28850895  0.78247852  0.36357171
   0.98975093  0.37652509  0.29896109
   0.97435846  0.43947768  0.05287019
   0.32831712  0.73505933  0.95015977
   0.97221682  0.31599231  0.62216437
   0.91644202  0.31694573  0.36507708
   0.63931761  0.99005436  0.30671528
   0.59946546  0.96313114  0.06478806
   0.91255384  0.36906797  0.95786185
   0.95422950  0.74771956  0.69604014
   0.97882822  0.70689722  0.07430572
   0.90602885  0.74466399  0.29239524
   0.31099085  0.94264011  0.66172903
   0.33331737  0.96342343  0.02184866
   0.35783237  0.89605128  0.25814061
   0.97582935  0.61159512  0.35755269
   0.74399958  0.31316978  0.68531968
   0.67928566  0.38306853  0.02350564
   0.75185012  0.35890809  0.25113135
   0.41621184  0.97686295  0.33338385
   0.71549556  0.50280704  0.67657562
   0.78711909  0.44685000  0.43904850
   0.11126739  0.21388515  0.22502900
   0.15239881  0.16830714  0.34651515
   0.08867131  0.26051401  0.88459330
   0.12757294  0.21354255  0.02403243
   0.68093653  0.10607285  0.25805072
   0.68324022  0.14766140  0.38335637
   0.65926541  0.08215471  0.91488777
   0.66809921  0.12098096  0.05461686
   0.01047663  0.44657697  0.57438707
   0.01544295  0.48687749  0.69904460
   0.22038355  0.66588282  0.28274448
   0.17146620  0.67594488  0.39687273
   0.27555626  0.62746374  0.96226895
   0.22608546  0.64113970  0.09304514
   0.55044756  0.00316293  0.57776992
   0.50370985  0.00844132  0.69408486
   0.24667046  0.07670852  0.41867029
   0.20738816  0.12341765  0.27808248
   0.22327637  0.12281307  0.07666486
   0.18255324  0.16862987  0.95549535
   0.67745843  0.24284315  0.46340695
   0.67534479  0.20187283  0.31644567
   0.00841737  0.58286688  0.78373222
   0.00354036  0.54304743  0.63669840
   0.66719197  0.21435296  0.11151555
   0.66216954  0.17443674  0.98644962
   0.08132332  0.67000026  0.46892901
   0.12732244  0.66431915  0.32770989
   0.41038851  0.00891510  0.75595461
   0.45838709  0.00007220  0.61926851
   0.12972505  0.64537897  0.12680700
   0.18054247  0.63269366  0.01903717
   0.76166548  0.92190387  0.57752653
   0.80306912  0.87611229  0.71741790
   0.78682448  0.87540022  0.91774866
   0.82886614  0.83161512  0.04079575
   0.31760866  0.76008965  0.52002166
   0.31824462  0.79909419  0.67734679
   0.98574582  0.42485723  0.23189085
   0.99397257  0.46331893  0.37442125
   0.32764586  0.78413403  0.88118261
   0.33451680  0.82294936  0.00737487
   0.92573413  0.31885304  0.55149746
   0.87817838  0.32871833  0.69122344
   0.59885900  0.97999438  0.24072672
   0.55075203  0.98822504  0.37541109
   0.87243154  0.35854396  0.87441767
   0.81887292  0.37814643  0.97446798
   0.90165089  0.78898421  0.77493969
   0.85963284  0.83357228  0.65180390
   0.92440690  0.74525395  0.12027466
   0.88528748  0.78913381  0.97521271
   0.31715384  0.89241979  0.73979111
   0.31135026  0.85311128  0.61362793
   0.34112711  0.91316619  0.08333183
   0.33019633  0.87608828  0.94186706
   0.98736565  0.55938705  0.43569218
   0.98328238  0.51874030  0.31063328
   0.78265869  0.33062112  0.74681954
   0.83440502  0.31437492  0.63779913
   0.73190905  0.37120044  0.07041343
   0.77551767  0.36343137  0.92182868
   0.45835027  0.98545752  0.41655373
   0.50542395  0.97973922  0.30042711
   0.75116601  0.47465339  0.55857522
   0.14089539  0.16806493  0.50041562
   0.69122103  0.13696032  0.53913590
   0.02783079  0.47419338  0.85181908
   0.16712465  0.69291998  0.54650544
   0.50251198  0.01985735  0.84880967
   0.19418751  0.16903638  0.80184518
   0.65449204  0.18490751  0.83030612
   0.18409458  0.61626191  0.86945143
   0.81714533  0.83070288  0.19399170
   0.34316163  0.81177754  0.16276741
   0.81015399  0.40893410  0.09645032
   0.87125182  0.83451432  0.49857747
   0.30315290  0.86467009  0.45856906
   0.97103884  0.53135546  0.15774719
   0.84266271  0.28523582  0.51073657
   0.50639950  0.96841687  0.14565568
   0.71047567  0.33064405  0.41222130
   0.28878582  0.02127711  0.79448676
   0.65859623  0.33316674  0.16249204
   0.95939399  0.68720864  0.49338069
   0.35785519  0.95528021  0.45706290
   0.35436910  0.02260298  0.12968722
   0.71886562  0.97322064  0.19899228
   0.33705675  0.66966011  0.75742934
   0.69982388  0.28245681  0.82362742
   0.98033450  0.31405422  0.16505681
   0.30353561  0.71289181  0.19493769
   0.97766691  0.37942544  0.84997873
   0.65185740  0.96828108  0.86629364
   0.02828081  0.61903488  0.16024061
   0.64526664  0.04122977  0.53830640
   0.02380566  0.69447654  0.84763794
   0.29237043  0.63430141  0.58609159
   0.04341276  0.31517002  0.50713088
   0.83100911  0.35218384  0.31352573
Direct configuration=    48
   0.05898348  0.25483456  0.30295431
   0.03803498  0.30168601  0.95059045
   0.10426757  0.26093950  0.70868772
   0.69091880  0.05433960  0.33471940
   0.66903616  0.03132088  0.97609309
   0.64164507  0.09947610  0.74020194
   0.02142603  0.39395138  0.64792099
   0.26264338  0.67766780  0.35602982
   0.31186487  0.64753924 -0.00609335
   0.28016759  0.59953237  0.80140631
   0.59199997  0.01288752  0.66001217
   0.29775700  0.03586980  0.35713230
   0.23024201  0.07709083  0.59440790
   0.27493580  0.08086866  0.99808393
   0.65362681  0.29967774  0.42485983
   0.70046330  0.22339920  0.63030115
   0.99141734  0.63697255  0.73849026
   0.02838494  0.56349598  0.95529321
   0.66605180  0.26305990  0.03586201
   0.04516107  0.65304779  0.41117859
   0.07913604  0.68911594  0.64337714
   0.36890046  0.00053958  0.68963794
   0.41062834  0.02446560  0.93252572
   0.08841037  0.63735664  0.03501474
   0.70980454  0.96048195  0.63972546
   0.77786534  0.92239396  0.40146151
   0.73365680  0.91423322  0.99489448
   0.35064711  0.70219868  0.52927997
   0.28852052  0.78247384  0.36357987
   0.98975345  0.37652624  0.29896097
   0.97436352  0.43947849  0.05286740
   0.32831020  0.73506062  0.95015270
   0.97222061  0.31599933  0.62217138
   0.91644615  0.31695369  0.36507551
   0.63932362  0.99004519  0.30669504
   0.59946102  0.96313690  0.06476374
   0.91255745  0.36907647  0.95786434
   0.95422405  0.74771917  0.69604576
   0.97882728  0.70689937  0.07431201
   0.90602832  0.74466254  0.29240224
   0.31099149  0.94263919  0.66170623
   0.33332018  0.96342259  0.02180922
   0.35783247  0.89605375  0.25811579
   0.97582357  0.61159897  0.35755611
   0.74400046  0.31317418  0.68533544
   0.67928480  0.38307232  0.02351561
   0.75185128  0.35890783  0.25111862
   0.41621161  0.97685922  0.33336422
   0.71550309  0.50279755  0.67656648
   0.78712443  0.44684372  0.43902813
   0.11126805  0.21388684  0.22502520
   0.15239984  0.16830860  0.34651059
   0.08867471  0.26051590  0.88459450
   0.12757486  0.21354278  0.02402903
   0.68094305  0.10606985  0.25805276
   0.68323552  0.14766830  0.38335001
   0.65927081  0.08214569  0.91488246
   0.66810959  0.12097512  0.05461511
   0.01048185  0.44657572  0.57438573
   0.01544495  0.48687774  0.69904297
   0.22038144  0.66588781  0.28277795
   0.17146316  0.67594620  0.39689652
   0.27555647  0.62746615  0.96229984
   0.22608555  0.64114331  0.09307173
   0.55044679  0.00316028  0.57775909
   0.50370942  0.00843741  0.69408568
   0.24667038  0.07670984  0.41866437
   0.20738934  0.12341890  0.27807841
   0.22327893  0.12281249  0.07666008
   0.18255528  0.16862944  0.95549340
   0.67743257  0.24285742  0.46339347
   0.67531915  0.20188851  0.31643435
   0.00841360  0.58286941  0.78373755
   0.00353621  0.54305099  0.63669918
   0.66717796  0.21435518  0.11147876
   0.66217075  0.17443336  0.98642230
   0.08131699  0.66999897  0.46893566
   0.12732291  0.66431851  0.32771776
   0.41038623  0.00891311  0.75594180
   0.45838477  0.00006927  0.61926304
   0.12972594  0.64537668  0.12680438
   0.18054656  0.63269600  0.01904978
   0.76166188  0.92190494  0.57754168
   0.80306753  0.87611122  0.71743845
   0.78681891  0.87540153  0.91775202
   0.82886234  0.83161444  0.04079119
   0.31762116  0.76008385  0.52004899
   0.31824839  0.79908695  0.67735665
   0.98574977  0.42485863  0.23188830
   0.99397579  0.46331893  0.37442652
   0.32764158  0.78413739  0.88120208
   0.33451106  0.82294827  0.00739016
   0.92574021  0.31885626  0.55150492
   0.87818299  0.32871094  0.69121962
   0.59885888  0.97999356  0.24071618
   0.55075282  0.98822254  0.37539854
   0.87243604  0.35854208  0.87442823
   0.81887428  0.37814086  0.97448071
   0.90165259  0.78898157  0.77494618
   0.85963595  0.83356965  0.65182037
   0.92440630  0.74525353  0.12028318
   0.88528858  0.78913179  0.97520661
   0.31714690  0.89241987  0.73977509
   0.31135044  0.85310494  0.61362452
   0.34112654  0.91316995  0.08331247
   0.33018998  0.87608885  0.94185936
   0.98736035  0.55939179  0.43569580
   0.98328037  0.51874296  0.31063956
   0.78266434  0.33062055  0.74680465
   0.83441070  0.31437119  0.63777774
   0.73191079  0.37119884  0.07041059
   0.77552112  0.36342989  0.92182446
   0.45834855  0.98545733  0.41654100
   0.50542320  0.97973860  0.30041778
   0.75115153  0.47466218  0.55863083
   0.14089511  0.16806878  0.50041176
   0.69121796  0.13697011  0.53911965
   0.02783299  0.47419415  0.85181837
   0.16711634  0.69292059  0.54652406
   0.50251050  0.01985514  0.84881261
   0.19418979  0.16903591  0.80184281
   0.65449858  0.18489649  0.83028692
   0.18410632  0.61625888  0.86946332
   0.81714228  0.83069960  0.19399586
   0.34315423  0.81179067  0.16277685
   0.81015599  0.40892000  0.09649481
   0.87125477  0.83450962  0.49859376
   0.30316232  0.86465292  0.45854636
   0.97103633  0.53135763  0.15774988
   0.84267892  0.28523374  0.51071884
   0.50640462  0.96841342  0.14565067
   0.71046695  0.33065022  0.41219315
   0.28879132  0.02127550  0.79446095
   0.65858752  0.33317178  0.16253592
   0.95938852  0.68721090  0.49340135
   0.35785379  0.95527905  0.45703911
   0.35437233  0.02260199  0.12966821
   0.71886877  0.97321782  0.19898329
   0.33705827  0.66965666  0.75741757
   0.69982538  0.28245717  0.82360132
   0.98033726  0.31405963  0.16505879
   0.30355270  0.71288506  0.19492567
   0.97767089  0.37942680  0.84997511
   0.65185312  0.96827895  0.86629919
   0.02828498  0.61903049  0.16023802
   0.64527197  0.04122312  0.53829995
   0.02379942  0.69448036  0.84764594
   0.29236519  0.63431125  0.58610488
   0.04340738  0.31517175  0.50714656
   0.83100956  0.35218177  0.31356060
Direct configuration=    49
   0.05898172  0.25483275  0.30295567
   0.03803170  0.30168427  0.95059019
   0.10426447  0.26093594  0.70868263
   0.69091052  0.05434112  0.33470049
   0.66903224  0.03132603  0.97608669
   0.64164597  0.09948131  0.74019697
   0.02141778  0.39395313  0.64791696
   0.26265016  0.67765557  0.35600423
   0.31185297  0.64754769 -0.00611023
   0.28017220  0.59952646  0.80138512
   0.59199980  0.01288896  0.66002659
   0.29775757  0.03587078  0.35714647
   0.23024016  0.07709040  0.59441347
   0.27493377  0.08086832  0.99809304
   0.65364864  0.29966168  0.42486270
   0.70048196  0.22339018  0.63031355
   0.99142065  0.63696910  0.73847978
   0.02838673  0.56349680  0.95528867
   0.66605453  0.26306025  0.03588993
   0.04516541  0.65305071  0.41118943
   0.07913930  0.68911587  0.64338022
   0.36890338  0.00053658  0.68966340
   0.41062910  0.02446956  0.93253003
   0.08840720  0.63736230  0.03502251
   0.70980815  0.96048623  0.63970524
   0.77786520  0.92239037  0.40143611
   0.73365881  0.91423680  0.99488709
   0.35062909  0.70220876  0.52926714
   0.28850747  0.78248113  0.36356486
   0.98975111  0.37652417  0.29896292
   0.97435846  0.43947803  0.05287083
   0.32831542  0.73505679  0.95015134
   0.97221575  0.31599295  0.62215206
   0.91644378  0.31694637  0.36507662
   0.63931903  0.99005271  0.30670787
   0.59946725  0.96313181  0.06477584
   0.91255412  0.36907028  0.95786304
   0.95422545  0.74772138  0.69604486
   0.97882813  0.70689708  0.07430603
   0.90603050  0.74466262  0.29239616
   0.31099113  0.94263975  0.66173399
   0.33331740  0.96342139  0.02184511
   0.35783268  0.89605327  0.25814084
   0.97582854  0.61159605  0.35755278
   0.74399717  0.31316941  0.68534356
   0.67928456  0.38307038  0.02350566
   0.75184917  0.35890992  0.25113293
   0.41621101  0.97686217  0.33337730
   0.71550265  0.50280125  0.67655248
   0.78712704  0.44684365  0.43902124
   0.11126902  0.21388379  0.22502500
   0.15239811  0.16830780  0.34651229
   0.08867142  0.26051383  0.88459335
   0.12757341  0.21354149  0.02403684
   0.68093732  0.10607193  0.25804156
   0.68324370  0.14765820  0.38336319
   0.65926429  0.08215580  0.91486292
   0.66810286  0.12098112  0.05464584
   0.01047738  0.44657548  0.57438525
   0.01544313  0.48687672  0.69904060
   0.22038259  0.66588242  0.28275992
   0.17146202  0.67594497  0.39687636
   0.27555770  0.62746570  0.96226928
   0.22608459  0.64113859  0.09303834
   0.55044819  0.00316260  0.57776844
   0.50370894  0.00844141  0.69409515
   0.24667055  0.07670873  0.41866997
   0.20738809  0.12341795  0.27808461
   0.22327682  0.12281259  0.07666437
   0.18255199  0.16863111  0.95549662
   0.67745629  0.24284470  0.46342411
   0.67534098  0.20187965  0.31645931
   0.00841680  0.58286818  0.78372955
   0.00353923  0.54304807  0.63669126
   0.66719076  0.21434303  0.11149265
   0.66216799  0.17444057  0.98642956
   0.08132303  0.67000076  0.46893154
   0.12732361  0.66431822  0.32770138
   0.41038872  0.00891491  0.75595596
   0.45838484  0.00007248  0.61927681
   0.12972672  0.64537822  0.12679530
   0.18054463  0.63269415  0.01903843
   0.76166198  0.92190612  0.57752850
   0.80306448  0.87611395  0.71744788
   0.78682299  0.87540262  0.91774047
   0.82886181  0.83161830  0.04079384
   0.31761422  0.76008455  0.52003683
   0.31824577  0.79909078  0.67733879
   0.98574583  0.42485793  0.23188617
   0.99397285  0.46331747  0.37442764
   0.32764504  0.78413701  0.88120933
   0.33451812  0.82294875  0.00738592
   0.92573712  0.31885283  0.55150769
   0.87817503  0.32871627  0.69122606
   0.59886114  0.97999457  0.24072327
   0.55075174  0.98822418  0.37540551
   0.87243462  0.35854356  0.87442136
   0.81887291  0.37814532  0.97446496
   0.90165422  0.78898159  0.77493365
   0.85963767  0.83356845  0.65181127
   0.92440603  0.74525460  0.12027859
   0.88529033  0.78913262  0.97519215
   0.31715143  0.89241742  0.73977646
   0.31135029  0.85311283  0.61364206
   0.34112714  0.91316511  0.08333566
   0.33019586  0.87608937  0.94185398
   0.98736567  0.55938674  0.43569649
   0.98328222  0.51874081  0.31063356
   0.78266162  0.33062209  0.74681417
   0.83440910  0.31437387  0.63778151
   0.73191197  0.37119678  0.07041679
   0.77551592  0.36343544  0.92184277
   0.45834908  0.98545821  0.41655491
   0.50542157  0.97973938  0.30042692
   0.75115081  0.47466535  0.55862613
   0.14089505  0.16806543  0.50041564
   0.69122102  0.13696067  0.53913155
   0.02783100  0.47419298  0.85182348
   0.16712517  0.69292002  0.54650729
   0.50251197  0.01985768  0.84881345
   0.19418795  0.16903615  0.80184323
   0.65449284  0.18490654  0.83032223
   0.18409482  0.61626175  0.86945485
   0.81714521  0.83070302  0.19398812
   0.34316063  0.81177881  0.16275099
   0.81015323  0.40893271  0.09645195
   0.87125326  0.83451290  0.49857431
   0.30315313  0.86466975  0.45855940
   0.97103874  0.53135562  0.15774513
   0.84266509  0.28523577  0.51073451
   0.50640102  0.96841669  0.14565712
   0.71047171  0.33064661  0.41218862
   0.28878881  0.02127645  0.79447937
   0.65859829  0.33316511  0.16250981
   0.95939324  0.68720921  0.49338610
   0.35785605  0.95527942  0.45705904
   0.35437168  0.02260335  0.12968364
   0.71886436  0.97322103  0.19898504
   0.33705553  0.66966025  0.75742133
   0.69982457  0.28245649  0.82362067
   0.98033421  0.31405486  0.16505927
   0.30353823  0.71289028  0.19492976
   0.97766698  0.37942603  0.84997740
   0.65185590  0.96827990  0.86630500
   0.02828239  0.61903403  0.16023586
   0.64526765  0.04123045  0.53830296
   0.02380342  0.69447902  0.84764080
   0.29237373  0.63430071  0.58610402
   0.04340952  0.31517031  0.50713694
   0.83100871  0.35218317  0.31352748
Direct configuration=    50
   0.05897644  0.25482733  0.30295976
   0.03802185  0.30167905  0.95058938
   0.10425517  0.26092526  0.70866737
   0.69088568  0.05434568  0.33464375
   0.66902047  0.03134148  0.97606748
   0.64164867  0.09949694  0.74018205
   0.02139304  0.39395838  0.64790487
   0.26267050  0.67761889  0.35592746
   0.31181727  0.64757303 -0.00616087
   0.28018601  0.59950872  0.80132155
   0.59199928  0.01289326  0.66006988
   0.29775929  0.03587371  0.35718896
   0.23023462  0.07708911  0.59443018
   0.27492767  0.08086731  0.99812037
   0.65371412  0.29961350  0.42487130
   0.70053792  0.22336311  0.63035076
   0.99143058  0.63695876  0.73844836
   0.02839211  0.56349924  0.95527507
   0.66606274  0.26306128  0.03597371
   0.04517844  0.65305947  0.41122194
   0.07914906  0.68911566  0.64338947
   0.36891215  0.00052760  0.68973980
   0.41063136  0.02448145  0.93254295
   0.08839768  0.63737928  0.03504583
   0.70981897  0.96049910  0.63964459
   0.77786476  0.92237961  0.40135990
   0.73366485  0.91424753  0.99486494
   0.35057501  0.70223899  0.52922862
   0.28846832  0.78250300  0.36351983
   0.98974408  0.37651795  0.29896878
   0.97434329  0.43947667  0.05288113
   0.32833108  0.73504532  0.95014728
   0.97220115  0.31597380  0.62209411
   0.91643668  0.31692440  0.36507997
   0.63930525  0.99007530  0.30674635
   0.59948592  0.96311652  0.06481216
   0.91254415  0.36905171  0.95785916
   0.95422965  0.74772801  0.69604215
   0.97883070  0.70689021  0.07428808
   0.90603702  0.74466286  0.29237792
   0.31099004  0.94264144  0.66181727
   0.33330906  0.96341777  0.02195279
   0.35783331  0.89605183  0.25821599
   0.97584347  0.61158726  0.35754280
   0.74398729  0.31315508  0.68536790
   0.67928384  0.38306458  0.02347583
   0.75184284  0.35891617  0.25117588
   0.41620918  0.97687103  0.33341655
   0.71550132  0.50281234  0.67651046
   0.78713488  0.44684345  0.43900054
   0.11127192  0.21387467  0.22502440
   0.15239294  0.16830538  0.34651737
   0.08866155  0.26050763  0.88458991
   0.12756905  0.21353760  0.02406030
   0.68092016  0.10607817  0.25800796
   0.68326825  0.14762790  0.38340276
   0.65924473  0.08218613  0.91480432
   0.66808266  0.12099911  0.05473803
   0.01046396  0.44657475  0.57438379
   0.01543767  0.48687367  0.69903347
   0.22038605  0.66586627  0.28270582
   0.17145857  0.67594127  0.39681587
   0.27556139  0.62746436  0.96217761
   0.22608171  0.64112443  0.09293818
   0.55045239  0.00316956  0.57779647
   0.50370750  0.00845343  0.69412358
   0.24667105  0.07670541  0.41868676
   0.20738436  0.12341511  0.27810318
   0.22327049  0.12281288  0.07667721
   0.18254211  0.16863612  0.95550631
   0.67752743  0.24280654  0.46351605
   0.67540649  0.20185306  0.31653419
   0.00842639  0.58286447  0.78370556
   0.00354826  0.54303931  0.63666750
   0.66722914  0.21430658  0.11153430
   0.66215971  0.17446221  0.98645132
   0.08134115  0.67000612  0.46891917
   0.12732569  0.66431735  0.32765224
   0.41039620  0.00892033  0.75599843
   0.45838504  0.00008213  0.61931813
   0.12972908  0.64538283  0.12676807
   0.18053884  0.63268862  0.01900436
   0.76166229  0.92190965  0.57748896
   0.80305534  0.87612217  0.71747616
   0.78683524  0.87540586  0.91770583
   0.82886024  0.83162991  0.04080180
   0.31759339  0.76008665  0.52000034
   0.31823790  0.79910227  0.67728518
   0.98573403  0.42485583  0.23187976
   0.99396401  0.46331307  0.37443100
   0.32765541  0.78413586  0.88123106
   0.33453932  0.82295022  0.00737321
   0.92572788  0.31884252  0.55151600
   0.87815115  0.32873229  0.69124536
   0.59886791  0.97999761  0.24074455
   0.55074851  0.98822909  0.37542641
   0.87243036  0.35854800  0.87440074
   0.81886880  0.37815869  0.97441771
   0.90165914  0.78898168  0.77489607
   0.85964283  0.83356484  0.65178395
   0.92440519  0.74525780  0.12026480
   0.88529557  0.78913511  0.97514877
   0.31716504  0.89241007  0.73978055
   0.31134984  0.85313652  0.61369467
   0.34112893  0.91315059  0.08340522
   0.33021349  0.87609093  0.94183784
   0.98738165  0.55937160  0.43569858
   0.98328776  0.51873437  0.31061554
   0.78265346  0.33062671  0.74684273
   0.83440429  0.31438189  0.63779284
   0.73191553  0.37119061  0.07043537
   0.77550032  0.36345211  0.92189770
   0.45835069  0.98546084  0.41659664
   0.50541671  0.97974173  0.30045433
   0.75114866  0.47467487  0.55861203
   0.14089488  0.16805541  0.50042728
   0.69123019  0.13693235  0.53916724
   0.02782502  0.47418946  0.85183881
   0.16715169  0.69291831  0.54645700
   0.50251640  0.01986532  0.84881594
   0.19418243  0.16903685  0.80184450
   0.65447561  0.18493669  0.83042817
   0.18406032  0.61627035  0.86942947
   0.81715399  0.83071327  0.19396493
   0.34317984  0.81174323  0.16267342
   0.81014495  0.40897085  0.09632337
   0.87124873  0.83452273  0.49851595
   0.30312556  0.86472024  0.45859849
   0.97104597  0.53134956  0.15773089
   0.84262360  0.28524184  0.51078152
   0.50639024  0.96842650  0.14567647
   0.71048600  0.33063579  0.41217500
   0.28878128  0.02127930  0.79453463
   0.65863057  0.33314509  0.16243148
   0.95940740  0.68720415  0.49334037
   0.35786283  0.95528051  0.45711881
   0.35436972  0.02260743  0.12972992
   0.71885113  0.97323063  0.19899029
   0.33704730  0.66967102  0.75743260
   0.69982216  0.28245446  0.82367873
   0.98032507  0.31404056  0.16506071
   0.30349485  0.71290593  0.19494204
   0.97765526  0.37942370  0.84998426
   0.65186424  0.96828275  0.86632241
   0.02827464  0.61904464  0.16022936
   0.64525470  0.04125245  0.53831199
   0.02381542  0.69447502  0.84762538
   0.29239934  0.63426906  0.58610145
   0.04341594  0.31516598  0.50710809
   0.83100615  0.35218736  0.31342813
Direct configuration=    51
   0.05896588  0.25481650  0.30296795
   0.03800216  0.30166861  0.95058776
   0.10423657  0.26090391  0.70863685
   0.69083602  0.05435480  0.33453027
   0.66899693  0.03137239  0.97602907
   0.64165407  0.09952819  0.74015222
   0.02134355  0.39396889  0.64788069
   0.26271119  0.67754552  0.35577392
   0.31174588  0.64762370 -0.00626214
   0.28021364  0.59947325  0.80119440
   0.59199825  0.01290187  0.66015645
   0.29776273  0.03587958  0.35727395
   0.23022352  0.07708652  0.59446360
   0.27491546  0.08086530  0.99817503
   0.65384510  0.29951714  0.42488849
   0.70064984  0.22330898  0.63042518
   0.99145045  0.63693808  0.73838551
   0.02840286  0.56350414  0.95524786
   0.66607916  0.26306335  0.03614127
   0.04520448  0.65307698  0.41128696
   0.07916857  0.68911524  0.64340797
   0.36892970  0.00050962  0.68989259
   0.41063588  0.02450523  0.93256879
   0.08837864  0.63741324  0.03509245
   0.70984062  0.96052483  0.63952328
   0.77786388  0.92235808  0.40120749
   0.73367693  0.91426900  0.99482063
   0.35046686  0.70229947  0.52915159
   0.28839002  0.78254673  0.36342978
   0.98973002  0.37650553  0.29898049
   0.97431295  0.43947394  0.05290173
   0.32836239  0.73502237  0.95013915
   0.97217197  0.31593551  0.62197820
   0.91642247  0.31688047  0.36508665
   0.63927769  0.99012048  0.30682332
   0.59952327  0.96308596  0.06488481
   0.91252420  0.36901456  0.95785139
   0.95423804  0.74774128  0.69603674
   0.97883583  0.70687647  0.07425219
   0.90605008  0.74466334  0.29234146
   0.31098785  0.94264480  0.66198383
   0.33329239  0.96341053  0.02216814
   0.35783456  0.89604895  0.25836629
   0.97587334  0.61156970  0.35752284
   0.74396753  0.31312641  0.68541658
   0.67928240  0.38305297  0.02341618
   0.75183018  0.35892868  0.25126178
   0.41620554  0.97688874  0.33349504
   0.71549866  0.50283452  0.67642643
   0.78715056  0.44684305  0.43895915
   0.11127773  0.21385641  0.22502320
   0.15238259  0.16830054  0.34652754
   0.08864182  0.26049524  0.88458303
   0.12756032  0.21352983  0.02410720
   0.68088584  0.10609065  0.25794076
   0.68331734  0.14756731  0.38348188
   0.65920560  0.08224679  0.91468711
   0.66804226  0.12103510  0.05492240
   0.01043712  0.44657330  0.57438088
   0.01542676  0.48686758  0.69901920
   0.22039296  0.66583398  0.28259763
   0.17145167  0.67593386  0.39669490
   0.27556877  0.62746169  0.96199425
   0.22607595  0.64109611  0.09273786
   0.55046079  0.00318349  0.57785253
   0.50370461  0.00847746  0.69418043
   0.24667205  0.07669876  0.41872034
   0.20737688  0.12340942  0.27814034
   0.22325781  0.12281348  0.07670291
   0.18252235  0.16864613  0.95552567
   0.67766970  0.24273022  0.46369991
   0.67553751  0.20179990  0.31668394
   0.00844558  0.58285706  0.78365757
   0.00356634  0.54302179  0.63661999
   0.66730591  0.21423368  0.11161761
   0.66214314  0.17450548  0.98649486
   0.08137739  0.67001686  0.46889444
   0.12732984  0.66431562  0.32755396
   0.41041116  0.00893116  0.75608338
   0.45838544  0.00010141  0.61940078
   0.12973379  0.64539205  0.12671361
   0.18052727  0.63267755  0.01893623
   0.76166290  0.92191671  0.57740986
   0.80303707  0.87613859  0.71753272
   0.78685975  0.87541234  0.91763655
   0.82885708  0.83165311  0.04081772
   0.31755172  0.76009084  0.51992735
   0.31822217  0.79912525  0.67717796
   0.98571042  0.42485163  0.23186695
   0.99394632  0.46330429  0.37443773
   0.32767616  0.78413357  0.88127452
   0.33458170  0.82295314  0.00734778
   0.92570938  0.31882191  0.55153263
   0.87810339  0.32876431  0.69128398
   0.59888144  0.98000369  0.24078710
   0.55074204  0.98823893  0.37546822
   0.87242185  0.35855689  0.87435952
   0.81886057  0.37818545  0.97432321
   0.90166896  0.78898185  0.77482092
   0.85965315  0.83355763  0.65172932
   0.92440353  0.74526419  0.12023723
   0.88530606  0.78914011  0.97506200
   0.31719225  0.89239538  0.73978874
   0.31134894  0.85318389  0.61379990
   0.34113251  0.91312155  0.08354434
   0.33024874  0.87609405  0.94180555
   0.98741359  0.55934132  0.43570275
   0.98329884  0.51872148  0.31057951
   0.78263713  0.33063594  0.74689986
   0.83439466  0.31439794  0.63781550
   0.73192265  0.37117827  0.07047253
   0.77546912  0.36348545  0.92200756
   0.45835390  0.98546612  0.41668010
   0.50540697  0.97974643  0.30050915
   0.75114436  0.47469390  0.55858384
   0.14089455  0.16803537  0.50045055
   0.69124853  0.13687571  0.53923864
   0.02781306  0.47418243  0.85186946
   0.16720473  0.69291490  0.54635642
   0.50252525  0.01988060  0.84882094
   0.19417138  0.16903825  0.80184703
   0.65444115  0.18499700  0.83064004
   0.18399131  0.61628755  0.86937869
   0.81717156  0.83073377  0.19391854
   0.34321825  0.81167206  0.16251829
   0.81012839  0.40904713  0.09606620
   0.87123967  0.83454238  0.49839925
   0.30307041  0.86482123  0.45867669
   0.97106042  0.53133746  0.15770240
   0.84254061  0.28525399  0.51087553
   0.50636868  0.96844612  0.14571519
   0.71051457  0.33061416  0.41214776
   0.28876621  0.02128501  0.79464515
   0.65869515  0.33310506  0.16227482
   0.95943572  0.68719404  0.49324891
   0.35787638  0.95528269  0.45723836
   0.35436581  0.02261559  0.12982250
   0.71882467  0.97324985  0.19900080
   0.33703085  0.66969257  0.75745514
   0.69981733  0.28245041  0.82379485
   0.98030680  0.31401195  0.16506361
   0.30340808  0.71293723  0.19496661
   0.97763180  0.37941906  0.84999798
   0.65188091  0.96828847  0.86635724
   0.02825913  0.61906587  0.16021637
   0.64522879  0.04129645  0.53833004
   0.02383941  0.69446700  0.84759452
   0.29245056  0.63420578  0.58609631
   0.04342879  0.31515734  0.50705038
   0.83100104  0.35219574  0.31322944
Direct configuration=    52
   0.05896945  0.25482016  0.30296518
   0.03800882  0.30167214  0.95058830
   0.10424287  0.26091113  0.70864717
   0.69085282  0.05435171  0.33456866
   0.66900489  0.03136193  0.97604207
   0.64165225  0.09951761  0.74016231
   0.02136029  0.39396533  0.64788887
   0.26269743  0.67757034  0.35582587
   0.31177003  0.64760656 -0.00622788
   0.28020430  0.59948525  0.80123741
   0.59199860  0.01289896  0.66012716
   0.29776157  0.03587760  0.35724520
   0.23022728  0.07708740  0.59445230
   0.27491959  0.08086598  0.99815654
   0.65380079  0.29954974  0.42488268
   0.70061197  0.22332729  0.63040000
   0.99144373  0.63694508  0.73840677
   0.02839922  0.56350248  0.95525706
   0.66607361  0.26306265  0.03608459
   0.04519567  0.65307106  0.41126496
   0.07916197  0.68911538  0.64340171
   0.36892376  0.00051570  0.68984090
   0.41063435  0.02449718  0.93256005
   0.08838508  0.63740175  0.03507668
   0.70983330  0.96051613  0.63956432
   0.77786418  0.92236537  0.40125905
   0.73367284  0.91426174  0.99483562
   0.35050345  0.70227901  0.52917765
   0.28841651  0.78253194  0.36346024
   0.98973478  0.37650973  0.29897653
   0.97432321  0.43947487  0.05289476
   0.32835180  0.73503013  0.95014190
   0.97218185  0.31594847  0.62201741
   0.91642728  0.31689533  0.36508439
   0.63928701  0.99010519  0.30679728
   0.59951063  0.96309630  0.06486023
   0.91253095  0.36902713  0.95785402
   0.95423520  0.74773679  0.69603857
   0.97883410  0.70688112  0.07426433
   0.90604566  0.74466318  0.29235379
   0.31098859  0.94264366  0.66192749
   0.33329803  0.96341298  0.02209529
   0.35783414  0.89604992  0.25831544
   0.97586324  0.61157564  0.35752959
   0.74397422  0.31313611  0.68540011
   0.67928289  0.38305689  0.02343636
   0.75183447  0.35892445  0.25123272
   0.41620677  0.97688275  0.33346849
   0.71549956  0.50282702  0.67645486
   0.78714526  0.44684319  0.43897315
   0.11127577  0.21386259  0.22502360
   0.15238609  0.16830218  0.34652410
   0.08864850  0.26049943  0.88458536
   0.12756327  0.21353246  0.02409133
   0.68089745  0.10608643  0.25796349
   0.68330073  0.14758781  0.38345511
   0.65921883  0.08222627  0.91472676
   0.66805592  0.12102293  0.05486003
   0.01044620  0.44657379  0.57438186
   0.01543045  0.48686964  0.69902403
   0.22039062  0.66584490  0.28263423
   0.17145401  0.67593637  0.39673583
   0.27556627  0.62746259  0.96205628
   0.22607790  0.64110569  0.09280563
   0.55045795  0.00317878  0.57783356
   0.50370559  0.00846933  0.69416120
   0.24667171  0.07670101  0.41870898
   0.20737941  0.12341134  0.27812777
   0.22326210  0.12281328  0.07669422
   0.18252903  0.16864274  0.95551912
   0.67762157  0.24275603  0.46363771
   0.67549319  0.20181789  0.31663328
   0.00843909  0.58285957  0.78367380
   0.00356023  0.54302772  0.63663607
   0.66727994  0.21425834  0.11158943
   0.66214875  0.17449084  0.98648013
   0.08136513  0.67001323  0.46890281
   0.12732844  0.66431621  0.32758721
   0.41040610  0.00892749  0.75605464
   0.45838531  0.00009489  0.61937282
   0.12973220  0.64538893  0.12673203
   0.18053119  0.63268129  0.01895928
   0.76166270  0.92191432  0.57743662
   0.80304325  0.87613303  0.71751358
   0.78685146  0.87541015  0.91765999
   0.82885815  0.83164526  0.04081233
   0.31756582  0.76008942  0.51995204
   0.31822749  0.79911748  0.67721423
   0.98571841  0.42485305  0.23187128
   0.99395230  0.46330726  0.37443546
   0.32766914  0.78413434  0.88125981
   0.33456736  0.82295215  0.00735638
   0.92571564  0.31882888  0.55152700
   0.87811954  0.32875348  0.69127091
   0.59887686  0.98000163  0.24077271
   0.55074423  0.98823560  0.37545408
   0.87242473  0.35855388  0.87437346
   0.81886336  0.37817640  0.97435518
   0.90166564  0.78898179  0.77484634
   0.85964966  0.83356007  0.65174780
   0.92440410  0.74526203  0.12024656
   0.88530251  0.78913842  0.97509135
   0.31718304  0.89240035  0.73978597
   0.31134924  0.85316787  0.61376431
   0.34113130  0.91313137  0.08349727
   0.33023682  0.87609299  0.94181648
   0.98740278  0.55935156  0.43570134
   0.98329509  0.51872584  0.31059170
   0.78264265  0.33063282  0.74688054
   0.83439792  0.31439251  0.63780783
   0.73192024  0.37118245  0.07045995
   0.77547968  0.36347417  0.92197039
   0.45835281  0.98546433  0.41665186
   0.50541026  0.97974484  0.30049060
   0.75114581  0.47468746  0.55859338
   0.14089466  0.16804215  0.50044268
   0.69124232  0.13689487  0.53921449
   0.02781710  0.47418481  0.85185909
   0.16718679  0.69291605  0.54639045
   0.50252226  0.01987543  0.84881925
   0.19417512  0.16903778  0.80184617
   0.65445281  0.18497660  0.83056837
   0.18401466  0.61628173  0.86939587
   0.81716562  0.83072684  0.19393423
   0.34320526  0.81169614  0.16257077
   0.81013399  0.40902133  0.09615320
   0.87124274  0.83453573  0.49843873
   0.30308907  0.86478707  0.45865024
   0.97105553  0.53134155  0.15771204
   0.84256869  0.28524988  0.51084372
   0.50637598  0.96843948  0.14570209
   0.71050490  0.33062148  0.41215698
   0.28877131  0.02128308  0.79460776
   0.65867330  0.33311861  0.16232782
   0.95942614  0.68719746  0.49327985
   0.35787179  0.95528195  0.45719792
   0.35436713  0.02261283  0.12979118
   0.71883362  0.97324335  0.19899724
   0.33703642  0.66968528  0.75744751
   0.69981896  0.28245178  0.82375557
   0.98031298  0.31402163  0.16506263
   0.30343744  0.71292664  0.19495830
   0.97763974  0.37942063  0.84999334
   0.65187527  0.96828653  0.86634546
   0.02826438  0.61905869  0.16022076
   0.64523756  0.04128156  0.53832394
   0.02383129  0.69446971  0.84760496
   0.29243323  0.63422719  0.58609805
   0.04342445  0.31516026  0.50706990
   0.83100277  0.35219290  0.31329666
Direct configuration=    53
   0.05896618  0.25481523  0.30296660
   0.03800207  0.30166646  0.95058458
   0.10423614  0.26090222  0.70864584
   0.69082837  0.05435610  0.33455086
   0.66899214  0.03138111  0.97600546
   0.64165032  0.09953489  0.74013065
   0.02133983  0.39396836  0.64788469
   0.26271323  0.67754387  0.35574909
   0.31174999  0.64762318 -0.00625815
   0.28021640  0.59947002  0.80120122
   0.59200081  0.01290407  0.66016095
   0.29776433  0.03587884  0.35728159
   0.23022201  0.07708638  0.59447105
   0.27491492  0.08086604  0.99817923
   0.65385594  0.29951063  0.42490003
   0.70066184  0.22330260  0.63045866
   0.99145160  0.63694189  0.73837947
   0.02840359  0.56350481  0.95524809
   0.66608300  0.26306120  0.03614248
   0.04520567  0.65307818  0.41128893
   0.07917093  0.68911378  0.64339463
   0.36892891  0.00050980  0.68990884
   0.41063702  0.02450812  0.93258678
   0.08837299  0.63741263  0.03509164
   0.70984252  0.96052591  0.63952392
   0.77786466  0.92235478  0.40123652
   0.73368034  0.91426982  0.99480415
   0.35046532  0.70229270  0.52915314
   0.28838527  0.78255129  0.36343364
   0.98972837  0.37650402  0.29897653
   0.97430914  0.43947527  0.05289106
   0.32836074  0.73502230  0.95013045
   0.97218310  0.31593296  0.62197495
   0.91642176  0.31687842  0.36508471
   0.63928218  0.99012133  0.30681450
   0.59953042  0.96308493  0.06487248
   0.91253607  0.36901855  0.95786537
   0.95423670  0.74774034  0.69603249
   0.97883260  0.70687840  0.07424630
   0.90605163  0.74466256  0.29234629
   0.31098887  0.94265101  0.66198461
   0.33328973  0.96340823  0.02217464
   0.35783556  0.89604740  0.25837999
   0.97587603  0.61156635  0.35752658
   0.74397108  0.31312774  0.68547109
   0.67928584  0.38305460  0.02342460
   0.75182673  0.35893337  0.25125963
   0.41620293  0.97688860  0.33349359
   0.71550323  0.50283254  0.67640287
   0.78715355  0.44684171  0.43894826
   0.11127171  0.21385932  0.22503279
   0.15238390  0.16829715  0.34653634
   0.08864057  0.26049408  0.88458145
   0.12755730  0.21353137  0.02409534
   0.68088953  0.10608449  0.25797919
   0.68332604  0.14757666  0.38348421
   0.65921034  0.08223593  0.91473862
   0.66803833  0.12104638  0.05486536
   0.01043582  0.44657211  0.57437944
   0.01542761  0.48686421  0.69902511
   0.22039261  0.66582694  0.28258372
   0.17145645  0.67593493  0.39670782
   0.27555609  0.62746212  0.96199775
   0.22607969  0.64109610  0.09274686
   0.55045633  0.00318351  0.57784757
   0.50370580  0.00847790  0.69418396
   0.24666827  0.07670155  0.41873268
   0.20737687  0.12340924  0.27813867
   0.22325576  0.12281436  0.07670692
   0.18252630  0.16864191  0.95552613
   0.67767108  0.24272945  0.46366712
   0.67554249  0.20178367  0.31670388
   0.00844737  0.58285391  0.78365292
   0.00356761  0.54301973  0.63662430
   0.66730894  0.21423800  0.11162400
   0.66214396  0.17449364  0.98652961
   0.08137181  0.67001911  0.46891291
   0.12733213  0.66431671  0.32754830
   0.41040701  0.00893025  0.75607888
   0.45838271  0.00010236  0.61941158
   0.12972953  0.64539135  0.12669760
   0.18053209  0.63267644  0.01891022
   0.76166224  0.92191810  0.57739300
   0.80304756  0.87613202  0.71750841
   0.78684623  0.87542467  0.91766588
   0.82886579  0.83165037  0.04076560
   0.31753900  0.76011582  0.51992577
   0.31822622  0.79911846  0.67721426
   0.98570948  0.42484927  0.23187928
   0.99394422  0.46330529  0.37443399
   0.32767444  0.78413987  0.88125658
   0.33458575  0.82294390  0.00733699
   0.92570140  0.31882033  0.55152520
   0.87810737  0.32875600  0.69125034
   0.59887710  0.98000429  0.24078815
   0.55074443  0.98823776  0.37546052
   0.87241572  0.35855633  0.87436015
   0.81884977  0.37819096  0.97433255
   0.90167425  0.78897873  0.77480901
   0.85964941  0.83356215  0.65173258
   0.92440732  0.74526307  0.12022137
   0.88530249  0.78914411  0.97505461
   0.31719049  0.89240513  0.73981720
   0.31134493  0.85317054  0.61374794
   0.34113383  0.91312823  0.08355631
   0.33025327  0.87608617  0.94181890
   0.98741332  0.55934343  0.43568051
   0.98330071  0.51871760  0.31059101
   0.78263565  0.33063943  0.74690388
   0.83438217  0.31439852  0.63780123
   0.73191918  0.37117720  0.07049760
   0.77547314  0.36348625  0.92198209
   0.45834976  0.98546931  0.41669304
   0.50540670  0.97974791  0.30051391
   0.75113743  0.47470083  0.55860360
   0.14089315  0.16803537  0.50044852
   0.69125185  0.13686859  0.53924161
   0.02781104  0.47418232  0.85186551
   0.16720851  0.69291274  0.54633604
   0.50252554  0.01988428  0.84884734
   0.19417006  0.16903841  0.80185091
   0.65443672  0.18500368  0.83063877
   0.18398667  0.61628722  0.86936806
   0.81717036  0.83073639  0.19393284
   0.34322197  0.81166983  0.16250670
   0.81012575  0.40905166  0.09605526
   0.87124013  0.83454111  0.49840300
   0.30306741  0.86482761  0.45869031
   0.97106154  0.53133689  0.15769382
   0.84254095  0.28525535  0.51087605
   0.50636958  0.96844744  0.14572380
   0.71050968  0.33061663  0.41209242
   0.28877268  0.02128192  0.79464233
   0.65870427  0.33309797  0.16230090
   0.95943756  0.68719380  0.49325545
   0.35787767  0.95528203  0.45724482
   0.35437055  0.02261609  0.12981874
   0.71882069  0.97325169  0.19898081
   0.33702672  0.66969446  0.75743719
   0.69981876  0.28244926  0.82380037
   0.98030497  0.31401106  0.16507342
   0.30340677  0.71293907  0.19494612
   0.97762967  0.37941926  0.84999889
   0.65188063  0.96828715  0.86637843
   0.02826185  0.61906581  0.16021137
   0.64522881  0.04129855  0.53832421
   0.02383412  0.69447229  0.84760055
   0.29246056  0.63420319  0.58608755
   0.04342134  0.31515680  0.50706028
   0.83100052  0.35219522  0.31321519
Direct configuration=    54
   0.05895770  0.25480246  0.30297028
   0.03798457  0.30165173  0.95057494
   0.10421871  0.26087915  0.70864241
   0.69076504  0.05436746  0.33450477
   0.66895912  0.03143079  0.97591065
   0.64164532  0.09957962  0.74004865
   0.02128683  0.39397621  0.64787387
   0.26275417  0.67747530  0.35555026
   0.31169807  0.64766623 -0.00633654
   0.28024773  0.59943059  0.80110748
   0.59200654  0.01291730  0.66024846
   0.29777148  0.03588207  0.35737585
   0.23020839  0.07708373  0.59451962
   0.27490281  0.08086621  0.99823799
   0.65399876  0.29940936  0.42494497
   0.70079099  0.22323867  0.63061056
   0.99147199  0.63693364  0.73830877
   0.02841491  0.56351084  0.95522484
   0.66610734  0.26305745  0.03629239
   0.04523158  0.65309661  0.41135100
   0.07919412  0.68910965  0.64337628
   0.36894223  0.00049453  0.69008477
   0.41064395  0.02453646  0.93265599
   0.08834169  0.63744078  0.03513039
   0.70986640  0.96055125  0.63941929
   0.77786590  0.92232738  0.40117815
   0.73369974  0.91429075  0.99472266
   0.35036660  0.70232815  0.52908967
   0.28830438  0.78260142  0.36336473
   0.98971177  0.37648920  0.29897654
   0.97427269  0.43947630  0.05288146
   0.32838388  0.73500202  0.95010080
   0.97218635  0.31589280  0.62186498
   0.91640749  0.31683464  0.36508554
   0.63926967  0.99016311  0.30685908
   0.59958165  0.96305549  0.06490420
   0.91254934  0.36899632  0.95789478
   0.95424057  0.74774952  0.69601675
   0.97882874  0.70687137  0.07419961
   0.90606708  0.74466094  0.29232685
   0.31098959  0.94267003  0.66213253
   0.33326824  0.96339591  0.02238013
   0.35783922  0.89604088  0.25854716
   0.97590916  0.61154229  0.35751878
   0.74396296  0.31310605  0.68565492
   0.67929347  0.38304867  0.02339414
   0.75180669  0.35895647  0.25132932
   0.41619300  0.97690375  0.33355860
   0.71551271  0.50284685  0.67626822
   0.78717502  0.44683790  0.43888380
   0.11126119  0.21385087  0.22505659
   0.15237823  0.16828411  0.34656806
   0.08862004  0.26048021  0.88457131
   0.12754182  0.21352854  0.02410574
   0.68086902  0.10607949  0.25801984
   0.68339158  0.14754778  0.38355956
   0.65918832  0.08226095  0.91476931
   0.66799278  0.12110711  0.05487916
   0.01040894  0.44656776  0.57437317
   0.01542025  0.48685015  0.69902790
   0.22039777  0.66578043  0.28245293
   0.17146278  0.67593121  0.39663530
   0.27552972  0.62746089  0.96184617
   0.22608434  0.64107127  0.09259467
   0.55045213  0.00319576  0.57788385
   0.50370634  0.00850010  0.69424289
   0.24665934  0.07670294  0.41879405
   0.20737028  0.12340380  0.27816689
   0.22323935  0.12281718  0.07673980
   0.18251924  0.16863975  0.95554428
   0.67779931  0.24266061  0.46374329
   0.67567018  0.20169507  0.31688671
   0.00846880  0.58283927  0.78359882
   0.00358674  0.54299902  0.63659382
   0.66738403  0.21418533  0.11171355
   0.66213158  0.17450088  0.98665773
   0.08138910  0.67003433  0.46893908
   0.12734168  0.66431801  0.32744752
   0.41040937  0.00893741  0.75614166
   0.45837597  0.00012172  0.61951196
   0.12972264  0.64539762  0.12660841
   0.18053444  0.63266385  0.01878317
   0.76166105  0.92192788  0.57728005
   0.80305873  0.87612938  0.71749503
   0.78683268  0.87546228  0.91768115
   0.82888559  0.83166359  0.04064459
   0.31746956  0.76018419  0.51985771
   0.31822294  0.79912101  0.67721431
   0.98568636  0.42483949  0.23189998
   0.99392328  0.46330020  0.37443018
   0.32768818  0.78415420  0.88124819
   0.33463339  0.82292253  0.00728676
   0.92566453  0.31879818  0.55152053
   0.87807584  0.32876252  0.69119707
   0.59887769  0.98001116  0.24082816
   0.55074495  0.98824334  0.37547722
   0.87239239  0.35856266  0.87432569
   0.81881459  0.37822868  0.97427394
   0.90169657  0.78897082  0.77471235
   0.85964875  0.83356752  0.65169317
   0.92441567  0.74526578  0.12015616
   0.88530242  0.78915886  0.97495944
   0.31720978  0.89241752  0.73989810
   0.31133375  0.85317748  0.61370554
   0.34114037  0.91312007  0.08370920
   0.33029587  0.87606850  0.94182517
   0.98744062  0.55932236  0.43562656
   0.98331525  0.51869628  0.31058921
   0.78261751  0.33065656  0.74696433
   0.83434138  0.31441410  0.63778414
   0.73191644  0.37116362  0.07059508
   0.77545622  0.36351752  0.92201238
   0.45834184  0.98548219  0.41679967
   0.50539748  0.97975587  0.30057429
   0.75111570  0.47473546  0.55863006
   0.14088924  0.16801781  0.50046365
   0.69127652  0.13680055  0.53931184
   0.02779533  0.47417587  0.85188214
   0.16726476  0.69290417  0.54619515
   0.50253403  0.01990721  0.84892007
   0.19415695  0.16904006  0.80186319
   0.65439507  0.18507380  0.83082111
   0.18391419  0.61630143  0.86929604
   0.81718263  0.83076114  0.19392922
   0.34326524  0.81160171  0.16234076
   0.81010439  0.40913022  0.09580160
   0.87123337  0.83455505  0.49831046
   0.30301133  0.86493262  0.45879408
   0.97107711  0.53132483  0.15764663
   0.84246913  0.28526950  0.51095977
   0.50635300  0.96846803  0.14578002
   0.71052204  0.33060407  0.41192525
   0.28877623  0.02127892  0.79473186
   0.65878447  0.33304454  0.16223117
   0.95946712  0.68718431  0.49319226
   0.35789287  0.95528224  0.45736627
   0.35437941  0.02262455  0.12989011
   0.71878719  0.97327327  0.19893825
   0.33700162  0.66971825  0.75741044
   0.69981824  0.28244271  0.82391641
   0.98028423  0.31398368  0.16510136
   0.30332733  0.71297127  0.19491457
   0.97760361  0.37941571  0.85001328
   0.65189450  0.96828874  0.86646380
   0.02825529  0.61908427  0.16018705
   0.64520615  0.04134255  0.53832491
   0.02384143  0.69447897  0.84758915
   0.29253134  0.63414103  0.58606035
   0.04341328  0.31514782  0.50703537
   0.83099469  0.35220123  0.31300420
Direct configuration=    55
   0.05895534  0.25479908  0.30297157
   0.03797960  0.30164784  0.95057191
   0.10421422  0.26087307  0.70864260
   0.69074743  0.05437126  0.33449845
   0.66895046  0.03144213  0.97588673
   0.64164402  0.09959146  0.74003509
   0.02127272  0.39397743  0.64787286
   0.26276429  0.67745657  0.35549919
   0.31168569  0.64767584 -0.00635950
   0.28025608  0.59941956  0.80108690
   0.59200765  0.01292080  0.66026787
   0.29777285  0.03588350  0.35740281
   0.23020462  0.07708302  0.59453418
   0.27490009  0.08086609  0.99825338
   0.65403590  0.29938529  0.42495750
   0.70082579  0.22322154  0.63065121
   0.99147776  0.63693171  0.73828960
   0.02841790  0.56351221  0.95521759
   0.66611507  0.26305236  0.03632979
   0.04523609  0.65310049  0.41136111
   0.07920116  0.68910970  0.64337764
   0.36894491  0.00049037  0.69013070
   0.41064558  0.02454401  0.93267612
   0.08833272  0.63744728  0.03513612
   0.70987027  0.96055962  0.63939879
   0.77786705  0.92232000  0.40115950
   0.73370201  0.91429888  0.99470412
   0.35034005  0.70233838  0.52907152
   0.28828330  0.78261608  0.36335304
   0.98970713  0.37648533  0.29897424
   0.97426290  0.43947631  0.05288247
   0.32838848  0.73500011  0.95009104
   0.97218672  0.31588266  0.62183774
   0.91640264  0.31682334  0.36508238
   0.63926615  0.99017334  0.30686511
   0.59959540  0.96304832  0.06491447
   0.91255303  0.36899159  0.95790152
   0.95424351  0.74774956  0.69600676
   0.97882759  0.70687003  0.07418363
   0.90607159  0.74466066  0.29231747
   0.31099021  0.94267665  0.66216699
   0.33326165  0.96339567  0.02242982
   0.35784044  0.89603818  0.25859192
   0.97591840  0.61153567  0.35751588
   0.74396260  0.31310229  0.68571224
   0.67929545  0.38304800  0.02339198
   0.75180166  0.35896312  0.25134847
   0.41619027  0.97690744  0.33357735
   0.71550411  0.50285961  0.67626826
   0.78717058  0.44684491  0.43889975
   0.11125724  0.21384918  0.22506405
   0.15237660  0.16828058  0.34657615
   0.08861471  0.26047632  0.88457007
   0.12753776  0.21352746  0.02410569
   0.68086506  0.10608040  0.25803660
   0.68341104  0.14753569  0.38358384
   0.65918176  0.08227027  0.91477292
   0.66798200  0.12111603  0.05487967
   0.01040184  0.44656671  0.57437304
   0.01541854  0.48684629  0.69902913
   0.22040113  0.66576774  0.28241792
   0.17146755  0.67592910  0.39661207
   0.27552234  0.62746082  0.96181266
   0.22608498  0.64106520  0.09256146
   0.55045135  0.00319910  0.57789300
   0.50370620  0.00850575  0.69426017
   0.24665718  0.07670314  0.41881160
   0.20736841  0.12340241  0.27817494
   0.22323557  0.12281749  0.07674885
   0.18251766  0.16863866  0.95554930
   0.67783447  0.24263883  0.46376571
   0.67570183  0.20167401  0.31691635
   0.00847434  0.58283588  0.78358509
   0.00359194  0.54299302  0.63658772
   0.66740316  0.21417627  0.11175286
   0.66212857  0.17450477  0.98669077
   0.08139295  0.67003793  0.46894132
   0.12734379  0.66431952  0.32742818
   0.41040907  0.00893991  0.75616555
   0.45837411  0.00012648  0.61953627
   0.12972077  0.64539891  0.12658455
   0.18053324  0.63266125  0.01874881
   0.76166285  0.92192802  0.57725940
   0.80306210  0.87612927  0.71748086
   0.78683076  0.87547137  0.91768020
   0.82888955  0.83166786  0.04061868
   0.31744985  0.76020329  0.51983968
   0.31822196  0.79912290  0.67721656
   0.98567968  0.42483692  0.23190240
   0.99391778  0.46329852  0.37442859
   0.32769165  0.78415469  0.88123718
   0.33464595  0.82291446  0.00726654
   0.92565845  0.31879146  0.55151555
   0.87806900  0.32876185  0.69117988
   0.59887829  0.98001284  0.24083613
   0.55074531  0.98824453  0.37548168
   0.87238667  0.35856403  0.87431790
   0.81880535  0.37823992  0.97426066
   0.90170051  0.78897047  0.77469004
   0.85964897  0.83356940  0.65167798
   0.92441650  0.74526747  0.12014019
   0.88530440  0.78916124  0.97493429
   0.31721348  0.89241996  0.73991720
   0.31133060  0.85317863  0.61370119
   0.34114298  0.91311774  0.08375086
   0.33030805  0.87606233  0.94183878
   0.98744754  0.55931710  0.43561141
   0.98331859  0.51869102  0.31058341
   0.78261077  0.33066131  0.74698164
   0.83432734  0.31441907  0.63778017
   0.73191559  0.37116197  0.07061402
   0.77545102  0.36352448  0.92201320
   0.45833889  0.98548634  0.41682669
   0.50539550  0.97975859  0.30059264
   0.75113134  0.47472797  0.55856574
   0.14088763  0.16801350  0.50046840
   0.69128408  0.13678176  0.53933018
   0.02779073  0.47417417  0.85188448
   0.16727928  0.69290189  0.54615872
   0.50253626  0.01991399  0.84894455
   0.19415340  0.16904038  0.80186784
   0.65438323  0.18509293  0.83086417
   0.18389569  0.61630410  0.86926811
   0.81718660  0.83076784  0.19392120
   0.34327784  0.81158406  0.16230586
   0.81009774  0.40915180  0.09574093
   0.87123131  0.83455813  0.49829370
   0.30299625  0.86495994  0.45881643
   0.97108179  0.53132105  0.15763710
   0.84245195  0.28527248  0.51097541
   0.50634904  0.96847343  0.14579629
   0.71052455  0.33060113  0.41187796
   0.28877883  0.02127757  0.79475486
   0.65880624  0.33302946  0.16222004
   0.95947479  0.68718195  0.49317889
   0.35789665  0.95528234  0.45739786
   0.35438258  0.02262691  0.12990577
   0.71877819  0.97327878  0.19892209
   0.33699390  0.66972492  0.75739886
   0.69981896  0.28244034  0.82394749
   0.98027879  0.31397666  0.16511122
   0.30330797  0.71297991  0.19489887
   0.97759697  0.37941468  0.85001644
   0.65189815  0.96828893  0.86648709
   0.02825463  0.61908845  0.16018110
   0.64520022  0.04135358  0.53832725
   0.02384136  0.69448218  0.84758752
   0.29255135  0.63412584  0.58604266
   0.04340864  0.31514534  0.50703294
   0.83099319  0.35220272  0.31294803
Direct configuration=    56
   0.05895000  0.25479140  0.30297449
   0.03796831  0.30163901  0.95056503
   0.10420405  0.26085926  0.70864303
   0.69070745  0.05437989  0.33448409
   0.66893079  0.03146790  0.97583240
   0.64164106  0.09961834  0.74000429
   0.02124068  0.39398020  0.64787055
   0.26278727  0.67741402  0.35538321
   0.31165755  0.64769766 -0.00641164
   0.28027506  0.59939451  0.80104018
   0.59201018  0.01292874  0.66031194
   0.29777596  0.03588675  0.35746403
   0.23019606  0.07708142  0.59456726
   0.27489392  0.08086581  0.99828833
   0.65412024  0.29933063  0.42498596
   0.70090482  0.22318263  0.63074355
   0.99149086  0.63692734  0.73824605
   0.02842469  0.56351532  0.95520114
   0.66613263  0.26304080  0.03641474
   0.04524633  0.65310928  0.41138407
   0.07921716  0.68910981  0.64338073
   0.36895097  0.00048091  0.69023500
   0.41064928  0.02456118  0.93272182
   0.08831237  0.63746204  0.03514913
   0.70987905  0.96057861  0.63935221
   0.77786967  0.92230323  0.40111715
   0.73370717  0.91431734  0.99466201
   0.35027976  0.70236164  0.52903028
   0.28823543  0.78264936  0.36332648
   0.98969659  0.37647653  0.29896903
   0.97424067  0.43947634  0.05288476
   0.32839894  0.73499577  0.95006888
   0.97218754  0.31585964  0.62177586
   0.91639162  0.31679768  0.36507522
   0.63925817  0.99019658  0.30687881
   0.59962663  0.96303204  0.06493779
   0.91256142  0.36898085  0.95791683
   0.95425018  0.74774966  0.69598408
   0.97882500  0.70686698  0.07414735
   0.90608184  0.74466002  0.29229617
   0.31099163  0.94269169  0.66224523
   0.33324670  0.96339511  0.02254265
   0.35784320  0.89603206  0.25869358
   0.97593938  0.61152063  0.35750929
   0.74396179  0.31309374  0.68584241
   0.67929995  0.38304648  0.02338705
   0.75179025  0.35897822  0.25139198
   0.41618409  0.97691582  0.33361994
   0.71548458  0.50288860  0.67626835
   0.78716051  0.44686082  0.43893598
   0.11124826  0.21384535  0.22508098
   0.15237291  0.16827256  0.34659453
   0.08860262  0.26046749  0.88456723
   0.12752853  0.21352501  0.02410558
   0.68085608  0.10608248  0.25807466
   0.68345525  0.14750822  0.38363897
   0.65916685  0.08229144  0.91478112
   0.66795751  0.12113629  0.05488085
   0.01038570  0.44656433  0.57437273
   0.01541468  0.48683752  0.69903191
   0.22040877  0.66573892  0.28233842
   0.17147837  0.67592430  0.39655931
   0.27550557  0.62746066  0.96173653
   0.22608644  0.64105142  0.09248603
   0.55044956  0.00320668  0.57791377
   0.50370589  0.00851858  0.69429942
   0.24665229  0.07670359  0.41885146
   0.20736415  0.12339927  0.27819322
   0.22322699  0.12281820  0.07676939
   0.18251407  0.16863617  0.95556071
   0.67791433  0.24258936  0.46381662
   0.67577371  0.20162618  0.31698365
   0.00848691  0.58282819  0.78355390
   0.00360375  0.54297938  0.63657387
   0.66744659  0.21415571  0.11184214
   0.66212171  0.17451360  0.98676579
   0.08140172  0.67004610  0.46894640
   0.12734858  0.66432296  0.32738427
   0.41040839  0.00894561  0.75621982
   0.45836989  0.00013728  0.61959147
   0.12971652  0.64540183  0.12653035
   0.18053052  0.63265535  0.01867077
   0.76166694  0.92192834  0.57721250
   0.80306975  0.87612903  0.71744868
   0.78682639  0.87549201  0.91767802
   0.82889852  0.83167754  0.04055983
   0.31740510  0.76024667  0.51979874
   0.31821975  0.79912719  0.67722166
   0.98566452  0.42483107  0.23190791
   0.99390530  0.46329471  0.37442498
   0.32769955  0.78415580  0.88121215
   0.33467448  0.82289615  0.00722060
   0.92564462  0.31877620  0.55150423
   0.87805349  0.32876032  0.69114082
   0.59887966  0.98001666  0.24085422
   0.55074611  0.98824723  0.37549181
   0.87237369  0.35856715  0.87430023
   0.81878435  0.37826544  0.97423049
   0.90170946  0.78896968  0.77463939
   0.85964946  0.83357366  0.65164348
   0.92441838  0.74527131  0.12010393
   0.88530892  0.78916662  0.97487715
   0.31722189  0.89242550  0.73996057
   0.31132344  0.85318126  0.61369130
   0.34114890  0.91311244  0.08384548
   0.33033573  0.87604831  0.94186968
   0.98746327  0.55930513  0.43557701
   0.98332619  0.51867908  0.31057025
   0.78259545  0.33067209  0.74702094
   0.83429543  0.31443037  0.63777115
   0.73191366  0.37115822  0.07065704
   0.77543921  0.36354027  0.92201506
   0.45833218  0.98549576  0.41688804
   0.50539101  0.97976477  0.30063433
   0.75116686  0.47471099  0.55841964
   0.14088397  0.16800372  0.50047920
   0.69130124  0.13673908  0.53937183
   0.02778029  0.47417029  0.85188980
   0.16731225  0.69289672  0.54607596
   0.50254133  0.01992940  0.84900014
   0.19414534  0.16904111  0.80187840
   0.65435633  0.18513639  0.83096196
   0.18385369  0.61631016  0.86920467
   0.81719563  0.83078307  0.19390300
   0.34330645  0.81154396  0.16222661
   0.81008263  0.40920082  0.09560315
   0.87122664  0.83456512  0.49825563
   0.30296198  0.86502200  0.45886720
   0.97109240  0.53131248  0.15761545
   0.84241293  0.28527924  0.51101094
   0.50634006  0.96848569  0.14583325
   0.71053024  0.33059443  0.41177054
   0.28878473  0.02127451  0.79480709
   0.65885568  0.33299522  0.16219475
   0.95949220  0.68717659  0.49314853
   0.35790523  0.95528256  0.45746961
   0.35438978  0.02263227  0.12994134
   0.71875776  0.97329131  0.19888539
   0.33697638  0.66974008  0.75737256
   0.69982059  0.28243497  0.82401809
   0.98026643  0.31396070  0.16513363
   0.30326398  0.71299955  0.19486322
   0.97758188  0.37941235  0.85002360
   0.65190643  0.96828935  0.86653999
   0.02825311  0.61909793  0.16016757
   0.64518675  0.04137865  0.53833256
   0.02384121  0.69448946  0.84758383
   0.29259681  0.63409135  0.58600248
   0.04339809  0.31513970  0.50702744
   0.83098979  0.35220611  0.31282045
Direct configuration=    57
   0.05894694  0.25478844  0.30297735
   0.03796249  0.30163552  0.95056200
   0.10419974  0.26085357  0.70864301
   0.69068952  0.05438524  0.33448478
   0.66892295  0.03147489  0.97581466
   0.64164017  0.09962951  0.74000791
   0.02122688  0.39398011  0.64787192
   0.26279624  0.67739431  0.35533957
   0.31164650  0.64770418 -0.00644013
   0.28028293  0.59938324  0.80102589
   0.59200999  0.01293181  0.66032321
   0.29777618  0.03588944  0.35749355
   0.23019224  0.07708074  0.59458382
   0.27489233  0.08086518  0.99830302
   0.65415521  0.29931116  0.42499944
   0.70093887  0.22316576  0.63077696
   0.99149734  0.63692469  0.73822707
   0.02842758  0.56351608  0.95519166
   0.66614231  0.26302948  0.03644754
   0.04524668  0.65311133  0.41138263
   0.07922534  0.68911195  0.64339287
   0.36895261  0.00047650  0.69027809
   0.41065016  0.02456852  0.93274340
   0.08830356  0.63746700  0.03514645
   0.70987962  0.96058868  0.63934412
   0.77787180  0.92229626  0.40108868
   0.73370427  0.91432961  0.99465087
   0.35025179  0.70237605  0.52900781
   0.28821500  0.78266660  0.36332386
   0.98969170  0.37647288  0.29896335
   0.97423105  0.43947571  0.05289293
   0.32840084  0.73499952  0.95005773
   0.97218494  0.31585072  0.62175308
   0.91638498  0.31678722  0.36506521
   0.63925342  0.99020531  0.30687663
   0.59963911  0.96302598  0.06495306
   0.91256219  0.36897729  0.95791739
   0.95425614  0.74774615  0.69596418
   0.97882394  0.70686643  0.07412572
   0.90608653  0.74466037  0.29227920
   0.31099298  0.94269878  0.66227214
   0.33323910  0.96340023  0.02258473
   0.35784475  0.89602802  0.25873684
   0.97594906  0.61151430  0.35750367
   0.74396267  0.31309323  0.68590304
   0.67930074  0.38304726  0.02339478
   0.75178671  0.35898527  0.25141246
   0.41618172  0.97691903  0.33364250
   0.71548478  0.50289457  0.67623834
   0.78716405  0.44686171  0.43892461
   0.11124397  0.21384349  0.22508694
   0.15237031  0.16826990  0.34660012
   0.08859769  0.26046334  0.88456869
   0.12752507  0.21352271  0.02410514
   0.68085421  0.10608706  0.25809163
   0.68347688  0.14748733  0.38366701
   0.65915798  0.08230630  0.91476704
   0.66795005  0.12113298  0.05489083
   0.01037870  0.44656347  0.57437542
   0.01541315  0.48683409  0.69903200
   0.22041618  0.66572694  0.28230566
   0.17148723  0.67591982  0.39652706
   0.27550086  0.62746047  0.96171217
   0.22608472  0.64104581  0.09246026
   0.55045020  0.00321029  0.57792400
   0.50370502  0.00852387  0.69432013
   0.24665120  0.07670292  0.41886968
   0.20736202  0.12339793  0.27820321
   0.22322479  0.12281740  0.07677849
   0.18251186  0.16863511  0.95556654
   0.67795203  0.24256190  0.46384990
   0.67580146  0.20161170  0.31698622
   0.00849187  0.58282646  0.78354169
   0.00360888  0.54297307  0.63656904
   0.66746356  0.21415279  0.11190175
   0.66211922  0.17452231  0.98679393
   0.08140517  0.67004878  0.46893934
   0.12734971  0.66432620  0.32737704
   0.41040739  0.00894932  0.75625652
   0.45836825  0.00014140  0.61961148
   0.12971495  0.64540279  0.12651094
   0.18052480  0.63265423  0.01863893
   0.76167117  0.92192544  0.57720837
   0.80307134  0.87613152  0.71742379
   0.78683028  0.87549721  0.91766053
   0.82889887  0.83168374  0.04055265
   0.31738597  0.76026145  0.51978341
   0.31821737  0.79913218  0.67721649
   0.98565693  0.42482900  0.23190392
   0.99390023  0.46329227  0.37442294
   0.32770331  0.78414941  0.88118895
   0.33468670  0.82288529  0.00719461
   0.92564604  0.31876792  0.55149321
   0.87804795  0.32875720  0.69112747
   0.59888199  0.98001801  0.24085818
   0.55074651  0.98824828  0.37549916
   0.87237050  0.35856800  0.87429404
   0.81877744  0.37827756  0.97421651
   0.90170958  0.78897261  0.77462330
   0.85965149  0.83357506  0.65162097
   0.92441665  0.74527458  0.12009148
   0.88531419  0.78916632  0.97485474
   0.31722355  0.89242469  0.73997209
   0.31132040  0.85318606  0.61370952
   0.34115290  0.91310868  0.08388718
   0.33034849  0.87604125  0.94189788
   0.98746996  0.55929937  0.43556585
   0.98332846  0.51867502  0.31055439
   0.78258553  0.33067665  0.74704030
   0.83427930  0.31443676  0.63776888
   0.73191332  0.37116077  0.07065729
   0.77543200  0.36354558  0.92201265
   0.45832875  0.98550068  0.41690998
   0.50538955  0.97976839  0.30065592
   0.75116568  0.47471702  0.55841022
   0.14088147  0.16799997  0.50048601
   0.69131061  0.13671968  0.53939151
   0.02777522  0.47416847  0.85188988
   0.16732568  0.69289476  0.54604432
   0.50254351  0.01993683  0.84902794
   0.19414193  0.16904110  0.80188475
   0.65434356  0.18515573  0.83099726
   0.18383727  0.61631097  0.86916225
   0.81720121  0.83078970  0.19387983
   0.34332076  0.81152714  0.16220857
   0.81007427  0.40922363  0.09555657
   0.87122425  0.83456726  0.49824959
   0.30294688  0.86504712  0.45887946
   0.97109788  0.53130771  0.15761134
   0.84239868  0.28528061  0.51101441
   0.50633668  0.96849083  0.14585131
   0.71053268  0.33059143  0.41173142
   0.28878893  0.02127294  0.79482971
   0.65887678  0.33297972  0.16219129
   0.95949916  0.68717459  0.49313986
   0.35790825  0.95528294  0.45749936
   0.35439345  0.02263486  0.12995252
   0.71874924  0.97329634  0.19886440
   0.33696722  0.66974727  0.75735614
   0.69982294  0.28243151  0.82404904
   0.98026143  0.31395415  0.16514585
   0.30324794  0.71300822  0.19483741
   0.97757607  0.37941116  0.85002569
   0.65191010  0.96828956  0.86655923
   0.02825395  0.61910069  0.16016330
   0.64518084  0.04138809  0.53834083
   0.02383869  0.69449423  0.84758278
   0.29261747  0.63407850  0.58596720
   0.04339019  0.31513701  0.50703093
   0.83098881  0.35220693  0.31276456
Direct configuration=    58
   0.05893776  0.25477955  0.30298594
   0.03794501  0.30162504  0.95055292
   0.10418680  0.26083650  0.70864297
   0.69063575  0.05440127  0.33448688
   0.66889941  0.03149586  0.97576144
   0.64163749  0.09966301  0.74001876
   0.02118547  0.39397984  0.64787606
   0.26282315  0.67733518  0.35520862
   0.31161334  0.64772371 -0.00652559
   0.28030656  0.59934945  0.80098301
   0.59200941  0.01294102  0.66035704
   0.29777685  0.03589751  0.35758212
   0.23018079  0.07707869  0.59463351
   0.27488758  0.08086327  0.99834707
   0.65426011  0.29925276  0.42503988
   0.70104102  0.22311513  0.63087719
   0.99151680  0.63691673  0.73817011
   0.02843624  0.56351839  0.95516320
   0.66617134  0.26299552  0.03654593
   0.04524774  0.65311747  0.41137832
   0.07924986  0.68911839  0.64342928
   0.36895753  0.00046326  0.69040734
   0.41065280  0.02459055  0.93280814
   0.08827715  0.63748187  0.03513839
   0.70988132  0.96061889  0.63931986
   0.77787819  0.92227535  0.40100327
   0.73369557  0.91436640  0.99461743
   0.35016785  0.70241931  0.52894040
   0.28815370  0.78271832  0.36331598
   0.98967703  0.37646191  0.29894630
   0.97420219  0.43947380  0.05291744
   0.32840656  0.73501078  0.95002429
   0.97217712  0.31582397  0.62168473
   0.91636506  0.31675584  0.36503517
   0.63923918  0.99023150  0.30687009
   0.59967654  0.96300782  0.06499887
   0.91256447  0.36896659  0.95791909
   0.95427404  0.74773561  0.69590450
   0.97882076  0.70686479  0.07406083
   0.90610061  0.74466142  0.29222830
   0.31099705  0.94272008  0.66235284
   0.33321629  0.96341561  0.02271095
   0.35784937  0.89601589  0.25886663
   0.97597811  0.61149529  0.35748683
   0.74396533  0.31309169  0.68608496
   0.67930313  0.38304959  0.02341798
   0.75177610  0.35900640  0.25147390
   0.41617462  0.97692866  0.33371020
   0.71548540  0.50291249  0.67614831
   0.78717468  0.44686440  0.43889049
   0.11123109  0.21383793  0.22510482
   0.15236252  0.16826192  0.34661686
   0.08858291  0.26045089  0.88457305
   0.12751469  0.21351584  0.02410382
   0.68084859  0.10610079  0.25814252
   0.68354179  0.14742467  0.38375116
   0.65913138  0.08235086  0.91472479
   0.66792766  0.12112304  0.05492077
   0.01035771  0.44656089  0.57438349
   0.01540856  0.48682381  0.69903227
   0.22043841  0.66569101  0.28220739
   0.17151382  0.67590637  0.39643031
   0.27548671  0.62745990  0.96163909
   0.22607956  0.64102899  0.09238295
   0.55045212  0.00322112  0.57795469
   0.50370244  0.00853975  0.69438228
   0.24664794  0.07670091  0.41892432
   0.20735564  0.12339390  0.27823317
   0.22321818  0.12281500  0.07680578
   0.18250524  0.16863195  0.95558403
   0.67806511  0.24247952  0.46394973
   0.67588471  0.20156826  0.31699393
   0.00850674  0.58282126  0.78350506
   0.00362429  0.54295414  0.63655454
   0.66751446  0.21414400  0.11208059
   0.66211177  0.17454844  0.98687837
   0.08141551  0.67005680  0.46891818
   0.12735308  0.66433595  0.32735536
   0.41040441  0.00896044  0.75636663
   0.45836333  0.00015374  0.61967150
   0.12971024  0.64540567  0.12645273
   0.18050764  0.63265089  0.01854339
   0.76168386  0.92191677  0.57719600
   0.80307610  0.87613898  0.71734912
   0.78684196  0.87551282  0.91760807
   0.82889993  0.83170232  0.04053112
   0.31732857  0.76030581  0.51973740
   0.31821023  0.79914717  0.67720100
   0.98563417  0.42482278  0.23189194
   0.99388502  0.46328495  0.37441680
   0.32771459  0.78413025  0.88111933
   0.33472338  0.82285272  0.00711663
   0.92565030  0.31874307  0.55146016
   0.87803134  0.32874783  0.69108740
   0.59888898  0.98002207  0.24087008
   0.55074769  0.98825143  0.37552119
   0.87236096  0.35857055  0.87427549
   0.81875673  0.37831393  0.97417456
   0.90170993  0.78898140  0.77457502
   0.85965760  0.83357925  0.65155344
   0.92441144  0.74528441  0.12005413
   0.88532999  0.78916543  0.97478751
   0.31722853  0.89242227  0.74000666
   0.31131127  0.85320045  0.61376417
   0.34116490  0.91309739  0.08401227
   0.33038677  0.87602007  0.94198251
   0.98749002  0.55928207  0.43553236
   0.98333527  0.51866286  0.31050680
   0.78255576  0.33069034  0.74709837
   0.83423089  0.31445593  0.63776206
   0.73191233  0.37116843  0.07065801
   0.77541037  0.36356150  0.92200544
   0.45831847  0.98551543  0.41697579
   0.50538517  0.97977927  0.30072068
   0.75116212  0.47473513  0.55838193
   0.14087400  0.16798873  0.50050644
   0.69133872  0.13666148  0.53945053
   0.02776002  0.47416298  0.85189012
   0.16736596  0.69288888  0.54594942
   0.50255005  0.01995913  0.84911134
   0.19413169  0.16904109  0.80190378
   0.65430526  0.18521376  0.83110318
   0.18378802  0.61631340  0.86903496
   0.81721794  0.83080956  0.19381033
   0.34336367  0.81147668  0.16215443
   0.81004918  0.40929208  0.09541685
   0.87121707  0.83457370  0.49823149
   0.30290156  0.86512248  0.45891626
   0.97111434  0.53129338  0.15759899
   0.84235593  0.28528472  0.51102481
   0.50632657  0.96850626  0.14590550
   0.71053997  0.33058240  0.41161405
   0.28880154  0.02126823  0.79489759
   0.65894007  0.33293320  0.16218093
   0.95952003  0.68716858  0.49311388
   0.35791733  0.95528410  0.45758861
   0.35440448  0.02264263  0.12998606
   0.71872370  0.97331143  0.19880142
   0.33693973  0.66976885  0.75730688
   0.69982999  0.28242114  0.82414188
   0.98024645  0.31393450  0.16518251
   0.30319984  0.71303425  0.19475998
   0.97755864  0.37940758  0.85003196
   0.65192110  0.96829019  0.86661696
   0.02825646  0.61910897  0.16015052
   0.64516308  0.04141642  0.53836564
   0.02383111  0.69450856  0.84757963
   0.29267948  0.63403992  0.58586138
   0.04336647  0.31512892  0.50704141
   0.83098587  0.35220938  0.31259690
Direct configuration=    59
   0.05891941  0.25476177  0.30300312
   0.03791005  0.30160409  0.95053477
   0.10416093  0.26080236  0.70864289
   0.69052819  0.05443333  0.33449106
   0.66885235  0.03153779  0.97565501
   0.64163212  0.09973002  0.74004047
   0.02110266  0.39397930  0.64788432
   0.26287697  0.67721691  0.35494673
   0.31154702  0.64776279 -0.00669652
   0.28035382  0.59928186  0.80089725
   0.59200826  0.01295944  0.66042468
   0.29777819  0.03591364  0.35775925
   0.23015788  0.07707459  0.59473290
   0.27487807  0.08085944  0.99843518
   0.65446991  0.29913595  0.42512076
   0.70124533  0.22301388  0.63107764
   0.99155572  0.63690082  0.73805620
   0.02845357  0.56352300  0.95510627
   0.66622939  0.26292759  0.03674272
   0.04524986  0.65312976  0.41136970
   0.07929890  0.68913125  0.64350211
   0.36896737  0.00043677  0.69066584
   0.41065807  0.02463460  0.93293762
   0.08822432  0.63751162  0.03512228
   0.70988472  0.96067930  0.63927133
   0.77789098  0.92223352  0.40083244
   0.73367819  0.91443997  0.99455056
   0.34999998  0.70250582  0.52880557
   0.28803110  0.78282177  0.36330023
   0.98964768  0.37643998  0.29891222
   0.97414448  0.43947000  0.05296645
   0.32841799  0.73503328  0.94995742
   0.97216147  0.31577048  0.62154804
   0.91632521  0.31669309  0.36497509
   0.63921070  0.99028390  0.30685701
   0.59975141  0.96297150  0.06509047
   0.91256904  0.36894521  0.95792249
   0.95430983  0.74771455  0.69578514
   0.97881441  0.70686150  0.07393106
   0.90612877  0.74466351  0.29212650
   0.31100517  0.94276266  0.66251426
   0.33317066  0.96344636  0.02296340
   0.35785861  0.89599163  0.25912620
   0.97603620  0.61145727  0.35745315
   0.74397064  0.31308861  0.68644878
   0.67930791  0.38305427  0.02346438
   0.75175488  0.35904866  0.25159676
   0.41616042  0.97694792  0.33384558
   0.71548664  0.50294831  0.67596825
   0.78719593  0.44686976  0.43882225
   0.11120532  0.21382682  0.22514058
   0.15234692  0.16824597  0.34665036
   0.08855335  0.26042600  0.88458177
   0.12749391  0.21350208  0.02410119
   0.68083735  0.10612825  0.25824429
   0.68367161  0.14729936  0.38391944
   0.65907818  0.08243998  0.91464030
   0.66788287  0.12110316  0.05498065
   0.01031572  0.44655574  0.57439963
   0.01539937  0.48680324  0.69903281
   0.22048287  0.66561913  0.28201086
   0.17156698  0.67587946  0.39623680
   0.27545842  0.62745877  0.96149294
   0.22606925  0.64099534  0.09222833
   0.55045596  0.00324278  0.57801607
   0.50369726  0.00857150  0.69450657
   0.24664140  0.07669689  0.41903359
   0.20734288  0.12338584  0.27829311
   0.22320496  0.12281020  0.07686035
   0.18249200  0.16862562  0.95561902
   0.67829128  0.24231476  0.46414939
   0.67605122  0.20148137  0.31700936
   0.00853647  0.58281087  0.78343180
   0.00365510  0.54291628  0.63652554
   0.66761627  0.21412643  0.11243827
   0.66209686  0.17460069  0.98704723
   0.08143621  0.67007284  0.46887584
   0.12735984  0.66435545  0.32731201
   0.41039845  0.00898268  0.75658685
   0.45835350  0.00017843  0.61979153
   0.12970081  0.64541142  0.12633629
   0.18047333  0.63264420  0.01835233
   0.76170923  0.92189942  0.57717125
   0.80308562  0.87615392  0.71719977
   0.78686530  0.87554405  0.91750313
   0.82890206  0.83173948  0.04048807
   0.31721378  0.76039453  0.51964539
   0.31819595  0.79917714  0.67717002
   0.98558865  0.42481033  0.23186797
   0.99385459  0.46327032  0.37440452
   0.32773715  0.78409192  0.88098010
   0.33479674  0.82278758  0.00696068
   0.92565882  0.31869337  0.55139407
   0.87799812  0.32872909  0.69100727
   0.59890297  0.98003018  0.24089387
   0.55075005  0.98825773  0.37556525
   0.87234186  0.35857565  0.87423839
   0.81871529  0.37838665  0.97409067
   0.90171064  0.78899897  0.77447846
   0.85966982  0.83358762  0.65141837
   0.92440104  0.74530406  0.11997942
   0.88536159  0.78916363  0.97465306
   0.31723850  0.89241744  0.74007579
   0.31129301  0.85322924  0.61387348
   0.34118890  0.91307481  0.08426247
   0.33046332  0.87597772  0.94215175
   0.98753015  0.55924748  0.43546538
   0.98334888  0.51863855  0.31041164
   0.78249623  0.33071772  0.74721451
   0.83413407  0.31449428  0.63774844
   0.73191035  0.37118375  0.07065947
   0.77536711  0.36359334  0.92199100
   0.45829790  0.98554493  0.41710741
   0.50537642  0.97980102  0.30085021
   0.75115501  0.47477134  0.55832536
   0.14085905  0.16796626  0.50054732
   0.69139493  0.13654508  0.53956857
   0.02772960  0.47415201  0.85189059
   0.16744653  0.69287712  0.54575960
   0.50256313  0.02000374  0.84927814
   0.19411120  0.16904106  0.80194186
   0.65422865  0.18532983  0.83131502
   0.18368951  0.61631825  0.86878040
   0.81725142  0.83084930  0.19367133
   0.34344949  0.81137575  0.16204616
   0.80999902  0.40942897  0.09513740
   0.87120272  0.83458656  0.49819527
   0.30281094  0.86527320  0.45898985
   0.97114725  0.53126472  0.15757431
   0.84227043  0.28529294  0.51104563
   0.50630634  0.96853711  0.14601388
   0.71055457  0.33056436  0.41137931
   0.28882676  0.02125882  0.79503335
   0.65906664  0.33284018  0.16216019
   0.95956177  0.68715657  0.49306190
   0.35793548  0.95528642  0.45776712
   0.35442655  0.02265817  0.13005315
   0.71867261  0.97334161  0.19867547
   0.33688476  0.66981201  0.75720836
   0.69984408  0.28240039  0.82432755
   0.98021647  0.31389521  0.16525582
   0.30310365  0.71308630  0.19460513
   0.97752378  0.37940041  0.85004450
   0.65194309  0.96829145  0.86673242
   0.02826148  0.61912552  0.16012494
   0.64512758  0.04147309  0.53841527
   0.02381594  0.69453720  0.84757333
   0.29280349  0.63396278  0.58564972
   0.04331904  0.31511273  0.50706237
   0.83098000  0.35221430  0.31226157
Direct configuration=    60
   0.05893164  0.25477361  0.30299168
   0.03793334  0.30161805  0.95054686
   0.10417816  0.26082510  0.70864295
   0.69059984  0.05441197  0.33448827
   0.66888370  0.03150986  0.97572591
   0.64163570  0.09968539  0.74002601
   0.02115782  0.39397966  0.64787881
   0.26284112  0.67729569  0.35512118
   0.31159120  0.64773676 -0.00658266
   0.28032234  0.59932688  0.80095437
   0.59200903  0.01294717  0.66037962
   0.29777730  0.03590289  0.35764126
   0.23017314  0.07707732  0.59466669
   0.27488440  0.08086199  0.99837649
   0.65433015  0.29921376  0.42506688
   0.70110923  0.22308133  0.63094411
   0.99152979  0.63691142  0.73813208
   0.02844203  0.56351993  0.95514419
   0.66619072  0.26297284  0.03661163
   0.04524845  0.65312158  0.41137544
   0.07926623  0.68912268  0.64345360
   0.36896082  0.00045441  0.69049364
   0.41065456  0.02460526  0.93285137
   0.08825951  0.63749180  0.03513301
   0.70988245  0.96063906  0.63930366
   0.77788246  0.92226138  0.40094623
   0.73368977  0.91439096  0.99459511
   0.35011181  0.70244819  0.52889538
   0.28811277  0.78275286  0.36331072
   0.98966723  0.37645459  0.29893492
   0.97418292  0.43947253  0.05293380
   0.32841037  0.73501829  0.95000196
   0.97217189  0.31580611  0.62163910
   0.91635175  0.31673489  0.36501511
   0.63922967  0.99024900  0.30686572
   0.59970154  0.96299570  0.06502945
   0.91256599  0.36895945  0.95792023
   0.95428599  0.74772858  0.69586465
   0.97881864  0.70686369  0.07401751
   0.90611001  0.74466212  0.29219431
   0.31099976  0.94273429  0.66240673
   0.33320106  0.96342588  0.02279524
   0.35785246  0.89600779  0.25895329
   0.97599750  0.61148259  0.35747559
   0.74396710  0.31309066  0.68620643
   0.67930473  0.38305116  0.02343347
   0.75176901  0.35902051  0.25151492
   0.41616988  0.97693509  0.33375540
   0.71548582  0.50292445  0.67608819
   0.78718177  0.44686619  0.43886770
   0.11122248  0.21383422  0.22511676
   0.15235731  0.16825660  0.34662805
   0.08857304  0.26044258  0.88457596
   0.12750775  0.21351124  0.02410294
   0.68084484  0.10610996  0.25817650
   0.68358514  0.14738283  0.38380734
   0.65911362  0.08238061  0.91469659
   0.66791270  0.12111640  0.05494076
   0.01034369  0.44655917  0.57438888
   0.01540549  0.48681694  0.69903245
   0.22045325  0.66566701  0.28214178
   0.17153157  0.67589738  0.39636570
   0.27547726  0.62745952  0.96159030
   0.22607612  0.64101776  0.09233133
   0.55045340  0.00322835  0.57797518
   0.50370071  0.00855035  0.69442378
   0.24664575  0.07669957  0.41896080
   0.20735138  0.12339121  0.27825318
   0.22321376  0.12281339  0.07682400
   0.18250082  0.16862984  0.95559571
   0.67814062  0.24242451  0.46401639
   0.67594031  0.20153925  0.31699908
   0.00851667  0.58281779  0.78348060
   0.00363457  0.54294150  0.63654486
   0.66754845  0.21413813  0.11220001
   0.66210679  0.17456588  0.98693474
   0.08142243  0.67006215  0.46890404
   0.12735534  0.66434246  0.32734089
   0.41040242  0.00896787  0.75644015
   0.45836005  0.00016199  0.61971157
   0.12970709  0.64540759  0.12641385
   0.18049619  0.63264866  0.01847960
   0.76169233  0.92191098  0.57718773
   0.80307928  0.87614397  0.71729926
   0.78684975  0.87552325  0.91757303
   0.82890064  0.83171473  0.04051675
   0.31729025  0.76033543  0.51970668
   0.31820547  0.79915718  0.67719066
   0.98561897  0.42481862  0.23188393
   0.99387486  0.46328007  0.37441270
   0.32772212  0.78411745  0.88107285
   0.33474787  0.82283097  0.00706457
   0.92565315  0.31872648  0.55143810
   0.87802025  0.32874157  0.69106065
   0.59889365  0.98002478  0.24087802
   0.55074848  0.98825353  0.37553590
   0.87235458  0.35857225  0.87426311
   0.81874289  0.37833821  0.97414655
   0.90171017  0.78898726  0.77454278
   0.85966168  0.83358204  0.65150834
   0.92440797  0.74529097  0.12002918
   0.88534054  0.78916483  0.97474262
   0.31723186  0.89242066  0.74002974
   0.31130517  0.85321007  0.61380067
   0.34117291  0.91308985  0.08409581
   0.33041233  0.87600593  0.94203901
   0.98750342  0.55927052  0.43551000
   0.98333981  0.51865474  0.31047503
   0.78253589  0.33069948  0.74713715
   0.83419856  0.31446874  0.63775751
   0.73191167  0.37117355  0.07065850
   0.77539593  0.36357213  0.92200062
   0.45831160  0.98552528  0.41701973
   0.50538225  0.97978653  0.30076393
   0.75115975  0.47474722  0.55836304
   0.14086901  0.16798123  0.50052009
   0.69135749  0.13662262  0.53948994
   0.02774986  0.47415932  0.85189028
   0.16739286  0.69288496  0.54588604
   0.50255442  0.01997403  0.84916703
   0.19412485  0.16904108  0.80191650
   0.65427968  0.18525251  0.83117391
   0.18375513  0.61631502  0.86894997
   0.81722912  0.83082283  0.19376393
   0.34339232  0.81144298  0.16211828
   0.81003243  0.40933778  0.09532355
   0.87121228  0.83457799  0.49821940
   0.30287131  0.86517281  0.45894083
   0.97112533  0.53128381  0.15759075
   0.84232738  0.28528746  0.51103176
   0.50631981  0.96851656  0.14594169
   0.71054485  0.33057638  0.41153568
   0.28880996  0.02126509  0.79494292
   0.65898233  0.33290215  0.16217400
   0.95953397  0.68716457  0.49309652
   0.35792339  0.95528487  0.45764821
   0.35441185  0.02264781  0.13000846
   0.71870664  0.97332151  0.19875937
   0.33692138  0.66978326  0.75727399
   0.69983469  0.28241421  0.82420387
   0.98023644  0.31392139  0.16520699
   0.30316773  0.71305163  0.19470828
   0.97754700  0.37940519  0.85003615
   0.65192844  0.96829061  0.86665551
   0.02825814  0.61911449  0.16014198
   0.64515123  0.04143534  0.53838221
   0.02382604  0.69451812  0.84757752
   0.29272088  0.63401417  0.58579071
   0.04335063  0.31512351  0.50704841
   0.83098391  0.35221102  0.31248494
Direct configuration=    61
   0.05892521  0.25477188  0.30299937
   0.03792543  0.30161423  0.95054460
   0.10417254  0.26082029  0.70864314
   0.69058092  0.05442088  0.33450074
   0.66887406  0.03151957  0.97570699
   0.64163060  0.09970238  0.74002097
   0.02114318  0.39397915  0.64788252
   0.26285391  0.67727372  0.35509220
   0.31158251  0.64774075 -0.00662468
   0.28032928  0.59931825  0.80094383
   0.59200788  0.01294973  0.66037801
   0.29777846  0.03590655  0.35767379
   0.23016968  0.07707642  0.59468636
   0.27488567  0.08086025  0.99839148
   0.65436885  0.29918872  0.42509901
   0.70114670  0.22305837  0.63097217
   0.99153853  0.63690609  0.73811198
   0.02844524  0.56351913  0.95513138
   0.66620557  0.26296043  0.03663401
   0.04524771  0.65312335  0.41136181
   0.07927506  0.68912470  0.64344690
   0.36896525  0.00045003  0.69054302
   0.41065291  0.02461423  0.93289245
   0.08825453  0.63749495  0.03511702
   0.70988975  0.96064265  0.63930931
   0.77788165  0.92225537  0.40093006
   0.73368992  0.91440129  0.99457808
   0.35008035  0.70246925  0.52885988
   0.28808850  0.78277843  0.36330996
   0.98966121  0.37645061  0.29892350
   0.97417124  0.43947236  0.05293480
   0.32840655  0.73502242  0.94999356
   0.97217065  0.31579767  0.62163559
   0.91634524  0.31672454  0.36499420
   0.63922543  0.99025704  0.30686088
   0.59970883  0.96298934  0.06504283
   0.91255933  0.36895662  0.95790343
   0.95428909  0.74772627  0.69583231
   0.97881462  0.70686639  0.07398890
   0.90611128  0.74466551  0.29218071
   0.31100328  0.94273213  0.66242861
   0.33319376  0.96343130  0.02284547
   0.35785485  0.89600270  0.25899079
   0.97600876  0.61147605  0.35746393
   0.74395879  0.31309409  0.68624664
   0.67930052  0.38305524  0.02345907
   0.75176866  0.35902995  0.25151407
   0.41616839  0.97693808  0.33378772
   0.71548819  0.50292988  0.67604574
   0.78718935  0.44686488  0.43884138
   0.11122072  0.21382907  0.22511164
   0.15235075  0.16825674  0.34663179
   0.08856807  0.26043837  0.88457815
   0.12750397  0.21350626  0.02411595
   0.68084758  0.10610303  0.25817658
   0.68360708  0.14736907  0.38380574
   0.65910522  0.08238398  0.91469746
   0.66791002  0.12112700  0.05496537
   0.01033572  0.44655744  0.57439143
   0.01540354  0.48681415  0.69902757
   0.22046609  0.66565602  0.28210671
   0.17154197  0.67589004  0.39633887
   0.27547966  0.62745356  0.96156245
   0.22606942  0.64101013  0.09229140
   0.55045318  0.00323271  0.57799275
   0.50369994  0.00855559  0.69444976
   0.24664408  0.07669895  0.41898675
   0.20734906  0.12338916  0.27826703
   0.22321413  0.12281067  0.07683591
   0.18249706  0.16862825  0.95560546
   0.67818079  0.24240049  0.46404170
   0.67597050  0.20151927  0.31706084
   0.00852127  0.58281720  0.78346855
   0.00363907  0.54293733  0.63653410
   0.66755957  0.21413170  0.11222983
   0.66210782  0.17456474  0.98699338
   0.08142209  0.67006584  0.46891225
   0.12735655  0.66434622  0.32733132
   0.41040133  0.00897144  0.75647314
   0.45835792  0.00016681  0.61973955
   0.12970023  0.64541014  0.12641899
   0.18048409  0.63264842  0.01843700
   0.76168813  0.92191810  0.57716536
   0.80308004  0.87614821  0.71727794
   0.78685676  0.87552701  0.91753903
   0.82890510  0.83172001  0.04049545
   0.31727116  0.76034392  0.51970396
   0.31819831  0.79916273  0.67715424
   0.98561038  0.42481645  0.23189107
   0.99386982  0.46327838  0.37440698
   0.32772765  0.78410877  0.88102540
   0.33476288  0.82281568  0.00706643
   0.92565113  0.31871519  0.55140334
   0.87801427  0.32873639  0.69106872
   0.59889546  0.98002580  0.24088705
   0.55075027  0.98825579  0.37555717
   0.87235443  0.35857128  0.87424797
   0.81873858  0.37835053  0.97411785
   0.90171276  0.78898905  0.77452008
   0.85966471  0.83358261  0.65149693
   0.92441024  0.74529180  0.12000220
   0.88533738  0.78917103  0.97474334
   0.31723324  0.89242256  0.74006692
   0.31129841  0.85323139  0.61381769
   0.34117847  0.91308890  0.08413133
   0.33042346  0.87599805  0.94205289
   0.98751072  0.55926093  0.43550718
   0.98334279  0.51864921  0.31046945
   0.78252449  0.33070439  0.74716339
   0.83419088  0.31447507  0.63774879
   0.73191089  0.37118550  0.07064999
   0.77539105  0.36358091  0.92201569
   0.45830983  0.98553141  0.41703391
   0.50537974  0.97979174  0.30078504
   0.75115271  0.47475891  0.55836915
   0.14086461  0.16797822  0.50052928
   0.69137393  0.13659864  0.53952749
   0.02774379  0.47415654  0.85189062
   0.16740630  0.69288217  0.54585278
   0.50255644  0.01998240  0.84918972
   0.19412182  0.16904002  0.80192532
   0.65426390  0.18527475  0.83120430
   0.18374199  0.61631432  0.86889145
   0.81723564  0.83083027  0.19373793
   0.34341111  0.81142605  0.16211402
   0.81001944  0.40936504  0.09530057
   0.87121180  0.83457816  0.49820521
   0.30285642  0.86519161  0.45896533
   0.97113152  0.53127786  0.15757770
   0.84231521  0.28528814  0.51101914
   0.50631711  0.96852176  0.14596831
   0.71055168  0.33057124  0.41153951
   0.28881429  0.02126500  0.79496896
   0.65900123  0.33288584  0.16217277
   0.95953933  0.68716313  0.49309181
   0.35792424  0.95528639  0.45767798
   0.35441384  0.02265177  0.13001887
   0.71869924  0.97332760  0.19873802
   0.33690888  0.66979227  0.75724997
   0.69984165  0.28240843  0.82423783
   0.98023156  0.31391512  0.16522191
   0.30315719  0.71306265  0.19466642
   0.97754245  0.37940338  0.85003877
   0.65193216  0.96829273  0.86665630
   0.02826118  0.61911433  0.16013977
   0.64514478  0.04144075  0.53840538
   0.02382237  0.69452410  0.84756928
   0.29274312  0.63400064  0.58573505
   0.04333786  0.31511996  0.50706073
   0.83098380  0.35221075  0.31242547
Direct configuration=    62
   0.05890775  0.25476716  0.30302030
   0.03790394  0.30160384  0.95053843
   0.10415727  0.26080721  0.70864369
   0.69052949  0.05444510  0.33453463
   0.66884784  0.03154600  0.97565556
   0.64161675  0.09974856  0.74000728
   0.02110336  0.39397775  0.64789259
   0.26288867  0.67721398  0.35501341
   0.31155890  0.64775160 -0.00673890
   0.28034815  0.59929477  0.80091518
   0.59200477  0.01295669  0.66037362
   0.29778163  0.03591649  0.35776223
   0.23016029  0.07707398  0.59473982
   0.27488913  0.08085554  0.99843222
   0.65447405  0.29912064  0.42518633
   0.70124855  0.22299597  0.63104843
   0.99156228  0.63689159  0.73805733
   0.02845399  0.56351695  0.95509655
   0.66624596  0.26292670  0.03669483
   0.04524570  0.65312818  0.41132474
   0.07929906  0.68913017  0.64342870
   0.36897730  0.00043810  0.69067726
   0.41064844  0.02463863  0.93300414
   0.08824099  0.63750351  0.03507355
   0.70990960  0.96065241  0.63932469
   0.77787944  0.92223902  0.40088611
   0.73369032  0.91442938  0.99453180
   0.34999485  0.70252648  0.52876338
   0.28802251  0.78284794  0.36330789
   0.98964486  0.37643980  0.29889244
   0.97413948  0.43947190  0.05293752
   0.32839614  0.73503364  0.94997073
   0.97216729  0.31577471  0.62162604
   0.91632755  0.31669640  0.36493735
   0.63921389  0.99027891  0.30684772
   0.59972864  0.96297207  0.06507919
   0.91254122  0.36894893  0.95785777
   0.95429750  0.74771999  0.69574439
   0.97880368  0.70687375  0.07391113
   0.90611471  0.74467475  0.29214372
   0.31101283  0.94272625  0.66248806
   0.33317392  0.96344603  0.02298203
   0.35786137  0.89598885  0.25909273
   0.97603938  0.61145827  0.35743226
   0.74393619  0.31310342  0.68635597
   0.67928910  0.38306634  0.02352864
   0.75176770  0.35905562  0.25151178
   0.41616435  0.97694618  0.33387561
   0.71549463  0.50294463  0.67593035
   0.78720995  0.44686134  0.43876982
   0.11121594  0.21381507  0.22509774
   0.15233293  0.16825714  0.34664198
   0.08855456  0.26042691  0.88458409
   0.12749370  0.21349271  0.02415131
   0.68085504  0.10608418  0.25817682
   0.68366672  0.14733167  0.38380138
   0.65908237  0.08239314  0.91469983
   0.66790272  0.12115582  0.05503225
   0.01031406  0.44655275  0.57439834
   0.01539824  0.48680656  0.69901430
   0.22050098  0.66562614  0.28201138
   0.17157023  0.67587008  0.39626592
   0.27548618  0.62743735  0.96148675
   0.22605121  0.64098940  0.09218287
   0.55045258  0.00324457  0.57804052
   0.50369785  0.00856985  0.69452039
   0.24663953  0.07669728  0.41905730
   0.20734277  0.12338358  0.27830466
   0.22321513  0.12280328  0.07686830
   0.18248685  0.16862392  0.95563196
   0.67828998  0.24233518  0.46411051
   0.67605259  0.20146497  0.31722872
   0.00853377  0.58281558  0.78343580
   0.00365129  0.54292599  0.63650485
   0.66758979  0.21411419  0.11231090
   0.66211060  0.17456165  0.98715277
   0.08142117  0.67007586  0.46893457
   0.12735983  0.66435643  0.32730531
   0.41039838  0.00898114  0.75656280
   0.45835214  0.00017993  0.61981562
   0.12968159  0.64541706  0.12643295
   0.18045121  0.63264776  0.01832117
   0.76167670  0.92193747  0.57710452
   0.80308211  0.87615975  0.71721998
   0.78687582  0.87553724  0.91744659
   0.82891722  0.83173437  0.04043754
   0.31721927  0.76036700  0.51969656
   0.31817884  0.79917784  0.67705525
   0.98558701  0.42481055  0.23191046
   0.99385611  0.46327380  0.37439145
   0.32774270  0.78408516  0.88089643
   0.33480366  0.82277414  0.00707150
   0.92564565  0.31868450  0.55130884
   0.87799803  0.32872228  0.69109067
   0.59890040  0.98002857  0.24091160
   0.55075515  0.98826191  0.37561499
   0.87235402  0.35856862  0.87420683
   0.81872685  0.37838401  0.97403984
   0.90171981  0.78899391  0.77445835
   0.85967295  0.83358416  0.65146589
   0.92441642  0.74529406  0.11992883
   0.88532878  0.78918791  0.97474527
   0.31723698  0.89242771  0.74016801
   0.31128002  0.85328936  0.61386395
   0.34119360  0.91308634  0.08422789
   0.33045372  0.87597662  0.94209064
   0.98753056  0.55923484  0.43549952
   0.98335088  0.51863415  0.31045428
   0.78249349  0.33071774  0.74723474
   0.83416998  0.31449230  0.63772506
   0.73190876  0.37121800  0.07062687
   0.77537780  0.36360481  0.92205666
   0.45830500  0.98554807  0.41707246
   0.50537293  0.97980590  0.30084243
   0.75113359  0.47479070  0.55838577
   0.14085265  0.16797005  0.50055426
   0.69141862  0.13653346  0.53962958
   0.02772730  0.47414898  0.85189155
   0.16744284  0.69287460  0.54576237
   0.50256196  0.02000516  0.84925141
   0.19411360  0.16903713  0.80194930
   0.65422100  0.18533522  0.83128694
   0.18370625  0.61631243  0.86873235
   0.81725338  0.83085049  0.19366724
   0.34346219  0.81138002  0.16210244
   0.80998412  0.40943913  0.09523810
   0.87121049  0.83457861  0.49816663
   0.30281595  0.86524272  0.45903193
   0.97114835  0.53126168  0.15754223
   0.84228213  0.28528999  0.51098480
   0.50630977  0.96853592  0.14604069
   0.71057026  0.33055726  0.41154991
   0.28882605  0.02126474  0.79503975
   0.65905261  0.33284151  0.16216942
   0.95955390  0.68715923  0.49307899
   0.35792656  0.95529053  0.45775889
   0.35441924  0.02266252  0.13004719
   0.71867911  0.97334416  0.19867999
   0.33687493  0.66981677  0.75718469
   0.69986059  0.28239272  0.82433015
   0.98021828  0.31389809  0.16526246
   0.30312854  0.71309260  0.19455263
   0.97753009  0.37939848  0.85004590
   0.65194227  0.96829847  0.86665844
   0.02826945  0.61911389  0.16013379
   0.64512725  0.04145545  0.53846835
   0.02381237  0.69454036  0.84754688
   0.29280357  0.63396387  0.58558374
   0.04330312  0.31511030  0.50709423
   0.83098350  0.35221002  0.31226381
Direct configuration=    63
   0.05890346  0.25476538  0.30302454
   0.03789866  0.30160054  0.95053696
   0.10415300  0.26080419  0.70864549
   0.69051728  0.05445008  0.33454560
   0.66884095  0.03155170  0.97564477
   0.64161235  0.09976047  0.74000598
   0.02109329  0.39397782  0.64789443
   0.26289958  0.67719927  0.35499426
   0.31155433  0.64775410 -0.00676898
   0.28035295  0.59928947  0.80090092
   0.59200466  0.01295838  0.66037176
   0.29778294  0.03591916  0.35778501
   0.23015805  0.07707323  0.59475567
   0.27489058  0.08085448  0.99844297
   0.65450086  0.29910254  0.42521234
   0.70127544  0.22297849  0.63106800
   0.99156850  0.63688833  0.73804284
   0.02845629  0.56351588  0.95508775
   0.66625742  0.26291844  0.03670715
   0.04524610  0.65313020  0.41131602
   0.07930400  0.68913166  0.64342105
   0.36898087  0.00043508  0.69071199
   0.41064659  0.02464479  0.93303242
   0.08823825  0.63750522  0.03506093
   0.70991394  0.96065516  0.63933282
   0.77787735  0.92223619  0.40087375
   0.73369372  0.91443388  0.99451560
   0.34997487  0.70253831  0.52873671
   0.28800539  0.78286635  0.36330844
   0.98964044  0.37643701  0.29888490
   0.97413107  0.43947181  0.05293840
   0.32839192  0.73503496  0.94996249
   0.97216435  0.31576905  0.62162438
   0.91632391  0.31668925  0.36491932
   0.63921205  0.99028428  0.30684560
   0.59973159  0.96296784  0.06508793
   0.91253672  0.36894741  0.95784347
   0.95429785  0.74771960  0.69572139
   0.97880133  0.70687552  0.07388900
   0.90611518  0.74467757  0.29213266
   0.31101571  0.94272376  0.66250320
   0.33316946  0.96344900  0.02301933
   0.35786330  0.89598568  0.25911418
   0.97604753  0.61145263  0.35742443
   0.74392740  0.31310711  0.68637528
   0.67928601  0.38307002  0.02355099
   0.75176824  0.35906277  0.25150397
   0.41616353  0.97694827  0.33389923
   0.71548756  0.50295557  0.67592848
   0.78720695  0.44686718  0.43877860
   0.11121332  0.21381215  0.22509708
   0.15232888  0.16825647  0.34664578
   0.08855071  0.26042426  0.88458653
   0.12749081  0.21348922  0.02415842
   0.68085801  0.10607906  0.25817406
   0.68368246  0.14732136  0.38380973
   0.65907635  0.08239718  0.91470203
   0.66790247  0.12116063  0.05505096
   0.01030836  0.44655157  0.57439905
   0.01539673  0.48680472  0.69901039
   0.22050812  0.66561841  0.28198548
   0.17157782  0.67586460  0.39624984
   0.27548785  0.62743159  0.96146740
   0.22604729  0.64098382  0.09215116
   0.55045138  0.00324751  0.57805315
   0.50369717  0.00857338  0.69453808
   0.24663806  0.07669725  0.41907534
   0.20734076  0.12338232  0.27831516
   0.22321544  0.12280141  0.07687769
   0.18248485  0.16862171  0.95564026
   0.67831790  0.24231954  0.46413013
   0.67607288  0.20145229  0.31726943
   0.00853723  0.58281397  0.78342728
   0.00365429  0.54292330  0.63649841
   0.66759653  0.21410780  0.11233602
   0.66211092  0.17456254  0.98718050
   0.08142047  0.67007800  0.46893729
   0.12736014  0.66435872  0.32729964
   0.41039846  0.00898388  0.75658821
   0.45835107  0.00018355  0.61983637
   0.12967603  0.64541899  0.12643662
   0.18044232  0.63264774  0.01829024
   0.76167438  0.92194246  0.57708700
   0.80308299  0.87616283  0.71720535
   0.78687894  0.87554114  0.91742434
   0.82891987  0.83173899  0.04041965
   0.31720317  0.76037685  0.51968828
   0.31817258  0.79918460  0.67702748
   0.98558069  0.42480951  0.23191409
   0.99385288  0.46327203  0.37438916
   0.32774684  0.78408182  0.88086463
   0.33481424  0.82276391  0.00707147
   0.92564329  0.31867653  0.55129063
   0.87799634  0.32871762  0.69109312
   0.59890065  0.98002890  0.24091853
   0.55075596  0.98826372  0.37563111
   0.87235258  0.35856781  0.87419451
   0.81872365  0.37839418  0.97402452
   0.90172199  0.78899455  0.77444604
   0.85967469  0.83358493  0.65145909
   0.92441684  0.74529525  0.11991431
   0.88532735  0.78919217  0.97474105
   0.31723812  0.89243053  0.74019930
   0.31127442  0.85330202  0.61387385
   0.34119747  0.91308553  0.08424894
   0.33046118  0.87597023  0.94210400
   0.98753529  0.55922906  0.43549627
   0.98335295  0.51863011  0.31045143
   0.78248813  0.33072099  0.74725007
   0.83416456  0.31449558  0.63771972
   0.73190550  0.37122901  0.07062832
   0.77537577  0.36361163  0.92206376
   0.45830393  0.98555264  0.41708531
   0.50537185  0.97981001  0.30085727
   0.75114584  0.47478553  0.55833238
   0.14084895  0.16796844  0.50055979
   0.69143167  0.13651655  0.53964912
   0.02772284  0.47414691  0.85189121
   0.16745203  0.69287225  0.54573917
   0.50256321  0.02001106  0.84926501
   0.19411156  0.16903611  0.80195665
   0.65421012  0.18534981  0.83131808
   0.18369805  0.61631202  0.86869214
   0.81725771  0.83085598  0.19365094
   0.34347645  0.81136810  0.16210442
   0.80997467  0.40945714  0.09522273
   0.87121090  0.83457804  0.49815386
   0.30280577  0.86525424  0.45905116
   0.97115287  0.53125720  0.15753200
   0.84227429  0.28529132  0.51097486
   0.50630820  0.96853936  0.14606000
   0.71057711  0.33055340  0.41156530
   0.28882872  0.02126491  0.79505764
   0.65906474  0.33283050  0.16216844
   0.95955653  0.68715857  0.49307492
   0.35792644  0.95529179  0.45777904
   0.35441989  0.02266564  0.13005618
   0.71867470  0.97334842  0.19866690
   0.33686573  0.66982342  0.75716609
   0.69986680  0.28238772  0.82435391
   0.98021522  0.31389379  0.16527192
   0.30312286  0.71310141  0.19452256
   0.97752707  0.37939710  0.85004906
   0.65194452  0.96830031  0.86665342
   0.02827211  0.61911270  0.16013191
   0.64512255  0.04145809  0.53848908
   0.02381041  0.69454437  0.84753763
   0.29281900  0.63395305  0.58554692
   0.04329350  0.31510753  0.50710393
   0.83098346  0.35220971  0.31222272
Direct configuration=    64
   0.05889719  0.25476278  0.30303076
   0.03789092  0.30159570  0.95053481
   0.10414675  0.26079976  0.70864814
   0.69049940  0.05445736  0.33456166
   0.66883085  0.03156006  0.97562896
   0.64160590  0.09977790  0.74000407
   0.02107854  0.39397792  0.64789713
   0.26291555  0.67717772  0.35496621
   0.31154764  0.64775776 -0.00681304
   0.28035997  0.59928171  0.80088004
   0.59200451  0.01296085  0.66036904
   0.29778486  0.03592307  0.35781838
   0.23015478  0.07707214  0.59477889
   0.27489272  0.08085293  0.99845871
   0.65454013  0.29907603  0.42525042
   0.70131480  0.22295288  0.63109665
   0.99157762  0.63688355  0.73802162
   0.02845966  0.56351431  0.95507487
   0.66627420  0.26290634  0.03672519
   0.04524668  0.65313315  0.41130324
   0.07931122  0.68913384  0.64340985
   0.36898609  0.00043065  0.69076285
   0.41064388  0.02465381  0.93307383
   0.08823424  0.63750773  0.03504244
   0.70992029  0.96065919  0.63934471
   0.77787429  0.92223203  0.40085566
   0.73369871  0.91444048  0.99449189
   0.34994560  0.70255563  0.52869766
   0.28798031  0.78289331  0.36330925
   0.98963398  0.37643292  0.29887386
   0.97411874  0.43947168  0.05293970
   0.32838574  0.73503691  0.94995044
   0.97216004  0.31576076  0.62162194
   0.91631858  0.31667877  0.36489292
   0.63920937  0.99029214  0.30684249
   0.59973591  0.96296163  0.06510073
   0.91253014  0.36894519  0.95782252
   0.95429835  0.74771902  0.69568770
   0.97879789  0.70687811  0.07385660
   0.90611587  0.74468170  0.29211646
   0.31101993  0.94272013  0.66252537
   0.33316293  0.96345336  0.02307396
   0.35786613  0.89598104  0.25914558
   0.97605946  0.61144437  0.35741295
   0.74391453  0.31311252  0.68640356
   0.67928148  0.38307541  0.02358371
   0.75176903  0.35907323  0.25149255
   0.41616233  0.97695132  0.33393383
   0.71547720  0.50297160  0.67592573
   0.78720256  0.44687572  0.43879146
   0.11120948  0.21380787  0.22509612
   0.15232294  0.16825547  0.34665135
   0.08854507  0.26042037  0.88459010
   0.12748658  0.21348412  0.02416882
   0.68086235  0.10607156  0.25817002
   0.68370550  0.14730625  0.38382195
   0.65906753  0.08240309  0.91470525
   0.66790212  0.12116769  0.05507834
   0.01030001  0.44654984  0.57440008
   0.01539452  0.48680202  0.69900467
   0.22051857  0.66560709  0.28194755
   0.17158893  0.67585658  0.39622629
   0.27549029  0.62742315  0.96143905
   0.22604155  0.64097566  0.09210473
   0.55044963  0.00325181  0.57807165
   0.50369617  0.00857855  0.69456398
   0.24663590  0.07669721  0.41910177
   0.20733781  0.12338048  0.27833054
   0.22321590  0.12279867  0.07689145
   0.18248193  0.16861847  0.95565242
   0.67835879  0.24229664  0.46415886
   0.67610259  0.20143373  0.31732905
   0.00854230  0.58281161  0.78341480
   0.00365869  0.54291936  0.63648897
   0.66760641  0.21409842  0.11237280
   0.66211139  0.17456384  0.98722111
   0.08141945  0.67008113  0.46894126
   0.12736058  0.66436208  0.32729134
   0.41039858  0.00898788  0.75662542
   0.45834951  0.00018886  0.61986674
   0.12966788  0.64542181  0.12644199
   0.18042930  0.63264772  0.01824494
   0.76167098  0.92194976  0.57706134
   0.80308428  0.87616735  0.71718394
   0.78688351  0.87554685  0.91739175
   0.82892375  0.83174576  0.04039345
   0.31717960  0.76039128  0.51967615
   0.31816341  0.79919450  0.67698683
   0.98557144  0.42480797  0.23191941
   0.99384815  0.46326943  0.37438581
   0.32775289  0.78407692  0.88081805
   0.33482974  0.82274893  0.00707143
   0.92563982  0.31866486  0.55126396
   0.87799386  0.32871080  0.69109672
   0.59890102  0.98002939  0.24092869
   0.55075714  0.98826637  0.37565472
   0.87235047  0.35856661  0.87417646
   0.81871896  0.37840907  0.97400208
   0.90172519  0.78899549  0.77442800
   0.85967725  0.83358607  0.65144913
   0.92441744  0.74529698  0.11989306
   0.88532525  0.78919841  0.97473486
   0.31723978  0.89243466  0.74024511
   0.31126621  0.85332056  0.61388835
   0.34120314  0.91308436  0.08427977
   0.33047212  0.87596088  0.94212356
   0.98754221  0.55922060  0.43549152
   0.98335597  0.51862419  0.31044725
   0.78248028  0.33072575  0.74727252
   0.83415662  0.31450039  0.63771191
   0.73190073  0.37124514  0.07063045
   0.77537280  0.36362163  0.92207417
   0.45830235  0.98555932  0.41710412
   0.50537027  0.97981603  0.30087901
   0.75116378  0.47477796  0.55825419
   0.14084354  0.16796608  0.50056787
   0.69145078  0.13649178  0.53967774
   0.02771631  0.47414388  0.85189072
   0.16746548  0.69286883  0.54570519
   0.50256503  0.02001971  0.84928492
   0.19410857  0.16903462  0.80196743
   0.65419418  0.18537118  0.83136369
   0.18368604  0.61631141  0.86863326
   0.81726405  0.83086402  0.19362705
   0.34349735  0.81135063  0.16210732
   0.80996082  0.40948353  0.09520022
   0.87121151  0.83457720  0.49813516
   0.30279087  0.86527110  0.45907933
   0.97115949  0.53125064  0.15751703
   0.84226282  0.28529327  0.51096030
   0.50630590  0.96854439  0.14608828
   0.71058715  0.33054775  0.41158782
   0.28883263  0.02126515  0.79508383
   0.65908250  0.33281437  0.16216699
   0.95956038  0.68715762  0.49306895
   0.35792628  0.95529365  0.45780854
   0.35442083  0.02267020  0.13006934
   0.71866824  0.97335467  0.19864774
   0.33685226  0.66983315  0.75713886
   0.69987590  0.28238041  0.82438871
   0.98021074  0.31388750  0.16528577
   0.30311453  0.71311431  0.19447853
   0.97752265  0.37939509  0.85005368
   0.65194783  0.96830300  0.86664605
   0.02827601  0.61911096  0.16012917
   0.64511566  0.04146197  0.53851943
   0.02380753  0.69455024  0.84752409
   0.29284161  0.63393721  0.58549299
   0.04327941  0.31510347  0.50711813
   0.83098339  0.35220925  0.31216253
Direct configuration=    65
   0.05888463  0.25475758  0.30304320
   0.03787545  0.30158602  0.95053050
   0.10413425  0.26079090  0.70865343
   0.69046365  0.05447194  0.33459378
   0.66881067  0.03157677  0.97559734
   0.64159301  0.09981277  0.74000025
   0.02104905  0.39397813  0.64790252
   0.26294750  0.67713463  0.35491012
   0.31153424  0.64776507 -0.00690115
   0.28037401  0.59926620  0.80083828
   0.59200419  0.01296580  0.66036361
   0.29778869  0.03593089  0.35788511
   0.23014823  0.07706996  0.59482532
   0.27489699  0.08084984  0.99849019
   0.65461867  0.29902302  0.42532658
   0.70139354  0.22290166  0.63115397
   0.99159584  0.63687398  0.73797917
   0.02846640  0.56351117  0.95504911
   0.66630777  0.26288214  0.03676128
   0.04524783  0.65313906  0.41127770
   0.07932567  0.68913819  0.64338745
   0.36899654  0.00042180  0.69086458
   0.41063846  0.02467184  0.93315667
   0.08822622  0.63751276  0.03500547
   0.70993300  0.96066726  0.63936850
   0.77786816  0.92222372  0.40081946
   0.73370869  0.91445367  0.99444446
   0.34988707  0.70259028  0.52861956
   0.28793017  0.78294724  0.36331087
   0.98962106  0.37642474  0.29885177
   0.97409408  0.43947143  0.05294231
   0.32837337  0.73504080  0.94992632
   0.97215144  0.31574418  0.62161707
   0.91630791  0.31665781  0.36484011
   0.63920399  0.99030787  0.30683628
   0.59974454  0.96294922  0.06512633
   0.91251697  0.36894075  0.95778063
   0.95429936  0.74771786  0.69562033
   0.97879101  0.70688330  0.07379178
   0.90611726  0.74468997  0.29208405
   0.31102836  0.94271286  0.66256970
   0.33314987  0.96346206  0.02318322
   0.35787178  0.89597176  0.25920839
   0.97608333  0.61142786  0.35739001
   0.74388879  0.31312332  0.68646012
   0.67927243  0.38308620  0.02364915
   0.75177060  0.35909416  0.25146969
   0.41615992  0.97695743  0.33400301
   0.71545649  0.50300365  0.67592024
   0.78719378  0.44689281  0.43881717
   0.11120181  0.21379931  0.22509419
   0.15231107  0.16825349  0.34666250
   0.08853380  0.26041259  0.88459724
   0.12747812  0.21347393  0.02418962
   0.68087104  0.10605657  0.25816193
   0.68375159  0.14727605  0.38384640
   0.65904989  0.08241491  0.91471168
   0.66790141  0.12118179  0.05513312
   0.01028331  0.44654639  0.57440214
   0.01539010  0.48679661  0.69899322
   0.22053948  0.66558446  0.28187168
   0.17161115  0.67584054  0.39617919
   0.27549518  0.62740627  0.96138235
   0.22603006  0.64095933  0.09201188
   0.55044612  0.00326040  0.57810866
   0.50369417  0.00858888  0.69461578
   0.24663159  0.07669712  0.41915463
   0.20733192  0.12337681  0.27836130
   0.22321681  0.12279318  0.07691898
   0.18247609  0.16861199  0.95567673
   0.67844056  0.24225085  0.46421633
   0.67616202  0.20139662  0.31744828
   0.00855244  0.58280689  0.78338985
   0.00366749  0.54291149  0.63647010
   0.66762616  0.21407968  0.11244638
   0.66211233  0.17456644  0.98730234
   0.08141741  0.67008739  0.46894920
   0.12736147  0.66436879  0.32727474
   0.41039882  0.00899590  0.75669985
   0.45834639  0.00019947  0.61992750
   0.12965159  0.64542745  0.12645273
   0.18040326  0.63264766  0.01815435
   0.76166417  0.92196436  0.57701002
   0.80308686  0.87617637  0.71714111
   0.78689264  0.87555826  0.91732659
   0.82893151  0.83175929  0.04034105
   0.31713245  0.76042013  0.51965188
   0.31814507  0.79921429  0.67690551
   0.98555294  0.42480490  0.23193004
   0.99383867  0.46326423  0.37437911
   0.32776500  0.78406713  0.88072490
   0.33486074  0.82271897  0.00707134
   0.92563288  0.31864151  0.55121061
   0.87798891  0.32869715  0.69110392
   0.59890176  0.98003037  0.24094899
   0.55075950  0.98827167  0.37570193
   0.87234626  0.35856422  0.87414035
   0.81870958  0.37843884  0.97395720
   0.90173158  0.78899737  0.77439194
   0.85968236  0.83358833  0.65142920
   0.92441864  0.74530045  0.11985054
   0.88532104  0.78921090  0.97472248
   0.31724310  0.89244292  0.74033673
   0.31124979  0.85335764  0.61391736
   0.34121448  0.91308200  0.08434143
   0.33049400  0.87594217  0.94216270
   0.98755606  0.55920367  0.43548201
   0.98336201  0.51861235  0.31043889
   0.78246457  0.33073527  0.74731743
   0.83414075  0.31451001  0.63769629
   0.73189118  0.37127740  0.07063470
   0.77536685  0.36364163  0.92209497
   0.45829920  0.98557268  0.41714174
   0.50536711  0.97982807  0.30092248
   0.75119965  0.47476281  0.55809782
   0.14083272  0.16796136  0.50058405
   0.69148899  0.13644224  0.53973497
   0.02770325  0.47413781  0.85188972
   0.16749238  0.69286197  0.54563723
   0.50256869  0.02003700  0.84932475
   0.19410259  0.16903164  0.80198897
   0.65416232  0.18541392  0.83145491
   0.18366202  0.61631019  0.86851550
   0.81727672  0.83088010  0.19357929
   0.34353914  0.81131569  0.16211312
   0.80993312  0.40953630  0.09515520
   0.87121272  0.83457552  0.49809776
   0.30276108  0.86530482  0.45913566
   0.97117274  0.53123752  0.15748708
   0.84223988  0.28529717  0.51093117
   0.50630130  0.96855447  0.14614485
   0.71060723  0.33053645  0.41163288
   0.28884046  0.02126563  0.79513621
   0.65911804  0.33278211  0.16216410
   0.95956808  0.68715570  0.49305702
   0.35792594  0.95529737  0.45786756
   0.35442272  0.02267932  0.13009567
   0.71865532  0.97336716  0.19860942
   0.33682533  0.66985262  0.75708440
   0.69989410  0.28236578  0.82445832
   0.98020177  0.31387491  0.16531347
   0.30309788  0.71314012  0.19439047
   0.97751380  0.37939105  0.85006292
   0.65195444  0.96830838  0.86663133
   0.02828382  0.61910747  0.16012367
   0.64510189  0.04146972  0.53858014
   0.02380177  0.69456199  0.84749700
   0.29288682  0.63390552  0.58538514
   0.04325122  0.31509535  0.50714654
   0.83098325  0.35220835  0.31204216
Direct configuration=    66
   0.05889254  0.25476086  0.30303536
   0.03788520  0.30159212  0.95053322
   0.10414213  0.26079648  0.70865010
   0.69048619  0.05446276  0.33457354
   0.66882339  0.03156624  0.97561727
   0.64160114  0.09979079  0.74000266
   0.02106764  0.39397800  0.64789912
   0.26292736  0.67716179  0.35494548
   0.31154268  0.64776046 -0.00684561
   0.28036516  0.59927598  0.80086460
   0.59200439  0.01296268  0.66036703
   0.29778627  0.03592596  0.35784305
   0.23015236  0.07707133  0.59479606
   0.27489430  0.08085179  0.99847034
   0.65456917  0.29905643  0.42527858
   0.70134391  0.22293394  0.63111784
   0.99158435  0.63688001  0.73800593
   0.02846215  0.56351315  0.95506535
   0.66628661  0.26289739  0.03673853
   0.04524711  0.65313534  0.41129380
   0.07931657  0.68913545  0.64340157
   0.36898995  0.00042738  0.69080046
   0.41064188  0.02466047  0.93310446
   0.08823127  0.63750959  0.03502877
   0.70992499  0.96066218  0.63935351
   0.77787202  0.92222896  0.40084228
   0.73370240  0.91444536  0.99447436
   0.34992396  0.70256844  0.52866878
   0.28796177  0.78291325  0.36330985
   0.98962920  0.37642989  0.29886569
   0.97410962  0.43947159  0.05294067
   0.32838117  0.73503835  0.94994152
   0.97215686  0.31575463  0.62162014
   0.91631463  0.31667102  0.36487339
   0.63920738  0.99029796  0.30684020
   0.59973910  0.96295704  0.06511020
   0.91252527  0.36894355  0.95780704
   0.95429873  0.74771859  0.69566279
   0.97879535  0.70688003  0.07383263
   0.90611639  0.74468476  0.29210448
   0.31102304  0.94271744  0.66254176
   0.33315810  0.96345657  0.02311436
   0.35786822  0.89597761  0.25916880
   0.97606828  0.61143826  0.35740447
   0.74390501  0.31311651  0.68642447
   0.67927813  0.38307940  0.02360790
   0.75176961  0.35908097  0.25148410
   0.41616144  0.97695358  0.33395941
   0.71546954  0.50298345  0.67592370
   0.78719932  0.44688204  0.43880097
   0.11120664  0.21380471  0.22509541
   0.15231855  0.16825474  0.34665547
   0.08854090  0.26041749  0.88459274
   0.12748346  0.21348035  0.02417651
   0.68086556  0.10606602  0.25816703
   0.68372254  0.14729509  0.38383099
   0.65906101  0.08240746  0.91470762
   0.66790186  0.12117290  0.05509859
   0.01029384  0.44654857  0.57440084
   0.01539289  0.48680002  0.69900043
   0.22052630  0.66559872  0.28191950
   0.17159714  0.67585065  0.39620888
   0.27549210  0.62741690  0.96141808
   0.22603730  0.64096962  0.09207040
   0.55044833  0.00325499  0.57808534
   0.50369543  0.00858237  0.69458313
   0.24663431  0.07669718  0.41912132
   0.20733563  0.12337912  0.27834192
   0.22321623  0.12279664  0.07690163
   0.18247977  0.16861608  0.95566141
   0.67838902  0.24227971  0.46418011
   0.67612457  0.20142001  0.31737313
   0.00854605  0.58280987  0.78340558
   0.00366194  0.54291645  0.63648199
   0.66761371  0.21409150  0.11240000
   0.66211174  0.17456480  0.98725115
   0.08141870  0.67008344  0.46894419
   0.12736091  0.66436456  0.32728520
   0.41039866  0.00899085  0.75665294
   0.45834836  0.00019278  0.61988921
   0.12966186  0.64542390  0.12644596
   0.18041967  0.63264770  0.01821145
   0.76166846  0.92195516  0.57704237
   0.80308524  0.87617068  0.71716811
   0.78688688  0.87555107  0.91736766
   0.82892662  0.83175076  0.04037408
   0.31716217  0.76040195  0.51966718
   0.31815663  0.79920181  0.67695676
   0.98556460  0.42480683  0.23192334
   0.99384464  0.46326751  0.37438333
   0.32775737  0.78407330  0.88078361
   0.33484120  0.82273785  0.00707140
   0.92563725  0.31865623  0.55124423
   0.87799203  0.32870576  0.69109938
   0.59890130  0.98002975  0.24093619
   0.55075801  0.98826833  0.37567217
   0.87234892  0.35856573  0.87416311
   0.81871549  0.37842007  0.97398548
   0.90172755  0.78899618  0.77441467
   0.85967914  0.83358690  0.65144176
   0.92441788  0.74529826  0.11987734
   0.88532369  0.78920303  0.97473028
   0.31724101  0.89243771  0.74027898
   0.31126014  0.85333427  0.61389908
   0.34120733  0.91308348  0.08430257
   0.33048021  0.87595396  0.94213803
   0.98754733  0.55921434  0.43548800
   0.98335820  0.51861982  0.31044416
   0.78247447  0.33072927  0.74728913
   0.83415075  0.31450395  0.63770614
   0.73189720  0.37125707  0.07063202
   0.77537060  0.36362903  0.92208186
   0.45830119  0.98556426  0.41711803
   0.50536910  0.97982048  0.30089508
   0.75117704  0.47477236  0.55819638
   0.14083954  0.16796433  0.50057385
   0.69146490  0.13647346  0.53969890
   0.02771148  0.47414163  0.85189035
   0.16747542  0.69286629  0.54568006
   0.50256639  0.02002610  0.84929965
   0.19410636  0.16903352  0.80197539
   0.65418240  0.18538698  0.83139742
   0.18367716  0.61631096  0.86858972
   0.81726874  0.83086997  0.19360939
   0.34351280  0.81133771  0.16210947
   0.80995058  0.40950304  0.09518357
   0.87121196  0.83457658  0.49812133
   0.30277986  0.86528356  0.45910015
   0.97116439  0.53124579  0.15750595
   0.84225434  0.28529471  0.51094953
   0.50630420  0.96854812  0.14610920
   0.71059457  0.33054357  0.41160448
   0.28883552  0.02126532  0.79510320
   0.65909564  0.33280244  0.16216593
   0.95956323  0.68715691  0.49306454
   0.35792615  0.95529502  0.45783036
   0.35442153  0.02267357  0.13007907
   0.71866346  0.97335928  0.19863358
   0.33684231  0.66984035  0.75711872
   0.69988263  0.28237500  0.82441445
   0.98020742  0.31388285  0.16529601
   0.30310837  0.71312386  0.19444597
   0.97751937  0.37939360  0.85005710
   0.65195027  0.96830499  0.86664061
   0.02827890  0.61910967  0.16012713
   0.64511057  0.04146483  0.53854188
   0.02380540  0.69455459  0.84751407
   0.29285832  0.63392549  0.58545312
   0.04326899  0.31510047  0.50712863
   0.83098334  0.35220892  0.31211803
Direct configuration=    67
   0.05888893  0.25475753  0.30303673
   0.03788023  0.30158751  0.95053211
   0.10413712  0.26079377  0.70865494
   0.69047557  0.05446460  0.33458645
   0.66881590  0.03157013  0.97561041
   0.64159566  0.09980215  0.74000948
   0.02105734  0.39397897  0.64789925
   0.26294166  0.67714771  0.35492144
   0.31153983  0.64776270 -0.00687616
   0.28037036  0.59927103  0.80083396
   0.59200560  0.01296437  0.66036678
   0.29778815  0.03592916  0.35786746
   0.23015033  0.07707031  0.59481598
   0.27489624  0.08085141  0.99848286
   0.65459626  0.29903798  0.42530886
   0.70137369  0.22291357  0.63114014
   0.99159095  0.63687756  0.73799002
   0.02846472  0.56351120  0.95505723
   0.66629996  0.26288879  0.03674990
   0.04524886  0.65313894  0.41128780
   0.07931893  0.68913742  0.64339297
   0.36899420  0.00042416  0.69083672
   0.41063916  0.02466652  0.93312990
   0.08822855  0.63751083  0.03501562
   0.70992659  0.96066725  0.63936673
   0.77786728  0.92222877  0.40082189
   0.73371080  0.91444611  0.99445115
   0.34990634  0.70257552  0.52863826
   0.28794330  0.78293254  0.36330892
   0.98962422  0.37642714  0.29886004
   0.97410045  0.43947154  0.05294368
   0.32837466  0.73503779  0.94992451
   0.97214936  0.31574880  0.62161567
   0.91631246  0.31666356  0.36485151
   0.63920690  0.99030304  0.30683998
   0.59973901  0.96295317  0.06511993
   0.91252250  0.36894268  0.95779026
   0.95429645  0.74772002  0.69564022
   0.97879414  0.70688103  0.07380720
   0.90611671  0.74468791  0.29209044
   0.31102642  0.94271567  0.66255971
   0.33315444  0.96345837  0.02315556
   0.35787078  0.89597520  0.25918409
   0.97607723  0.61143037  0.35739766
   0.74389273  0.31312285  0.68643338
   0.67927520  0.38308467  0.02363709
   0.75177129  0.35908922  0.25147059
   0.41616091  0.97695597  0.33398471
   0.71546982  0.50298922  0.67589481
   0.78720193  0.44688411  0.43879078
   0.11120076  0.21380338  0.22510270
   0.15231589  0.16825198  0.34666228
   0.08853626  0.26041490  0.88459717
   0.12747991  0.21347716  0.02417753
   0.68087005  0.10606296  0.25816716
   0.68374000  0.14728123  0.38386126
   0.65905431  0.08241735  0.91471019
   0.66790358  0.12116999  0.05511374
   0.01028773  0.44654767  0.57440008
   0.01539100  0.48679808  0.69899647
   0.22052969  0.66559012  0.28188986
   0.17160511  0.67584465  0.39619466
   0.27549280  0.62740922  0.96139755
   0.22603560  0.64096372  0.09203324
   0.55044556  0.00325776  0.57809794
   0.50369451  0.00858599  0.69460031
   0.24663248  0.07669776  0.41913908
   0.20733294  0.12337810  0.27835393
   0.22321613  0.12279503  0.07691358
   0.18247902  0.16861181  0.95567205
   0.67841825  0.24226368  0.46420770
   0.67614422  0.20140955  0.31739766
   0.00855024  0.58280599  0.78339590
   0.00366501  0.54291330  0.63647839
   0.66762037  0.21408278  0.11244012
   0.66211079  0.17457017  0.98725506
   0.08141871  0.67008480  0.46893673
   0.12736033  0.66436610  0.32728192
   0.41040028  0.00899421  0.75668506
   0.45834797  0.00019704  0.61991171
   0.12965615  0.64542579  0.12644232
   0.18041132  0.63264787  0.01817970
   0.76166927  0.92195781  0.57702741
   0.80308700  0.87617403  0.71715100
   0.78688699  0.87555736  0.91734978
   0.82892761  0.83175774  0.04035356
   0.31714071  0.76042010  0.51964475
   0.31814858  0.79921380  0.67693368
   0.98555748  0.42480647  0.23192205
   0.99384161  0.46326435  0.37438447
   0.32776173  0.78407485  0.88075950
   0.33485238  0.82272830  0.00706469
   0.92563379  0.31864819  0.55124073
   0.87799428  0.32869917  0.69109041
   0.59890038  0.98002947  0.24094346
   0.55075762  0.98827049  0.37568831
   0.87234465  0.35856529  0.87414937
   0.81871063  0.37843376  0.97398055
   0.90172945  0.78899650  0.77440885
   0.85968027  0.83358861  0.65143279
   0.92441540  0.74530133  0.11987122
   0.88532583  0.78920580  0.97471188
   0.31724252  0.89244162  0.74031378
   0.31125321  0.85334055  0.61390890
   0.34121108  0.91308111  0.08431964
   0.33048796  0.87594672  0.94216270
   0.98755158  0.55921063  0.43548018
   0.98336014  0.51861556  0.31043988
   0.78247330  0.33073225  0.74729719
   0.83414345  0.31450492  0.63770285
   0.73188889  0.37127210  0.07064580
   0.77536975  0.36363725  0.92207938
   0.45829999  0.98556940  0.41713976
   0.50536906  0.97982551  0.30091197
   0.75117647  0.47477782  0.55818313
   0.14083471  0.16796345  0.50057758
   0.69148082  0.13645584  0.53970407
   0.02770645  0.47413939  0.85188849
   0.16748485  0.69286318  0.54565658
   0.50256737  0.02003234  0.84931111
   0.19410426  0.16903202  0.80198549
   0.65417152  0.18540025  0.83144737
   0.18366955  0.61631108  0.86855228
   0.81727270  0.83087634  0.19359533
   0.34352940  0.81132480  0.16211660
   0.80994084  0.40951928  0.09516329
   0.87121346  0.83457493  0.49810501
   0.30276924  0.86529420  0.45912058
   0.97116957  0.53124047  0.15749581
   0.84224686  0.28529812  0.51094032
   0.50630307  0.96855136  0.14612914
   0.71060525  0.33053955  0.41163599
   0.28883770  0.02126554  0.79512113
   0.65910707  0.33279151  0.16216523
   0.95956403  0.68715678  0.49305734
   0.35792518  0.95529652  0.45785033
   0.35442102  0.02267723  0.13009304
   0.71866004  0.97336361  0.19862316
   0.33683224  0.66984785  0.75709605
   0.69989111  0.28236798  0.82443931
   0.98020489  0.31387833  0.16530324
   0.30310452  0.71313483  0.19441624
   0.97751621  0.37939203  0.85006330
   0.65195187  0.96830716  0.86662882
   0.02828234  0.61910693  0.16012338
   0.64510519  0.04146628  0.53856997
   0.02380491  0.69455821  0.84749772
   0.29287423  0.63391119  0.58542222
   0.04325830  0.31509715  0.50713889
   0.83098350  0.35220805  0.31207510
Direct configuration=    68
   0.05887808  0.25474755  0.30304084
   0.03786531  0.30157366  0.95052879
   0.10412209  0.26078565  0.70866946
   0.69044371  0.05447014  0.33462519
   0.66879344  0.03158182  0.97558986
   0.64157924  0.09983623  0.74002995
   0.02102646  0.39398190  0.64789962
   0.26298455  0.67710547  0.35484934
   0.31153126  0.64776943 -0.00696780
   0.28038594  0.59925620  0.80074203
   0.59200925  0.01296943  0.66036601
   0.29779377  0.03593876  0.35794068
   0.23014424  0.07706725  0.59487574
   0.27490206  0.08085025  0.99852042
   0.65467755  0.29898262  0.42539971
   0.70146303  0.22285244  0.63120705
   0.99161074  0.63687022  0.73794230
   0.02847241  0.56350537  0.95503286
   0.66633999  0.26286299  0.03678401
   0.04525414  0.65314974  0.41126982
   0.07932601  0.68914333  0.64336717
   0.36900694  0.00041450  0.69094547
   0.41063101  0.02468467  0.93320624
   0.08822037  0.63751455  0.03497618
   0.70993138  0.96068247  0.63940641
   0.77785303  0.92222821  0.40076073
   0.73373600  0.91444839  0.99438154
   0.34985348  0.70259677  0.52854669
   0.28788789  0.78299043  0.36330612
   0.98960927  0.37641887  0.29884307
   0.97407294  0.43947139  0.05295271
   0.32835516  0.73503610  0.94987350
   0.97212685  0.31573130  0.62160228
   0.91630594  0.31664116  0.36478586
   0.63920548  0.99031828  0.30683932
   0.59973876  0.96294156  0.06514912
   0.91251419  0.36894007  0.95773993
   0.95428963  0.74772432  0.69557249
   0.97879050  0.70688404  0.07373090
   0.90611768  0.74469737  0.29204834
   0.31103655  0.94271036  0.66261356
   0.33314345  0.96346374  0.02327919
   0.35787848  0.89596796  0.25922996
   0.97610406  0.61140670  0.35737724
   0.74385587  0.31314188  0.68646012
   0.67926640  0.38310045  0.02372464
   0.75177635  0.35911396  0.25143008
   0.41615933  0.97696317  0.33406063
   0.71547065  0.50300656  0.67580813
   0.78720978  0.44689034  0.43876024
   0.11118312  0.21379938  0.22512457
   0.15230791  0.16824372  0.34668270
   0.08852234  0.26040711  0.88461046
   0.12746927  0.21346759  0.02418060
   0.68088352  0.10605380  0.25816754
   0.68379238  0.14723967  0.38395207
   0.65903422  0.08244704  0.91471790
   0.66790874  0.12116126  0.05515918
   0.01026942  0.44654497  0.57439780
   0.01538535  0.48679226  0.69898460
   0.22053984  0.66556432  0.28180097
   0.17162900  0.67582665  0.39615200
   0.27549490  0.62738618  0.96133597
   0.22603050  0.64094602  0.09192175
   0.55043726  0.00326607  0.57813576
   0.50369176  0.00859684  0.69465185
   0.24662701  0.07669953  0.41919236
   0.20732487  0.12337501  0.27838998
   0.22321580  0.12279019  0.07694944
   0.18247677  0.16859901  0.95570398
   0.67850593  0.24221559  0.46429047
   0.67620318  0.20137818  0.31747125
   0.00856282  0.58279434  0.78336686
   0.00367421  0.54290383  0.63646758
   0.66764037  0.21405663  0.11256045
   0.66210793  0.17458629  0.98726679
   0.08141877  0.67008887  0.46891432
   0.12735860  0.66437073  0.32727206
   0.41040514  0.00900429  0.75678143
   0.45834682  0.00020980  0.61997923
   0.12963903  0.64543149  0.12643141
   0.18038625  0.63264839  0.01808444
   0.76167170  0.92196576  0.57698255
   0.80309231  0.87618407  0.71709970
   0.78688732  0.87557623  0.91729614
   0.82893057  0.83177869  0.04029200
   0.31707633  0.76047457  0.51957746
   0.31812444  0.79924974  0.67686442
   0.98553612  0.42480537  0.23191818
   0.99383252  0.46325488  0.37438790
   0.32777483  0.78407951  0.88068717
   0.33488591  0.82269964  0.00704456
   0.92562338  0.31862409  0.55123022
   0.87800103  0.32867942  0.69106350
   0.59889763  0.98002863  0.24096524
   0.55075647  0.98827698  0.37573674
   0.87233185  0.35856397  0.87410817
   0.81869606  0.37847481  0.97396575
   0.90173516  0.78899745  0.77439138
   0.85968365  0.83359372  0.65140587
   0.92440793  0.74531054  0.11985285
   0.88533226  0.78921409  0.97465667
   0.31724706  0.89245335  0.74041817
   0.31123244  0.85335941  0.61393838
   0.34122233  0.91307399  0.08437084
   0.33051121  0.87592499  0.94223672
   0.98756434  0.55919948  0.43545671
   0.98336598  0.51860279  0.31042703
   0.78246980  0.33074118  0.74732138
   0.83412154  0.31450786  0.63769298
   0.73186395  0.37131718  0.07068711
   0.77536721  0.36366192  0.92207197
   0.45829640  0.98558482  0.41720495
   0.50536895  0.97984062  0.30096265
   0.75117477  0.47479421  0.55814339
   0.14082020  0.16796080  0.50058874
   0.69152855  0.13640296  0.53971958
   0.02769135  0.47413264  0.85188292
   0.16751311  0.69285383  0.54558614
   0.50257033  0.02005107  0.84934548
   0.19409797  0.16902753  0.80201576
   0.65413886  0.18544007  0.83159724
   0.18364671  0.61631144  0.86843997
   0.81728459  0.83089546  0.19355316
   0.34357921  0.81128607  0.16213801
   0.80991160  0.40956803  0.09510244
   0.87121798  0.83456998  0.49805605
   0.30273739  0.86532612  0.45918187
   0.97118512  0.53122452  0.15746536
   0.84222440  0.28530834  0.51091268
   0.50629968  0.96856108  0.14618899
   0.71063728  0.33052749  0.41173052
   0.28884423  0.02126619  0.79517491
   0.65914134  0.33275874  0.16216316
   0.95956646  0.68715640  0.49303574
   0.35792227  0.95530100  0.45791022
   0.35441949  0.02268822  0.13013495
   0.71864976  0.97337659  0.19859193
   0.33680202  0.66987034  0.75702802
   0.69991657  0.28234690  0.82451388
   0.98019727  0.31386478  0.16532493
   0.30309295  0.71316774  0.19432703
   0.97750671  0.37938732  0.85008192
   0.65195665  0.96831367  0.86659344
   0.02829266  0.61909871  0.16011213
   0.64508904  0.04147062  0.53865425
   0.02380342  0.69456907  0.84744866
   0.29292193  0.63386829  0.58532953
   0.04322624  0.31508720  0.50716964
   0.83098398  0.35220546  0.31194630
Direct configuration=    69
   0.05885639  0.25472760  0.30304907
   0.03783547  0.30154596  0.95052214
   0.10409203  0.26076939  0.70869851
   0.69037999  0.05448121  0.33470268
   0.66874850  0.03160521  0.97554874
   0.64154638  0.09990438  0.74007089
   0.02096469  0.39398774  0.64790036
   0.26307032  0.67702099  0.35470513
   0.31151411  0.64778288 -0.00715108
   0.28041710  0.59922652  0.80055818
   0.59201654  0.01297955  0.66036448
   0.29780501  0.03595796  0.35808712
   0.23013205  0.07706111  0.59499527
   0.27491369  0.08084795  0.99859552
   0.65484013  0.29887191  0.42558140
   0.70164171  0.22273019  0.63134086
   0.99165031  0.63685555  0.73784685
   0.02848778  0.56349370  0.95498414
   0.66642006  0.26281139  0.03685223
   0.04526469  0.65317133  0.41123385
   0.07934017  0.68915515  0.64331558
   0.36903241  0.00039519  0.69116299
   0.41061471  0.02472096  0.93335892
   0.08820402  0.63752199  0.03489729
   0.70994097  0.96071290  0.63948577
   0.77782455  0.92222708  0.40063841
   0.73378639  0.91445295  0.99424232
   0.34974775  0.70263925  0.52836356
   0.28777707  0.78310621  0.36330053
   0.98957936  0.37640233  0.29880913
   0.97401792  0.43947108  0.05297078
   0.32831615  0.73503272  0.94977146
   0.97208184  0.31569630  0.62157549
   0.91629291  0.31659637  0.36465457
   0.63920263  0.99034876  0.30683799
   0.59973824  0.96291833  0.06520750
   0.91249756  0.36893486  0.95763928
   0.95427599  0.74773291  0.69543704
   0.97878324  0.70689005  0.07357830
   0.90611962  0.74471627  0.29196414
   0.31105680  0.94269974  0.66272126
   0.33312147  0.96347450  0.02352644
   0.35789387  0.89595348  0.25932170
   0.97615773  0.61135936  0.35733640
   0.74378217  0.31317992  0.68651359
   0.67924881  0.38313203  0.02389974
   0.75178646  0.35916344  0.25134906
   0.41615618  0.97697755  0.33421247
   0.71547230  0.50304122  0.67563478
   0.78722547  0.44690278  0.43869915
   0.11114783  0.21379140  0.22516831
   0.15229195  0.16822718  0.34672353
   0.08849450  0.26039155  0.88463705
   0.12744799  0.21344845  0.02418673
   0.68091044  0.10603547  0.25816832
   0.68389715  0.14715654  0.38413369
   0.65899403  0.08250642  0.91473332
   0.66791907  0.12114379  0.05525005
   0.01023279  0.44653957  0.57439324
   0.01537406  0.48678064  0.69896084
   0.22056014  0.66551271  0.28162318
   0.17167678  0.67579065  0.39606669
   0.27549911  0.62734009  0.96121280
   0.22602029  0.64091062  0.09169878
   0.55042065  0.00328271  0.57821139
   0.50368626  0.00861856  0.69475494
   0.24661608  0.07670305  0.41929892
   0.20730871  0.12336884  0.27846208
   0.22321516  0.12278051  0.07702115
   0.18247226  0.16857341  0.95576784
   0.67868130  0.24211939  0.46445601
   0.67632109  0.20131544  0.31761843
   0.00858798  0.58277105  0.78330879
   0.00369262  0.54288489  0.63644597
   0.66768035  0.21400433  0.11280112
   0.66210223  0.17461853  0.98729026
   0.08141887  0.67009701  0.46886951
   0.12735513  0.66437998  0.32725235
   0.41041484  0.00902446  0.75697418
   0.45834452  0.00023531  0.62011427
   0.12960478  0.64544288  0.12640958
   0.18033612  0.63264943  0.01789392
   0.76167655  0.92198166  0.57689283
   0.80310291  0.87620415  0.71699708
   0.78688799  0.87561398  0.91718887
   0.82893650  0.83182058  0.04016889
   0.31694757  0.76058349  0.51944288
   0.31807616  0.79932163  0.67672589
   0.98549340  0.42480318  0.23191043
   0.99381433  0.46323594  0.37439475
   0.32780102  0.78408883  0.88054250
   0.33495296  0.82264233  0.00700430
   0.92560258  0.31857588  0.55120921
   0.87801452  0.32863991  0.69100967
   0.59889213  0.98002695  0.24100881
   0.55075416  0.98828994  0.37583358
   0.87230624  0.35856133  0.87402576
   0.81866691  0.37855692  0.97393616
   0.90174656  0.78899935  0.77435645
   0.85969041  0.83360395  0.65135204
   0.92439300  0.74532895  0.11981612
   0.88534512  0.78923068  0.97454626
   0.31725614  0.89247680  0.74062695
   0.31119089  0.85339713  0.61399734
   0.34124482  0.91305974  0.08447324
   0.33055771  0.87588152  0.94238476
   0.98758984  0.55917718  0.43540978
   0.98337766  0.51857726  0.31040133
   0.78246280  0.33075905  0.74736977
   0.83407771  0.31451374  0.63767323
   0.73181408  0.37140735  0.07076974
   0.77536212  0.36371127  0.92205713
   0.45828922  0.98561566  0.41733534
   0.50536871  0.97987083  0.30106401
   0.75117135  0.47482699  0.55806392
   0.14079119  0.16795549  0.50061107
   0.69162401  0.13629721  0.53975060
   0.02766116  0.47411916  0.85187179
   0.16756965  0.69283513  0.54544525
   0.50257625  0.02008854  0.84941422
   0.19408540  0.16901854  0.80207631
   0.65407356  0.18551970  0.83189697
   0.18360104  0.61631215  0.86821533
   0.81730836  0.83093370  0.19346881
   0.34367881  0.81120860  0.16218083
   0.80985314  0.40966552  0.09498073
   0.87122702  0.83456009  0.49795812
   0.30267369  0.86538996  0.45930444
   0.97121622  0.53119262  0.15740446
   0.84217950  0.28532877  0.51085741
   0.50629289  0.96858053  0.14630867
   0.71070133  0.33050336  0.41191958
   0.28885729  0.02126748  0.79528248
   0.65920989  0.33269318  0.16215900
   0.95957130  0.68715564  0.49299254
   0.35791645  0.95530996  0.45803001
   0.35441643  0.02271019  0.13021876
   0.71862919  0.97340255  0.19852945
   0.33674160  0.66991533  0.75689197
   0.69996749  0.28230476  0.82466303
   0.98018203  0.31383768  0.16536831
   0.30306980  0.71323355  0.19414861
   0.97748771  0.37937791  0.85011915
   0.65196623  0.96832669  0.86652269
   0.02831331  0.61908227  0.16008963
   0.64505674  0.04147930  0.53882281
   0.02380045  0.69459080  0.84735055
   0.29301733  0.63378249  0.58514414
   0.04316213  0.31506730  0.50723116
   0.83098495  0.35220028  0.31168870
Direct configuration=    70
   0.05886600  0.25473644  0.30304542
   0.03784870  0.30155824  0.95052508
   0.10410535  0.26077660  0.70868563
   0.69040823  0.05447630  0.33466834
   0.66876842  0.03159484  0.97556697
   0.64156095  0.09987417  0.74005274
   0.02099207  0.39398515  0.64790003
   0.26303230  0.67705843  0.35476905
   0.31152171  0.64777691 -0.00706984
   0.28040329  0.59923968  0.80063967
   0.59201331  0.01297506  0.66036516
   0.29780003  0.03594945  0.35802221
   0.23013745  0.07706383  0.59494229
   0.27490854  0.08084897  0.99856223
   0.65476807  0.29892098  0.42550087
   0.70156251  0.22278438  0.63128155
   0.99163277  0.63686205  0.73788916
   0.02848097  0.56349887  0.95500574
   0.66638457  0.26283426  0.03682200
   0.04526001  0.65316176  0.41124979
   0.07933389  0.68914991  0.64333845
   0.36902112  0.00040375  0.69106657
   0.41062193  0.02470488  0.93329124
   0.08821126  0.63751869  0.03493226
   0.70993672  0.96069941  0.63945060
   0.77783717  0.92222758  0.40069263
   0.73376406  0.91445093  0.99430403
   0.34979461  0.70262042  0.52844473
   0.28782619  0.78305489  0.36330301
   0.98959262  0.37640966  0.29882417
   0.97404231  0.43947122  0.05296277
   0.32833344  0.73503421  0.94981669
   0.97210179  0.31571181  0.62158737
   0.91629868  0.31661622  0.36471277
   0.63920389  0.99033525  0.30683858
   0.59973847  0.96292862  0.06518162
   0.91250493  0.36893717  0.95768390
   0.95428204  0.74772910  0.69549708
   0.97878646  0.70688738  0.07364594
   0.90611876  0.74470789  0.29200146
   0.31104782  0.94270445  0.66267352
   0.33313121  0.96346973  0.02341685
   0.35788705  0.89595989  0.25928103
   0.97613394  0.61138035  0.35735450
   0.74381484  0.31316306  0.68648989
   0.67925661  0.38311803  0.02382212
   0.75178198  0.35914151  0.25138497
   0.41615758  0.97697117  0.33414516
   0.71547157  0.50302586  0.67571161
   0.78721851  0.44689727  0.43872623
   0.11116347  0.21379494  0.22514892
   0.15229902  0.16823451  0.34670543
   0.08850684  0.26039845  0.88462527
   0.12745742  0.21345693  0.02418402
   0.68089851  0.10604359  0.25816798
   0.68385071  0.14719339  0.38405318
   0.65901185  0.08248010  0.91472648
   0.66791449  0.12115153  0.05520977
   0.01024902  0.44654196  0.57439526
   0.01537906  0.48678579  0.69897137
   0.22055114  0.66553559  0.28170199
   0.17165560  0.67580661  0.39610450
   0.27549724  0.62736052  0.96126739
   0.22602481  0.64092632  0.09179761
   0.55042801  0.00327534  0.57817787
   0.50368870  0.00860893  0.69470925
   0.24662093  0.07670149  0.41925168
   0.20731587  0.12337158  0.27843012
   0.22321545  0.12278480  0.07698936
   0.18247426  0.16858476  0.95573953
   0.67860357  0.24216203  0.46438263
   0.67626883  0.20134325  0.31755319
   0.00857683  0.58278137  0.78333453
   0.00368446  0.54289329  0.63645555
   0.66766263  0.21402751  0.11269444
   0.66210476  0.17460424  0.98727986
   0.08141882  0.67009340  0.46888937
   0.12735667  0.66437588  0.32726108
   0.41041054  0.00901552  0.75688874
   0.45834554  0.00022400  0.62005442
   0.12961996  0.64543783  0.12641926
   0.18035834  0.63264897  0.01797837
   0.76167440  0.92197462  0.57693260
   0.80309821  0.87619525  0.71704257
   0.78688769  0.87559725  0.91723642
   0.82893387  0.83180201  0.04022346
   0.31700464  0.76053521  0.51950253
   0.31809756  0.79928976  0.67678729
   0.98551234  0.42480415  0.23191387
   0.99382239  0.46324434  0.37439172
   0.32778941  0.78408470  0.88060662
   0.33492324  0.82266773  0.00702215
   0.92561180  0.31859725  0.55121852
   0.87800854  0.32865742  0.69103353
   0.59889457  0.98002769  0.24098950
   0.55075518  0.98828420  0.37579066
   0.87231759  0.35856250  0.87406229
   0.81867983  0.37852053  0.97394928
   0.90174151  0.78899851  0.77437193
   0.85968741  0.83359942  0.65137590
   0.92439962  0.74532079  0.11983240
   0.88533942  0.78922332  0.97459520
   0.31725212  0.89246641  0.74053441
   0.31120931  0.85338041  0.61397121
   0.34123485  0.91306605  0.08442785
   0.33053710  0.87590079  0.94231914
   0.98757854  0.55918707  0.43543058
   0.98337249  0.51858858  0.31041272
   0.78246590  0.33075113  0.74734832
   0.83409714  0.31451114  0.63768199
   0.73183618  0.37136738  0.07073311
   0.77536437  0.36368940  0.92206371
   0.45829240  0.98560199  0.41727754
   0.50536881  0.97985744  0.30101909
   0.75117287  0.47481246  0.55809914
   0.14080405  0.16795784  0.50060118
   0.69158170  0.13634408  0.53973685
   0.02767454  0.47412514  0.85187673
   0.16754459  0.69284342  0.54550770
   0.50257363  0.02007193  0.84938375
   0.19409097  0.16902252  0.80204947
   0.65410250  0.18548441  0.83176411
   0.18362129  0.61631183  0.86831490
   0.81729782  0.83091675  0.19350620
   0.34363466  0.81124294  0.16216185
   0.80987905  0.40962231  0.09503468
   0.87122301  0.83456448  0.49800152
   0.30270193  0.86536167  0.45925011
   0.97120243  0.53120676  0.15743145
   0.84219940  0.28531972  0.51088191
   0.50629590  0.96857191  0.14625562
   0.71067294  0.33051405  0.41183578
   0.28885150  0.02126691  0.79523480
   0.65917951  0.33272224  0.16216084
   0.95956915  0.68715597  0.49301169
   0.35791903  0.95530599  0.45797692
   0.35441778  0.02270045  0.13018161
   0.71863831  0.97339104  0.19855714
   0.33676838  0.66989539  0.75695227
   0.69994492  0.28232344  0.82459692
   0.98018878  0.31384969  0.16534908
   0.30308006  0.71320438  0.19422769
   0.97749613  0.37938208  0.85010265
   0.65196198  0.96832092  0.86655405
   0.02830416  0.61908955  0.16009960
   0.64507105  0.04147545  0.53874810
   0.02380176  0.69458117  0.84739404
   0.29297504  0.63382052  0.58522631
   0.04319055  0.31507612  0.50720389
   0.83098452  0.35220258  0.31180288
Direct configuration=    71
   0.05885849  0.25472884  0.30304726
   0.03783821  0.30155001  0.95052943
   0.10409529  0.26077330  0.70869302
   0.69039566  0.05447366  0.33468120
   0.66875229  0.03160941  0.97555328
   0.64154878  0.09989227  0.74008098
   0.02097478  0.39398780  0.64789804
   0.26305469  0.67703424  0.35469211
   0.31151368  0.64777663 -0.00712172
   0.28041204  0.59923023  0.80055826
   0.59201392  0.01297753  0.66037319
   0.29780150  0.03595830  0.35807048
   0.23013546  0.07706134  0.59497278
   0.27491075  0.08085173  0.99859209
   0.65481137  0.29889589  0.42555765
   0.70162030  0.22274429  0.63133073
   0.99164618  0.63685347  0.73786279
   0.02848603  0.56349325  0.95499537
   0.66640946  0.26281423  0.03686933
   0.04525844  0.65316888  0.41123489
   0.07933075  0.68915489  0.64332620
   0.36903127  0.00039766  0.69112933
   0.41061810  0.02471600  0.93333861
   0.08820296  0.63752019  0.03491597
   0.70994030  0.96070923  0.63946422
   0.77782287  0.92223461  0.40063809
   0.73377222  0.91445681  0.99427019
   0.34975627  0.70264631  0.52837628
   0.28778507  0.78309270  0.36325655
   0.98958299  0.37640723  0.29882102
   0.97402476  0.43947274  0.05296422
   0.32831873  0.73504310  0.94974326
   0.97208858  0.31569970  0.62158140
   0.91629843  0.31660309  0.36470140
   0.63919861  0.99033963  0.30683235
   0.59973306  0.96292429  0.06520758
   0.91250353  0.36893604  0.95765074
   0.95427695  0.74773196  0.69546384
   0.97878165  0.70688906  0.07361473
   0.90611681  0.74471273  0.29199575
   0.31105348  0.94270847  0.66272197
   0.33312584  0.96347072  0.02347771
   0.35789485  0.89595585  0.25930888
   0.97614915  0.61136843  0.35734043
   0.74379792  0.31318377  0.68650315
   0.67924368  0.38313466  0.02388089
   0.75178656  0.35915665  0.25139297
   0.41615844  0.97697697  0.33419084
   0.71547457  0.50303507  0.67564818
   0.78722894  0.44689748  0.43868816
   0.11115436  0.21379010  0.22516373
   0.15229281  0.16822968  0.34671947
   0.08850049  0.26039032  0.88463505
   0.12745026  0.21345109  0.02418856
   0.68091015  0.10603928  0.25821893
   0.68387881  0.14717535  0.38407215
   0.65900333  0.08249221  0.91474866
   0.66791714  0.12115033  0.05518493
   0.01023886  0.44654136  0.57439699
   0.01537444  0.48678206  0.69896600
   0.22055972  0.66551977  0.28165008
   0.17166244  0.67579593  0.39607623
   0.27550267  0.62734902  0.96121316
   0.22602429  0.64091669  0.09173730
   0.55042566  0.00327994  0.57819941
   0.50368909  0.00861637  0.69473920
   0.24661892  0.07670225  0.41928779
   0.20731295  0.12336779  0.27845252
   0.22321461  0.12278169  0.07701748
   0.18247145  0.16857777  0.95575718
   0.67865455  0.24212922  0.46443941
   0.67630388  0.20131615  0.31759133
   0.00858409  0.58277675  0.78331369
   0.00368902  0.54288532  0.63644833
   0.66767621  0.21401982  0.11274460
   0.66210521  0.17459981  0.98735129
   0.08142725  0.67009749  0.46886475
   0.12735832  0.66437448  0.32724851
   0.41041327  0.00902024  0.75693581
   0.45834351  0.00023267  0.62009570
   0.12961623  0.64544018  0.12638079
   0.18035372  0.63264962  0.01793439
   0.76167725  0.92197628  0.57693018
   0.80310317  0.87620173  0.71700332
   0.78689413  0.87560365  0.91720660
   0.82893791  0.83181329  0.04019052
   0.31697662  0.76055841  0.51947163
   0.31808332  0.79930279  0.67680279
   0.98550033  0.42480114  0.23191439
   0.99381559  0.46323982  0.37438776
   0.32779415  0.78408603  0.88059879
   0.33494628  0.82264948  0.00703784
   0.92560069  0.31858426  0.55119767
   0.87800156  0.32864519  0.69100883
   0.59889797  0.98002734  0.24100275
   0.55075341  0.98828876  0.37581239
   0.87231267  0.35856498  0.87404098
   0.81866504  0.37854371  0.97393184
   0.90174005  0.78900346  0.77434641
   0.85968995  0.83360311  0.65134539
   0.92439875  0.74532662  0.11979919
   0.88534473  0.78922780  0.97456300
   0.31725489  0.89246075  0.74056718
   0.31119528  0.85339531  0.61400478
   0.34124030  0.91305653  0.08445886
   0.33054942  0.87589981  0.94235757
   0.98758606  0.55917905  0.43541229
   0.98337573  0.51858074  0.31040144
   0.78246001  0.33075635  0.74734831
   0.83409288  0.31450559  0.63767582
   0.73182567  0.37139484  0.07074430
   0.77535378  0.36370997  0.92205260
   0.45829070  0.98561063  0.41733014
   0.50536394  0.97986704  0.30105553
   0.75116374  0.47482936  0.55809869
   0.14079367  0.16795738  0.50060740
   0.69161791  0.13630990  0.53975304
   0.02766486  0.47412113  0.85186959
   0.16756162  0.69283643  0.54547469
   0.50257440  0.02008324  0.84940311
   0.19408786  0.16901810  0.80207401
   0.65408150  0.18550796  0.83182309
   0.18360783  0.61631455  0.86826795
   0.81730334  0.83093023  0.19348063
   0.34366630  0.81121957  0.16215222
   0.80986326  0.40964814  0.09499755
   0.87122759  0.83455919  0.49797592
   0.30268190  0.86538031  0.45927586
   0.97121296  0.53119536  0.15742062
   0.84218621  0.28532987  0.51086853
   0.50629514  0.96857706  0.14628954
   0.71069958  0.33050891  0.41189772
   0.28885423  0.02126692  0.79526666
   0.65920012  0.33270322  0.16216875
   0.95956690  0.68715607  0.49298926
   0.35791737  0.95530861  0.45800774
   0.35441404  0.02270693  0.13022396
   0.71863364  0.97339864  0.19854092
   0.33675013  0.66991010  0.75690331
   0.69996518  0.28230518  0.82464038
   0.98018463  0.31384198  0.16535371
   0.30307646  0.71322444  0.19418692
   0.97749013  0.37937921  0.85012161
   0.65196260  0.96832432  0.86653301
   0.02831011  0.61908340  0.16008395
   0.64506094  0.04147689  0.53880471
   0.02380410  0.69458559  0.84734703
   0.29300173  0.63378914  0.58518701
   0.04317158  0.31507011  0.50721801
   0.83098625  0.35219963  0.31172814
Direct configuration=    72
   0.05883775  0.25470783  0.30305235
   0.03780926  0.30152728  0.95054143
   0.10406749  0.26076421  0.70871344
   0.69036092  0.05446638  0.33471673
   0.66870773  0.03164965  0.97551547
   0.64151518  0.09994229  0.74015900
   0.02092701  0.39399511  0.64789252
   0.26311653  0.67696739  0.35447954
   0.31149149  0.64777583 -0.00726505
   0.28043620  0.59920414  0.80033336
   0.59201560  0.01298433  0.66039536
   0.29780558  0.03598275  0.35820382
   0.23012997  0.07705445  0.59505702
   0.27491686  0.08085936  0.99867458
   0.65493098  0.29882657  0.42571453
   0.70177995  0.22263354  0.63146660
   0.99168322  0.63682978  0.73778993
   0.02850000  0.56347774  0.95496672
   0.66647822  0.26275889  0.03700008
   0.04525410  0.65318854  0.41119372
   0.07932206  0.68916867  0.64329238
   0.36905931  0.00038082  0.69130269
   0.41060749  0.02474675  0.93346946
   0.08818002  0.63752434  0.03487096
   0.70995020  0.96073635  0.63950185
   0.77778334  0.92225404  0.40048742
   0.73379479  0.91447308  0.99417670
   0.34965033  0.70271782  0.52818717
   0.28767148  0.78319717  0.36312819
   0.98955641  0.37640050  0.29881233
   0.97397629  0.43947695  0.05296824
   0.32827809  0.73506764  0.94954039
   0.97205209  0.31566623  0.62156492
   0.91629771  0.31656679  0.36467000
   0.63918403  0.99035173  0.30681516
   0.59971813  0.96291233  0.06527930
   0.91249966  0.36893291  0.95755915
   0.95426289  0.74773985  0.69537199
   0.97876838  0.70689370  0.07352852
   0.90611143  0.74472611  0.29197999
   0.31106913  0.94271959  0.66285582
   0.33311102  0.96347344  0.02364585
   0.35791641  0.89594469  0.25938579
   0.97619118  0.61133549  0.35730157
   0.74375119  0.31324098  0.68653978
   0.67920796  0.38318058  0.02404326
   0.75179921  0.35919848  0.25141508
   0.41616083  0.97699297  0.33431703
   0.71548286  0.50306054  0.67547293
   0.78725775  0.44689809  0.43858299
   0.11112918  0.21377674  0.22520464
   0.15227563  0.16821636  0.34675825
   0.08848295  0.26036786  0.88466207
   0.12743050  0.21343496  0.02420110
   0.68094233  0.10602737  0.25835969
   0.68395645  0.14712551  0.38412453
   0.65897980  0.08252568  0.91480992
   0.66792443  0.12114701  0.05511632
   0.01021079  0.44653971  0.57440178
   0.01536167  0.48677177  0.69895118
   0.22058342  0.66547606  0.28150669
   0.17168133  0.67576644  0.39599813
   0.27551765  0.62731724  0.96106332
   0.22602286  0.64089010  0.09157069
   0.55041917  0.00329266  0.57825893
   0.50369019  0.00863690  0.69482194
   0.24661338  0.07670433  0.41938755
   0.20730489  0.12335734  0.27851440
   0.22321230  0.12277309  0.07709517
   0.18246369  0.16855845  0.95580593
   0.67879537  0.24203859  0.46459626
   0.67640071  0.20124129  0.31769668
   0.00860415  0.58276400  0.78325612
   0.00370163  0.54286333  0.63642838
   0.66771374  0.21399856  0.11288315
   0.66210646  0.17458756  0.98754865
   0.08145055  0.67010879  0.46879673
   0.12736287  0.66437060  0.32721378
   0.41042080  0.00903328  0.75706586
   0.45833791  0.00025660  0.62020974
   0.12960591  0.64544667  0.12627451
   0.18034095  0.63265141  0.01781287
   0.76168512  0.92198089  0.57692351
   0.80311687  0.87621963  0.71689491
   0.78691193  0.87562134  0.91712421
   0.82894907  0.83184445  0.04009951
   0.31689919  0.76062252  0.51938626
   0.31804399  0.79933876  0.67684559
   0.98546715  0.42479282  0.23191585
   0.99379682  0.46322734  0.37437684
   0.32780722  0.78408972  0.88057714
   0.33500994  0.82259906  0.00708120
   0.92556998  0.31854840  0.55114008
   0.87798226  0.32861141  0.69094058
   0.59890736  0.98002636  0.24103937
   0.55074851  0.98830137  0.37587244
   0.87229908  0.35857183  0.87398210
   0.81862416  0.37860774  0.97388369
   0.90173601  0.78901716  0.77427591
   0.85969696  0.83361331  0.65126112
   0.92439636  0.74534272  0.11970744
   0.88535940  0.78924016  0.97447405
   0.31726257  0.89244514  0.74065774
   0.31115654  0.85343646  0.61409752
   0.34125534  0.91303022  0.08454450
   0.33058345  0.87589711  0.94246371
   0.98760683  0.55915690  0.43536177
   0.98338469  0.51855909  0.31037027
   0.78244371  0.33077078  0.74734826
   0.83408111  0.31449026  0.63765877
   0.73179663  0.37147069  0.07077519
   0.77532451  0.36376681  0.92202190
   0.45828600  0.98563452  0.41747546
   0.50535047  0.97989358  0.30115620
   0.75113854  0.47487605  0.55809743
   0.14076498  0.16795610  0.50062460
   0.69171795  0.13621547  0.53979775
   0.02763810  0.47411004  0.85184989
   0.16760869  0.69281712  0.54538349
   0.50257655  0.02011447  0.84945660
   0.19407926  0.16900590  0.80214181
   0.65402347  0.18557305  0.83198603
   0.18357064  0.61632204  0.86813824
   0.81731859  0.83096745  0.19341001
   0.34375369  0.81115501  0.16212562
   0.80981961  0.40971950  0.09489496
   0.87124025  0.83454460  0.49790518
   0.30262657  0.86543182  0.45934700
   0.97124204  0.53116385  0.15739070
   0.84214977  0.28535791  0.51083157
   0.50629305  0.96859129  0.14638323
   0.71077319  0.33049471  0.41206886
   0.28886177  0.02126694  0.79535468
   0.65925707  0.33265068  0.16219060
   0.95956068  0.68715635  0.49292728
   0.35791278  0.95531587  0.45809292
   0.35440369  0.02272486  0.13034096
   0.71862076  0.97341963  0.19849608
   0.33669970  0.66995075  0.75676806
   0.70002113  0.28225473  0.82476044
   0.98017316  0.31382067  0.16536648
   0.30306651  0.71327985  0.19407428
   0.97747355  0.37937129  0.85017399
   0.65196432  0.96833374  0.86647489
   0.02832656  0.61906641  0.16004069
   0.64503299  0.04148085  0.53896112
   0.02381057  0.69459779  0.84721716
   0.29307544  0.63370244  0.58507843
   0.04311918  0.31505351  0.50725702
   0.83099102  0.35219147  0.31152168
Direct configuration=    73
   0.05883343  0.25470403  0.30305413
   0.03780407  0.30152291  0.95054425
   0.10406231  0.26076270  0.70871712
   0.69035556  0.05446501  0.33472213
   0.66869960  0.03165712  0.97551119
   0.64150856  0.09995102  0.74017361
   0.02091854  0.39399625  0.64789193
   0.26312677  0.67695481  0.35443726
   0.31148756  0.64777528 -0.00729105
   0.28044025  0.59919916  0.80029408
   0.59201561  0.01298551  0.66040150
   0.29780648  0.03598731  0.35822858
   0.23012905  0.07705318  0.59507241
   0.27491780  0.08086120  0.99869076
   0.65495275  0.29881363  0.42574505
   0.70180936  0.22261342  0.63149082
   0.99169004  0.63682521  0.73777641
   0.02850246  0.56347480  0.95496058
   0.66649075  0.26274874  0.03702717
   0.04525351  0.65319252  0.41118550
   0.07932006  0.68917138  0.64328477
   0.36906433  0.00037761  0.69133285
   0.41060592  0.02475234  0.93349305
   0.08817598  0.63752526  0.03486359
   0.70995303  0.96074061  0.63950668
   0.77777527  0.92225820  0.40046492
   0.73379735  0.91447714  0.99416137
   0.34963022  0.70273265  0.52814997
   0.28765135  0.78321543  0.36310639
   0.98955146  0.37639925  0.29881207
   0.97396738  0.43947783  0.05296906
   0.32827052  0.73507279  0.94950048
   0.97204582  0.31565979  0.62156309
   0.91629750  0.31656020  0.36466459
   0.63918194  0.99035332  0.30681280
   0.59971524  0.96291049  0.06529156
   0.91249909  0.36893225  0.95754221
   0.95426058  0.74774098  0.69535602
   0.97876604  0.70689420  0.07351356
   0.90611050  0.74472857  0.29197378
   0.31107200  0.94272140  0.66288323
   0.33310842  0.96347337  0.02367396
   0.35792100  0.89594213  0.25940181
   0.97619853  0.61133012  0.35729394
   0.74374353  0.31325245  0.68654756
   0.67920101  0.38318992  0.02407454
   0.75180123  0.35920644  0.25142186
   0.41616128  0.97699617  0.33434019
   0.71547789  0.50307046  0.67546167
   0.78725717  0.44690292  0.43858307
   0.11112554  0.21377341  0.22521003
   0.15227223  0.16821404  0.34676457
   0.08847953  0.26036369  0.88466653
   0.12742715  0.21343153  0.02420574
   0.68094800  0.10602400  0.25837911
   0.68397055  0.14711607  0.38413481
   0.65897565  0.08253086  0.91481879
   0.66792669  0.12114587  0.05511585
   0.01020574  0.44653940  0.57440170
   0.01535910  0.48676994  0.69894905
   0.22058840  0.66546829  0.28148212
   0.17168487  0.67576124  0.39598300
   0.27552019  0.62731177  0.96103132
   0.22602392  0.64088536  0.09154234
   0.55041855  0.00329487  0.57826849
   0.50369045  0.00864083  0.69483655
   0.24661239  0.07670491  0.41940582
   0.20730340  0.12335538  0.27852676
   0.22321165  0.12277163  0.07710963
   0.18246153  0.16855548  0.95581583
   0.67882030  0.24202201  0.46462413
   0.67641806  0.20122905  0.31771504
   0.00860804  0.58276130  0.78324698
   0.00370359  0.54285944  0.63642309
   0.66772145  0.21399451  0.11290905
   0.66210631  0.17458558  0.98758202
   0.08145365  0.67011087  0.46878493
   0.12736457  0.66436892  0.32720175
   0.41042204  0.00903564  0.75708953
   0.45833700  0.00026115  0.62023177
   0.12960475  0.64544766  0.12625310
   0.18033965  0.63265150  0.01779049
   0.76168572  0.92198280  0.57691745
   0.80311967  0.87622268  0.71687626
   0.78691591  0.87562421  0.91710813
   0.82895225  0.83184910  0.04008524
   0.31688486  0.76063467  0.51936745
   0.31803666  0.79934410  0.67685651
   0.98546119  0.42479145  0.23191625
   0.99379315  0.46322553  0.37437396
   0.32780878  0.78409018  0.88057726
   0.33502164  0.82259210  0.00708949
   0.92556453  0.31854206  0.55112981
   0.87797743  0.32860641  0.69093278
   0.59890810  0.98002613  0.24104536
   0.55074757  0.98830381  0.37588280
   0.87229613  0.35857363  0.87397128
   0.81861753  0.37861828  0.97386921
   0.90173506  0.78902000  0.77425949
   0.85969820  0.83361533  0.65124345
   0.92439629  0.74534526  0.11969353
   0.88536114  0.78924319  0.97446022
   0.31726392  0.89244330  0.74067282
   0.31114922  0.85344344  0.61411249
   0.34125795  0.91302658  0.08456108
   0.33058941  0.87589542  0.94247933
   0.98761078  0.55915214  0.43535350
   0.98338639  0.51855501  0.31036486
   0.78243998  0.33077426  0.74734903
   0.83407906  0.31448693  0.63765817
   0.73179181  0.37148383  0.07078045
   0.77531715  0.36377768  0.92201356
   0.45828498  0.98563866  0.41750191
   0.50534763  0.97989829  0.30117445
   0.75114639  0.47487488  0.55805574
   0.14075953  0.16795592  0.50062863
   0.69173732  0.13619824  0.53980604
   0.02763319  0.47410800  0.85184645
   0.16761723  0.69281322  0.54536770
   0.50257681  0.02012020  0.84946721
   0.19407792  0.16900332  0.80215434
   0.65401303  0.18558429  0.83201574
   0.18356397  0.61632385  0.86811813
   0.81732114  0.83097458  0.19339637
   0.34377007  0.81114289  0.16212014
   0.80981195  0.40973224  0.09487712
   0.87124293  0.83454163  0.49789158
   0.30261636  0.86544115  0.45936028
   0.97124740  0.53115792  0.15738536
   0.84214327  0.28536285  0.51082268
   0.50629268  0.96859389  0.14640094
   0.71078730  0.33049266  0.41209609
   0.28886308  0.02126679  0.79537132
   0.65926790  0.33264137  0.16219758
   0.95955924  0.68715635  0.49291421
   0.35791210  0.95531725  0.45810794
   0.35440156  0.02272787  0.13036471
   0.71861843  0.97342346  0.19848786
   0.33669055  0.66995810  0.75674205
   0.70003208  0.28224470  0.82478200
   0.98017113  0.31381687  0.16536777
   0.30306483  0.71328980  0.19405636
   0.97747069  0.37936985  0.85018365
   0.65196414  0.96833525  0.86646651
   0.02832934  0.61906335  0.16003166
   0.64502804  0.04148187  0.53898934
   0.02381164  0.69459961  0.84719313
   0.29308815  0.63368673  0.58505557
   0.04310977  0.31505061  0.50726333
   0.83099212  0.35218990  0.31148469
Direct configuration=    74
   0.05882048  0.25469260  0.30305945
   0.03778850  0.30150980  0.95055269
   0.10404677  0.26075816  0.70872819
   0.69033946  0.05446093  0.33473833
   0.66867521  0.03167951  0.97549833
   0.64148871  0.09997721  0.74021744
   0.02089310  0.39399967  0.64789015
   0.26315750  0.67691708  0.35431042
   0.31147580  0.64777364 -0.00736906
   0.28045237  0.59918420  0.80017624
   0.59201564  0.01298907  0.66041991
   0.29780916  0.03600100  0.35830285
   0.23012631  0.07704937  0.59511860
   0.27492060  0.08086671  0.99873931
   0.65501806  0.29877482  0.42583661
   0.70189759  0.22255307  0.63156347
   0.99171048  0.63681150  0.73773585
   0.02850983  0.56346597  0.95494215
   0.66652832  0.26271831  0.03710845
   0.04525176  0.65320448  0.41116086
   0.07931406  0.68917949  0.64326195
   0.36907937  0.00036799  0.69142334
   0.41060121  0.02476911  0.93356380
   0.08816385  0.63752802  0.03484148
   0.70996154  0.96075337  0.63952116
   0.77775107  0.92227070  0.40039742
   0.73380503  0.91448934  0.99411541
   0.34956989  0.70277715  0.52803839
   0.28759097  0.78327022  0.36304099
   0.98953662  0.37639550  0.29881128
   0.97394067  0.43948045  0.05297150
   0.32824779  0.73508823  0.94938077
   0.97202701  0.31564046  0.62155761
   0.91629686  0.31654041  0.36464837
   0.63917568  0.99035809  0.30680572
   0.59970659  0.96290500  0.06532833
   0.91249739  0.36893029  0.95749137
   0.95425365  0.74774439  0.69530812
   0.97875905  0.70689571  0.07346869
   0.90610770  0.74473597  0.29195515
   0.31108062  0.94272682  0.66296547
   0.33310064  0.96347315  0.02375829
   0.35793476  0.89593447  0.25944986
   0.97622057  0.61131400  0.35727106
   0.74372055  0.31328688  0.68657090
   0.67918016  0.38321792  0.02416839
   0.75180728  0.35923029  0.25144220
   0.41616263  0.97700577  0.33440964
   0.71546298  0.50310020  0.67542789
   0.78725543  0.44691743  0.43858330
   0.11111462  0.21376345  0.22522623
   0.15226205  0.16820710  0.34678354
   0.08846930  0.26035117  0.88467990
   0.12741709  0.21342123  0.02421967
   0.68096500  0.10601390  0.25843735
   0.68401286  0.14708772  0.38416567
   0.65896322  0.08254641  0.91484541
   0.66793344  0.12114243  0.05511444
   0.01019058  0.44653846  0.57440143
   0.01535141  0.48676446  0.69894265
   0.22060335  0.66544499  0.28140841
   0.17169551  0.67574563  0.39593760
   0.27552782  0.62729536  0.96093533
   0.22602708  0.64087116  0.09145729
   0.55041670  0.00330149  0.57829718
   0.50369123  0.00865264  0.69488038
   0.24660943  0.07670666  0.41946064
   0.20729894  0.12334951  0.27856385
   0.22320967  0.12276724  0.07715298
   0.18245505  0.16854658  0.95584553
   0.67889507  0.24197226  0.46470776
   0.67647013  0.20119234  0.31777012
   0.00861970  0.58275320  0.78321957
   0.00370948  0.54284779  0.63640721
   0.66774458  0.21398235  0.11298673
   0.66210586  0.17457963  0.98768212
   0.08146297  0.67011712  0.46874953
   0.12736965  0.66436390  0.32716568
   0.41042574  0.00904271  0.75716056
   0.45833427  0.00027480  0.62029787
   0.12960127  0.64545065  0.12618887
   0.18033574  0.63265179  0.01772333
   0.76168753  0.92198852  0.57689928
   0.80312806  0.87623185  0.71682034
   0.78692783  0.87563282  0.91705989
   0.82896180  0.83186307  0.04004244
   0.31684187  0.76067115  0.51931103
   0.31801468  0.79936011  0.67688927
   0.98544331  0.42478735  0.23191743
   0.99378216  0.46322007  0.37436532
   0.32781346  0.78409159  0.88057765
   0.33505674  0.82257121  0.00711436
   0.92554818  0.31852305  0.55109900
   0.87796291  0.32859139  0.69090938
   0.59891032  0.98002546  0.24106332
   0.55074477  0.98831114  0.37591388
   0.87228726  0.35857903  0.87393883
   0.81859764  0.37864990  0.97382577
   0.90173221  0.78902854  0.77421025
   0.85970192  0.83362139  0.65119043
   0.92439609  0.74535288  0.11965181
   0.88536635  0.78925230  0.97441873
   0.31726799  0.89243779  0.74071805
   0.31112725  0.85346437  0.61415740
   0.34126581  0.91301566  0.08461083
   0.33060729  0.87589035  0.94252620
   0.98762262  0.55913788  0.43532870
   0.98339147  0.51854278  0.31034864
   0.78242878  0.33078470  0.74735135
   0.83407290  0.31447693  0.63765637
   0.73177732  0.37152324  0.07079620
   0.77529505  0.36381029  0.92198855
   0.45828193  0.98565109  0.41758129
   0.50533911  0.97991241  0.30122919
   0.75116994  0.47487137  0.55793066
   0.14074318  0.16795541  0.50064074
   0.69179540  0.13614653  0.53983088
   0.02761849  0.47410187  0.85183611
   0.16764286  0.69280150  0.54532034
   0.50257758  0.02013742  0.84949904
   0.19407390  0.16899560  0.80219194
   0.65398170  0.18561801  0.83210486
   0.18354394  0.61632927  0.86805783
   0.81732878  0.83099600  0.19335545
   0.34381921  0.81110653  0.16210369
   0.80978896  0.40977047  0.09482359
   0.87125096  0.83453275  0.49785078
   0.30258574  0.86546913  0.45940011
   0.97126350  0.53114014  0.15736935
   0.84212379  0.28537770  0.51079600
   0.50629159  0.96860168  0.14645405
   0.71082963  0.33048651  0.41217781
   0.28886699  0.02126634  0.79542122
   0.65930038  0.33261343  0.16221854
   0.95955491  0.68715634  0.49287500
   0.35791007  0.95532139  0.45815303
   0.35439517  0.02273690  0.13043596
   0.71861145  0.97343496  0.19846320
   0.33666313  0.66998014  0.75666403
   0.70006493  0.28221461  0.82484666
   0.98016505  0.31380548  0.16537163
   0.30305979  0.71331964  0.19400261
   0.97746212  0.37936551  0.85021260
   0.65196362  0.96833977  0.86644140
   0.02833766  0.61905418  0.16000459
   0.64501320  0.04148492  0.53907402
   0.02381485  0.69460507  0.84712105
   0.29312626  0.63363960  0.58498698
   0.04308154  0.31504193  0.50728226
   0.83099542  0.35218521  0.31137373
Direct configuration=    75
   0.05879456  0.25466975  0.30307009
   0.03775736  0.30148358  0.95056958
   0.10401569  0.26074909  0.70875032
   0.69030726  0.05445276  0.33477072
   0.66862643  0.03172430  0.97547262
   0.64144900  0.10002958  0.74030509
   0.02084223  0.39400650  0.64788658
   0.26321896  0.67684161  0.35405675
   0.31145226  0.64777037 -0.00752507
   0.28047662  0.59915427  0.79994056
   0.59201569  0.01299618  0.66045672
   0.29781453  0.03602838  0.35845140
   0.23012082  0.07704175  0.59521097
   0.27492621  0.08087772  0.99883642
   0.65514866  0.29869720  0.42601972
   0.70207404  0.22243236  0.63170877
   0.99175138  0.63678408  0.73765473
   0.02852457  0.56344830  0.95490528
   0.66660346  0.26265744  0.03727101
   0.04524826  0.65322840  0.41111158
   0.07930206  0.68919571  0.64321631
   0.36910945  0.00034874  0.69160433
   0.41059180  0.02480266  0.93370531
   0.08813961  0.63753353  0.03479725
   0.70997854  0.96077890  0.63955011
   0.77770268  0.92229569  0.40026242
   0.73382039  0.91451372  0.99402347
   0.34944923  0.70286616  0.52781524
   0.28747021  0.78337980  0.36291018
   0.98950694  0.37638799  0.29880971
   0.97388726  0.43948570  0.05297640
   0.32820234  0.73511913  0.94914135
   0.97198939  0.31560180  0.62154664
   0.91629558  0.31650084  0.36461592
   0.63916317  0.99036764  0.30679157
   0.59968929  0.96289400  0.06540187
   0.91249397  0.36892637  0.95738971
   0.95423979  0.74775121  0.69521230
   0.97874506  0.70689872  0.07337895
   0.90610210  0.74475077  0.29191790
   0.31109785  0.94273765  0.66312995
   0.33308507  0.96347270  0.02392695
   0.35796228  0.89591915  0.25954597
   0.97626466  0.61128177  0.35722528
   0.74367459  0.31335573  0.68661758
   0.67913844  0.38327392  0.02435608
   0.75181938  0.35927800  0.25148287
   0.41616534  0.97702497  0.33454855
   0.71543315  0.50315968  0.67536033
   0.78725196  0.44694644  0.43858378
   0.11109279  0.21374351  0.22525862
   0.15224168  0.16819321  0.34682148
   0.08844883  0.26032614  0.88470663
   0.12739699  0.21340063  0.02424752
   0.68099902  0.10599369  0.25855384
   0.68409747  0.14703104  0.38422738
   0.65893835  0.08257750  0.91489864
   0.66794696  0.12113555  0.05511164
   0.01016027  0.44653660  0.57440090
   0.01533603  0.48675351  0.69892984
   0.22063325  0.66539840  0.28126099
   0.17171679  0.67571441  0.39584680
   0.27554308  0.62726255  0.96074335
   0.22603339  0.64084276  0.09128719
   0.55041301  0.00331473  0.57835456
   0.50369279  0.00867624  0.69496805
   0.24660351  0.07671017  0.41957028
   0.20729001  0.12333777  0.27863802
   0.22320573  0.12275846  0.07723970
   0.18244209  0.16852877  0.95590493
   0.67904462  0.24187277  0.46487502
   0.67657427  0.20111890  0.31788028
   0.00864303  0.58273699  0.78316476
   0.00372127  0.54282447  0.63637545
   0.66779085  0.21395803  0.11314209
   0.66210497  0.17456775  0.98788232
   0.08148159  0.67012962  0.46867873
   0.12737982  0.66435385  0.32709354
   0.41043315  0.00905685  0.75730263
   0.45832881  0.00030209  0.62043007
   0.12959431  0.64545662  0.12606039
   0.18032792  0.63265235  0.01758902
   0.76169115  0.92199996  0.57686293
   0.80314485  0.87625018  0.71670848
   0.78695168  0.87565006  0.91696341
   0.82898091  0.83189101  0.03995683
   0.31675589  0.76074409  0.51919817
   0.31797070  0.79939213  0.67695479
   0.98540755  0.42477915  0.23191981
   0.99376018  0.46320916  0.37434805
   0.32782281  0.78409441  0.88057842
   0.33512693  0.82252943  0.00716409
   0.92551550  0.31848503  0.55103738
   0.87793389  0.32856136  0.69086257
   0.59891477  0.98002411  0.24109925
   0.55073917  0.98832580  0.37597605
   0.87226954  0.35858985  0.87387392
   0.81855785  0.37871314  0.97373891
   0.90172652  0.78904561  0.77411177
   0.85970937  0.83363352  0.65108439
   0.92439569  0.74536812  0.11956837
   0.88537677  0.78927051  0.97433575
   0.31727612  0.89242676  0.74080853
   0.31108333  0.85350624  0.61424723
   0.34128152  0.91299382  0.08471031
   0.33064304  0.87588022  0.94261993
   0.98764630  0.55910935  0.43527909
   0.98340164  0.51851831  0.31031620
   0.78240639  0.33080558  0.74735598
   0.83406057  0.31445695  0.63765276
   0.73174836  0.37160207  0.07082771
   0.77525087  0.36387550  0.92193853
   0.45827582  0.98567594  0.41774003
   0.50532207  0.97994064  0.30133869
   0.75121705  0.47486434  0.55768051
   0.14071047  0.16795437  0.50066495
   0.69191157  0.13604311  0.53988057
   0.02758907  0.47408960  0.85181544
   0.16769411  0.69277807  0.54522562
   0.50257913  0.02017184  0.84956269
   0.19406587  0.16898015  0.80226714
   0.65391906  0.18568545  0.83228310
   0.18350389  0.61634011  0.86793721
   0.81734406  0.83103882  0.19327361
   0.34391749  0.81103382  0.16207079
   0.80974297  0.40984694  0.09471652
   0.87126701  0.83451497  0.49776918
   0.30252450  0.86552510  0.45947979
   0.97129568  0.53110458  0.15733732
   0.84208483  0.28540738  0.51074265
   0.50628940  0.96861726  0.14656028
   0.71091429  0.33047421  0.41234124
   0.28887483  0.02126545  0.79552102
   0.65936533  0.33255756  0.16226045
   0.95954626  0.68715633  0.49279657
   0.35790600  0.95532968  0.45824320
   0.35438240  0.02275498  0.13057845
   0.71859747  0.97345794  0.19841387
   0.33660827  0.67002421  0.75650799
   0.70013062  0.28215442  0.82497599
   0.98015288  0.31378270  0.16537935
   0.30304973  0.71337932  0.19389510
   0.97744498  0.37935685  0.85027050
   0.65196257  0.96834881  0.86639118
   0.02835432  0.61903584  0.15995043
   0.64498350  0.04149104  0.53924336
   0.02382128  0.69461600  0.84697688
   0.29320248  0.63354535  0.58484981
   0.04302507  0.31502456  0.50732011
   0.83100201  0.35217583  0.31115181
Direct configuration=    76
   0.05881368  0.25468661  0.30306224
   0.03778033  0.30150292  0.95055712
   0.10403861  0.26075578  0.70873400
   0.69033101  0.05445878  0.33474683
   0.66866241  0.03169127  0.97549159
   0.64147829  0.09999095  0.74024044
   0.02087975  0.39400146  0.64788921
   0.26317363  0.67689727  0.35424385
   0.31146962  0.64777278 -0.00741000
   0.28045874  0.59917634  0.80011439
   0.59201565  0.01299093  0.66042957
   0.29781057  0.03600818  0.35834183
   0.23012487  0.07704737  0.59514284
   0.27492208  0.08086960  0.99876480
   0.65505233  0.29875445  0.42588466
   0.70194390  0.22252139  0.63160160
   0.99172122  0.63680430  0.73771456
   0.02851370  0.56346133  0.95493247
   0.66654804  0.26270233  0.03715112
   0.04525085  0.65321076  0.41114793
   0.07931091  0.68918374  0.64324997
   0.36908726  0.00036294  0.69147084
   0.41059874  0.02477792  0.93360094
   0.08815749  0.63752946  0.03482987
   0.70996600  0.96076007  0.63952875
   0.77773837  0.92227726  0.40036199
   0.73380906  0.91449573  0.99409128
   0.34953823  0.70280051  0.52797983
   0.28755928  0.78329898  0.36300666
   0.98952883  0.37639353  0.29881087
   0.97392666  0.43948183  0.05297279
   0.32823586  0.73509634  0.94931794
   0.97201714  0.31563031  0.62155473
   0.91629652  0.31653003  0.36463985
   0.63917240  0.99036060  0.30680201
   0.59970205  0.96290211  0.06534763
   0.91249649  0.36892926  0.95746469
   0.95425001  0.74774618  0.69528297
   0.97875538  0.70689650  0.07344514
   0.90610623  0.74473985  0.29194538
   0.31108514  0.94272966  0.66300864
   0.33309655  0.96347303  0.02380255
   0.35794198  0.89593045  0.25947508
   0.97623214  0.61130555  0.35725904
   0.74370849  0.31330495  0.68658315
   0.67916921  0.38323262  0.02421764
   0.75181045  0.35924281  0.25145287
   0.41616334  0.97701081  0.33444609
   0.71545515  0.50311581  0.67541016
   0.78725452  0.44692504  0.43858343
   0.11110889  0.21375822  0.22523473
   0.15225670  0.16820345  0.34679350
   0.08846393  0.26034460  0.88468691
   0.12741182  0.21341582  0.02422698
   0.68097393  0.10600859  0.25846792
   0.68403506  0.14707285  0.38418187
   0.65895669  0.08255457  0.91485938
   0.66793699  0.12114062  0.05511371
   0.01018263  0.44653798  0.57440129
   0.01534738  0.48676159  0.69893928
   0.22061120  0.66543277  0.28136972
   0.17170109  0.67573744  0.39591377
   0.27553183  0.62728675  0.96088495
   0.22602873  0.64086371  0.09141265
   0.55041573  0.00330496  0.57831224
   0.50369164  0.00865883  0.69490339
   0.24660788  0.07670758  0.41948941
   0.20729660  0.12334643  0.27858331
   0.22320864  0.12276493  0.07717574
   0.18245165  0.16854191  0.95586112
   0.67893432  0.24194615  0.46475165
   0.67649746  0.20117306  0.31779903
   0.00862582  0.58274894  0.78320519
   0.00371258  0.54284167  0.63639888
   0.66775672  0.21397597  0.11302750
   0.66210563  0.17457651  0.98773466
   0.08146786  0.67012040  0.46873095
   0.12737232  0.66436126  0.32714675
   0.41042768  0.00904642  0.75719785
   0.45833283  0.00028196  0.62033257
   0.12959944  0.64545221  0.12615515
   0.18033369  0.63265193  0.01768809
   0.76168848  0.92199152  0.57688974
   0.80313247  0.87623666  0.71679098
   0.78693409  0.87563735  0.91703457
   0.82896682  0.83187040  0.04001997
   0.31681931  0.76069029  0.51928141
   0.31800314  0.79936851  0.67690646
   0.98543392  0.42478520  0.23191806
   0.99377639  0.46321721  0.37436079
   0.32781591  0.78409233  0.88057785
   0.33507516  0.82256024  0.00712741
   0.92553961  0.31851307  0.55108283
   0.87795530  0.32858351  0.69089709
   0.59891149  0.98002511  0.24107275
   0.55074330  0.98831499  0.37593020
   0.87228261  0.35858187  0.87392179
   0.81858719  0.37866650  0.97380298
   0.90173072  0.78903302  0.77418441
   0.85970388  0.83362458  0.65116260
   0.92439599  0.74535688  0.11962991
   0.88536908  0.78925707  0.97439695
   0.31727012  0.89243489  0.74074180
   0.31111573  0.85347536  0.61418098
   0.34126993  0.91300993  0.08463693
   0.33061667  0.87588769  0.94255080
   0.98762883  0.55913039  0.43531568
   0.98339414  0.51853636  0.31034013
   0.78242290  0.33079018  0.74735256
   0.83406966  0.31447169  0.63765542
   0.73176972  0.37154393  0.07080447
   0.77528346  0.36382740  0.92197542
   0.45828033  0.98565761  0.41762295
   0.50533464  0.97991982  0.30125793
   0.75118231  0.47486952  0.55786502
   0.14073459  0.16795513  0.50064709
   0.69182589  0.13611939  0.53984392
   0.02761077  0.47409865  0.85183069
   0.16765631  0.69279535  0.54529548
   0.50257799  0.02014645  0.84951574
   0.19407179  0.16899154  0.80221167
   0.65396526  0.18563571  0.83215164
   0.18353343  0.61633211  0.86802617
   0.81733279  0.83100724  0.19333397
   0.34384501  0.81108745  0.16209505
   0.80977689  0.40979054  0.09479549
   0.87125517  0.83452808  0.49782937
   0.30256967  0.86548382  0.45942102
   0.97127194  0.53113081  0.15736094
   0.84211357  0.28538549  0.51078200
   0.50629101  0.96860577  0.14648193
   0.71085185  0.33048328  0.41222070
   0.28886905  0.02126611  0.79544741
   0.65931742  0.33259877  0.16222954
   0.95955264  0.68715634  0.49285442
   0.35790900  0.95532357  0.45817669
   0.35439182  0.02274165  0.13047335
   0.71860778  0.97344099  0.19845025
   0.33664873  0.66999170  0.75662308
   0.70008217  0.28219881  0.82488060
   0.98016185  0.31379950  0.16537366
   0.30305715  0.71333530  0.19397439
   0.97745762  0.37936324  0.85022779
   0.65196334  0.96834214  0.86642822
   0.02834204  0.61904937  0.15999037
   0.64500540  0.04148653  0.53911846
   0.02381654  0.69460794  0.84708322
   0.29314626  0.63361487  0.58495098
   0.04306672  0.31503737  0.50729219
   0.83099715  0.35218275  0.31131549
Direct configuration=    77
   0.05881003  0.25468427  0.30306553
   0.03777777  0.30149951  0.95055937
   0.10403530  0.26075497  0.70873651
   0.69032956  0.05445844  0.33474928
   0.66865797  0.03169427  0.97549714
   0.64147316  0.09999559  0.74024709
   0.02087504  0.39400147  0.64789013
   0.26317797  0.67688829  0.35421579
   0.31146841  0.64777225 -0.00742708
   0.28046024  0.59917248  0.80009940
   0.59201523  0.01299161  0.66043806
   0.29781199  0.03601065  0.35835753
   0.23012424  0.07704670  0.59515356
   0.27492234  0.08087137  0.99877651
   0.65506665  0.29874409  0.42590898
   0.70196187  0.22250991  0.63161186
   0.99172528  0.63680157  0.73770498
   0.02851496  0.56345943  0.95492597
   0.66655555  0.26269732  0.03717151
   0.04525151  0.65321417  0.41114088
   0.07930996  0.68918577  0.64324042
   0.36908951  0.00036062  0.69148550
   0.41059857  0.02478120  0.93361395
   0.08815626  0.63753062  0.03482599
   0.70996974  0.96076120  0.63952859
   0.77773252  0.92228018  0.40036229
   0.73380819  0.91450000  0.99408465
   0.34952546  0.70281133  0.52795201
   0.28754987  0.78330765  0.36300492
   0.98952560  0.37639236  0.29881329
   0.97392127  0.43948232  0.05297454
   0.32823133  0.73509898  0.94929564
   0.97201438  0.31562558  0.62155655
   0.91629523  0.31652611  0.36463181
   0.63917341  0.99036051  0.30680386
   0.59970074  0.96290154  0.06535056
   0.91249566  0.36892861  0.95745441
   0.95424946  0.74774591  0.69527359
   0.97875489  0.70689565  0.07343541
   0.90610611  0.74474153  0.29193003
   0.31108702  0.94272909  0.66303049
   0.33309502  0.96347217  0.02381456
   0.35794599  0.89592755  0.25948937
   0.97623595  0.61130336  0.35725361
   0.74370466  0.31331304  0.68659135
   0.67916535  0.38323971  0.02424145
   0.75181066  0.35924883  0.25145806
   0.41616310  0.97701329  0.33446064
   0.71545457  0.50312016  0.67539382
   0.78725546  0.44692732  0.43857929
   0.11110842  0.21375457  0.22523333
   0.15225432  0.16820209  0.34679582
   0.08846087  0.26034242  0.88468829
   0.12741035  0.21341264  0.02423458
   0.68097638  0.10600330  0.25845655
   0.68404413  0.14706495  0.38419526
   0.65895398  0.08255661  0.91485703
   0.66794067  0.12113778  0.05515214
   0.01017956  0.44653751  0.57439816
   0.01534528  0.48676072  0.69893865
   0.22061536  0.66542858  0.28135794
   0.17170505  0.67573467  0.39590206
   0.27553183  0.62728424  0.96085704
   0.22603248  0.64086084  0.09139893
   0.55041627  0.00330609  0.57831486
   0.50369162  0.00866165  0.69491112
   0.24660712  0.07670859  0.41950015
   0.20729519  0.12334554  0.27859359
   0.22320752  0.12276451  0.07718440
   0.18244890  0.16854117  0.95587001
   0.67894766  0.24193703  0.46476579
   0.67650743  0.20117032  0.31781043
   0.00862876  0.58274581  0.78320290
   0.00371308  0.54283998  0.63639211
   0.66776363  0.21397097  0.11304838
   0.66210423  0.17457880  0.98773749
   0.08146531  0.67012141  0.46872620
   0.12737526  0.66435843  0.32712617
   0.41042809  0.00904810  0.75721464
   0.45833285  0.00028504  0.62034894
   0.12959968  0.64545237  0.12614208
   0.18033406  0.63265141  0.01767275
   0.76168657  0.92199577  0.57687102
   0.80313442  0.87623813  0.71678385
   0.78693690  0.87563941  0.91702274
   0.82897073  0.83187139  0.04001661
   0.31680776  0.76070132  0.51926147
   0.31799784  0.79937062  0.67690933
   0.98543035  0.42478525  0.23191818
   0.99377378  0.46321689  0.37435807
   0.32781495  0.78409319  0.88058191
   0.33508189  0.82256135  0.00712772
   0.92553765  0.31850954  0.55108213
   0.87795124  0.32858378  0.69090541
   0.59890847  0.98002491  0.24107484
   0.55074261  0.98831676  0.37593611
   0.87227906  0.35858395  0.87391434
   0.81858570  0.37867046  0.97378188
   0.90173046  0.78903480  0.77416898
   0.85970448  0.83362609  0.65114816
   0.92439626  0.74535744  0.11963164
   0.88536811  0.78926065  0.97439333
   0.31727071  0.89243842  0.74075158
   0.31111094  0.85347725  0.61418346
   0.34127159  0.91301126  0.08465033
   0.33062000  0.87588203  0.94255150
   0.98763159  0.55912617  0.43531319
   0.98339536  0.51853372  0.31033787
   0.78241927  0.33079496  0.74735788
   0.83406671  0.31446968  0.63766236
   0.73176667  0.37154996  0.07080990
   0.77527555  0.36383460  0.92196422
   0.45827926  0.98565968  0.41763660
   0.50533289  0.97992220  0.30126802
   0.75118352  0.47487194  0.55785066
   0.14073091  0.16795502  0.50065188
   0.69183975  0.13610924  0.53984790
   0.02760782  0.47409732  0.85183000
   0.16766134  0.69279198  0.54528621
   0.50257796  0.02015006  0.84952479
   0.19407146  0.16898927  0.80221902
   0.65395956  0.18564061  0.83217547
   0.18352977  0.61633393  0.86801931
   0.81733392  0.83101225  0.19332430
   0.34385611  0.81107916  0.16209445
   0.80977293  0.40979770  0.09478512
   0.87125758  0.83452586  0.49781722
   0.30256318  0.86548939  0.45943173
   0.97127517  0.53112701  0.15735649
   0.84211000  0.28538724  0.51076993
   0.50629053  0.96860748  0.14649482
   0.71086099  0.33048318  0.41222434
   0.28886990  0.02126565  0.79545950
   0.65932556  0.33259383  0.16224105
   0.95955154  0.68715610  0.49284300
   0.35790910  0.95532460  0.45818554
   0.35439040  0.02274271  0.13049177
   0.71860599  0.97344342  0.19844453
   0.33664333  0.66999574  0.75660408
   0.70009028  0.28219118  0.82489288
   0.98016075  0.31379736  0.16537251
   0.30305594  0.71334059  0.19396818
   0.97745648  0.37936238  0.85023298
   0.65196221  0.96834250  0.86643018
   0.02834309  0.61904788  0.15998315
   0.64500297  0.04148819  0.53913328
   0.02381617  0.69460825  0.84707157
   0.29315214  0.63360687  0.58492400
   0.04306144  0.31503595  0.50729422
   0.83099847  0.35218145  0.31129368
Direct configuration=    78
   0.05879910  0.25467725  0.30307541
   0.03777008  0.30148929  0.95056611
   0.10402537  0.26075252  0.70874405
   0.69032520  0.05445742  0.33475664
   0.66864467  0.03170328  0.97551381
   0.64145777  0.10000953  0.74026704
   0.02086089  0.39400149  0.64789290
   0.26319099  0.67686135  0.35413160
   0.31146476  0.64777063 -0.00747833
   0.28046477  0.59916090  0.80005445
   0.59201399  0.01299365  0.66046352
   0.29781625  0.03601803  0.35840460
   0.23012234  0.07704471  0.59518571
   0.27492312  0.08087668  0.99881166
   0.65510959  0.29871303  0.42598192
   0.70201581  0.22247545  0.63164264
   0.99173747  0.63679337  0.73767624
   0.02851874  0.56345373  0.95490648
   0.66657809  0.26268227  0.03723270
   0.04525351  0.65322439  0.41111972
   0.07930713  0.68919186  0.64321175
   0.36909627  0.00035367  0.69152948
   0.41059806  0.02479103  0.93365301
   0.08815257  0.63753411  0.03481433
   0.70998097  0.96076457  0.63952809
   0.77771495  0.92228893  0.40036318
   0.73380555  0.91451279  0.99406474
   0.34948718  0.70284377  0.52786854
   0.28752162  0.78333366  0.36299969
   0.98951591  0.37638883  0.29882056
   0.97390510  0.43948377  0.05297979
   0.32821774  0.73510690  0.94922875
   0.97200611  0.31561137  0.62156200
   0.91629136  0.31651435  0.36460769
   0.63917644  0.99036023  0.30680942
   0.59969683  0.96289981  0.06535935
   0.91249316  0.36892664  0.95742356
   0.95424781  0.74774512  0.69524547
   0.97875342  0.70689311  0.07340623
   0.90610577  0.74474655  0.29188399
   0.31109265  0.94272739  0.66309605
   0.33309043  0.96346959  0.02385059
   0.35795803  0.89591884  0.25953225
   0.97624738  0.61129682  0.35723732
   0.74369319  0.31333732  0.68661595
   0.67915376  0.38326100  0.02431286
   0.75181130  0.35926687  0.25147362
   0.41616235  0.97702072  0.33450429
   0.71545285  0.50313321  0.67534482
   0.78725828  0.44693415  0.43856688
   0.11110700  0.21374363  0.22522913
   0.15224716  0.16819800  0.34680279
   0.08845168  0.26033589  0.88469243
   0.12740595  0.21340310  0.02425740
   0.68098373  0.10598743  0.25842241
   0.68407132  0.14704123  0.38423543
   0.65894584  0.08256272  0.91484998
   0.66795171  0.12112926  0.05526744
   0.01017036  0.44653612  0.57438877
   0.01533899  0.48675811  0.69893674
   0.22062783  0.66541601  0.28132261
   0.17171690  0.67572636  0.39586693
   0.27553184  0.62727670  0.96077331
   0.22604374  0.64085222  0.09135777
   0.55041788  0.00330946  0.57832274
   0.50369156  0.00867012  0.69493432
   0.24660484  0.07671160  0.41953236
   0.20729097  0.12334288  0.27862441
   0.22320417  0.12276326  0.07721036
   0.18244067  0.16853896  0.95589668
   0.67898767  0.24190967  0.46480822
   0.67653734  0.20116208  0.31784466
   0.00863757  0.58273641  0.78319604
   0.00371457  0.54283492  0.63637181
   0.66778435  0.21395598  0.11311100
   0.66210005  0.17458564  0.98774599
   0.08145767  0.67012444  0.46871193
   0.12738409  0.66434992  0.32706440
   0.41042929  0.00905313  0.75726504
   0.45833289  0.00029426  0.62039806
   0.12960038  0.64545283  0.12610286
   0.18033519  0.63264984  0.01762674
   0.76168083  0.92200850  0.57681487
   0.80314027  0.87624255  0.71676244
   0.78694534  0.87564561  0.91698726
   0.82898247  0.83187436  0.04000650
   0.31677313  0.76073443  0.51920166
   0.31798197  0.79937696  0.67691792
   0.98541965  0.42478541  0.23191853
   0.99376593  0.46321593  0.37434991
   0.32781207  0.78409577  0.88059406
   0.33510210  0.82256469  0.00712863
   0.92553180  0.31849895  0.55108005
   0.87793906  0.32858459  0.69093035
   0.59889940  0.98002432  0.24108112
   0.55074055  0.98832207  0.37595386
   0.87226841  0.35859018  0.87389198
   0.81858121  0.37868232  0.97371859
   0.90172968  0.78904016  0.77412270
   0.85970627  0.83363064  0.65110485
   0.92439709  0.74535914  0.11963683
   0.88536520  0.78927139  0.97438246
   0.31727248  0.89244902  0.74078094
   0.31109658  0.85348292  0.61419092
   0.34127658  0.91301523  0.08469054
   0.33063001  0.87586506  0.94255362
   0.98763988  0.55911353  0.43530574
   0.98339900  0.51852582  0.31033108
   0.78240836  0.33080928  0.74737382
   0.83405787  0.31446367  0.63768317
   0.73175752  0.37156806  0.07082618
   0.77525182  0.36385620  0.92193061
   0.45827605  0.98566590  0.41767756
   0.50532765  0.97992935  0.30129828
   0.75118717  0.47487920  0.55780759
   0.14071985  0.16795468  0.50066625
   0.69188136  0.13607879  0.53985983
   0.02759898  0.47409333  0.85182793
   0.16767643  0.69278187  0.54525838
   0.50257789  0.02016089  0.84955192
   0.19407048  0.16898245  0.80224107
   0.65394246  0.18565529  0.83224698
   0.18351878  0.61633939  0.86799871
   0.81733732  0.83102731  0.19329528
   0.34388942  0.81105429  0.16209266
   0.80976104  0.40981917  0.09475401
   0.87126479  0.83451920  0.49778077
   0.30254372  0.86550612  0.45946384
   0.97128485  0.53111563  0.15734312
   0.84209929  0.28539251  0.51073370
   0.50628908  0.96861261  0.14653351
   0.71088843  0.33048287  0.41223525
   0.28887246  0.02126428  0.79549577
   0.65934998  0.33257900  0.16227558
   0.95954824  0.68715540  0.49280874
   0.35790942  0.95532770  0.45821209
   0.35438613  0.02274590  0.13054703
   0.71860063  0.97345072  0.19842737
   0.33662711  0.67000786  0.75654709
   0.70011464  0.28216829  0.82492971
   0.98015742  0.31379093  0.16536909
   0.30305229  0.71335645  0.19394955
   0.97745306  0.37935980  0.85024853
   0.65195880  0.96834357  0.86643606
   0.02834625  0.61904344  0.15996149
   0.64499568  0.04149318  0.53917775
   0.02381506  0.69460920  0.84703664
   0.29316978  0.63358288  0.58484307
   0.04304560  0.31503169  0.50730032
   0.83100244  0.35217756  0.31122826
Direct configuration=    79
   0.05877723  0.25466322  0.30309516
   0.03775470  0.30146885  0.95057959
   0.10400550  0.26074762  0.70875912
   0.69031650  0.05445537  0.33477134
   0.66861806  0.03172130  0.97554716
   0.64142699  0.10003739  0.74030693
   0.02083260  0.39400153  0.64789842
   0.26321703  0.67680747  0.35396322
   0.31145747  0.64776740 -0.00758082
   0.28047382  0.59913773  0.79996454
   0.59201150  0.01299773  0.66051445
   0.29782476  0.03603280  0.35849875
   0.23011854  0.07704072  0.59525001
   0.27492468  0.08088730  0.99888196
   0.65519547  0.29865090  0.42612780
   0.70212367  0.22240655  0.63170421
   0.99176186  0.63677697  0.73761876
   0.02852630  0.56344232  0.95486750
   0.66662316  0.26265217  0.03735508
   0.04525752  0.65324485  0.41107740
   0.07930146  0.68920402  0.64315441
   0.36910979  0.00033977  0.69161744
   0.41059704  0.02481069  0.93373112
   0.08814519  0.63754108  0.03479101
   0.71000343  0.96077131  0.63952710
   0.77767980  0.92230644  0.40036496
   0.73380028  0.91453837  0.99402493
   0.34941062  0.70290865  0.52770160
   0.28746514  0.78338569  0.36298925
   0.98949653  0.37638179  0.29883511
   0.97387276  0.43948668  0.05299030
   0.32819055  0.73512274  0.94909496
   0.97198957  0.31558296  0.62157291
   0.91628361  0.31649085  0.36455945
   0.63918249  0.99035968  0.30682053
   0.59968900  0.96289637  0.06537693
   0.91248816  0.36892270  0.95736185
   0.95424451  0.74774353  0.69518921
   0.97875049  0.70688802  0.07334786
   0.90610509  0.74475660  0.29179191
   0.31110393  0.94272397  0.66322716
   0.33308125  0.96346442  0.02392265
   0.35798212  0.89590144  0.25961799
   0.97627024  0.61128373  0.35720474
   0.74367025  0.31338588  0.68666515
   0.67913057  0.38330358  0.02445568
   0.75181256  0.35930295  0.25150475
   0.41616085  0.97703560  0.33459159
   0.71544940  0.50315932  0.67524680
   0.78726393  0.44694783  0.43854206
   0.11110416  0.21372174  0.22522072
   0.15223284  0.16818981  0.34681672
   0.08843330  0.26032283  0.88470070
   0.12739715  0.21338401  0.02430305
   0.68099843  0.10595567  0.25835415
   0.68412572  0.14699381  0.38431578
   0.65892955  0.08257495  0.91483589
   0.66797380  0.12111221  0.05549803
   0.01015197  0.44653333  0.57436998
   0.01532642  0.48675288  0.69893292
   0.22065277  0.66539089  0.28125193
   0.17174061  0.67570974  0.39579666
   0.27553186  0.62726163  0.96060586
   0.22606624  0.64083498  0.09127545
   0.55042110  0.00331620  0.57833849
   0.50369144  0.00868705  0.69498071
   0.24660028  0.07671763  0.41959678
   0.20728254  0.12333756  0.27868605
   0.22319747  0.12276075  0.07726229
   0.18242420  0.16853454  0.95595002
   0.67906770  0.24185494  0.46489306
   0.67659716  0.20114561  0.31791310
   0.00865519  0.58271760  0.78318230
   0.00371756  0.54282480  0.63633122
   0.66782579  0.21392601  0.11323626
   0.66209169  0.17459932  0.98776298
   0.08144239  0.67013051  0.46868341
   0.12740174  0.66433291  0.32694088
   0.41043169  0.00906320  0.75736582
   0.45833297  0.00031271  0.62049631
   0.12960179  0.64545376  0.12602442
   0.18033745  0.63264670  0.01753472
   0.76166935  0.92203398  0.57670256
   0.80315198  0.87625138  0.71671963
   0.78696221  0.87565800  0.91691630
   0.82900595  0.83188030  0.03998629
   0.31670385  0.76080064  0.51908202
   0.31795022  0.79938962  0.67693511
   0.98539824  0.42478574  0.23191924
   0.99375024  0.46321402  0.37433358
   0.32780630  0.78410092  0.88061837
   0.33514251  0.82257137  0.00713047
   0.92552008  0.31847777  0.55107589
   0.87791471  0.32858620  0.69098024
   0.59888126  0.98002313  0.24109366
   0.55073641  0.98833269  0.37598936
   0.87224711  0.35860265  0.87384726
   0.81857224  0.37870606  0.97359200
   0.90172811  0.78905088  0.77403013
   0.85970986  0.83363974  0.65101824
   0.92439874  0.74536254  0.11964720
   0.88535938  0.78929287  0.97436072
   0.31727601  0.89247020  0.74083965
   0.31106785  0.85349425  0.61420585
   0.34128655  0.91302318  0.08477094
   0.33065003  0.87583112  0.94255786
   0.98765644  0.55908824  0.43529083
   0.98340629  0.51851001  0.31031751
   0.78238653  0.33083794  0.74740570
   0.83404017  0.31445166  0.63772479
   0.73173922  0.37160425  0.07085875
   0.77520436  0.36389939  0.92186338
   0.45826965  0.98567835  0.41775947
   0.50531716  0.97994364  0.30135882
   0.75119446  0.47489371  0.55772146
   0.14069775  0.16795399  0.50069499
   0.69196457  0.13601790  0.53988368
   0.02758131  0.47408536  0.85182380
   0.16770662  0.69276165  0.54520273
   0.50257774  0.02018256  0.84960620
   0.19406852  0.16896882  0.80228517
   0.65390824  0.18568467  0.83238999
   0.18349680  0.61635031  0.86795753
   0.81734413  0.83105742  0.19323724
   0.34395605  0.81100456  0.16208906
   0.80973728  0.40986212  0.09469179
   0.87127922  0.83450587  0.49770788
   0.30250479  0.86553958  0.45952805
   0.97130421  0.53109286  0.15731640
   0.84207787  0.28540304  0.51066124
   0.50628617  0.96862289  0.14661090
   0.71094329  0.33048226  0.41225707
   0.28887757  0.02126155  0.79556830
   0.65939881  0.33254935  0.16234463
   0.95954164  0.68715399  0.49274023
   0.35791004  0.95533389  0.45826519
   0.35437759  0.02275229  0.13065754
   0.71858992  0.97346531  0.19839305
   0.33659467  0.67003209  0.75643311
   0.70016335  0.28212250  0.82500338
   0.98015077  0.31377807  0.16536223
   0.30304500  0.71338816  0.19391227
   0.97744622  0.37935464  0.85027964
   0.65195198  0.96834572  0.86644781
   0.02835258  0.61903454  0.15991816
   0.64498109  0.04150316  0.53926668
   0.02381283  0.69461108  0.84696677
   0.29320506  0.63353491  0.58468120
   0.04301392  0.31502318  0.50731253
   0.83101037  0.35216977  0.31109742
Direct configuration=    80
   0.05878342  0.25466719  0.30308957
   0.03775905  0.30147464  0.95057577
   0.10401113  0.26074901  0.70875485
   0.69031896  0.05445595  0.33476718
   0.66862559  0.03171620  0.97553772
   0.64143571  0.10002950  0.74029564
   0.02084061  0.39400152  0.64789686
   0.26320966  0.67682273  0.35401090
   0.31145954  0.64776831 -0.00755180
   0.28047126  0.59914429  0.79999000
   0.59201220  0.01299657  0.66050003
   0.29782235  0.03602862  0.35847209
   0.23011962  0.07704185  0.59523181
   0.27492424  0.08088430  0.99886205
   0.65517115  0.29866850  0.42608650
   0.70209313  0.22242606  0.63168677
   0.99175495  0.63678161  0.73763503
   0.02852416  0.56344555  0.95487853
   0.66661040  0.26266069  0.03732043
   0.04525638  0.65323906  0.41108938
   0.07930306  0.68920058  0.64317064
   0.36910596  0.00034370  0.69159253
   0.41059733  0.02480513  0.93370900
   0.08814728  0.63753911  0.03479761
   0.70999707  0.96076940  0.63952738
   0.77768975  0.92230148  0.40036446
   0.73380178  0.91453113  0.99403621
   0.34943230  0.70289028  0.52774887
   0.28748113  0.78337096  0.36299220
   0.98950202  0.37638378  0.29883099
   0.97388191  0.43948586  0.05298733
   0.32819825  0.73511826  0.94913284
   0.97199426  0.31559101  0.62156982
   0.91628581  0.31649750  0.36457311
   0.63918078  0.99035984  0.30681738
   0.59969122  0.96289734  0.06537195
   0.91248958  0.36892382  0.95737933
   0.95424544  0.74774398  0.69520514
   0.97875132  0.70688946  0.07336439
   0.90610529  0.74475376  0.29181798
   0.31110073  0.94272494  0.66319004
   0.33308385  0.96346589  0.02390224
   0.35797530  0.89590637  0.25959371
   0.97626376  0.61128744  0.35721397
   0.74367674  0.31337213  0.68665122
   0.67913714  0.38329152  0.02441524
   0.75181220  0.35929273  0.25149594
   0.41616128  0.97703139  0.33456687
   0.71545038  0.50315193  0.67527456
   0.78726233  0.44694395  0.43854909
   0.11110497  0.21372794  0.22522310
   0.15223689  0.16819213  0.34681278
   0.08843851  0.26032653  0.88469836
   0.12739964  0.21338942  0.02429012
   0.68099427  0.10596466  0.25837348
   0.68411032  0.14700724  0.38429303
   0.65893416  0.08257149  0.91483988
   0.66796755  0.12111704  0.05543274
   0.01015718  0.44653412  0.57437530
   0.01532998  0.48675436  0.69893400
   0.22064571  0.66539800  0.28127194
   0.17173390  0.67571444  0.39581655
   0.27553185  0.62726590  0.96065327
   0.22605987  0.64083986  0.09129876
   0.55042018  0.00331429  0.57833403
   0.50369147  0.00868225  0.69496757
   0.24660157  0.07671592  0.41957854
   0.20728492  0.12333907  0.27866859
   0.22319937  0.12276146  0.07724759
   0.18242887  0.16853579  0.95593492
   0.67904504  0.24187043  0.46486904
   0.67658022  0.20115027  0.31789372
   0.00865020  0.58272293  0.78318619
   0.00371671  0.54282767  0.63634271
   0.66781405  0.21393449  0.11320080
   0.66209405  0.17459545  0.98775817
   0.08144671  0.67012879  0.46869148
   0.12739674  0.66433773  0.32697586
   0.41043101  0.00906035  0.75733728
   0.45833294  0.00030749  0.62046849
   0.12960139  0.64545350  0.12604663
   0.18033681  0.63264759  0.01756078
   0.76167260  0.92202677  0.57673436
   0.80314866  0.87624888  0.71673175
   0.78695744  0.87565449  0.91693639
   0.82899930  0.83187862  0.03999201
   0.31672347  0.76078189  0.51911590
   0.31795921  0.79938603  0.67693024
   0.98540430  0.42478564  0.23191904
   0.99375468  0.46321456  0.37433820
   0.32780793  0.78409946  0.88061149
   0.33513107  0.82256948  0.00712995
   0.92552340  0.31848376  0.55107707
   0.87792161  0.32858574  0.69096611
   0.59888640  0.98002347  0.24109011
   0.55073758  0.98832968  0.37597931
   0.87225314  0.35859912  0.87385993
   0.81857478  0.37869934  0.97362784
   0.90172856  0.78904785  0.77405634
   0.85970885  0.83363716  0.65104276
   0.92439827  0.74536157  0.11964426
   0.88536103  0.78928679  0.97436687
   0.31727501  0.89246421  0.74082302
   0.31107599  0.85349104  0.61420162
   0.34128373  0.91302093  0.08474817
   0.33064436  0.87584073  0.94255666
   0.98765175  0.55909540  0.43529505
   0.98340423  0.51851449  0.31032135
   0.78239271  0.33082982  0.74739667
   0.83404518  0.31445506  0.63771300
   0.73174441  0.37159400  0.07084953
   0.77521780  0.36388716  0.92188242
   0.45827146  0.98567482  0.41773627
   0.50532013  0.97993960  0.30134168
   0.75119239  0.47488961  0.55774585
   0.14070401  0.16795418  0.50068685
   0.69194101  0.13603514  0.53987693
   0.02758631  0.47408762  0.85182497
   0.16769807  0.69276737  0.54521849
   0.50257778  0.02017642  0.84959083
   0.19406908  0.16897268  0.80227268
   0.65391793  0.18567635  0.83234950
   0.18350302  0.61634722  0.86796919
   0.81734220  0.83104889  0.19325368
   0.34393718  0.81101864  0.16209008
   0.80974401  0.40984996  0.09470941
   0.87127514  0.83450964  0.49772852
   0.30251581  0.86553011  0.45950987
   0.97129873  0.53109931  0.15732396
   0.84208394  0.28540006  0.51068175
   0.50628700  0.96861998  0.14658899
   0.71092776  0.33048243  0.41225089
   0.28887613  0.02126232  0.79554776
   0.65938499  0.33255774  0.16232508
   0.95954351  0.68715439  0.49275963
   0.35790987  0.95533214  0.45825016
   0.35438001  0.02275048  0.13062625
   0.71859295  0.97346118  0.19840277
   0.33660385  0.67002523  0.75646538
   0.70014956  0.28213546  0.82498252
   0.98015265  0.31378171  0.16536417
   0.30304707  0.71337918  0.19392283
   0.97744816  0.37935610  0.85027083
   0.65195391  0.96834511  0.86644448
   0.02835079  0.61903706  0.15993043
   0.64498522  0.04150034  0.53924150
   0.02381346  0.69461055  0.84698656
   0.29319507  0.63354849  0.58472703
   0.04302289  0.31502559  0.50730907
   0.83100813  0.35217198  0.31113446
Direct configuration=    81
   0.05877877  0.25465968  0.30309400
   0.03775487  0.30146819  0.95058033
   0.10400532  0.26074708  0.70876125
   0.69032176  0.05445051  0.33477263
   0.66861827  0.03171797  0.97555655
   0.64142458  0.10003698  0.74030153
   0.02083339  0.39400058  0.64789861
   0.26321810  0.67680606  0.35397055
   0.31146023  0.64776694 -0.00759291
   0.28047216  0.59913347  0.79996693
   0.59201156  0.01299769  0.66052397
   0.29782565  0.03603298  0.35850228
   0.23011846  0.07704100  0.59525250
   0.27492380  0.08088845  0.99888524
   0.65519776  0.29864878  0.42613865
   0.70212448  0.22240701  0.63169260
   0.99176263  0.63677500  0.73761670
   0.02852715  0.56344028  0.95487033
   0.66662386  0.26265643  0.03736262
   0.04525183  0.65324456  0.41106276
   0.07930233  0.68920553  0.64314690
   0.36910932  0.00033937  0.69161511
   0.41059769  0.02481075  0.93373347
   0.08814755  0.63754231  0.03478616
   0.70999837  0.96077588  0.63952938
   0.77768382  0.92230639  0.40034250
   0.73380132  0.91453765  0.99402353
   0.34941079  0.70290908  0.52769053
   0.28746242  0.78338957  0.36297535
   0.98949553  0.37638344  0.29883665
   0.97387286  0.43948639  0.05299291
   0.32819080  0.73511995  0.94911916
   0.97199376  0.31558026  0.62158011
   0.91628079  0.31649113  0.36456474
   0.63918061  0.99035575  0.30682167
   0.59968914  0.96289774  0.06536808
   0.91248650  0.36892230  0.95736461
   0.95424631  0.74774111  0.69518711
   0.97875204  0.70688535  0.07334838
   0.90610328  0.74475612  0.29180127
   0.31110366  0.94272622  0.66322942
   0.33308096  0.96346792  0.02391265
   0.35798366  0.89590133  0.25961694
   0.97626980  0.61128232  0.35720536
   0.74366772  0.31338644  0.68667093
   0.67912914  0.38330696  0.02446747
   0.75181102  0.35930620  0.25149923
   0.41615811  0.97703650  0.33459234
   0.71545824  0.50315314  0.67521261
   0.78727409  0.44694090  0.43850893
   0.11110110  0.21372274  0.22522732
   0.15223248  0.16818861  0.34682442
   0.08843279  0.26032177  0.88470139
   0.12739502  0.21338535  0.02429823
   0.68100012  0.10595529  0.25838543
   0.68412527  0.14699659  0.38428891
   0.65893091  0.08257326  0.91485607
   0.66797002  0.12111792  0.05546639
   0.01015192  0.44653247  0.57436999
   0.01532477  0.48675317  0.69892806
   0.22065346  0.66539025  0.28124370
   0.17174177  0.67570923  0.39578632
   0.27553027  0.62726650  0.96060911
   0.22606641  0.64083395  0.09127209
   0.55042130  0.00331656  0.57833980
   0.50369209  0.00868848  0.69498182
   0.24660081  0.07671796  0.41960024
   0.20728194  0.12333816  0.27868682
   0.22319541  0.12276207  0.07726680
   0.18242553  0.16853326  0.95594847
   0.67906684  0.24185719  0.46489728
   0.67659942  0.20113715  0.31793964
   0.00865395  0.58271813  0.78317216
   0.00371734  0.54282403  0.63633600
   0.66782920  0.21392254  0.11321746
   0.66209387  0.17459707  0.98779855
   0.08144404  0.67013124  0.46867440
   0.12740405  0.66433234  0.32694384
   0.41043034  0.00906336  0.75736673
   0.45833272  0.00031263  0.62049455
   0.12960561  0.64545175  0.12602073
   0.18034219  0.63264729  0.01754796
   0.76166945  0.92203245  0.57672487
   0.80314931  0.87625411  0.71671519
   0.78695987  0.87566061  0.91692717
   0.82900086  0.83188552  0.03998525
   0.31670345  0.76080237  0.51910780
   0.31794641  0.79939251  0.67692215
   0.98539801  0.42478535  0.23192320
   0.99375009  0.46321312  0.37433489
   0.32780195  0.78410705  0.88061096
   0.33514157  0.82256310  0.00713001
   0.92551972  0.31847890  0.55108222
   0.87791421  0.32858923  0.69097840
   0.59888256  0.98002454  0.24109618
   0.55073482  0.98833305  0.37598780
   0.87224775  0.35860430  0.87384561
   0.81856509  0.37870799  0.97359736
   0.90172837  0.78905040  0.77403584
   0.85971034  0.83363928  0.65101456
   0.92440152  0.74536233  0.11962413
   0.88536467  0.78928978  0.97435578
   0.31727456  0.89246544  0.74082608
   0.31106861  0.85349591  0.61421914
   0.34128835  0.91301873  0.08478013
   0.33065064  0.87584079  0.94255029
   0.98765588  0.55909047  0.43528628
   0.98340620  0.51851116  0.31031411
   0.78238181  0.33084258  0.74740905
   0.83404012  0.31445300  0.63773404
   0.73173938  0.37160047  0.07086506
   0.77520409  0.36390348  0.92186768
   0.45827032  0.98567814  0.41775763
   0.50531713  0.97994282  0.30136283
   0.75117602  0.47490934  0.55778020
   0.14069690  0.16795399  0.50069586
   0.69197081  0.13601688  0.53989064
   0.02758116  0.47408523  0.85182728
   0.16770632  0.69275868  0.54519946
   0.50257774  0.02018283  0.84960952
   0.19406874  0.16896744  0.80228999
   0.65390819  0.18568136  0.83237880
   0.18349851  0.61635049  0.86795419
   0.81734304  0.83105886  0.19324285
   0.34395904  0.81100439  0.16208674
   0.80974043  0.40985691  0.09467474
   0.87128072  0.83450561  0.49769298
   0.30250300  0.86553991  0.45952616
   0.97130424  0.53109242  0.15731391
   0.84207756  0.28540166  0.51065755
   0.50628506  0.96862311  0.14661297
   0.71094370  0.33048412  0.41222808
   0.28887755  0.02126174  0.79557363
   0.65940323  0.33255084  0.16236361
   0.95954200  0.68715251  0.49273466
   0.35791170  0.95533416  0.45826731
   0.35437772  0.02275082  0.13066453
   0.71858791  0.97346586  0.19838904
   0.33659469  0.67003106  0.75641860
   0.70016714  0.28211870  0.82500172
   0.98015034  0.31377864  0.16535995
   0.30304440  0.71338449  0.19391995
   0.97744746  0.37935446  0.85027791
   0.65195048  0.96834434  0.86646650
   0.02835076  0.61903616  0.15991464
   0.64498284  0.04150488  0.53925459
   0.02381022  0.69460922  0.84697668
   0.29320111  0.63353859  0.58465375
   0.04301513  0.31502396  0.50730674
   0.83101228  0.35216899  0.31109708
Direct configuration=    82
   0.05876876  0.25464353  0.30310352
   0.03774590  0.30145432  0.95059013
   0.10399284  0.26074294  0.70877501
   0.69032777  0.05443883  0.33478434
   0.66860254  0.03172179  0.97559701
   0.64140067  0.10005306  0.74031419
   0.02081788  0.39399855  0.64790238
   0.26323623  0.67677025  0.35388384
   0.31146172  0.64776401 -0.00768126
   0.28047409  0.59911023  0.79991735
   0.59201019  0.01300007  0.66057542
   0.29783275  0.03604234  0.35856717
   0.23011596  0.07703917  0.59529696
   0.27492284  0.08089738  0.99893507
   0.65525494  0.29860641  0.42625072
   0.70219185  0.22236607  0.63170513
   0.99177914  0.63676080  0.73757731
   0.02853357  0.56342896  0.95485269
   0.66665279  0.26264728  0.03745329
   0.04524204  0.65325638  0.41100554
   0.07930075  0.68921616  0.64309588
   0.36911654  0.00033005  0.69166361
   0.41059846  0.02482285  0.93378605
   0.08814815  0.63754920  0.03476155
   0.71000116  0.96078980  0.63953368
   0.77767105  0.92231693  0.40029532
   0.73380033  0.91455166  0.99399628
   0.34936456  0.70294949  0.52756517
   0.28742221  0.78342958  0.36293914
   0.98948157  0.37638270  0.29884881
   0.97385342  0.43948752  0.05300491
   0.32817479  0.73512359  0.94908978
   0.97199268  0.31555717  0.62160220
   0.91627000  0.31647745  0.36454674
   0.63918023  0.99034696  0.30683087
   0.59968467  0.96289858  0.06535977
   0.91247989  0.36891906  0.95733298
   0.95424816  0.74773494  0.69514837
   0.97875361  0.70687653  0.07331398
   0.90609895  0.74476119  0.29176537
   0.31110994  0.94272896  0.66331404
   0.33307475  0.96347230  0.02393503
   0.35800161  0.89589052  0.25966687
   0.97628278  0.61127133  0.35718687
   0.74364831  0.31341720  0.68671328
   0.67911195  0.38334013  0.02457973
   0.75180849  0.35933516  0.25150629
   0.41615131  0.97704749  0.33464706
   0.71547514  0.50315575  0.67507948
   0.78729935  0.44693435  0.43842263
   0.11109281  0.21371158  0.22523638
   0.15222300  0.16818106  0.34684945
   0.08842050  0.26031155  0.88470791
   0.12738508  0.21337662  0.02431565
   0.68101271  0.10593516  0.25841113
   0.68415739  0.14697371  0.38428006
   0.65892393  0.08257708  0.91489085
   0.66797534  0.12111981  0.05553870
   0.01014061  0.44652893  0.57435858
   0.01531358  0.48675062  0.69891529
   0.22067012  0.66537361  0.28118301
   0.17175867  0.67569801  0.39572136
   0.27552687  0.62726778  0.96051422
   0.22608047  0.64082125  0.09121478
   0.55042369  0.00332144  0.57835221
   0.50369341  0.00870185  0.69501242
   0.24659918  0.07672233  0.41964689
   0.20727552  0.12333619  0.27872599
   0.22318691  0.12276338  0.07730809
   0.18241837  0.16852782  0.95597760
   0.67911366  0.24182872  0.46495798
   0.67664069  0.20110893  0.31803831
   0.00866202  0.58270783  0.78314201
   0.00371867  0.54281621  0.63632158
   0.66786175  0.21389684  0.11325327
   0.66209349  0.17460055  0.98788534
   0.08143830  0.67013651  0.46863768
   0.12741975  0.66432077  0.32687503
   0.41042891  0.00906983  0.75743001
   0.45833225  0.00032369  0.62055056
   0.12961466  0.64544800  0.12596509
   0.18035375  0.63264666  0.01752040
   0.76166266  0.92204466  0.57670448
   0.80315070  0.87626535  0.71667959
   0.78696509  0.87567377  0.91690733
   0.82900421  0.83190034  0.03997072
   0.31666043  0.76084638  0.51909039
   0.31791889  0.79940643  0.67690477
   0.98538447  0.42478471  0.23193214
   0.99374022  0.46321003  0.37432778
   0.32778910  0.78412337  0.88060983
   0.33516415  0.82254938  0.00713015
   0.92551181  0.31846844  0.55109330
   0.87789833  0.32859672  0.69100480
   0.59887432  0.98002684  0.24110922
   0.55072887  0.98834029  0.37600604
   0.87223616  0.35861544  0.87381484
   0.81854425  0.37872660  0.97353185
   0.90172798  0.78905590  0.77399179
   0.85971356  0.83364383  0.65095396
   0.92440850  0.74536395  0.11958086
   0.88537250  0.78929622  0.97433192
   0.31727361  0.89246810  0.74083265
   0.31105276  0.85350637  0.61425677
   0.34129829  0.91301401  0.08484879
   0.33066413  0.87584090  0.94253660
   0.98766475  0.55907988  0.43526743
   0.98341046  0.51850400  0.31029854
   0.78235839  0.33087000  0.74743567
   0.83402924  0.31444856  0.63777925
   0.73172859  0.37161436  0.07089842
   0.77517464  0.36393857  0.92183601
   0.45826787  0.98568528  0.41780352
   0.50531069  0.97994976  0.30140828
   0.75114085  0.47495174  0.55785402
   0.14068162  0.16795358  0.50071521
   0.69203486  0.13597764  0.53992011
   0.02757010  0.47408010  0.85183224
   0.16772403  0.69273999  0.54515858
   0.50257765  0.02019660  0.84964969
   0.19406800  0.16895618  0.80232717
   0.65388724  0.18569214  0.83244176
   0.18348881  0.61635753  0.86792197
   0.81734485  0.83108029  0.19321958
   0.34400599  0.81097376  0.16207957
   0.80973273  0.40987185  0.09460023
   0.87129272  0.83449694  0.49761661
   0.30247545  0.86556097  0.45956116
   0.97131609  0.53107763  0.15729229
   0.84206385  0.28540511  0.51060554
   0.50628090  0.96862985  0.14666451
   0.71097796  0.33048773  0.41217906
   0.28888062  0.02126047  0.79562923
   0.65944243  0.33253600  0.16244642
   0.95953874  0.68714848  0.49268100
   0.35791563  0.95533851  0.45830419
   0.35437279  0.02275155  0.13074681
   0.71857708  0.97347592  0.19835954
   0.33657500  0.67004360  0.75631808
   0.70020494  0.28208266  0.82504298
   0.98014537  0.31377202  0.16535086
   0.30303866  0.71339591  0.19391379
   0.97744596  0.37935094  0.85029311
   0.65194310  0.96834269  0.86651382
   0.02835069  0.61903423  0.15988071
   0.64497773  0.04151464  0.53928271
   0.02380324  0.69460635  0.84695544
   0.29321411  0.63351731  0.58449625
   0.04299847  0.31502048  0.50730172
   0.83102119  0.35216255  0.31101673
Direct configuration=    83
   0.05877385  0.25465175  0.30309867
   0.03775047  0.30146138  0.95058514
   0.10399919  0.26074505  0.70876801
   0.69032471  0.05444478  0.33477838
   0.66861055  0.03171985  0.97557641
   0.64141285  0.10004488  0.74030775
   0.02082578  0.39399959  0.64790046
   0.26322700  0.67678848  0.35392799
   0.31146096  0.64776550 -0.00763627
   0.28047311  0.59912206  0.79994259
   0.59201089  0.01299886  0.66054923
   0.29782913  0.03603757  0.35853413
   0.23011723  0.07704010  0.59527432
   0.27492333  0.08089283  0.99890970
   0.65522583  0.29862798  0.42619366
   0.70215755  0.22238692  0.63169875
   0.99177074  0.63676803  0.73759737
   0.02853030  0.56343473  0.95486167
   0.66663806  0.26265194  0.03740713
   0.04524702  0.65325036  0.41103467
   0.07930155  0.68921074  0.64312186
   0.36911287  0.00033479  0.69163891
   0.41059807  0.02481669  0.93375928
   0.08814785  0.63754570  0.03477408
   0.70999974  0.96078271  0.63953149
   0.77767755  0.92231156  0.40031935
   0.73380083  0.91454452  0.99401015
   0.34938810  0.70292891  0.52762900
   0.28744268  0.78340921  0.36295758
   0.98948868  0.37638307  0.29884262
   0.97386332  0.43948694  0.05299880
   0.32818294  0.73512174  0.94910474
   0.97199323  0.31556893  0.62159095
   0.91627549  0.31648442  0.36455590
   0.63918042  0.99035143  0.30682618
   0.59968695  0.96289815  0.06536400
   0.91248326  0.36892071  0.95734908
   0.95424721  0.74773808  0.69516810
   0.97875281  0.70688102  0.07333149
   0.90610115  0.74475861  0.29178365
   0.31110674  0.94272756  0.66327095
   0.33307791  0.96347007  0.02392364
   0.35799247  0.89589603  0.25964145
   0.97627617  0.61127693  0.35719628
   0.74365819  0.31340154  0.68669171
   0.67912070  0.38332324  0.02452258
   0.75180978  0.35932042  0.25150269
   0.41615477  0.97704189  0.33461920
   0.71546653  0.50315442  0.67514726
   0.78728648  0.44693769  0.43846657
   0.11109703  0.21371726  0.22523176
   0.15222783  0.16818491  0.34683671
   0.08842676  0.26031675  0.88470459
   0.12739014  0.21338107  0.02430678
   0.68100630  0.10594541  0.25839805
   0.68414104  0.14698536  0.38428456
   0.65892749  0.08257514  0.91487314
   0.66797263  0.12111885  0.05550188
   0.01014637  0.44653073  0.57436439
   0.01531928  0.48675192  0.69892179
   0.22066164  0.66538208  0.28121391
   0.17175006  0.67570372  0.39575444
   0.27552860  0.62726713  0.96056254
   0.22607331  0.64082771  0.09124396
   0.55042247  0.00331896  0.57834589
   0.50369274  0.00869504  0.69499684
   0.24660001  0.07672010  0.41962314
   0.20727879  0.12333719  0.27870604
   0.22319124  0.12276271  0.07728707
   0.18242202  0.16853059  0.95596277
   0.67908982  0.24184321  0.46492708
   0.67661968  0.20112330  0.31798807
   0.00865791  0.58271307  0.78315736
   0.00371799  0.54282019  0.63632892
   0.66784518  0.21390992  0.11323504
   0.66209368  0.17459878  0.98784115
   0.08144123  0.67013382  0.46865638
   0.12741176  0.66432666  0.32691006
   0.41042964  0.00906653  0.75739779
   0.45833249  0.00031806  0.62052204
   0.12961005  0.64544991  0.12599342
   0.18034787  0.63264698  0.01753443
   0.76166612  0.92203844  0.57671486
   0.80314999  0.87625963  0.71669772
   0.78696243  0.87566707  0.91691743
   0.82900250  0.83189279  0.03997812
   0.31668234  0.76082397  0.51909925
   0.31793290  0.79939934  0.67691362
   0.98539136  0.42478504  0.23192759
   0.99374524  0.46321160  0.37433140
   0.32779564  0.78411506  0.88061040
   0.33515265  0.82255636  0.00713008
   0.92551584  0.31847376  0.55108766
   0.87790642  0.32859291  0.69099136
   0.59887851  0.98002567  0.24110258
   0.55073190  0.98833660  0.37599675
   0.87224206  0.35860977  0.87383051
   0.81855486  0.37871713  0.97356521
   0.90172818  0.78905310  0.77401422
   0.85971192  0.83364151  0.65098481
   0.92440495  0.74536312  0.11960289
   0.88536851  0.78929294  0.97434407
   0.31727409  0.89246674  0.74082930
   0.31106083  0.85350105  0.61423761
   0.34129323  0.91301642  0.08481383
   0.33065726  0.87584084  0.94254357
   0.98766023  0.55908527  0.43527703
   0.98340829  0.51850764  0.31030647
   0.78237032  0.33085604  0.74742212
   0.83403478  0.31445082  0.63775623
   0.73173409  0.37160729  0.07088143
   0.77518964  0.36392070  0.92185214
   0.45826912  0.98568165  0.41778016
   0.50531397  0.97994623  0.30138514
   0.75115876  0.47493015  0.55781643
   0.14068940  0.16795379  0.50070536
   0.69200225  0.13599762  0.53990511
   0.02757573  0.47408272  0.85182971
   0.16771501  0.69274951  0.54517940
   0.50257769  0.02018959  0.84962924
   0.19406838  0.16896191  0.80230824
   0.65389791  0.18568665  0.83240970
   0.18349374  0.61635395  0.86793838
   0.81734393  0.83106938  0.19323143
   0.34398209  0.81098935  0.16208322
   0.80973665  0.40986424  0.09463816
   0.87128661  0.83450135  0.49765550
   0.30248948  0.86555024  0.45954334
   0.97131006  0.53108516  0.15730330
   0.84207083  0.28540336  0.51063202
   0.50628302  0.96862642  0.14663827
   0.71096052  0.33048589  0.41220402
   0.28887906  0.02126112  0.79560092
   0.65942247  0.33254356  0.16240426
   0.95954040  0.68715053  0.49270832
   0.35791362  0.95533629  0.45828541
   0.35437530  0.02275118  0.13070492
   0.71858259  0.97347080  0.19837456
   0.33658503  0.67003722  0.75636926
   0.70018570  0.28210101  0.82502197
   0.98014790  0.31377539  0.16535549
   0.30304158  0.71339010  0.19391693
   0.97744673  0.37935273  0.85028537
   0.65194686  0.96834353  0.86648972
   0.02835072  0.61903522  0.15989798
   0.64498033  0.04150967  0.53926839
   0.02380679  0.69460781  0.84696625
   0.29320749  0.63352815  0.58457644
   0.04300695  0.31502225  0.50730428
   0.83101665  0.35216583  0.31105764
Direct configuration=    84
   0.05877139  0.25464599  0.30310096
   0.03774759  0.30145748  0.95058839
   0.10399560  0.26074357  0.70877242
   0.69032828  0.05443950  0.33478308
   0.66860593  0.03172049  0.97558992
   0.64140567  0.10004888  0.74031402
   0.02082161  0.39399878  0.64790121
   0.26323315  0.67677822  0.35390551
   0.31146205  0.64776455 -0.00766685
   0.28047326  0.59911456  0.79992737
   0.59201069  0.01299954  0.66056626
   0.29783119  0.03604055  0.35855443
   0.23011653  0.07703968  0.59528765
   0.27492276  0.08089571  0.99892519
   0.65524263  0.29861629  0.42622794
   0.70217764  0.22237486  0.63170140
   0.99177572  0.63676340  0.73758500
   0.02853233  0.56343091  0.95485664
   0.66664685  0.26265008  0.03743526
   0.04524247  0.65325379  0.41101375
   0.07930123  0.68921421  0.64310447
   0.36911500  0.00033214  0.69165335
   0.41059823  0.02482016  0.93377529
   0.08814884  0.63754800  0.03476449
   0.70999845  0.96078852  0.63953417
   0.77767521  0.92231448  0.40029962
   0.73380127  0.91454799  0.99400141
   0.34937493  0.70294042  0.52759089
   0.28742996  0.78342251  0.36294314
   0.98948431  0.37638337  0.29884636
   0.97385778  0.43948713  0.05300302
   0.32817841  0.73512248  0.94910408
   0.97199393  0.31556136  0.62159877
   0.91627174  0.31648058  0.36455576
   0.63917954  0.99034764  0.30682973
   0.59968545  0.96289902  0.06536078
   0.91248095  0.36891977  0.95734176
   0.95424802  0.74773570  0.69515653
   0.97875373  0.70687762  0.07332178
   0.90609963  0.74475980  0.29177493
   0.31110841  0.94272925  0.66329361
   0.33307630  0.96347198  0.02392960
   0.35799807  0.89589307  0.25965512
   0.97627975  0.61127320  0.35719112
   0.74365114  0.31341044  0.68670513
   0.67911474  0.38333394  0.02455807
   0.75180890  0.35932960  0.25150316
   0.41615203  0.97704530  0.33463530
   0.71546353  0.50316172  0.67513283
   0.78728749  0.44694107  0.43846254
   0.11109346  0.21371442  0.22523727
   0.15222493  0.16818240  0.34684639
   0.08842332  0.26031327  0.88470689
   0.12738657  0.21337899  0.02430943
   0.68101055  0.10594019  0.25841587
   0.68415067  0.14697891  0.38428047
   0.65892551  0.08257611  0.91488853
   0.66797256  0.12112040  0.05550840
   0.01014306  0.44652943  0.57436174
   0.01531567  0.48675103  0.69891775
   0.22066632  0.66537692  0.28119260
   0.17175494  0.67570025  0.39573330
   0.27552778  0.62726860  0.96053561
   0.22607723  0.64082398  0.09122650
   0.55042302  0.00332062  0.57835113
   0.50369307  0.00869933  0.69500634
   0.24659986  0.07672127  0.41963811
   0.20727678  0.12333678  0.27871775
   0.22318839  0.12276332  0.07730052
   0.18242032  0.16852863  0.95597070
   0.67910355  0.24183491  0.46494634
   0.67663207  0.20111263  0.31801808
   0.00865993  0.58271012  0.78314642
   0.00371829  0.54281765  0.63632616
   0.66785566  0.21390276  0.11324493
   0.66209432  0.17459878  0.98787364
   0.08144082  0.67013546  0.46864061
   0.12741642  0.66432348  0.32689421
   0.41042891  0.00906839  0.75741564
   0.45833220  0.00032116  0.62053675
   0.12961394  0.64544825  0.12597725
   0.18035228  0.63264670  0.01752844
   0.76166462  0.92204128  0.57671499
   0.80314978  0.87626354  0.71668567
   0.78696296  0.87567187  0.91691485
   0.82900222  0.83189858  0.03997238
   0.31666974  0.76083644  0.51909940
   0.31792366  0.79940504  0.67690784
   0.98538730  0.42478466  0.23193136
   0.99374242  0.46321047  0.37432997
   0.32779060  0.78412050  0.88060657
   0.33515868  0.82255044  0.00712939
   0.92551344  0.31847110  0.55109141
   0.87790193  0.32859541  0.69099459
   0.59887690  0.98002661  0.24110559
   0.55072986  0.98833879  0.37600175
   0.87223840  0.35861363  0.87382217
   0.81854683  0.37872357  0.97354955
   0.90172843  0.78905427  0.77400378
   0.85971279  0.83364285  0.65096630
   0.92440739  0.74536364  0.11958437
   0.88537211  0.78929420  0.97433475
   0.31727345  0.89246601  0.74082937
   0.31105624  0.85350499  0.61424957
   0.34129655  0.91301381  0.08483263
   0.33066163  0.87584328  0.94254117
   0.98766252  0.55908309  0.43526984
   0.98340950  0.51850578  0.31030085
   0.78236243  0.33086493  0.74742864
   0.83403185  0.31444996  0.63776971
   0.73173119  0.37161064  0.07089165
   0.77518107  0.36393214  0.92184641
   0.45826847  0.98568376  0.41779399
   0.50531212  0.97994793  0.30139913
   0.75116301  0.47493140  0.55778967
   0.14068470  0.16795363  0.50071145
   0.69202266  0.13598614  0.53991266
   0.02757237  0.47408130  0.85183116
   0.16772007  0.69274302  0.54516561
   0.50257774  0.02019363  0.84964132
   0.19406822  0.16895822  0.80232038
   0.65389198  0.18568845  0.83242607
   0.18349171  0.61635605  0.86792793
   0.81734406  0.83107603  0.19322736
   0.34399660  0.81098055  0.16207960
   0.80973541  0.40986687  0.09461146
   0.87129040  0.83449885  0.49762938
   0.30248094  0.86555639  0.45955349
   0.97131346  0.53108081  0.15729605
   0.84206652  0.28540449  0.51061950
   0.50628139  0.96862841  0.14665341
   0.71097044  0.33048733  0.41218221
   0.28887985  0.02126098  0.79561883
   0.65943496  0.33253981  0.16243409
   0.95953963  0.68714885  0.49269118
   0.35791531  0.95533762  0.45829724
   0.35437395  0.02275096  0.13073019
   0.71857889  0.97347371  0.19836511
   0.33657939  0.67004061  0.75633450
   0.70019782  0.28208942  0.82503355
   0.98014625  0.31377370  0.16535275
   0.30303972  0.71339213  0.19391776
   0.97744664  0.37935161  0.85028933
   0.65194431  0.96834262  0.86650915
   0.02835018  0.61903511  0.15988686
   0.64497943  0.04151295  0.53927230
   0.02380422  0.69460630  0.84696269
   0.29321003  0.63352262  0.58452639
   0.04300259  0.31502149  0.50730072
   0.83101979  0.35216394  0.31103466
Direct configuration=    85
   0.05876398  0.25462870  0.30310782
   0.03773895  0.30144577  0.95059813
   0.10398482  0.26073914  0.70878565
   0.69033900  0.05442367  0.33479718
   0.66859206  0.03172243  0.97563044
   0.64138415  0.10006088  0.74033285
   0.02080910  0.39399636  0.64790343
   0.26325160  0.67674744  0.35383808
   0.31146533  0.64776168 -0.00775858
   0.28047373  0.59909204  0.79988170
   0.59201011  0.01300158  0.66061737
   0.29783734  0.03604947  0.35861534
   0.23011443  0.07703841  0.59532765
   0.27492105  0.08090436  0.99897168
   0.65529302  0.29858120  0.42633078
   0.70223791  0.22233868  0.63170934
   0.99179067  0.63674949  0.73754789
   0.02853842  0.56341948  0.95484155
   0.66667321  0.26264448  0.03751967
   0.04522882  0.65326409  0.41095097
   0.07930025  0.68922462  0.64305231
   0.36912139  0.00032417  0.69169667
   0.41059872  0.02483056  0.93382332
   0.08815182  0.63755492  0.03473572
   0.70999458  0.96080595  0.63954222
   0.77766818  0.92232324  0.40024044
   0.73380256  0.91455841  0.99397518
   0.34933541  0.70297494  0.52747658
   0.28739180  0.78346240  0.36289981
   0.98947120  0.37638424  0.29885758
   0.97384118  0.43948768  0.05301568
   0.32816482  0.73512469  0.94910209
   0.97199603  0.31553866  0.62162224
   0.91626046  0.31646905  0.36455534
   0.63917690  0.99033628  0.30684036
   0.59968096  0.96290163  0.06535109
   0.91247403  0.36891694  0.95731978
   0.95425045  0.74772856  0.69512182
   0.97875650  0.70686740  0.07329265
   0.90609504  0.74476336  0.29174879
   0.31111340  0.94273431  0.66336160
   0.33307146  0.96347770  0.02394749
   0.35801489  0.89588420  0.25969615
   0.97629051  0.61126203  0.35717564
   0.74362999  0.31343712  0.68674537
   0.67909688  0.38336603  0.02466454
   0.75180629  0.35935717  0.25150457
   0.41614381  0.97705551  0.33468359
   0.71545451  0.50318361  0.67508953
   0.78729052  0.44695120  0.43845044
   0.11108274  0.21370588  0.22525378
   0.15221623  0.16817486  0.34687544
   0.08841301  0.26030280  0.88471381
   0.12737584  0.21337274  0.02431736
   0.68102329  0.10592453  0.25846936
   0.68417958  0.14695955  0.38426819
   0.65891956  0.08257902  0.91493471
   0.66797234  0.12112506  0.05552795
   0.01013312  0.44652554  0.57435380
   0.01530484  0.48674836  0.69890563
   0.22068038  0.66536143  0.28112866
   0.17176956  0.67568984  0.39566990
   0.27552531  0.62727300  0.96045484
   0.22608898  0.64081276  0.09117412
   0.55042466  0.00332563  0.57836686
   0.50369406  0.00871219  0.69503486
   0.24659940  0.07672477  0.41968300
   0.20727074  0.12333556  0.27875285
   0.22317985  0.12276515  0.07734088
   0.18241522  0.16852276  0.95599447
   0.67914473  0.24181000  0.46500411
   0.67666923  0.20108064  0.31810809
   0.00866599  0.58270127  0.78311362
   0.00371919  0.54281004  0.63631788
   0.66788710  0.21388127  0.11327462
   0.66209622  0.17459880  0.98797111
   0.08143961  0.67014038  0.46859331
   0.12743041  0.66431391  0.32684665
   0.41042672  0.00907395  0.75746919
   0.45833131  0.00033048  0.62058086
   0.12962560  0.64544328  0.12592874
   0.18036551  0.63264587  0.01751047
   0.76166013  0.92204982  0.57671536
   0.80314917  0.87627527  0.71664952
   0.78696456  0.87568627  0.91690710
   0.82900137  0.83191596  0.03995519
   0.31663197  0.76087383  0.51909982
   0.31789594  0.79942212  0.67689048
   0.98537512  0.42478355  0.23194270
   0.99373396  0.46320708  0.37432567
   0.32777547  0.78413681  0.88059507
   0.33517677  0.82253268  0.00712732
   0.92550624  0.31846309  0.55110268
   0.87788849  0.32860293  0.69100431
   0.59887207  0.98002944  0.24111461
   0.55072374  0.98834535  0.37601675
   0.87222743  0.35862523  0.87379716
   0.81852273  0.37874291  0.97350260
   0.90172919  0.78905776  0.77397248
   0.85971541  0.83364684  0.65091075
   0.92441473  0.74536520  0.11952883
   0.88538291  0.78929797  0.97430679
   0.31727153  0.89246379  0.74082956
   0.31104248  0.85351680  0.61428546
   0.34130649  0.91300601  0.08488903
   0.33067474  0.87585060  0.94253394
   0.98766939  0.55907655  0.43524830
   0.98341313  0.51850020  0.31028400
   0.78233878  0.33089159  0.74744822
   0.83402305  0.31444737  0.63781016
   0.73172251  0.37162070  0.07092231
   0.77515538  0.36396647  0.92182924
   0.45826652  0.98569010  0.41783550
   0.50530656  0.97995304  0.30144110
   0.75117576  0.47493515  0.55770938
   0.14067062  0.16795316  0.50072974
   0.69208387  0.13595168  0.53993530
   0.02756230  0.47407707  0.85183550
   0.16773524  0.69272355  0.54512426
   0.50257789  0.02020573  0.84967755
   0.19406775  0.16894716  0.80235680
   0.65387422  0.18569385  0.83247516
   0.18348560  0.61636235  0.86789661
   0.81734445  0.83109597  0.19321514
   0.34404014  0.81095415  0.16206874
   0.80973171  0.40987473  0.09453134
   0.87130175  0.83449134  0.49755101
   0.30245531  0.86557482  0.45958395
   0.97132367  0.53106775  0.15727432
   0.84205362  0.28540788  0.51058194
   0.50627649  0.96863439  0.14669884
   0.71100019  0.33049163  0.41211676
   0.28888220  0.02126056  0.79567256
   0.65947245  0.33252858  0.16252358
   0.95953731  0.68714382  0.49263976
   0.35792036  0.95534160  0.45833271
   0.35436991  0.02275031  0.13080601
   0.71856776  0.97348246  0.19833674
   0.33656247  0.67005078  0.75623022
   0.70023417  0.28205465  0.82506826
   0.98014131  0.31376865  0.16534452
   0.30303414  0.71339822  0.19392027
   0.97744639  0.37934825  0.85030120
   0.65193667  0.96833990  0.86656745
   0.02834854  0.61903479  0.15985347
   0.64497673  0.04152280  0.53928404
   0.02379649  0.69460178  0.84695199
   0.29321765  0.63350606  0.58437625
   0.04298951  0.31501921  0.50729006
   0.83102920  0.35215829  0.31096571
Direct configuration=    86
   0.05874917  0.25459413  0.30312154
   0.03772167  0.30142235  0.95061762
   0.10396325  0.26073027  0.70881211
   0.69036044  0.05439201  0.33482538
   0.66856434  0.03172631  0.97571149
   0.64134110  0.10008489  0.74037051
   0.02078409  0.39399151  0.64790788
   0.26328850  0.67668587  0.35370323
   0.31147189  0.64775595 -0.00794205
   0.28047467  0.59904700  0.79979036
   0.59200895  0.01300565  0.66071959
   0.29784964  0.03606733  0.35873714
   0.23011022  0.07703589  0.59540764
   0.27491765  0.08092165  0.99906464
   0.65539381  0.29851103  0.42653646
   0.70235845  0.22226632  0.63172522
   0.99182057  0.63672169  0.73747367
   0.02855059  0.56339660  0.95481137
   0.66672594  0.26263329  0.03768848
   0.04520150  0.65328467  0.41082543
   0.07929829  0.68924543  0.64294800
   0.36913417  0.00030825  0.69178332
   0.41059969  0.02485137  0.93391937
   0.08815778  0.63756877  0.03467818
   0.70998686  0.96084081  0.63955831
   0.77765413  0.92234077  0.40012207
   0.73380516  0.91457923  0.99392272
   0.34925638  0.70304397  0.52724795
   0.28731547  0.78354218  0.36281317
   0.98944499  0.37638599  0.29888003
   0.97380797  0.43948879  0.05304099
   0.32813763  0.73512911  0.94909812
   0.97200023  0.31549325  0.62166917
   0.91623792  0.31644599  0.36455450
   0.63917161  0.99031354  0.30686162
   0.59967198  0.96290685  0.06533173
   0.91246020  0.36891128  0.95727583
   0.95425531  0.74771427  0.69505239
   0.97876204  0.70684696  0.07323439
   0.90608587  0.74477050  0.29169650
   0.31112339  0.94274442  0.66349757
   0.33306178  0.96348914  0.02398327
   0.35804851  0.89586646  0.25977820
   0.97631202  0.61123969  0.35714466
   0.74358769  0.31349049  0.68682586
   0.67906114  0.38343020  0.02487748
   0.75180105  0.35941230  0.25150739
   0.41612735  0.97707594  0.33478017
   0.71543647  0.50322740  0.67500293
   0.78729657  0.44697146  0.43842624
   0.11106131  0.21368881  0.22528680
   0.15219882  0.16815980  0.34693352
   0.08839240  0.26028188  0.88472763
   0.12735439  0.21336025  0.02433323
   0.68104877  0.10589321  0.25857633
   0.68423738  0.14692085  0.38424363
   0.65890767  0.08258484  0.91502705
   0.66797189  0.12113437  0.05556704
   0.01011325  0.44651776  0.57433790
   0.01528319  0.48674301  0.69888138
   0.22070850  0.66533045  0.28100078
   0.17179881  0.67566902  0.39554310
   0.27552037  0.62728182  0.96029331
   0.22611248  0.64079033  0.09106938
   0.55042795  0.00333563  0.57839830
   0.50369606  0.00873792  0.69509188
   0.24659850  0.07673177  0.41977279
   0.20725868  0.12333311  0.27882306
   0.22316276  0.12276881  0.07742159
   0.18240502  0.16851102  0.95604202
   0.67922710  0.24176019  0.46511967
   0.67674357  0.20101664  0.31828812
   0.00867810  0.58268356  0.78304801
   0.00372098  0.54279481  0.63630133
   0.66794997  0.21383829  0.11333398
   0.66210002  0.17459883  0.98816606
   0.08143719  0.67015022  0.46849870
   0.12745840  0.66429478  0.32675154
   0.41042233  0.00908507  0.75757629
   0.45832955  0.00034912  0.62066909
   0.12964892  0.64543333  0.12583171
   0.18039198  0.63264419  0.01747453
   0.76165115  0.92206689  0.57671612
   0.80314793  0.87629874  0.71657724
   0.78696776  0.87571507  0.91689160
   0.82899967  0.83195070  0.03992080
   0.31655642  0.76094861  0.51910068
   0.31784049  0.79945628  0.67685578
   0.98535076  0.42478131  0.23196536
   0.99371703  0.46320030  0.37431706
   0.32774522  0.78416944  0.88057206
   0.33521294  0.82249715  0.00712317
   0.92549186  0.31844708  0.55112522
   0.87786161  0.32861797  0.69102373
   0.59886240  0.98003509  0.24113267
   0.55071149  0.98835847  0.37604674
   0.87220549  0.35864843  0.87374715
   0.81847454  0.37878159  0.97340869
   0.90173072  0.78906475  0.77390988
   0.85972066  0.83365483  0.65079965
   0.92442939  0.74536832  0.11941774
   0.88540450  0.78930552  0.97425087
   0.31726769  0.89245936  0.74082994
   0.31101495  0.85354044  0.61435723
   0.34132638  0.91299039  0.08500184
   0.33070096  0.87586524  0.94251949
   0.98768312  0.55906346  0.43520520
   0.98342038  0.51848903  0.31025030
   0.78229146  0.33094491  0.74748737
   0.83400546  0.31444220  0.63789106
   0.73170515  0.37164081  0.07098363
   0.77510399  0.36403512  0.92179491
   0.45826263  0.98570279  0.41791852
   0.50529545  0.97996325  0.30152505
   0.75120127  0.47494265  0.55754881
   0.14064244  0.16795223  0.50076631
   0.69220631  0.13588278  0.53998059
   0.02754216  0.47406859  0.85184418
   0.16776559  0.69268460  0.54504155
   0.50257818  0.02022994  0.84975001
   0.19406681  0.16892504  0.80242965
   0.65383868  0.18570463  0.83257334
   0.18347339  0.61637495  0.86783396
   0.81734523  0.83113586  0.19319071
   0.34412722  0.81090134  0.16204703
   0.80972431  0.40989047  0.09437110
   0.87132446  0.83447633  0.49739429
   0.30240406  0.86561169  0.45964487
   0.97134408  0.53104163  0.15723084
   0.84202780  0.28541466  0.51050682
   0.50626670  0.96864635  0.14678971
   0.71105970  0.33050025  0.41198588
   0.28888692  0.02125973  0.79578001
   0.65954742  0.33250610  0.16270256
   0.95953269  0.68713374  0.49253691
   0.35793047  0.95534956  0.45840364
   0.35436183  0.02274899  0.13095766
   0.71854552  0.97349996  0.19828001
   0.33652863  0.67007112  0.75602165
   0.70030688  0.28198512  0.82513770
   0.98013144  0.31375854  0.16532807
   0.30302299  0.71341041  0.19392528
   0.97744589  0.37934153  0.85032494
   0.65192139  0.96833444  0.86668403
   0.02834526  0.61903416  0.15978670
   0.64497134  0.04154248  0.53930751
   0.02378104  0.69459273  0.84693060
   0.29323290  0.63347294  0.58407596
   0.04296334  0.31501465  0.50726873
   0.83104802  0.35214698  0.31082783
Direct configuration=    87
   0.05875658  0.25461143  0.30311467
   0.03773032  0.30143407  0.95060787
   0.10397404  0.26073471  0.70879886
   0.69034971  0.05440785  0.33481127
   0.66857821  0.03172437  0.97567093
   0.64136264  0.10007287  0.74035167
   0.02079661  0.39399394  0.64790566
   0.26327003  0.67671668  0.35377072
   0.31146861  0.64775882 -0.00785023
   0.28047420  0.59906954  0.79983607
   0.59200953  0.01300361  0.66066843
   0.29784348  0.03605839  0.35867618
   0.23011233  0.07703715  0.59536761
   0.27491935  0.08091300  0.99901811
   0.65534337  0.29854615  0.42643352
   0.70229812  0.22230253  0.63171727
   0.99180561  0.63673560  0.73751082
   0.02854450  0.56340805  0.95482647
   0.66669955  0.26263889  0.03760399
   0.04521517  0.65327437  0.41088826
   0.07929927  0.68923501  0.64300021
   0.36912777  0.00031622  0.69173995
   0.41059920  0.02484096  0.93387130
   0.08815480  0.63756184  0.03470698
   0.70999072  0.96082336  0.63955026
   0.77766116  0.92233200  0.40018131
   0.73380386  0.91456881  0.99394898
   0.34929593  0.70300942  0.52736237
   0.28735367  0.78350225  0.36285653
   0.98945811  0.37638512  0.29886880
   0.97382459  0.43948823  0.05302832
   0.32815124  0.73512690  0.94910011
   0.97199813  0.31551597  0.62164568
   0.91624920  0.31645753  0.36455492
   0.63917426  0.99032492  0.30685098
   0.59967648  0.96290423  0.06534142
   0.91246712  0.36891411  0.95729782
   0.95425288  0.74772142  0.69508714
   0.97875927  0.70685719  0.07326355
   0.90609046  0.74476693  0.29172267
   0.31111839  0.94273936  0.66342952
   0.33306662  0.96348341  0.02396536
   0.35803168  0.89587534  0.25973714
   0.97630125  0.61125087  0.35716016
   0.74360886  0.31346378  0.68678558
   0.67907902  0.38339809  0.02477091
   0.75180367  0.35938471  0.25150598
   0.41613559  0.97706571  0.33473183
   0.71544550  0.50320548  0.67504627
   0.78729354  0.44696132  0.43843835
   0.11107203  0.21369736  0.22527027
   0.15220753  0.16816734  0.34690445
   0.08840271  0.26029235  0.88472071
   0.12736512  0.21336650  0.02432529
   0.68103602  0.10590889  0.25852280
   0.68420845  0.14694022  0.38425592
   0.65891362  0.08258193  0.91498084
   0.66797212  0.12112971  0.05554747
   0.01012320  0.44652166  0.57434586
   0.01529403  0.48674569  0.69889351
   0.22069443  0.66534596  0.28106478
   0.17178417  0.67567944  0.39560656
   0.27552284  0.62727741  0.96037415
   0.22610072  0.64080156  0.09112180
   0.55042630  0.00333062  0.57838256
   0.50369506  0.00872504  0.69506334
   0.24659895  0.07672827  0.41972786
   0.20726472  0.12333434  0.27878792
   0.22317131  0.12276698  0.07738120
   0.18241012  0.16851690  0.95601822
   0.67918588  0.24178512  0.46506183
   0.67670636  0.20104867  0.31819802
   0.00867204  0.58269242  0.78308085
   0.00372008  0.54280243  0.63630961
   0.66791850  0.21385980  0.11330427
   0.66209812  0.17459881  0.98806849
   0.08143840  0.67014530  0.46854605
   0.12744439  0.66430436  0.32679914
   0.41042453  0.00907951  0.75752269
   0.45833043  0.00033979  0.62062493
   0.12963725  0.64543831  0.12588027
   0.18037873  0.63264503  0.01749252
   0.76165565  0.92205835  0.57671574
   0.80314855  0.87628700  0.71661342
   0.78696616  0.87570066  0.91689935
   0.82900052  0.83193331  0.03993801
   0.31659423  0.76091119  0.51910025
   0.31786824  0.79943918  0.67687315
   0.98536295  0.42478243  0.23195402
   0.99372550  0.46320369  0.37432137
   0.32776036  0.78415311  0.88058357
   0.33519484  0.82251493  0.00712525
   0.92549906  0.31845509  0.55111394
   0.87787507  0.32861044  0.69101401
   0.59886724  0.98003226  0.24112363
   0.55071762  0.98835191  0.37603173
   0.87221647  0.35863682  0.87377218
   0.81849866  0.37876223  0.97345569
   0.90172995  0.78906125  0.77394121
   0.85971803  0.83365083  0.65085525
   0.92442205  0.74536676  0.11947334
   0.88539369  0.78930174  0.97427885
   0.31726962  0.89246158  0.74082975
   0.31102873  0.85352861  0.61432131
   0.34131643  0.91299821  0.08494538
   0.33068784  0.87585792  0.94252672
   0.98767625  0.55907001  0.43522677
   0.98341675  0.51849462  0.31026717
   0.78231514  0.33091822  0.74746778
   0.83401426  0.31444479  0.63785057
   0.73171384  0.37163075  0.07095294
   0.77512971  0.36400076  0.92181209
   0.45826458  0.98569644  0.41787697
   0.50530101  0.97995814  0.30148304
   0.75118850  0.47493890  0.55762917
   0.14065654  0.16795270  0.50074801
   0.69214503  0.13591726  0.53995792
   0.02755224  0.47407283  0.85183984
   0.16775040  0.69270409  0.54508295
   0.50257803  0.02021782  0.84971375
   0.19406728  0.16893611  0.80239319
   0.65385647  0.18569923  0.83252420
   0.18347950  0.61636864  0.86786531
   0.81734484  0.83111590  0.19320293
   0.34408364  0.81092777  0.16205790
   0.80972801  0.40988259  0.09445130
   0.87131310  0.83448384  0.49747272
   0.30242971  0.86559324  0.45961439
   0.97133386  0.53105470  0.15725260
   0.84204072  0.28541127  0.51054441
   0.50627160  0.96864037  0.14674423
   0.71102991  0.33049594  0.41205139
   0.28888456  0.02126015  0.79572623
   0.65950990  0.33251735  0.16261299
   0.95953500  0.68713878  0.49258838
   0.35792541  0.95534558  0.45836814
   0.35436588  0.02274965  0.13088177
   0.71855665  0.97349121  0.19830840
   0.33654557  0.67006094  0.75612603
   0.70027049  0.28201992  0.82510295
   0.98013638  0.31376360  0.16533630
   0.30302857  0.71340431  0.19392277
   0.97744614  0.37934489  0.85031306
   0.65192904  0.96833717  0.86662568
   0.02834690  0.61903448  0.15982012
   0.64497404  0.04153263  0.53929576
   0.02378877  0.69459726  0.84694131
   0.29322527  0.63348951  0.58422624
   0.04297643  0.31501694  0.50727940
   0.83103860  0.35215264  0.31089684
Direct configuration=    88
   0.05875219  0.25460428  0.30311976
   0.03772497  0.30143087  0.95061299
   0.10396990  0.26073214  0.70880266
   0.69035759  0.05439858  0.33482300
   0.66857200  0.03172766  0.97568689
   0.64135609  0.10007365  0.74038544
   0.02079247  0.39399267  0.64790406
   0.26328008  0.67670734  0.35374325
   0.31147014  0.64775783 -0.00789914
   0.28047413  0.59906360  0.79981234
   0.59201050  0.01300445  0.66068764
   0.29784492  0.03606318  0.35870537
   0.23011175  0.07703688  0.59538413
   0.27491829  0.08091648  0.99903895
   0.65536192  0.29853801  0.42647016
   0.70232542  0.22228554  0.63173486
   0.99181157  0.63673022  0.73749165
   0.02854637  0.56340369  0.95481356
   0.66671198  0.26263435  0.03763930
   0.04521062  0.65328019  0.41086028
   0.07929816  0.68923893  0.64297005
   0.36913085  0.00031396  0.69176348
   0.41059797  0.02484470  0.93389024
   0.08815802  0.63756468  0.03468798
   0.70998710  0.96083192  0.63955589
   0.77765878  0.92233509  0.40017197
   0.73380543  0.91457190  0.99393763
   0.34928069  0.70302235  0.52732061
   0.28733804  0.78352086  0.36284824
   0.98945228  0.37638515  0.29887456
   0.97381829  0.43948797  0.05303422
   0.32814571  0.73513077  0.94910717
   0.97199816  0.31550532  0.62165138
   0.91624477  0.31645348  0.36457335
   0.63917385  0.99031886  0.30686235
   0.59967304  0.96290719  0.06534526
   0.91246385  0.36891388  0.95729627
   0.95425258  0.74771852  0.69507482
   0.97876077  0.70685184  0.07325204
   0.90609081  0.74476746  0.29169630
   0.31111995  0.94274169  0.66344248
   0.33306656  0.96348270  0.02398683
   0.35803879  0.89587266  0.25975053
   0.97630480  0.61124635  0.35715267
   0.74359609  0.31347438  0.68680052
   0.67906878  0.38341268  0.02481527
   0.75180501  0.35939609  0.25150908
   0.41613224  0.97706990  0.33475306
   0.71544222  0.50321461  0.67502372
   0.78729485  0.44696611  0.43843359
   0.11106706  0.21369323  0.22527901
   0.15220325  0.16816456  0.34691648
   0.08839944  0.26028703  0.88472429
   0.12736056  0.21336334  0.02432629
   0.68104136  0.10590504  0.25853512
   0.68422395  0.14692627  0.38429577
   0.65890826  0.08258450  0.91499134
   0.66797019  0.12112582  0.05555088
   0.01011889  0.44651983  0.57434566
   0.01528995  0.48674330  0.69889583
   0.22069872  0.66533915  0.28103345
   0.17178907  0.67567473  0.39558390
   0.27552536  0.62727676  0.96033233
   0.22610618  0.64079857  0.09110105
   0.55042600  0.00333368  0.57839601
   0.50369343  0.00873057  0.69507636
   0.24659955  0.07672903  0.41974893
   0.20726209  0.12333390  0.27880567
   0.22316881  0.12276704  0.07739890
   0.18240693  0.16851506  0.95603022
   0.67920473  0.24177077  0.46508546
   0.67671994  0.20103901  0.31819477
   0.00867515  0.58268697  0.78307456
   0.00371976  0.54279928  0.63630349
   0.66793299  0.21385758  0.11335127
   0.66209906  0.17459890  0.98807653
   0.08143950  0.67014649  0.46851221
   0.12744745  0.66430144  0.32679153
   0.41042431  0.00908154  0.75754146
   0.45832969  0.00034342  0.62063900
   0.12964329  0.64543616  0.12586866
   0.18038245  0.63264231  0.01747051
   0.76165446  0.92206321  0.57670091
   0.80314963  0.87629053  0.71659887
   0.78696564  0.87570797  0.91689252
   0.82900324  0.83193900  0.03992732
   0.31657611  0.76092420  0.51907581
   0.31785479  0.79945080  0.67688279
   0.98535738  0.42478236  0.23195841
   0.99372239  0.46320294  0.37432066
   0.32775250  0.78415311  0.88057471
   0.33520020  0.82251459  0.00711652
   0.92549764  0.31845198  0.55111739
   0.87787083  0.32861238  0.69100087
   0.59886507  0.98003249  0.24111804
   0.55071610  0.98835467  0.37603931
   0.87220766  0.35864318  0.87376806
   0.81849148  0.37877147  0.97343923
   0.90173228  0.78906103  0.77392749
   0.85971797  0.83365334  0.65083121
   0.92442243  0.74536743  0.11946302
   0.88539496  0.78930682  0.97426422
   0.31726914  0.89246388  0.74084601
   0.31102123  0.85353528  0.61431420
   0.34132047  0.91299768  0.08494670
   0.33069496  0.87585387  0.94254380
   0.98767852  0.55906756  0.43521736
   0.98341838  0.51849139  0.31026011
   0.78230620  0.33092801  0.74746442
   0.83401013  0.31444473  0.63785409
   0.73170978  0.37163792  0.07095532
   0.77511771  0.36401509  0.92181418
   0.45826237  0.98569950  0.41789928
   0.50529904  0.97995953  0.30149771
   0.75119374  0.47494117  0.55759519
   0.14065030  0.16795216  0.50075943
   0.69217228  0.13590427  0.53994880
   0.02754730  0.47407181  0.85183577
   0.16775673  0.69269381  0.54505896
   0.50257851  0.02022267  0.84972659
   0.19406740  0.16893088  0.80240734
   0.65385076  0.18569757  0.83255814
   0.18347949  0.61637164  0.86785327
   0.81734435  0.83112474  0.19320296
   0.34410271  0.81091713  0.16204797
   0.80972731  0.40988495  0.09442009
   0.87131715  0.83448118  0.49744141
   0.30241847  0.86560064  0.45963077
   0.97133773  0.53104963  0.15724082
   0.84203386  0.28541552  0.51055162
   0.50626854  0.96864271  0.14676120
   0.71104175  0.33049710  0.41202558
   0.28888494  0.02126110  0.79575206
   0.65952580  0.33251384  0.16265704
   0.95953426  0.68713609  0.49256557
   0.35792825  0.95534729  0.45838702
   0.35436449  0.02274889  0.13091071
   0.71855184  0.97349356  0.19829826
   0.33653883  0.67006483  0.75607036
   0.70028671  0.28200411  0.82511769
   0.98013382  0.31376191  0.16533545
   0.30302628  0.71340468  0.19392941
   0.97744641  0.37934314  0.85031884
   0.65192580  0.96833553  0.86665538
   0.02834597  0.61903440  0.15980301
   0.64497398  0.04153690  0.53929395
   0.02378664  0.69459399  0.84693510
   0.29322652  0.63348063  0.58418395
   0.04297250  0.31501597  0.50727038
   0.83104363  0.35215033  0.31086955
Direct configuration=    89
   0.05873900  0.25458283  0.30313504
   0.03770892  0.30142127  0.95062835
   0.10395745  0.26072444  0.70881403
   0.69038120  0.05437078  0.33485820
   0.66855335  0.03173754  0.97573476
   0.64133643  0.10007598  0.74048676
   0.02078006  0.39398888  0.64789926
   0.26331024  0.67667929  0.35366084
   0.31147473  0.64775485 -0.00804585
   0.28047391  0.59904577  0.79974112
   0.59201340  0.01300696  0.66074526
   0.29784923  0.03607756  0.35879292
   0.23011002  0.07703606  0.59543372
   0.27491513  0.08092692  0.99910146
   0.65541760  0.29851360  0.42658006
   0.70240732  0.22223458  0.63178765
   0.99182944  0.63671406  0.73743414
   0.02855198  0.56339061  0.95477481
   0.66674927  0.26262074  0.03774524
   0.04519695  0.65329766  0.41077632
   0.07929481  0.68925067  0.64287960
   0.36914007  0.00030717  0.69183407
   0.41059428  0.02485592  0.93394708
   0.08816770  0.63757321  0.03463100
   0.70997623  0.96085761  0.63957277
   0.77765162  0.92234435  0.40014394
   0.73381015  0.91458115  0.99390360
   0.34923498  0.70306113  0.52719533
   0.28729115  0.78357671  0.36282335
   0.98943480  0.37638526  0.29889187
   0.97379941  0.43948720  0.05305190
   0.32812914  0.73514240  0.94912837
   0.97199825  0.31547336  0.62166848
   0.91623148  0.31644134  0.36462864
   0.63917261  0.99030066  0.30689647
   0.59966275  0.96291605  0.06535679
   0.91245404  0.36891318  0.95729160
   0.95425170  0.74770984  0.69503787
   0.97876526  0.70683582  0.07321750
   0.90609184  0.74476906  0.29161721
   0.31112463  0.94274870  0.66348137
   0.33306637  0.96348056  0.02405122
   0.35806010  0.89586463  0.25979073
   0.97631544  0.61123279  0.35713018
   0.74355779  0.31350618  0.68684534
   0.67903806  0.38345645  0.02494834
   0.75180902  0.35943024  0.25151838
   0.41612219  0.97708244  0.33481676
   0.71543238  0.50324201  0.67495606
   0.78729879  0.44698047  0.43841930
   0.11105212  0.21368084  0.22530522
   0.15219039  0.16815623  0.34695255
   0.08838963  0.26027106  0.88473501
   0.12734688  0.21335387  0.02432930
   0.68105738  0.10589349  0.25857208
   0.68427046  0.14688443  0.38441533
   0.65889217  0.08259223  0.91502285
   0.66796442  0.12111416  0.05556109
   0.01010596  0.44651435  0.57434507
   0.01527773  0.48673612  0.69890279
   0.22071160  0.66531872  0.28093947
   0.17180375  0.67566059  0.39551591
   0.27553290  0.62727481  0.96020686
   0.22612255  0.64078960  0.09103879
   0.55042507  0.00334287  0.57843635
   0.50368855  0.00874715  0.69511542
   0.24660136  0.07673133  0.41981214
   0.20725419  0.12333259  0.27885891
   0.22316131  0.12276725  0.07745201
   0.18239735  0.16850956  0.95606622
   0.67926129  0.24172774  0.46515633
   0.67676068  0.20101003  0.31818500
   0.00868447  0.58267062  0.78305571
   0.00371881  0.54278982  0.63628510
   0.66797644  0.21385093  0.11349228
   0.66210188  0.17459917  0.98810064
   0.08144281  0.67015008  0.46841067
   0.12745662  0.66429270  0.32676869
   0.41042365  0.00908766  0.75759779
   0.45832746  0.00035432  0.62068118
   0.12966144  0.64542970  0.12583383
   0.18039361  0.63263417  0.01740451
   0.76165089  0.92207781  0.57665640
   0.80315288  0.87630115  0.71655522
   0.78696408  0.87572991  0.91687201
   0.82901138  0.83195607  0.03989524
   0.31652174  0.76096325  0.51900248
   0.31781447  0.79948563  0.67691171
   0.98534067  0.42478214  0.23197158
   0.99371305  0.46320069  0.37431855
   0.32772891  0.78415312  0.88054813
   0.33521627  0.82251359  0.00709035
   0.92549340  0.31844263  0.55112774
   0.87785814  0.32861821  0.69096147
   0.59885854  0.98003318  0.24110127
   0.55071156  0.98836296  0.37606202
   0.87218121  0.35866227  0.87375571
   0.81846994  0.37879920  0.97338985
   0.90173924  0.78906037  0.77388632
   0.85971777  0.83366088  0.65075908
   0.92442355  0.74536942  0.11943209
   0.88539878  0.78932204  0.97422032
   0.31726770  0.89247079  0.74089478
   0.31099872  0.85355530  0.61429284
   0.34133259  0.91299612  0.08495064
   0.33071635  0.87584173  0.94259504
   0.98768533  0.55906020  0.43518915
   0.98342326  0.51848170  0.31023893
   0.78227937  0.33095736  0.74745435
   0.83399773  0.31444456  0.63786464
   0.73169759  0.37165945  0.07096246
   0.77508170  0.36405808  0.92182046
   0.45825575  0.98570869  0.41796621
   0.50529313  0.97996371  0.30154173
   0.75120947  0.47494799  0.55749325
   0.14063155  0.16795053  0.50079371
   0.69225401  0.13586527  0.53992144
   0.02753246  0.47406873  0.85182356
   0.16777573  0.69266296  0.54498701
   0.50257994  0.02023722  0.84976512
   0.19406776  0.16891518  0.80244978
   0.65383362  0.18569256  0.83265997
   0.18347946  0.61638063  0.86781716
   0.81734287  0.83115127  0.19320303
   0.34415992  0.81088521  0.16201819
   0.80972519  0.40989202  0.09432645
   0.87132932  0.83447318  0.49734748
   0.30238474  0.86562284  0.45967992
   0.97134932  0.53103443  0.15720549
   0.84201329  0.28542830  0.51057323
   0.50625937  0.96864973  0.14681209
   0.71107724  0.33050057  0.41194816
   0.28888608  0.02126396  0.79582955
   0.65957349  0.33250332  0.16278920
   0.95953205  0.68712799  0.49249711
   0.35793678  0.95535242  0.45844367
   0.35436034  0.02274660  0.13099753
   0.71853738  0.97350064  0.19826782
   0.33651863  0.67007649  0.75590334
   0.70033537  0.28195667  0.82516190
   0.98012613  0.31375683  0.16533289
   0.30301940  0.71340579  0.19394932
   0.97744720  0.37933788  0.85033618
   0.65191608  0.96833062  0.86674448
   0.02834317  0.61903417  0.15975170
   0.64497381  0.04154969  0.53928852
   0.02378026  0.69458419  0.84691647
   0.29323028  0.63345400  0.58405706
   0.04296070  0.31501306  0.50724330
   0.83105871  0.35214342  0.31078770
Direct configuration=    90
   0.05873287  0.25457287  0.30314214
   0.03770146  0.30141681  0.95063549
   0.10395166  0.26072086  0.70881932
   0.69039218  0.05435787  0.33487455
   0.66854469  0.03174213  0.97575700
   0.64132730  0.10007706  0.74053383
   0.02077430  0.39398711  0.64789703
   0.26332426  0.67666627  0.35362254
   0.31147686  0.64775347 -0.00811403
   0.28047381  0.59903749  0.79970803
   0.59201475  0.01300812  0.66077203
   0.29785123  0.03608424  0.35883360
   0.23010922  0.07703568  0.59545676
   0.27491365  0.08093177  0.99913050
   0.65544346  0.29850225  0.42663112
   0.70244538  0.22221090  0.63181217
   0.99183775  0.63670655  0.73740742
   0.02855459  0.56338453  0.95475681
   0.66676660  0.26261442  0.03779446
   0.04519060  0.65330577  0.41073731
   0.07929326  0.68925613  0.64283757
   0.36914436  0.00030401  0.69186687
   0.41059256  0.02486113  0.93397348
   0.08817220  0.63757717  0.03460452
   0.70997118  0.96086955  0.63958062
   0.77764830  0.92234865  0.40013092
   0.73381234  0.91458545  0.99388779
   0.34921374  0.70307915  0.52713712
   0.28726936  0.78360265  0.36281178
   0.98942667  0.37638531  0.29889991
   0.97379064  0.43948684  0.05306012
   0.32812145  0.73514780  0.94913822
   0.97199829  0.31545851  0.62167642
   0.91622530  0.31643569  0.36465433
   0.63917203  0.99029221  0.30691233
   0.59965796  0.96292017  0.06536215
   0.91244947  0.36891286  0.95728943
   0.95425128  0.74770580  0.69502070
   0.97876735  0.70682837  0.07320145
   0.90609232  0.74476980  0.29158045
   0.31112680  0.94275196  0.66349944
   0.33306628  0.96347957  0.02408114
   0.35807000  0.89586090  0.25980940
   0.97632038  0.61122648  0.35711973
   0.74353999  0.31352096  0.68686616
   0.67902379  0.38347679  0.02501017
   0.75181089  0.35944610  0.25152271
   0.41611752  0.97708828  0.33484636
   0.71542781  0.50325474  0.67492462
   0.78730061  0.44698714  0.43841267
   0.11104519  0.21367508  0.22531740
   0.15218442  0.16815236  0.34696931
   0.08838508  0.26026364  0.88473999
   0.12734052  0.21334947  0.02433070
   0.68106482  0.10588813  0.25858926
   0.68429207  0.14686498  0.38447088
   0.65888470  0.08259582  0.91503749
   0.66796174  0.12110874  0.05556583
   0.01009995  0.44651180  0.57434480
   0.01527205  0.48673278  0.69890602
   0.22071759  0.66530923  0.28089580
   0.17181057  0.67565402  0.39548431
   0.27553641  0.62727390  0.96014856
   0.22613016  0.64078543  0.09100986
   0.55042464  0.00334713  0.57845510
   0.50368629  0.00875485  0.69513356
   0.24660220  0.07673239  0.41984152
   0.20725052  0.12333198  0.27888364
   0.22315782  0.12276735  0.07747669
   0.18239290  0.16850700  0.95608295
   0.67928757  0.24170775  0.46518925
   0.67677960  0.20099657  0.31818046
   0.00868881  0.58266303  0.78304695
   0.00371837  0.54278542  0.63627656
   0.66799662  0.21384783  0.11355780
   0.66210320  0.17459929  0.98811185
   0.08144434  0.67015174  0.46836349
   0.12746088  0.66428863  0.32675807
   0.41042334  0.00909050  0.75762396
   0.45832642  0.00035938  0.62070079
   0.12966987  0.64542670  0.12581764
   0.18039879  0.63263038  0.01737384
   0.76164924  0.92208459  0.57663572
   0.80315440  0.87630608  0.71653493
   0.78696335  0.87574010  0.91686248
   0.82901516  0.83196400  0.03988033
   0.31649647  0.76098139  0.51896841
   0.31779573  0.79950182  0.67692515
   0.98533290  0.42478204  0.23197770
   0.99370871  0.46319965  0.37431757
   0.32771796  0.78415313  0.88053578
   0.33522374  0.82251313  0.00707819
   0.92549142  0.31843828  0.55113254
   0.87785225  0.32862091  0.69094316
   0.59885551  0.98003350  0.24109348
   0.55070944  0.98836681  0.37607258
   0.87216892  0.35867113  0.87374997
   0.81845993  0.37881209  0.97336691
   0.90174248  0.78906006  0.77386719
   0.85971769  0.83366439  0.65072557
   0.92442407  0.74537035  0.11941772
   0.88540055  0.78932912  0.97419993
   0.31726703  0.89247400  0.74091744
   0.31098826  0.85356460  0.61428292
   0.34133822  0.91299539  0.08495248
   0.33072628  0.87583609  0.94261884
   0.98768849  0.55905678  0.43517604
   0.98342553  0.51847720  0.31022909
   0.78226690  0.33097099  0.74744967
   0.83399197  0.31444448  0.63786954
   0.73169193  0.37166945  0.07096577
   0.77506498  0.36407805  0.92182338
   0.45825268  0.98571296  0.41799731
   0.50529038  0.97996565  0.30156218
   0.75121678  0.47495116  0.55744589
   0.14062284  0.16794977  0.50080964
   0.69229199  0.13584715  0.53990873
   0.02752557  0.47406729  0.85181788
   0.16778456  0.69264863  0.54495358
   0.50258060  0.02024398  0.84978302
   0.19406792  0.16890788  0.80246950
   0.65382565  0.18569024  0.83270728
   0.18347945  0.61638480  0.86780037
   0.81734218  0.83116359  0.19320307
   0.34418650  0.81087039  0.16200435
   0.80972420  0.40989530  0.09428295
   0.87133498  0.83446946  0.49730383
   0.30236907  0.86563316  0.45970275
   0.97135471  0.53102736  0.15718908
   0.84200373  0.28543424  0.51058327
   0.50625510  0.96865300  0.14683573
   0.71109374  0.33050218  0.41191219
   0.28888661  0.02126528  0.79586556
   0.65959565  0.33249843  0.16285061
   0.95953102  0.68712423  0.49246530
   0.35794074  0.95535480  0.45847000
   0.35435841  0.02274554  0.13103787
   0.71853067  0.97350393  0.19825368
   0.33650924  0.67008192  0.75582573
   0.70035797  0.28193462  0.82518244
   0.98012256  0.31375448  0.16533170
   0.30301621  0.71340630  0.19395858
   0.97744756  0.37933543  0.85034424
   0.65191157  0.96832833  0.86678588
   0.02834187  0.61903406  0.15972785
   0.64497372  0.04155564  0.53928599
   0.02377729  0.69457964  0.84690781
   0.29323202  0.63344162  0.58399810
   0.04295522  0.31501170  0.50723073
   0.83106572  0.35214020  0.31074967
Direct configuration=    91
   0.05872577  0.25456568  0.30315087
   0.03769568  0.30141308  0.95064014
   0.10394702  0.26071732  0.70882353
   0.69040294  0.05434772  0.33488906
   0.66853736  0.03174645  0.97577578
   0.64131961  0.10007751  0.74056977
   0.02077035  0.39398495  0.64789331
   0.26333565  0.67665810  0.35358821
   0.31147900  0.64775327 -0.00817905
   0.28047397  0.59903343  0.79967232
   0.59201648  0.01300914  0.66079027
   0.29785323  0.03608954  0.35886843
   0.23010859  0.07703554  0.59547890
   0.27491286  0.08093481  0.99915506
   0.65546490  0.29849289  0.42667293
   0.70247693  0.22218995  0.63183511
   0.99184475  0.63669983  0.73738391
   0.02855688  0.56337942  0.95474327
   0.66678258  0.26260826  0.03783633
   0.04518780  0.65331359  0.41070281
   0.07929120  0.68925960  0.64279472
   0.36914739  0.00030219  0.69189791
   0.41059001  0.02486484  0.93399374
   0.08817696  0.63757997  0.03457993
   0.70996979  0.96087714  0.63958390
   0.77764568  0.92235221  0.40012700
   0.73381348  0.91458909  0.99387643
   0.34919679  0.70309292  0.52709113
   0.28724989  0.78362573  0.36280004
   0.98941965  0.37638488  0.29890726
   0.97378380  0.43948625  0.05306572
   0.32811502  0.73515267  0.94914864
   0.97199930  0.31544558  0.62168144
   0.91622103  0.31643153  0.36467532
   0.63917327  0.99028463  0.30692985
   0.59965230  0.96292386  0.06536413
   0.91244459  0.36891347  0.95729242
   0.95425015  0.74770222  0.69500836
   0.97876723  0.70682308  0.07318902
   0.90609311  0.74476968  0.29155142
   0.31112826  0.94275413  0.66350692
   0.33306687  0.96347896  0.02411114
   0.35807725  0.89585969  0.25981212
   0.97632367  0.61122229  0.35710845
   0.74352383  0.31353333  0.68687990
   0.67901144  0.38349359  0.02505920
   0.75181434  0.35945875  0.25152529
   0.41611440  0.97709281  0.33487290
   0.71543512  0.50325678  0.67485998
   0.78731234  0.44698518  0.43837398
   0.11103996  0.21366941  0.22532364
   0.15217890  0.16814960  0.34698309
   0.08838020  0.26025884  0.88474322
   0.12733521  0.21334484  0.02433709
   0.68107165  0.10588328  0.25860322
   0.68430991  0.14684990  0.38449768
   0.65887749  0.08259684  0.91505720
   0.66795885  0.12110698  0.05557665
   0.01009484  0.44651028  0.57434736
   0.01526717  0.48673036  0.69890665
   0.22072283  0.66530252  0.28086551
   0.17181575  0.67564762  0.39545976
   0.27554112  0.62727063  0.96010071
   0.22613589  0.64078202  0.09097526
   0.55042363  0.00335133  0.57847305
   0.50368344  0.00876097  0.69514804
   0.24660197  0.07673398  0.41986662
   0.20724781  0.12333120  0.27890590
   0.22315534  0.12276732  0.07749880
   0.18238890  0.16850482  0.95609794
   0.67931061  0.24169170  0.46521344
   0.67679620  0.20098541  0.31818995
   0.00869173  0.58265731  0.78303702
   0.00371762  0.54278117  0.63626831
   0.66801162  0.21384458  0.11359522
   0.66210652  0.17459773  0.98813329
   0.08144422  0.67015329  0.46832651
   0.12746385  0.66428538  0.32674702
   0.41042436  0.00909291  0.75764560
   0.45832473  0.00036380  0.62071869
   0.12967597  0.64542431  0.12580703
   0.18040273  0.63262689  0.01734935
   0.76164516  0.92209303  0.57661926
   0.80315568  0.87630999  0.71651848
   0.78696535  0.87574657  0.91684701
   0.82901858  0.83197082  0.03987118
   0.31647532  0.76099648  0.51893905
   0.31777875  0.79951384  0.67693317
   0.98532629  0.42478221  0.23198315
   0.99370552  0.46319872  0.37431774
   0.32770884  0.78415397  0.88053431
   0.33522884  0.82251171  0.00706901
   0.92548989  0.31843442  0.55114111
   0.87784645  0.32862348  0.69092940
   0.59885194  0.98003394  0.24109524
   0.55070786  0.98836987  0.37608340
   0.87215934  0.35867726  0.87373918
   0.81845277  0.37882236  0.97334705
   0.90174410  0.78906108  0.77384488
   0.85971877  0.83366606  0.65070023
   0.92442421  0.74537091  0.11940082
   0.88540114  0.78933589  0.97418417
   0.31726657  0.89247803  0.74093782
   0.31097921  0.85357522  0.61428599
   0.34134497  0.91299311  0.08495896
   0.33073420  0.87582965  0.94263803
   0.98769085  0.55905245  0.43516711
   0.98342733  0.51847328  0.31022025
   0.78225666  0.33098153  0.74744390
   0.83398558  0.31444760  0.63786837
   0.73168463  0.37168221  0.07096699
   0.77505245  0.36409194  0.92181665
   0.45824976  0.98571651  0.41802131
   0.50528837  0.97996734  0.30158094
   0.75120184  0.47497081  0.55747497
   0.14061546  0.16794876  0.50082547
   0.69232581  0.13583110  0.53991179
   0.02751963  0.47406626  0.85181338
   0.16779211  0.69263594  0.54492549
   0.50258123  0.02024950  0.84979617
   0.19406815  0.16890156  0.80248476
   0.65381947  0.18568738  0.83274203
   0.18348141  0.61638751  0.86777842
   0.81734207  0.83117390  0.19319968
   0.34420873  0.81085887  0.16198377
   0.80972302  0.40990032  0.09425996
   0.87133834  0.83446705  0.49727360
   0.30235505  0.86564261  0.45971182
   0.97135896  0.53102169  0.15717492
   0.84199499  0.28543979  0.51060350
   0.50625077  0.96865543  0.14685238
   0.71110766  0.33050241  0.41189409
   0.28888671  0.02126736  0.79589684
   0.65961266  0.33249539  0.16290041
   0.95953060  0.68712067  0.49243965
   0.35794422  0.95535641  0.45849381
   0.35435711  0.02274498  0.13106664
   0.71852521  0.97350559  0.19824447
   0.33650155  0.67008607  0.75575583
   0.70037680  0.28191608  0.82520127
   0.98011898  0.31375277  0.16533380
   0.30301383  0.71340553  0.19396774
   0.97744760  0.37933309  0.85035226
   0.65190864  0.96832669  0.86681824
   0.02834129  0.61903385  0.15970588
   0.64497427  0.04155989  0.53928082
   0.02377693  0.69457509  0.84689345
   0.29323257  0.63342926  0.58396947
   0.04295160  0.31501021  0.50721801
   0.83107226  0.35213759  0.31071886
Direct configuration=    92
   0.05871787  0.25455769  0.30316058
   0.03768925  0.30140893  0.95064532
   0.10394186  0.26071337  0.70882821
   0.69041491  0.05433643  0.33490519
   0.66852920  0.03175125  0.97579667
   0.64131106  0.10007800  0.74060973
   0.02076595  0.39398255  0.64788917
   0.26334832  0.67664901  0.35355002
   0.31148138  0.64775304 -0.00825137
   0.28047415  0.59902893  0.79963261
   0.59201841  0.01301028  0.66081056
   0.29785546  0.03609542  0.35890716
   0.23010790  0.07703538  0.59550353
   0.27491197  0.08093819  0.99918237
   0.65548873  0.29848248  0.42671942
   0.70251202  0.22216664  0.63186063
   0.99185253  0.63669235  0.73735776
   0.02855943  0.56337374  0.95472820
   0.66680036  0.26260142  0.03788290
   0.04518469  0.65332228  0.41066443
   0.07928891  0.68926347  0.64274705
   0.36915076  0.00030016  0.69193243
   0.41058717  0.02486896  0.93401628
   0.08818226  0.63758309  0.03455259
   0.70996824  0.96088557  0.63958754
   0.77764276  0.92235617  0.40012264
   0.73381474  0.91459313  0.99386379
   0.34917795  0.70310823  0.52703998
   0.28722823  0.78365140  0.36278698
   0.98941184  0.37638441  0.29891545
   0.97377620  0.43948560  0.05307195
   0.32810787  0.73515808  0.94916023
   0.97200042  0.31543120  0.62168702
   0.91621627  0.31642690  0.36469867
   0.63917464  0.99027620  0.30694933
   0.59964601  0.96292796  0.06536633
   0.91243917  0.36891414  0.95729574
   0.95424889  0.74769823  0.69499463
   0.97876710  0.70681720  0.07317519
   0.90609400  0.74476954  0.29151912
   0.31112988  0.94275655  0.66351524
   0.33306752  0.96347828  0.02414452
   0.35808532  0.89585834  0.25981515
   0.97632732  0.61121763  0.35709590
   0.74350586  0.31354709  0.68689519
   0.67899771  0.38351228  0.02511373
   0.75181817  0.35947282  0.25152817
   0.41611093  0.97709784  0.33490242
   0.71544324  0.50325905  0.67478807
   0.78732538  0.44698301  0.43833095
   0.11103414  0.21366310  0.22533059
   0.15217277  0.16814653  0.34699841
   0.08837477  0.26025349  0.88474681
   0.12732929  0.21333969  0.02434419
   0.68107925  0.10587788  0.25861874
   0.68432975  0.14683313  0.38452749
   0.65886947  0.08259797  0.91507912
   0.66795564  0.12110502  0.05558868
   0.01008917  0.44650860  0.57435021
   0.01526176  0.48672767  0.69890735
   0.22072866  0.66529505  0.28083183
   0.17182150  0.67564050  0.39543245
   0.27554635  0.62726699  0.96004749
   0.22614227  0.64077823  0.09093678
   0.55042251  0.00335600  0.57849303
   0.50368028  0.00876779  0.69516414
   0.24660171  0.07673575  0.41989453
   0.20724480  0.12333032  0.27893066
   0.22315258  0.12276728  0.07752340
   0.18238445  0.16850241  0.95611462
   0.67933624  0.24167385  0.46524034
   0.67681466  0.20097300  0.31820050
   0.00869498  0.58265094  0.78302599
   0.00371679  0.54277644  0.63625914
   0.66802830  0.21384096  0.11363683
   0.66211021  0.17459599  0.98815713
   0.08144407  0.67015502  0.46828537
   0.12746716  0.66428176  0.32673473
   0.41042549  0.00909560  0.75766966
   0.45832284  0.00036872  0.62073860
   0.12968276  0.64542165  0.12579523
   0.18040710  0.63262300  0.01732211
   0.76164062  0.92210242  0.57660095
   0.80315711  0.87631434  0.71650018
   0.78696757  0.87575376  0.91682981
   0.82902240  0.83197841  0.03986101
   0.31645179  0.76101327  0.51890639
   0.31775987  0.79952721  0.67694209
   0.98531894  0.42478241  0.23198921
   0.99370197  0.46319770  0.37431792
   0.32769869  0.78415491  0.88053268
   0.33523451  0.82251013  0.00705879
   0.92548818  0.31843013  0.55115064
   0.87784000  0.32862634  0.69091410
   0.59884796  0.98003444  0.24109719
   0.55070609  0.98837329  0.37609544
   0.87214870  0.35868407  0.87372718
   0.81844482  0.37883379  0.97332495
   0.90174591  0.78906221  0.77382007
   0.85971997  0.83366793  0.65067204
   0.92442436  0.74537152  0.11938203
   0.88540179  0.78934343  0.97416665
   0.31726605  0.89248251  0.74096048
   0.31096916  0.85358702  0.61428941
   0.34135247  0.91299056  0.08496616
   0.33074301  0.87582250  0.94265937
   0.98769347  0.55904764  0.43515719
   0.98342933  0.51846892  0.31021041
   0.78224527  0.33099325  0.74743749
   0.83397848  0.31445106  0.63786706
   0.73167651  0.37169640  0.07096835
   0.77503852  0.36410738  0.92180916
   0.45824652  0.98572046  0.41804800
   0.50528613  0.97996922  0.30160180
   0.75118522  0.47499266  0.55750733
   0.14060724  0.16794762  0.50084309
   0.69236342  0.13581324  0.53991520
   0.02751301  0.47406512  0.85180836
   0.16780051  0.69262182  0.54489423
   0.50258193  0.02025565  0.84981081
   0.19406841  0.16889454  0.80250173
   0.65381259  0.18568421  0.83278068
   0.18348359  0.61639051  0.86775401
   0.81734194  0.83118535  0.19319591
   0.34423345  0.81084607  0.16196088
   0.80972169  0.40990590  0.09423439
   0.87134208  0.83446436  0.49723998
   0.30233946  0.86565312  0.45972190
   0.97136368  0.53101539  0.15715918
   0.84198525  0.28544596  0.51062601
   0.50624595  0.96865813  0.14687089
   0.71112314  0.33050265  0.41187396
   0.28888682  0.02126967  0.79593163
   0.65963157  0.33249202  0.16295580
   0.95953014  0.68711672  0.49241113
   0.35794810  0.95535819  0.45852030
   0.35435566  0.02274435  0.13109863
   0.71851914  0.97350743  0.19823422
   0.33649299  0.67009068  0.75567809
   0.70039774  0.28189545  0.82522222
   0.98011500  0.31375088  0.16533612
   0.30301118  0.71340468  0.19397793
   0.97744764  0.37933048  0.85036119
   0.65190538  0.96832486  0.86685423
   0.02834065  0.61903362  0.15968145
   0.64497488  0.04156461  0.53927507
   0.02377653  0.69457003  0.84687747
   0.29323319  0.63341551  0.58393763
   0.04294757  0.31500855  0.50720386
   0.83107954  0.35213469  0.31068458
Direct configuration=    93
   0.05870954  0.25455268  0.30317072
   0.03768523  0.30140533  0.95064733
   0.10393798  0.26070962  0.70883232
   0.69042581  0.05432935  0.33491741
   0.66852294  0.03175392  0.97581535
   0.64130357  0.10007881  0.74062896
   0.02076349  0.39397975  0.64788406
   0.26335695  0.67664464  0.35351809
   0.31148372  0.64775424 -0.00831699
   0.28047471  0.59902803  0.79959140
   0.59202034  0.01301120  0.66082078
   0.29785782  0.03609949  0.35893792
   0.23010729  0.07703554  0.59552715
   0.27491192  0.08093944  0.99920418
   0.65550813  0.29847212  0.42675677
   0.70253822  0.22214759  0.63187790
   0.99185880  0.63668579  0.73733629
   0.02856166  0.56336924  0.95471967
   0.66681629  0.26259539  0.03791950
   0.04518454  0.65332975  0.41062977
   0.07928615  0.68926541  0.64270451
   0.36915254  0.00029944  0.69196289
   0.41058392  0.02487151  0.93403297
   0.08818703  0.63758469  0.03452933
   0.70997034  0.96088942  0.63958650
   0.77764065  0.92235957  0.40012211
   0.73381497  0.91459628  0.99385571
   0.34916373  0.70311919  0.52700072
   0.28720936  0.78367266  0.36277058
   0.98940540  0.37638378  0.29892213
   0.97377085  0.43948479  0.05307517
   0.32810223  0.73516167  0.94917086
   0.97200314  0.31541948  0.62169103
   0.91621394  0.31642383  0.36471077
   0.63917764  0.99026903  0.30696818
   0.59963894  0.96293134  0.06536501
   0.91243335  0.36891561  0.95730248
   0.95424718  0.74769462  0.69498549
   0.97876457  0.70681404  0.07316364
   0.90609446  0.74476864  0.29150095
   0.31113074  0.94275799  0.66351551
   0.33306836  0.96347911  0.02417261
   0.35809083  0.89585904  0.25980560
   0.97632936  0.61121503  0.35708317
   0.74349136  0.31355817  0.68690218
   0.67898703  0.38352652  0.02515240
   0.75182274  0.35948311  0.25152523
   0.41610921  0.97710124  0.33492756
   0.71544143  0.50326761  0.67475634
   0.78732888  0.44698714  0.43832009
   0.11102983  0.21365749  0.22533199
   0.15216754  0.16814449  0.34701081
   0.08836896  0.26025126  0.88474838
   0.12732448  0.21333468  0.02435611
   0.68108612  0.10587205  0.25863165
   0.68434456  0.14682331  0.38451681
   0.65886229  0.08259705  0.91510825
   0.66795281  0.12110825  0.05561111
   0.01008465  0.44650799  0.57435458
   0.01525726  0.48672638  0.69890364
   0.22073417  0.66529089  0.28081313
   0.17182614  0.67563352  0.39541191
   0.27555190  0.62726157  0.96001063
   0.22614623  0.64077519  0.09089450
   0.55042101  0.00336028  0.57850940
   0.50367732  0.00877269  0.69517579
   0.24660022  0.07673808  0.41991712
   0.20724279  0.12332941  0.27895140
   0.22315076  0.12276727  0.07754464
   0.18238113  0.16850002  0.95612845
   0.67935777  0.24166190  0.46525942
   0.67683070  0.20096276  0.31823513
   0.00869645  0.58264710  0.78301183
   0.00371573  0.54277216  0.63625139
   0.66803848  0.21383521  0.11363975
   0.66211595  0.17459255  0.98819720
   0.08144231  0.67015694  0.46825895
   0.12746978  0.66427877  0.32671774
   0.41042740  0.00909780  0.75768894
   0.45832034  0.00037288  0.62075693
   0.12968645  0.64541972  0.12578635
   0.18041067  0.63262007  0.01730556
   0.76163458  0.92211191  0.57659451
   0.80315795  0.87631788  0.71648515
   0.78697285  0.87575641  0.91680841
   0.82902484  0.83198528  0.03985766
   0.31643397  0.76102732  0.51888772
   0.31774363  0.79953496  0.67694056
   0.98531320  0.42478252  0.23199470
   0.99369970  0.46319645  0.37431920
   0.32769101  0.78415885  0.88054245
   0.33523791  0.82250531  0.00705452
   0.92548654  0.31842628  0.55116376
   0.87783329  0.32862937  0.69090979
   0.59884400  0.98003520  0.24111196
   0.55070445  0.98837581  0.37610875
   0.87214297  0.35868723  0.87370847
   0.81843880  0.37884201  0.97330674
   0.90174525  0.78906517  0.77379447
   0.85972226  0.83366795  0.65065330
   0.92442448  0.74537190  0.11935697
   0.88540233  0.78934930  0.97415464
   0.31726573  0.89248681  0.74097620
   0.31096104  0.85359886  0.61431215
   0.34136086  0.91298561  0.08498056
   0.33074877  0.87581752  0.94266784
   0.98769508  0.55904224  0.43515129
   0.98343068  0.51846550  0.31020150
   0.78223613  0.33100145  0.74743239
   0.83397031  0.31445866  0.63786418
   0.73166708  0.37171291  0.07097234
   0.77503022  0.36411582  0.92178866
   0.45824412  0.98572345  0.41806505
   0.50528453  0.97997098  0.30162035
   0.75118761  0.47499806  0.55748131
   0.14060075  0.16794626  0.50085897
   0.69239550  0.13579762  0.53993930
   0.02750774  0.47406429  0.85180657
   0.16780732  0.69261038  0.54487252
   0.50258241  0.02026035  0.84982034
   0.19406856  0.16888891  0.80251412
   0.65380762  0.18568123  0.83280213
   0.18348749  0.61639160  0.86772291
   0.81734272  0.83119424  0.19318683
   0.34425273  0.81083709  0.16193251
   0.80971994  0.40991367  0.09423291
   0.87134312  0.83446322  0.49722228
   0.30232610  0.86566268  0.45971673
   0.97136713  0.53101067  0.15714718
   0.84197700  0.28545043  0.51065289
   0.50624128  0.96865993  0.14688242
   0.71113579  0.33050137  0.41187589
   0.28888668  0.02127245  0.79595964
   0.65964400  0.33249033  0.16299518
   0.95953037  0.68711306  0.49239028
   0.35795114  0.95535908  0.45854299
   0.35435486  0.02274449  0.13111731
   0.71851478  0.97350745  0.19822953
   0.33648634  0.67009376  0.75561352
   0.70041369  0.28187937  0.82524176
   0.98011100  0.31374971  0.16534216
   0.30300960  0.71340285  0.19398599
   0.97744702  0.37932811  0.85036982
   0.65190412  0.96832403  0.86687727
   0.02834105  0.61903319  0.15965973
   0.64497603  0.04156717  0.53926799
   0.02377901  0.69456545  0.84685503
   0.29323270  0.63340296  0.58393354
   0.04294542  0.31500668  0.50719080
   0.83108576  0.35213299  0.31065940
Direct configuration=    94
   0.05868455  0.25453766  0.30320115
   0.03767318  0.30139454  0.95065338
   0.10392633  0.26069837  0.70884466
   0.69045851  0.05430811  0.33495409
   0.66850415  0.03176193  0.97587141
   0.64128110  0.10008125  0.74068666
   0.02075611  0.39397136  0.64786871
   0.26338283  0.67663151  0.35342229
   0.31149074  0.64775784 -0.00851384
   0.28047640  0.59902533  0.79946778
   0.59202613  0.01301399  0.66085144
   0.29786492  0.03611169  0.35903019
   0.23010546  0.07703602  0.59559801
   0.27491178  0.08094320  0.99926960
   0.65556631  0.29844103  0.42686881
   0.70261682  0.22209042  0.63192971
   0.99187762  0.63666611  0.73727189
   0.02856836  0.56335574  0.95469407
   0.66686408  0.26257730  0.03802930
   0.04518410  0.65335215  0.41052579
   0.07927788  0.68927122  0.64257686
   0.36915788  0.00029731  0.69205428
   0.41057416  0.02487917  0.93408306
   0.08820135  0.63758947  0.03445954
   0.70997664  0.96090095  0.63958337
   0.77763433  0.92236975  0.40012052
   0.73381567  0.91460574  0.99383146
   0.34912106  0.70315206  0.52688294
   0.28715275  0.78373643  0.36272140
   0.98938607  0.37638192  0.29894217
   0.97375478  0.43948236  0.05308483
   0.32808531  0.73517242  0.94920275
   0.97201132  0.31538435  0.62170306
   0.91620695  0.31641461  0.36474707
   0.63918661  0.99024753  0.30702473
   0.59961772  0.96294149  0.06536108
   0.91241590  0.36892000  0.95732270
   0.95424204  0.74768379  0.69495809
   0.97875700  0.70680457  0.07312897
   0.90609585  0.74476596  0.29144646
   0.31113330  0.94276230  0.66351630
   0.33307089  0.96348160  0.02425689
   0.35810738  0.89586112  0.25977696
   0.97633548  0.61120722  0.35704498
   0.74344784  0.31359140  0.68692317
   0.67895500  0.38356924  0.02526841
   0.75183643  0.35951400  0.25151643
   0.41610407  0.97711142  0.33500300
   0.71543598  0.50329328  0.67466114
   0.78733940  0.44699956  0.43828749
   0.11101691  0.21364065  0.22533618
   0.15215184  0.16813838  0.34704802
   0.08835153  0.26024456  0.88475309
   0.12731005  0.21331966  0.02439187
   0.68110674  0.10585455  0.25867036
   0.68438901  0.14679386  0.38448475
   0.65884075  0.08259429  0.91519565
   0.66794432  0.12111796  0.05567838
   0.01007110  0.44650616  0.57436771
   0.01524375  0.48672249  0.69889254
   0.22075073  0.66527839  0.28075705
   0.17184007  0.67561257  0.39535031
   0.27556855  0.62724531  0.95990005
   0.22615810  0.64076608  0.09076765
   0.55041651  0.00337313  0.57855850
   0.50366844  0.00878739  0.69521074
   0.24659573  0.07674504  0.41998488
   0.20723677  0.12332669  0.27901363
   0.22314528  0.12276725  0.07760837
   0.18237116  0.16849285  0.95616993
   0.67942235  0.24162604  0.46531668
   0.67687883  0.20093206  0.31833900
   0.00870086  0.58263559  0.78296936
   0.00371252  0.54275930  0.63622815
   0.66806901  0.21381797  0.11364852
   0.66213319  0.17458224  0.98831740
   0.08143702  0.67016272  0.46817966
   0.12747763  0.66426978  0.32666678
   0.41043316  0.00910441  0.75774676
   0.45831283  0.00038538  0.62081191
   0.12969751  0.64541393  0.12575974
   0.18042138  0.63261127  0.01725594
   0.76161647  0.92214036  0.57657520
   0.80316047  0.87632851  0.71644006
   0.78698866  0.87576436  0.91674419
   0.82903216  0.83200590  0.03984761
   0.31638050  0.76106946  0.51883172
   0.31769492  0.79955821  0.67693596
   0.98529597  0.42478286  0.23201117
   0.99369286  0.46319269  0.37432305
   0.32766799  0.78417070  0.88057175
   0.33524812  0.82249084  0.00704170
   0.92548161  0.31841471  0.55120313
   0.87781316  0.32863845  0.69089686
   0.59883212  0.98003746  0.24115627
   0.55069952  0.98838338  0.37614871
   0.87212577  0.35869672  0.87365232
   0.81842076  0.37886666  0.97325210
   0.90174328  0.78907404  0.77371766
   0.85972914  0.83366803  0.65059709
   0.92442484  0.74537302  0.11928177
   0.88540394  0.78936694  0.97411860
   0.31726479  0.89249970  0.74102338
   0.31093670  0.85363439  0.61438038
   0.34138603  0.91297076  0.08502374
   0.33076603  0.87580259  0.94269327
   0.98769991  0.55902602  0.43513361
   0.98343473  0.51845526  0.31017476
   0.78220874  0.33102605  0.74741707
   0.83394579  0.31448146  0.63785551
   0.73163882  0.37176241  0.07098432
   0.77500533  0.36414115  0.92172716
   0.45823694  0.98573241  0.41811621
   0.50527971  0.97997623  0.30167603
   0.75119477  0.47501425  0.55740324
   0.14058126  0.16794217  0.50090661
   0.69249174  0.13575077  0.54001159
   0.02749191  0.47406180  0.85180118
   0.16782773  0.69257604  0.54480736
   0.50258383  0.02027445  0.84984893
   0.19406899  0.16887202  0.80255131
   0.65379271  0.18567231  0.83286649
   0.18349921  0.61639486  0.86762961
   0.81734506  0.83122088  0.19315962
   0.34431055  0.81081017  0.16184741
   0.80971466  0.40993698  0.09422848
   0.87134623  0.83445978  0.49716919
   0.30228602  0.86569137  0.45970124
   0.97137749  0.53099650  0.15711117
   0.84195223  0.28546383  0.51073351
   0.50622727  0.96866531  0.14691701
   0.71117372  0.33049751  0.41188168
   0.28888628  0.02128079  0.79604369
   0.65968126  0.33248527  0.16311333
   0.95953108  0.68710207  0.49232775
   0.35796025  0.95536173  0.45861103
   0.35435246  0.02274494  0.13117335
   0.71850169  0.97350751  0.19821545
   0.33646638  0.67010301  0.75541982
   0.70046153  0.28183112  0.82530037
   0.98009902  0.31374620  0.16536025
   0.30300485  0.71339736  0.19401016
   0.97744517  0.37932098  0.85039571
   0.65190034  0.96832154  0.86694638
   0.02834224  0.61903190  0.15959456
   0.64497947  0.04157486  0.53924674
   0.02378644  0.69455169  0.84678771
   0.29323122  0.63336529  0.58392128
   0.04293897  0.31500107  0.50715161
   0.83110441  0.35212789  0.31058384
Direct configuration=    95
   0.05863458  0.25450762  0.30326202
   0.03764909  0.30137297  0.95066547
   0.10390303  0.26067586  0.70886934
   0.69052391  0.05426563  0.33502743
   0.66846657  0.03177795  0.97598353
   0.64123615  0.10008614  0.74080205
   0.02074135  0.39395459  0.64783801
   0.26343459  0.67660524  0.35323069
   0.31150478  0.64776504 -0.00890754
   0.28047978  0.59901992  0.79922053
   0.59203772  0.01301955  0.66091275
   0.29787912  0.03613610  0.35921473
   0.23010181  0.07703697  0.59573972
   0.27491149  0.08095072  0.99940045
   0.65568268  0.29837885  0.42709288
   0.70277401  0.22197609  0.63203333
   0.99191527  0.63662674  0.73714308
   0.02858175  0.56332873  0.95464288
   0.66695966  0.26254112  0.03824890
   0.04518322  0.65339695  0.41031784
   0.07926132  0.68928286  0.64232157
   0.36916856  0.00029303  0.69223705
   0.41055464  0.02489449  0.93418324
   0.08823000  0.63759904  0.03431997
   0.70998925  0.96092402  0.63957712
   0.77762169  0.92239012  0.40011734
   0.73381707  0.91462465  0.99378295
   0.34903574  0.70321781  0.52664738
   0.28703954  0.78386399  0.36262304
   0.98934742  0.37637818  0.29898225
   0.97372266  0.43947748  0.05310416
   0.32805147  0.73519392  0.94926653
   0.97202766  0.31531409  0.62172711
   0.91619297  0.31639618  0.36481968
   0.63920455  0.99020451  0.30713783
   0.59957528  0.96296178  0.06535321
   0.91238101  0.36892879  0.95736315
   0.95423177  0.74766212  0.69490328
   0.97874185  0.70678562  0.07305963
   0.90609863  0.74476058  0.29133746
   0.31113844  0.94277094  0.66351790
   0.33307593  0.96348657  0.02442545
   0.35814046  0.89586527  0.25971966
   0.97634771  0.61119160  0.35696862
   0.74336081  0.31365786  0.68696515
   0.67889094  0.38365468  0.02550043
   0.75186381  0.35957576  0.25149883
   0.41609378  0.97713179  0.33515387
   0.71542510  0.50334462  0.67447075
   0.78736044  0.44702439  0.43822230
   0.11099106  0.21360697  0.22534457
   0.15212044  0.16812615  0.34712244
   0.08831667  0.26023117  0.88476251
   0.12728118  0.21328961  0.02446339
   0.68114799  0.10581955  0.25874778
   0.68447791  0.14673497  0.38442063
   0.65879769  0.08258876  0.91537046
   0.66792734  0.12113737  0.05581293
   0.01004400  0.44650249  0.57439397
   0.01521674  0.48671472  0.69887032
   0.22078385  0.66525338  0.28064488
   0.17186793  0.67557068  0.39522710
   0.27560185  0.62721280  0.95967888
   0.22618186  0.64074785  0.09051397
   0.55040751  0.00339882  0.57865670
   0.50365067  0.00881680  0.69528065
   0.24658677  0.07675897  0.42012041
   0.20722472  0.12332123  0.27913808
   0.22313433  0.12276721  0.07773583
   0.18235123  0.16847852  0.95625290
   0.67955151  0.24155433  0.46543119
   0.67697508  0.20087066  0.31854674
   0.00870967  0.58261257  0.78288442
   0.00370612  0.54273359  0.63618166
   0.66813008  0.21378349  0.11366605
   0.66216765  0.17456161  0.98855780
   0.08142643  0.67017428  0.46802108
   0.12749334  0.66425181  0.32656486
   0.41044467  0.00911763  0.75786242
   0.45829782  0.00041037  0.62092187
   0.12971964  0.64540235  0.12570650
   0.18044279  0.63259367  0.01715669
   0.76158024  0.92219727  0.57653659
   0.80316550  0.87634978  0.71634988
   0.78702030  0.87578025  0.91661575
   0.82904682  0.83204713  0.03982751
   0.31627356  0.76115374  0.51871972
   0.31759750  0.79960471  0.67692677
   0.98526152  0.42478353  0.23204410
   0.99367919  0.46318517  0.37433075
   0.32762193  0.78419438  0.88063035
   0.33526852  0.82246190  0.00701608
   0.92547176  0.31839157  0.55128187
   0.87777291  0.32865663  0.69087101
   0.59880834  0.98004198  0.24124489
   0.55068965  0.98839853  0.37622861
   0.87209139  0.35871569  0.87354003
   0.81838469  0.37891597  0.97314283
   0.90173934  0.78909179  0.77356404
   0.85974291  0.83366819  0.65048465
   0.92442556  0.74537527  0.11913137
   0.88540716  0.78940222  0.97404653
   0.31726289  0.89252549  0.74111772
   0.31088801  0.85370543  0.61451684
   0.34143638  0.91294104  0.08511011
   0.33080057  0.87577273  0.94274412
   0.98770957  0.55899359  0.43509824
   0.98344283  0.51843476  0.31012128
   0.78215394  0.33107524  0.74738643
   0.83389676  0.31452706  0.63783817
   0.73158229  0.37186142  0.07100827
   0.77495553  0.36419181  0.92160415
   0.45822257  0.98575032  0.41821851
   0.50527008  0.97998674  0.30178737
   0.75120911  0.47504664  0.55724712
   0.14054229  0.16793399  0.50100190
   0.69268422  0.13565706  0.54015616
   0.02746025  0.47405681  0.85179041
   0.16786855  0.69250737  0.54467706
   0.50258667  0.02030265  0.84990612
   0.19406986  0.16883824  0.80262569
   0.65376289  0.18565446  0.83299521
   0.18352265  0.61640137  0.86744300
   0.81734972  0.83127416  0.19310519
   0.34442620  0.81075631  0.16167722
   0.80970411  0.40998361  0.09421960
   0.87135246  0.83445290  0.49706300
   0.30220585  0.86574875  0.45967024
   0.97139820  0.53096818  0.15703916
   0.84190268  0.28549062  0.51089477
   0.50619924  0.96867608  0.14698620
   0.71124959  0.33048980  0.41189326
   0.28888546  0.02129747  0.79621177
   0.65975580  0.33247514  0.16334962
   0.95953248  0.68708008  0.49220268
   0.35797849  0.95536704  0.45874712
   0.35434766  0.02274582  0.13128543
   0.71847551  0.97350763  0.19818729
   0.33642646  0.67012149  0.75503242
   0.70055721  0.28173462  0.82541759
   0.98007506  0.31373917  0.16539645
   0.30299536  0.71338639  0.19405850
   0.97744147  0.37930673  0.85044750
   0.65189278  0.96831655  0.86708460
   0.02834463  0.61902931  0.15946422
   0.64498635  0.04159023  0.53920425
   0.02380130  0.69452418  0.84665307
   0.29322827  0.63328996  0.58389677
   0.04292607  0.31498985  0.50707323
   0.83114172  0.35211768  0.31043274
Direct configuration=    96
   0.05866605  0.25452654  0.30322369
   0.03766426  0.30138655  0.95065786
   0.10391770  0.26069003  0.70885380
   0.69048272  0.05429238  0.33498125
   0.66849023  0.03176786  0.97591293
   0.64126446  0.10008306  0.74072939
   0.02075065  0.39396515  0.64785734
   0.26340199  0.67662178  0.35335135
   0.31149594  0.64776051 -0.00865962
   0.28047765  0.59902332  0.79937623
   0.59203042  0.01301605  0.66087414
   0.29787018  0.03612073  0.35909852
   0.23010411  0.07703637  0.59565048
   0.27491167  0.08094598  0.99931805
   0.65560940  0.29841801  0.42695178
   0.70267502  0.22204809  0.63196808
   0.99189156  0.63665153  0.73722419
   0.02857331  0.56334574  0.95467512
   0.66689947  0.26256390  0.03811062
   0.04518378  0.65336874  0.41044879
   0.07927175  0.68927553  0.64248233
   0.36916184  0.00029572  0.69212196
   0.41056693  0.02488484  0.93412015
   0.08821196  0.63759302  0.03440786
   0.70998131  0.96090950  0.63958106
   0.77762965  0.92237729  0.40011934
   0.73381619  0.91461274  0.99381349
   0.34908947  0.70317641  0.52679572
   0.28711083  0.78378367  0.36268498
   0.98937176  0.37638053  0.29895701
   0.97374289  0.43948055  0.05309199
   0.32807278  0.73518038  0.94922637
   0.97201737  0.31535834  0.62171197
   0.91620177  0.31640779  0.36477396
   0.63919325  0.99023160  0.30706661
   0.59960200  0.96294900  0.06535816
   0.91240298  0.36892326  0.95733768
   0.95423824  0.74767577  0.69493780
   0.97875139  0.70679755  0.07310330
   0.90609688  0.74476397  0.29140610
   0.31113521  0.94276550  0.66351690
   0.33307275  0.96348344  0.02431930
   0.35811963  0.89586266  0.25975574
   0.97634001  0.61120143  0.35701671
   0.74341562  0.31361601  0.68693872
   0.67893128  0.38360087  0.02535432
   0.75184656  0.35953687  0.25150992
   0.41610026  0.97711896  0.33505886
   0.71543195  0.50331229  0.67459064
   0.78734719  0.44700875  0.43826336
   0.11100734  0.21362818  0.22533929
   0.15214021  0.16813385  0.34707558
   0.08833862  0.26023960  0.88475658
   0.12729936  0.21330853  0.02441835
   0.68112201  0.10584159  0.25869902
   0.68442193  0.14677206  0.38446101
   0.65882481  0.08259224  0.91526038
   0.66793804  0.12112515  0.05572820
   0.01006107  0.44650480  0.57437743
   0.01523375  0.48671962  0.69888431
   0.22076300  0.66526913  0.28071552
   0.17185039  0.67559706  0.39530468
   0.27558088  0.62723327  0.95981816
   0.22616690  0.64075933  0.09067372
   0.55041318  0.00338264  0.57859486
   0.50366186  0.00879828  0.69523663
   0.24659241  0.07675020  0.42003507
   0.20723231  0.12332467  0.27905971
   0.22314122  0.12276724  0.07765557
   0.18236378  0.16848755  0.95620065
   0.67947017  0.24159949  0.46535908
   0.67691447  0.20090933  0.31841592
   0.00870412  0.58262707  0.78293791
   0.00371015  0.54274978  0.63621094
   0.66809162  0.21380520  0.11365501
   0.66214595  0.17457460  0.98840641
   0.08143310  0.67016700  0.46812094
   0.12748345  0.66426312  0.32662904
   0.41043742  0.00910930  0.75778959
   0.45830727  0.00039463  0.62085262
   0.12970571  0.64540964  0.12574003
   0.18042931  0.63260475  0.01721919
   0.76160305  0.92216143  0.57656091
   0.80316233  0.87633639  0.71640667
   0.78700038  0.87577024  0.91669663
   0.82903759  0.83202116  0.03984017
   0.31634090  0.76110066  0.51879025
   0.31765885  0.79957543  0.67693256
   0.98528322  0.42478311  0.23202336
   0.99368780  0.46318990  0.37432590
   0.32765093  0.78417946  0.88059345
   0.33525567  0.82248012  0.00703222
   0.92547796  0.31840614  0.55123229
   0.87779826  0.32864518  0.69088729
   0.59882331  0.98003913  0.24118909
   0.55069586  0.98838899  0.37617829
   0.87211304  0.35870374  0.87361074
   0.81840741  0.37888492  0.97321164
   0.90174182  0.78908061  0.77366078
   0.85973424  0.83366809  0.65055545
   0.92442511  0.74537386  0.11922608
   0.88540514  0.78938000  0.97409191
   0.31726408  0.89250925  0.74105831
   0.31091867  0.85366069  0.61443091
   0.34140468  0.91295975  0.08505573
   0.33077882  0.87579153  0.94271210
   0.98770349  0.55901401  0.43512051
   0.98343773  0.51844767  0.31015496
   0.78218845  0.33104426  0.74740572
   0.83392763  0.31449835  0.63784909
   0.73161789  0.37179907  0.07099318
   0.77498689  0.36415991  0.92168161
   0.45823162  0.98573904  0.41815409
   0.50527614  0.97998012  0.30171725
   0.75120008  0.47502625  0.55734543
   0.14056683  0.16793914  0.50094189
   0.69256301  0.13571607  0.54006512
   0.02748019  0.47405995  0.85179719
   0.16784284  0.69255061  0.54475911
   0.50258488  0.02028489  0.84987011
   0.19406931  0.16885951  0.80257886
   0.65378167  0.18566570  0.83291415
   0.18350789  0.61639727  0.86756051
   0.81734678  0.83124061  0.19313946
   0.34435337  0.81079023  0.16178440
   0.80971075  0.40995425  0.09422519
   0.87134854  0.83445723  0.49712987
   0.30225633  0.86571262  0.45968976
   0.97138516  0.53098602  0.15708450
   0.84193388  0.28547375  0.51079322
   0.50621689  0.96866930  0.14694263
   0.71120181  0.33049466  0.41188597
   0.28888598  0.02128697  0.79610592
   0.65970886  0.33248152  0.16320082
   0.95953160  0.68709392  0.49228144
   0.35796701  0.95536370  0.45866142
   0.35435068  0.02274526  0.13121485
   0.71849200  0.97350755  0.19820502
   0.33645160  0.67010985  0.75527637
   0.70049696  0.28179539  0.82534377
   0.98009015  0.31374360  0.16537366
   0.30300134  0.71339330  0.19402806
   0.97744380  0.37931570  0.85041489
   0.65189754  0.96831969  0.86699756
   0.02834312  0.61903094  0.15954630
   0.64498202  0.04158055  0.53923101
   0.02379194  0.69454150  0.84673785
   0.29323013  0.63333740  0.58391220
   0.04293419  0.31499692  0.50712259
   0.83111823  0.35212411  0.31052789
Direct configuration=    97
   0.05865310  0.25451592  0.30323409
   0.03765666  0.30138228  0.95066158
   0.10391118  0.26068257  0.70886233
   0.69050353  0.05428378  0.33500224
   0.66848062  0.03176221  0.97596352
   0.64125177  0.10008358  0.74075957
   0.02074736  0.39395989  0.64784936
   0.26341267  0.67661425  0.35331262
   0.31149909  0.64776437 -0.00877799
   0.28047911  0.59901880  0.79930620
   0.59203277  0.01301735  0.66088032
   0.29787243  0.03612909  0.35915348
   0.23010227  0.07703809  0.59569536
   0.27491142  0.08094687  0.99936048
   0.65564586  0.29839303  0.42701817
   0.70271536  0.22201820  0.63198007
   0.99190236  0.63664106  0.73718356
   0.02857558  0.56334016  0.95465236
   0.66693097  0.26255071  0.03815940
   0.04517681  0.65337783  0.41036401
   0.07926544  0.68928132  0.64244780
   0.36916405  0.00029538  0.69217254
   0.41056273  0.02488953  0.93416205
   0.08821659  0.63759288  0.03436507
   0.70997577  0.96092287  0.63959169
   0.77762572  0.92238553  0.40010311
   0.73382191  0.91461314  0.99378944
   0.34906177  0.70320014  0.52671692
   0.28707946  0.78381451  0.36265763
   0.98935956  0.37638182  0.29896545
   0.97373505  0.43947831  0.05309944
   0.32806290  0.73518299  0.94924256
   0.97202295  0.31533865  0.62172487
   0.91620070  0.31640378  0.36477936
   0.63919730  0.99021779  0.30709544
   0.59958607  0.96295872  0.06538891
   0.91239086  0.36892595  0.95734355
   0.95423431  0.74766818  0.69491621
   0.97874882  0.70679199  0.07305680
   0.90609645  0.74476228  0.29137652
   0.31113568  0.94277109  0.66351785
   0.33307376  0.96348606  0.02435474
   0.35813580  0.89585690  0.25978990
   0.97634438  0.61119291  0.35699748
   0.74339577  0.31363600  0.68694250
   0.67891487  0.38362547  0.02541298
   0.75185186  0.35955487  0.25148055
   0.41609798  0.97712304  0.33509934
   0.71541958  0.50333502  0.67456162
   0.78734735  0.44702201  0.43826640
   0.11099353  0.21362188  0.22535972
   0.15213217  0.16812888  0.34710219
   0.08833102  0.26023353  0.88476259
   0.12728960  0.21330128  0.02442574
   0.68113471  0.10582767  0.25869775
   0.68445377  0.14675629  0.38450598
   0.65880796  0.08260413  0.91529755
   0.66793522  0.12112217  0.05580701
   0.01005361  0.44650173  0.57437475
   0.01522684  0.48671706  0.69888558
   0.22077467  0.66526190  0.28066435
   0.17186511  0.67558185  0.39526550
   0.27559053  0.62722461  0.95976930
   0.22617396  0.64075767  0.09063129
   0.55041030  0.00339002  0.57861498
   0.50365952  0.00880644  0.69525919
   0.24659188  0.07675169  0.42008046
   0.20722713  0.12332501  0.27909585
   0.22313911  0.12276657  0.07769260
   0.18236032  0.16848075  0.95622518
   0.67951157  0.24157955  0.46541237
   0.67694143  0.20089906  0.31843633
   0.00870733  0.58261831  0.78291747
   0.00370695  0.54274540  0.63619794
   0.66810821  0.21379352  0.11370300
   0.66215333  0.17457209  0.98842025
   0.08143602  0.67017135  0.46806423
   0.12748898  0.66425720  0.32658312
   0.41043508  0.00911280  0.75782252
   0.45830359  0.00040178  0.62087976
   0.12971039  0.64540620  0.12570576
   0.18043645  0.63259849  0.01717646
   0.76160788  0.92216405  0.57656990
   0.80316532  0.87634199  0.71637119
   0.78700609  0.87577573  0.91667228
   0.82904334  0.83203351  0.03982401
   0.31631028  0.76112851  0.51876364
   0.31763041  0.79959358  0.67693810
   0.98527446  0.42478080  0.23203258
   0.99368406  0.46318562  0.37432733
   0.32763663  0.78418671  0.88058970
   0.33526042  0.82247396  0.00702391
   0.92547693  0.31839695  0.55125091
   0.87778746  0.32865135  0.69089413
   0.59882114  0.98003813  0.24120984
   0.55069067  0.98839375  0.37621840
   0.87210839  0.35870942  0.87359325
   0.81839253  0.37890012  0.97318716
   0.90173988  0.78908436  0.77364066
   0.85973178  0.83367398  0.65052071
   0.92442105  0.74537605  0.11919240
   0.88540795  0.78938835  0.97406540
   0.31726427  0.89251672  0.74108826
   0.31090021  0.85367084  0.61444650
   0.34141573  0.91295401  0.08503891
   0.33078608  0.87579124  0.94270566
   0.98770369  0.55900895  0.43510013
   0.98343929  0.51844105  0.31013761
   0.78217117  0.33105562  0.74739043
   0.83390386  0.31452168  0.63785495
   0.73160289  0.37183227  0.07100770
   0.77497530  0.36417536  0.92165500
   0.45823005  0.98574440  0.41818545
   0.50527184  0.97998334  0.30173842
   0.75122040  0.47502355  0.55724553
   0.14055585  0.16793606  0.50096523
   0.69261891  0.13568955  0.54007697
   0.02747075  0.47405904  0.85179698
   0.16785452  0.69253191  0.54473827
   0.50258463  0.02029293  0.84988517
   0.19406819  0.16885040  0.80260442
   0.65377654  0.18565768  0.83296840
   0.18351680  0.61639773  0.86749796
   0.81734950  0.83125572  0.19311999
   0.34438710  0.81077408  0.16174498
   0.80970682  0.40996975  0.09423721
   0.87134681  0.83445728  0.49711023
   0.30223368  0.86573038  0.45970405
   0.97139079  0.53097813  0.15706696
   0.84192006  0.28547628  0.51083198
   0.50620766  0.96867269  0.14697089
   0.71122574  0.33049044  0.41192481
   0.28888687  0.02129155  0.79615255
   0.65972358  0.33247855  0.16325341
   0.95953285  0.68708759  0.49224805
   0.35797140  0.95536507  0.45870309
   0.35434970  0.02274739  0.13123573
   0.71848777  0.97350309  0.19820577
   0.33643974  0.67011398  0.75517113
   0.70052157  0.28176867  0.82538665
   0.98008104  0.31374189  0.16539265
   0.30300029  0.71339047  0.19403468
   0.97744032  0.37931121  0.85043209
   0.65189814  0.96831984  0.86702052
   0.02834652  0.61902920  0.15950392
   0.64498458  0.04158256  0.53922229
   0.02379936  0.69453468  0.84668711
   0.29322682  0.63332135  0.58388937
   0.04293174  0.31499216  0.50709921
   0.83112965  0.35212235  0.31048681
Direct configuration=    98
   0.05864653  0.25451054  0.30323936
   0.03765281  0.30138012  0.95066347
   0.10390787  0.26067879  0.70886665
   0.69051408  0.05427942  0.33501288
   0.66847575  0.03175934  0.97598917
   0.64124533  0.10008384  0.74077487
   0.02074570  0.39395722  0.64784532
   0.26341809  0.67661044  0.35329299
   0.31150069  0.64776633 -0.00883800
   0.28047985  0.59901651  0.79927070
   0.59203396  0.01301801  0.66088345
   0.29787358  0.03613333  0.35918135
   0.23010134  0.07703896  0.59571812
   0.27491129  0.08094731  0.99938198
   0.65566434  0.29838037  0.42705182
   0.70273581  0.22200306  0.63198615
   0.99190784  0.63663576  0.73716295
   0.02857673  0.56333733  0.95464082
   0.66694694  0.26254401  0.03818413
   0.04517328  0.65338244  0.41032104
   0.07926224  0.68928425  0.64243030
   0.36916517  0.00029521  0.69219818
   0.41056061  0.02489190  0.93418328
   0.08821893  0.63759280  0.03434338
   0.70997296  0.96092964  0.63959708
   0.77762372  0.92238970  0.40009488
   0.73382481  0.91461334  0.99377724
   0.34904772  0.70321218  0.52667697
   0.28706355  0.78383014  0.36264377
   0.98935338  0.37638247  0.29896973
   0.97373108  0.43947717  0.05310322
   0.32805789  0.73518431  0.94925077
   0.97202578  0.31532867  0.62173142
   0.91620016  0.31640175  0.36478210
   0.63919936  0.99021079  0.30711005
   0.59957799  0.96296365  0.06540449
   0.91238471  0.36892732  0.95734653
   0.95423231  0.74766433  0.69490526
   0.97874751  0.70678917  0.07303322
   0.90609624  0.74476142  0.29136152
   0.31113592  0.94277392  0.66351833
   0.33307427  0.96348739  0.02437271
   0.35814400  0.89585398  0.25980721
   0.97634659  0.61118859  0.35698774
   0.74338571  0.31364614  0.68694441
   0.67890655  0.38363793  0.02544272
   0.75185455  0.35956400  0.25146566
   0.41609682  0.97712510  0.33511986
   0.71541331  0.50334654  0.67454691
   0.78734743  0.44702873  0.43826795
   0.11098652  0.21361868  0.22537008
   0.15212810  0.16812636  0.34711568
   0.08832717  0.26023046  0.88476564
   0.12728466  0.21329760  0.02442948
   0.68114115  0.10582061  0.25869710
   0.68446991  0.14674829  0.38452879
   0.65879942  0.08261015  0.91531640
   0.66793380  0.12112065  0.05584697
   0.01004983  0.44650017  0.57437338
   0.01522334  0.48671576  0.69888622
   0.22078058  0.66525824  0.28063841
   0.17187258  0.67557413  0.39524564
   0.27559542  0.62722022  0.95974454
   0.22617753  0.64075683  0.09060979
   0.55040885  0.00339376  0.57862518
   0.50365833  0.00881057  0.69527063
   0.24659161  0.07675245  0.42010347
   0.20722451  0.12332518  0.27911417
   0.22313804  0.12276623  0.07771137
   0.18235856  0.16847730  0.95623761
   0.67953256  0.24156945  0.46543939
   0.67695510  0.20089386  0.31844668
   0.00870896  0.58261387  0.78290711
   0.00370533  0.54274318  0.63619135
   0.66811662  0.21378760  0.11372733
   0.66215707  0.17457082  0.98842727
   0.08143750  0.67017355  0.46803549
   0.12749179  0.66425419  0.32655984
   0.41043390  0.00911458  0.75783921
   0.45830172  0.00040540  0.62089352
   0.12971277  0.64540446  0.12568839
   0.18044007  0.63259532  0.01715479
   0.76161033  0.92216538  0.57657447
   0.80316683  0.87634483  0.71635320
   0.78700898  0.87577851  0.91665993
   0.82904626  0.83203977  0.03981582
   0.31629475  0.76114263  0.51875015
   0.31761600  0.79960278  0.67694090
   0.98527001  0.42477963  0.23203726
   0.99368217  0.46318345  0.37432805
   0.32762938  0.78419038  0.88058780
   0.33526282  0.82247084  0.00701970
   0.92547641  0.31839230  0.55126035
   0.87778198  0.32865447  0.69089759
   0.59882003  0.98003763  0.24122035
   0.55068803  0.98839616  0.37623873
   0.87210603  0.35871230  0.87358438
   0.81838499  0.37890783  0.97317475
   0.90173890  0.78908626  0.77363046
   0.85973053  0.83367696  0.65050309
   0.92441900  0.74537716  0.11917533
   0.88540937  0.78939259  0.97405196
   0.31726437  0.89252051  0.74110345
   0.31089085  0.85367598  0.61445441
   0.34142133  0.91295109  0.08503039
   0.33078976  0.87579109  0.94270240
   0.98770380  0.55900638  0.43508980
   0.98344007  0.51843769  0.31012882
   0.78216241  0.33106137  0.74738268
   0.83389181  0.31453351  0.63785792
   0.73159529  0.37184910  0.07101505
   0.77496942  0.36418319  0.92164151
   0.45822926  0.98574712  0.41820136
   0.50526966  0.97998497  0.30174915
   0.75123070  0.47502218  0.55719488
   0.14055028  0.16793450  0.50097706
   0.69264725  0.13567611  0.54008297
   0.02746597  0.47405857  0.85179687
   0.16786044  0.69252243  0.54472770
   0.50258450  0.02029701  0.84989281
   0.19406762  0.16884578  0.80261737
   0.65377394  0.18565362  0.83299590
   0.18352132  0.61639796  0.86746625
   0.81735088  0.83126338  0.19311012
   0.34440420  0.81076590  0.16172499
   0.80970483  0.40997761  0.09424330
   0.87134594  0.83445731  0.49710027
   0.30222220  0.86573939  0.45971130
   0.97139364  0.53097413  0.15705807
   0.84191306  0.28547756  0.51085163
   0.50620298  0.96867441  0.14698521
   0.71123786  0.33048830  0.41194451
   0.28888732  0.02129387  0.79617618
   0.65973103  0.33247705  0.16328007
   0.95953348  0.68708438  0.49223112
   0.35797363  0.95536576  0.45872421
   0.35434920  0.02274847  0.13124632
   0.71848563  0.97350082  0.19820614
   0.33643373  0.67011608  0.75511777
   0.70053404  0.28175513  0.82540839
   0.98007643  0.31374103  0.16540228
   0.30299975  0.71338903  0.19403803
   0.97743856  0.37930893  0.85044081
   0.65189845  0.96831991  0.86703217
   0.02834823  0.61902832  0.15948244
   0.64498588  0.04158357  0.53921786
   0.02380312  0.69453123  0.84666138
   0.29322515  0.63331322  0.58387779
   0.04293049  0.31498974  0.50708736
   0.83113544  0.35212146  0.31046599
Direct configuration=    99
   0.05863624  0.25450074  0.30324420
   0.03764606  0.30137776  0.95066809
   0.10390264  0.26067203  0.70887384
   0.69053238  0.05427271  0.33503136
   0.66846697  0.03175466  0.97603556
   0.64123514  0.10008443  0.74080242
   0.02074323  0.39395257  0.64784060
   0.26342488  0.67660343  0.35327233
   0.31150214  0.64777035 -0.00893517
   0.28048112  0.59901023  0.79922331
   0.59203528  0.01301910  0.66088238
   0.29787470  0.03614074  0.35922778
   0.23009933  0.07704122  0.59575779
   0.27491094  0.08094737  0.99942073
   0.65569591  0.29835757  0.42710759
   0.70276828  0.22197879  0.63199860
   0.99191700  0.63662731  0.73712734
   0.02857779  0.56333385  0.95461856
   0.66697534  0.26253058  0.03821800
   0.04516566  0.65338873  0.41024031
   0.07925704  0.68928941  0.64241643
   0.36916555  0.00029522  0.69223648
   0.41055853  0.02489581  0.93422351
   0.08822026  0.63759076  0.03430608
   0.70996726  0.96094131  0.63961077
   0.77762003  0.92239767  0.40007965
   0.73383267  0.91461059  0.99375099
   0.34902215  0.70323600  0.52660549
   0.28703864  0.78385166  0.36262418
   0.98934264  0.37638408  0.29897585
   0.97372541  0.43947470  0.05311035
   0.32804960  0.73518504  0.94925721
   0.97202969  0.31531288  0.62174597
   0.91620102  0.31639926  0.36477981
   0.63920286  0.99019860  0.30713212
   0.59956322  0.96297359  0.06544472
   0.91237519  0.36892978  0.95734857
   0.95422767  0.74765790  0.69488281
   0.97874546  0.70678526  0.07297707
   0.90609497  0.74476017  0.29133585
   0.31113566  0.94277993  0.66352347
   0.33307475  0.96348948  0.02439182
   0.35815986  0.89584612  0.25984690
   0.97635085  0.61117948  0.35697217
   0.74337203  0.31366232  0.68694348
   0.67889473  0.38365845  0.02548720
   0.75185678  0.35957906  0.25143398
   0.41609532  0.97712742  0.33515131
   0.71541954  0.50335275  0.67446555
   0.78736309  0.44702865  0.43822104
   0.11097274  0.21361448  0.22539345
   0.15212124  0.16812204  0.34713983
   0.08832233  0.26022379  0.88477291
   0.12727605  0.21329195  0.02443135
   0.68115324  0.10581038  0.25870700
   0.68449945  0.14673611  0.38458529
   0.65878467  0.08262149  0.91534673
   0.66793122  0.12111571  0.05590952
   0.01004428  0.44649636  0.57436708
   0.01521784  0.48671350  0.69888890
   0.22079053  0.66525265  0.28058991
   0.17188821  0.67556001  0.39521180
   0.27560282  0.62721403  0.95970821
   0.22618414  0.64075626  0.09058749
   0.55040618  0.00339968  0.57863837
   0.50365752  0.00881719  0.69529040
   0.24659186  0.07675282  0.42014493
   0.20721970  0.12332607  0.27914469
   0.22313660  0.12276529  0.07774293
   0.18235615  0.16847083  0.95625896
   0.67956796  0.24155250  0.46548088
   0.67697833  0.20088599  0.31845177
   0.00871175  0.58260632  0.78289026
   0.00370189  0.54274097  0.63618074
   0.66812993  0.21377780  0.11378030
   0.66216197  0.17456855  0.98842884
   0.08144063  0.67017732  0.46798481
   0.12749821  0.66424922  0.32651596
   0.41042947  0.00911774  0.75787037
   0.45829962  0.00041146  0.62091555
   0.12971649  0.64540091  0.12564127
   0.18044675  0.63258984  0.01711087
   0.76161914  0.92216342  0.57658563
   0.80316960  0.87634924  0.71632535
   0.78701142  0.87578391  0.91664741
   0.82905209  0.83205008  0.03979492
   0.31626903  0.76116715  0.51872707
   0.31759250  0.79961967  0.67694975
   0.98526359  0.42477690  0.23204313
   0.99367889  0.46317901  0.37432620
   0.32761720  0.78419546  0.88057711
   0.33526611  0.82246913  0.00700609
   0.92547702  0.31838323  0.55127092
   0.87777437  0.32866004  0.69090870
   0.59881956  0.98003601  0.24124088
   0.55068266  0.98839982  0.37627435
   0.87210190  0.35871827  0.87358464
   0.81837175  0.37892201  0.97316176
   0.90173736  0.78908829  0.77362311
   0.85972638  0.83368358  0.65047800
   0.92441523  0.74537836  0.11915409
   0.88541244  0.78939836  0.97403000
   0.31726384  0.89252552  0.74111621
   0.31087263  0.85368130  0.61445474
   0.34143003  0.91294767  0.08501531
   0.33079464  0.87579451  0.94269027
   0.98770262  0.55900418  0.43506794
   0.98344093  0.51843160  0.31011532
   0.78214703  0.33107144  0.74737318
   0.83386838  0.31455615  0.63786032
   0.73158392  0.37187804  0.07102382
   0.77495922  0.36419807  0.92163084
   0.45822882  0.98575161  0.41822830
   0.50526564  0.97998824  0.30176437
   0.75121585  0.47504552  0.55721482
   0.14054140  0.16793138  0.50099434
   0.69269406  0.13565401  0.54007885
   0.02745805  0.47405807  0.85179950
   0.16787040  0.69250729  0.54471771
   0.50258350  0.02030377  0.84990650
   0.19406577  0.16883865  0.80264133
   0.65377150  0.18564607  0.83304149
   0.18352985  0.61639757  0.86741169
   0.81735412  0.83127572  0.19309191
   0.34443235  0.81075181  0.16170258
   0.80970107  0.40999006  0.09425414
   0.87134263  0.83445868  0.49708594
   0.30220377  0.86575472  0.45974014
   0.97139804  0.53096769  0.15704477
   0.84190164  0.28547743  0.51088058
   0.50619485  0.96867732  0.14701284
   0.71125885  0.33048421  0.41199322
   0.28888872  0.02129741  0.79621278
   0.65973915  0.33247431  0.16331395
   0.95953513  0.68707920  0.49220519
   0.35797674  0.95536665  0.45875741
   0.35434869  0.02275152  0.13125817
   0.71848440  0.97349437  0.19821212
   0.33642375  0.67011905  0.75503647
   0.70055246  0.28173420  0.82544901
   0.98006778  0.31373958  0.16542303
   0.30300003  0.71338756  0.19403804
   0.97743434  0.37930512  0.85045550
   0.65190037  0.96832121  0.86704001
   0.02835254  0.61902628  0.15944446
   0.64498840  0.04158324  0.53921341
   0.02380981  0.69452693  0.84661461
   0.29322090  0.63330473  0.58383958
   0.04292887  0.31498491  0.50706926
   0.83114545  0.35212033  0.31043290
Direct configuration=   100
   0.05862843  0.25449329  0.30324787
   0.03764093  0.30137597  0.95067160
   0.10389866  0.26066690  0.70887930
   0.69054629  0.05426762  0.33504540
   0.66846031  0.03175111  0.97607079
   0.64122740  0.10008487  0.74082335
   0.02074135  0.39394903  0.64783701
   0.26343005  0.67659811  0.35325664
   0.31150324  0.64777340 -0.00900897
   0.28048208  0.59900546  0.79918733
   0.59203628  0.01301992  0.66088157
   0.29787555  0.03614636  0.35926305
   0.23009781  0.07704295  0.59578792
   0.27491068  0.08094741  0.99945016
   0.65571988  0.29834026  0.42714994
   0.70279294  0.22196035  0.63200805
   0.99192396  0.63662089  0.73710028
   0.02857860  0.56333121  0.95460165
   0.66699691  0.26252038  0.03824373
   0.04515987  0.65339351  0.41017900
   0.07925309  0.68929332  0.64240589
   0.36916584  0.00029522  0.69226557
   0.41055695  0.02489879  0.93425406
   0.08822128  0.63758921  0.03427775
   0.70996293  0.96095018  0.63962116
   0.77761724  0.92240372  0.40006809
   0.73383864  0.91460851  0.99373105
   0.34900272  0.70325409  0.52655120
   0.28701972  0.78386801  0.36260930
   0.98933448  0.37638530  0.29898050
   0.97372110  0.43947283  0.05311576
   0.32804330  0.73518559  0.94926210
   0.97203266  0.31530088  0.62175702
   0.91620167  0.31639737  0.36477806
   0.63920552  0.99018935  0.30714889
   0.59955200  0.96298114  0.06547527
   0.91236796  0.36893165  0.95735011
   0.95422414  0.74765302  0.69486576
   0.97874390  0.70678229  0.07293442
   0.90609400  0.74475922  0.29131635
   0.31113547  0.94278450  0.66352738
   0.33307511  0.96349107  0.02440633
   0.35817190  0.89584014  0.25987704
   0.97635408  0.61117257  0.35696035
   0.74336164  0.31367461  0.68694278
   0.67888576  0.38367404  0.02552099
   0.75185847  0.35959051  0.25140992
   0.41609419  0.97712918  0.33517520
   0.71542427  0.50335746  0.67440376
   0.78737498  0.44702858  0.43818541
   0.11096227  0.21361130  0.22541120
   0.15211603  0.16811876  0.34715817
   0.08831866  0.26021873  0.88477843
   0.12726951  0.21328766  0.02443277
   0.68116243  0.10580261  0.25871451
   0.68452188  0.14672685  0.38462820
   0.65877346  0.08263009  0.91536977
   0.66792927  0.12111195  0.05595704
   0.01004008  0.44649346  0.57436228
   0.01521367  0.48671178  0.69889093
   0.22079808  0.66524840  0.28055307
   0.17190008  0.67554928  0.39518610
   0.27560844  0.62720932  0.95968061
   0.22618916  0.64075583  0.09057056
   0.55040416  0.00340417  0.57864839
   0.50365691  0.00882222  0.69530541
   0.24659204  0.07675310  0.42017642
   0.20721605  0.12332675  0.27916787
   0.22313551  0.12276458  0.07776690
   0.18235431  0.16846592  0.95627518
   0.67959485  0.24153962  0.46551240
   0.67699597  0.20088001  0.31845563
   0.00871388  0.58260059  0.78287746
   0.00369928  0.54273929  0.63617268
   0.66814004  0.21377035  0.11382054
   0.66216569  0.17456682  0.98843003
   0.08144300  0.67018018  0.46794632
   0.12750309  0.66424545  0.32648263
   0.41042610  0.00912015  0.75789404
   0.45829803  0.00041605  0.62093228
   0.12971933  0.64539822  0.12560549
   0.18045183  0.63258568  0.01707752
   0.76162583  0.92216193  0.57659411
   0.80317171  0.87635259  0.71630419
   0.78701327  0.87578801  0.91663790
   0.82905653  0.83205790  0.03977905
   0.31624950  0.76118577  0.51870954
   0.31757465  0.79963249  0.67695648
   0.98525870  0.42477483  0.23204759
   0.99367640  0.46317564  0.37432480
   0.32760794  0.78419932  0.88056900
   0.33526861  0.82246783  0.00699575
   0.92547748  0.31837633  0.55127896
   0.87776858  0.32866427  0.69091713
   0.59881919  0.98003477  0.24125647
   0.55067858  0.98840260  0.37630141
   0.87209876  0.35872280  0.87358484
   0.81836170  0.37893277  0.97315190
   0.90173619  0.78908983  0.77361754
   0.85972324  0.83368861  0.65045894
   0.92441237  0.74537926  0.11913796
   0.88541476  0.78940274  0.97401331
   0.31726345  0.89252932  0.74112590
   0.31085880  0.85368534  0.61445499
   0.34143663  0.91294508  0.08500385
   0.33079834  0.87579711  0.94268105
   0.98770172  0.55900251  0.43505133
   0.98344157  0.51842698  0.31010506
   0.78213535  0.33107908  0.74736597
   0.83385059  0.31457334  0.63786213
   0.73157528  0.37190003  0.07103048
   0.77495148  0.36420937  0.92162274
   0.45822849  0.98575502  0.41824876
   0.50526258  0.97999072  0.30177594
   0.75120456  0.47506324  0.55722997
   0.14053465  0.16792901  0.50100747
   0.69272962  0.13563723  0.54007573
   0.02745203  0.47405769  0.85180150
   0.16787795  0.69249579  0.54471012
   0.50258274  0.02030890  0.84991689
   0.19406437  0.16883324  0.80265953
   0.65376965  0.18564034  0.83307612
   0.18353632  0.61639728  0.86737025
   0.81735659  0.83128509  0.19307808
   0.34445374  0.81074111  0.16168556
   0.80969821  0.40999951  0.09426237
   0.87134011  0.83445971  0.49707506
   0.30218978  0.86576636  0.45976204
   0.97140137  0.53096280  0.15703468
   0.84189296  0.28547733  0.51090256
   0.50618868  0.96867953  0.14703383
   0.71127479  0.33048110  0.41203022
   0.28888979  0.02130011  0.79624059
   0.65974531  0.33247223  0.16333968
   0.95953638  0.68707526  0.49218549
   0.35797910  0.95536733  0.45878262
   0.35434829  0.02275383  0.13126717
   0.71848347  0.97348948  0.19821666
   0.33641617  0.67012131  0.75497473
   0.70056644  0.28171830  0.82547986
   0.98006121  0.31373848  0.16543879
   0.30300025  0.71338645  0.19403804
   0.97743114  0.37930223  0.85046665
   0.65190183  0.96832219  0.86704596
   0.02835581  0.61902474  0.15941561
   0.64499032  0.04158298  0.53921002
   0.02381488  0.69452367  0.84657909
   0.29321768  0.63329828  0.58381055
   0.04292765  0.31498124  0.50705552
   0.83115305  0.35211948  0.31040777
Direct configuration=   101
   0.05861730  0.25448372  0.30325151
   0.03763474  0.30137398  0.95067914
   0.10389379  0.26065969  0.70888582
   0.69056507  0.05425955  0.33506734
   0.66844885  0.03175456  0.97611176
   0.64121767  0.10008669  0.74085587
   0.02073886  0.39394398  0.64783520
   0.26343544  0.67659050  0.35324520
   0.31150280  0.64777801 -0.00909775
   0.28048331  0.59899680  0.79916098
   0.59203713  0.01302124  0.66087568
   0.29787693  0.03615315  0.35930873
   0.23009550  0.07704587  0.59582967
   0.27491037  0.08094667  0.99949200
   0.65575122  0.29831953  0.42720364
   0.70282613  0.22193533  0.63203722
   0.99193353  0.63661236  0.73706387
   0.02857929  0.56332836  0.95458088
   0.66702674  0.26250388  0.03827529
   0.04515516  0.65340074  0.41009899
   0.07924932  0.68929629  0.64238594
   0.36916372  0.00029544  0.69229813
   0.41055651  0.02490219  0.93429302
   0.08822057  0.63758532  0.03423803
   0.70996440  0.96095576  0.63963387
   0.77761331  0.92241181  0.40006315
   0.73384703  0.91460432  0.99370213
   0.34897541  0.70328099  0.52647889
   0.28699557  0.78388615  0.36259221
   0.98932356  0.37638583  0.29898753
   0.97371629  0.43946976  0.05312164
   0.32803518  0.73518636  0.94925385
   0.97203485  0.31528599  0.62177488
   0.91620439  0.31639554  0.36477364
   0.63921098  0.99017699  0.30717137
   0.59953726  0.96299147  0.06551476
   0.91236158  0.36893465  0.95735315
   0.95421726  0.74764751  0.69483914
   0.97873967  0.70678049  0.07286374
   0.90609173  0.74475803  0.29129040
   0.31113456  0.94279028  0.66353988
   0.33307542  0.96349199  0.02441522
   0.35818699  0.89583199  0.25989404
   0.97635861  0.61116346  0.35694170
   0.74334940  0.31368844  0.68694069
   0.67887594  0.38369445  0.02556069
   0.75185809  0.35960511  0.25138238
   0.41609323  0.97713056  0.33520421
   0.71542038  0.50337203  0.67435253
   0.78738137  0.44703687  0.43817096
   0.11094964  0.21360601  0.22543012
   0.15210796  0.16811544  0.34718096
   0.08831406  0.26021149  0.88478701
   0.12726120  0.21328121  0.02444011
   0.68117706  0.10579813  0.25876334
   0.68455229  0.14671622  0.38466141
   0.65876075  0.08263322  0.91541086
   0.66792474  0.12111025  0.05598763
   0.01003577  0.44648885  0.57435687
   0.01520793  0.48670968  0.69888901
   0.22080696  0.66524409  0.28051075
   0.17191633  0.67553488  0.39515552
   0.27561448  0.62720433  0.95964222
   0.22619668  0.64075364  0.09054541
   0.55040098  0.00340964  0.57866102
   0.50365603  0.00882863  0.69532532
   0.24659143  0.07675428  0.42022013
   0.20721172  0.12332726  0.27919986
   0.22313376  0.12276347  0.07780071
   0.18235082  0.16846007  0.95629838
   0.67962931  0.24152121  0.46553364
   0.67702189  0.20086762  0.31847513
   0.00871596  0.58259475  0.78285537
   0.00369520  0.54273721  0.63616139
   0.66815254  0.21376086  0.11385757
   0.66217027  0.17456103  0.98846063
   0.08144226  0.67018359  0.46790064
   0.12751240  0.66424088  0.32643767
   0.41042170  0.00912408  0.75793252
   0.45829672  0.00042241  0.62095829
   0.12972376  0.64539349  0.12553646
   0.18045943  0.63258089  0.01702939
   0.76163051  0.92216391  0.57659853
   0.80317348  0.87635701  0.71628920
   0.78701522  0.87579321  0.91662708
   0.82906308  0.83206775  0.03975500
   0.31622339  0.76121042  0.51868367
   0.31755162  0.79964743  0.67696402
   0.98525325  0.42477218  0.23205025
   0.99367278  0.46317099  0.37431808
   0.32759619  0.78420326  0.88056246
   0.33527149  0.82247013  0.00697325
   0.92547909  0.31836663  0.55128309
   0.87776172  0.32866989  0.69092879
   0.59881707  0.98003359  0.24129179
   0.55067327  0.98840530  0.37632834
   0.87209050  0.35873038  0.87359980
   0.81835033  0.37894915  0.97314951
   0.90173494  0.78909121  0.77360667
   0.85972085  0.83369314  0.65044570
   0.92441162  0.74537789  0.11911761
   0.88541792  0.78940720  0.97399802
   0.31726063  0.89253211  0.74111038
   0.31083846  0.85369403  0.61445734
   0.34144737  0.91294180  0.08502198
   0.33080269  0.87580135  0.94266944
   0.98769985  0.55899998  0.43502961
   0.98344193  0.51842045  0.31009466
   0.78211937  0.33109335  0.74737127
   0.83382863  0.31459493  0.63785080
   0.73156451  0.37192825  0.07103131
   0.77493895  0.36422710  0.92162272
   0.45822752  0.98575940  0.41827552
   0.50525865  0.97999516  0.30179568
   0.75120989  0.47507116  0.55718258
   0.14052609  0.16792514  0.50102458
   0.69277744  0.13561423  0.54007422
   0.02744414  0.47405738  0.85180795
   0.16788871  0.69248037  0.54470114
   0.50258088  0.02031589  0.84993418
   0.19406166  0.16882660  0.80268552
   0.65376847  0.18563332  0.83310625
   0.18354605  0.61639603  0.86731458
   0.81736121  0.83129704  0.19305628
   0.34448134  0.81072679  0.16167187
   0.80969377  0.41001018  0.09426825
   0.87133517  0.83446251  0.49705812
   0.30217133  0.86578236  0.45980129
   0.97140534  0.53095639  0.15702186
   0.84188104  0.28547681  0.51093259
   0.50618042  0.96868228  0.14706244
   0.71129643  0.33047723  0.41208560
   0.28889137  0.02130359  0.79627393
   0.65975009  0.33246877  0.16336403
   0.95953859  0.68707007  0.49216101
   0.35798159  0.95536789  0.45881067
   0.35434801  0.02275822  0.13127622
   0.71848454  0.97348069  0.19822749
   0.33640645  0.67012446  0.75490019
   0.70058279  0.28169969  0.82552352
   0.98005191  0.31373697  0.16546336
   0.30300192  0.71338623  0.19403206
   0.97742582  0.37929863  0.85048027
   0.65190452  0.96832488  0.86704241
   0.02836126  0.61902204  0.15937461
   0.64499337  0.04158020  0.53920855
   0.02382026  0.69452146  0.84652996
   0.29321225  0.63329513  0.58375069
   0.04292593  0.31497570  0.50704061
   0.83116303  0.35211922  0.31037719
Direct configuration=   102
   0.05858393  0.25445501  0.30326240
   0.03761618  0.30136802  0.95070176
   0.10387917  0.26063805  0.70890539
   0.69062142  0.05423535  0.33513318
   0.66841446  0.03176491  0.97623469
   0.64118849  0.10009216  0.74095342
   0.02073139  0.39392880  0.64782978
   0.26345164  0.67656766  0.35321087
   0.31150149  0.64779183 -0.00936408
   0.28048699  0.59897082  0.79908195
   0.59203969  0.01302519  0.66085801
   0.29788106  0.03617350  0.35944579
   0.23008856  0.07705464  0.59595494
   0.27490946  0.08094442  0.99961750
   0.65584522  0.29825734  0.42736475
   0.70292570  0.22186025  0.63212473
   0.99196223  0.63658674  0.73695462
   0.02858136  0.56331981  0.95451855
   0.66711623  0.26245437  0.03836999
   0.04514102  0.65342243  0.40985898
   0.07923801  0.68930519  0.64232609
   0.36915736  0.00029610  0.69239582
   0.41055521  0.02491242  0.93440991
   0.08821844  0.63757363  0.03411887
   0.70996880  0.96097249  0.63967200
   0.77760155  0.92243607  0.40004832
   0.73387219  0.91459175  0.99361537
   0.34889348  0.70336171  0.52626195
   0.28692312  0.78394057  0.36254097
   0.98929080  0.37638744  0.29900861
   0.97370188  0.43946055  0.05313927
   0.32801080  0.73518866  0.94922909
   0.97204142  0.31524132  0.62182844
   0.91621257  0.31639006  0.36476038
   0.63922736  0.99013993  0.30723882
   0.59949302  0.96302247  0.06563321
   0.91234245  0.36894367  0.95736226
   0.95419662  0.74763101  0.69475929
   0.97872698  0.70677506  0.07265170
   0.90608491  0.74475444  0.29121257
   0.31113186  0.94280764  0.66357739
   0.33307638  0.96349474  0.02444188
   0.35823224  0.89580754  0.25994505
   0.97637221  0.61113615  0.35688574
   0.74331266  0.31372994  0.68693444
   0.67884651  0.38375569  0.02567979
   0.75185696  0.35964893  0.25129978
   0.41609035  0.97713470  0.33529123
   0.71540873  0.50341573  0.67419884
   0.78740053  0.44706172  0.43812763
   0.11091174  0.21359013  0.22548689
   0.15208375  0.16810549  0.34724932
   0.08830026  0.26018977  0.88481274
   0.12723625  0.21326184  0.02446213
   0.68122098  0.10578467  0.25890983
   0.68464350  0.14668431  0.38476105
   0.65872261  0.08264259  0.91553412
   0.66791116  0.12110515  0.05607942
   0.01002285  0.44647502  0.57434064
   0.01519071  0.48670339  0.69888325
   0.22083359  0.66523117  0.28038377
   0.17196508  0.67549168  0.39506378
   0.27563259  0.62718935  0.95952703
   0.22621923  0.64074709  0.09046993
   0.55039145  0.00342605  0.57869890
   0.50365342  0.00884785  0.69538506
   0.24658961  0.07675779  0.42035127
   0.20719873  0.12332878  0.27929585
   0.22312853  0.12276012  0.07790214
   0.18234035  0.16844252  0.95636800
   0.67973268  0.24146598  0.46559734
   0.67709968  0.20083044  0.31853363
   0.00872220  0.58257725  0.78278913
   0.00368295  0.54273095  0.63612753
   0.66819002  0.21373239  0.11396867
   0.66218400  0.17454365  0.98855242
   0.08144005  0.67019382  0.46776359
   0.12754034  0.66422718  0.32630276
   0.41040848  0.00913586  0.75804799
   0.45829278  0.00044149  0.62103634
   0.12973705  0.64537930  0.12532938
   0.18048221  0.63256652  0.01688502
   0.76164454  0.92216984  0.57661181
   0.80317879  0.87637027  0.71624423
   0.78702105  0.87580879  0.91659459
   0.82908276  0.83209732  0.03968287
   0.31614505  0.76128439  0.51860606
   0.31748255  0.79969225  0.67698666
   0.98523690  0.42476423  0.23205822
   0.99366193  0.46315704  0.37429793
   0.32756094  0.78421510  0.88054284
   0.33528011  0.82247703  0.00690574
   0.92548394  0.31833753  0.55129549
   0.87774112  0.32868672  0.69096377
   0.59881070  0.98003003  0.24139776
   0.55065735  0.98841338  0.37640913
   0.87206572  0.35875313  0.87364468
   0.81831623  0.37899828  0.97314231
   0.90173121  0.78909534  0.77357405
   0.85971369  0.83370674  0.65040596
   0.92440937  0.74537377  0.11905658
   0.88542738  0.78942059  0.97395216
   0.31725217  0.89254050  0.74106382
   0.31077746  0.85372012  0.61446441
   0.34147958  0.91293197  0.08507635
   0.33081573  0.87581409  0.94263459
   0.98769426  0.55899241  0.43496445
   0.98344300  0.51840084  0.31006344
   0.78207142  0.33113615  0.74738715
   0.83376276  0.31465967  0.63781681
   0.73153221  0.37201293  0.07103380
   0.77490136  0.36428028  0.92162267
   0.45822462  0.98577253  0.41835582
   0.50524684  0.98000846  0.30185492
   0.75122589  0.47509491  0.55704042
   0.14050040  0.16791351  0.50107593
   0.69292089  0.13554521  0.54006969
   0.02742048  0.47405646  0.85182731
   0.16792097  0.69243413  0.54467417
   0.50257530  0.02033684  0.84998606
   0.19405353  0.16880667  0.80276350
   0.65376492  0.18561228  0.83319663
   0.18357525  0.61639230  0.86714757
   0.81737508  0.83133287  0.19299088
   0.34456415  0.81068382  0.16163078
   0.80968045  0.41004218  0.09428587
   0.87132034  0.83447091  0.49700731
   0.30211600  0.86583037  0.45991902
   0.97141724  0.53093715  0.15698340
   0.84184527  0.28547524  0.51102269
   0.50615563  0.96869052  0.14714829
   0.71136135  0.33046563  0.41225175
   0.28889611  0.02131403  0.79637396
   0.65976445  0.33245839  0.16343707
   0.95954523  0.68705450  0.49208757
   0.35798907  0.95536956  0.45889483
   0.35434716  0.02277139  0.13130335
   0.71848777  0.97345434  0.19825997
   0.33637727  0.67013391  0.75467656
   0.70063184  0.28164383  0.82565449
   0.98002401  0.31373244  0.16553709
   0.30300694  0.71338560  0.19401411
   0.97740988  0.37928783  0.85052111
   0.65191261  0.96833297  0.86703176
   0.02837759  0.61901396  0.15925158
   0.64500253  0.04157185  0.53920415
   0.02383639  0.69451484  0.84638255
   0.29319596  0.63328569  0.58357108
   0.04292079  0.31495910  0.50699589
   0.83119300  0.35211847  0.31028547
Direct configuration=   103
   0.05856384  0.25444505  0.30327466
   0.03761277  0.30136168  0.95071850
   0.10387298  0.26062728  0.70891777
   0.69064596  0.05422232  0.33518157
   0.66839467  0.03177973  0.97628547
   0.64117628  0.10009575  0.74101357
   0.02072681  0.39392110  0.64783381
   0.26345990  0.67656066  0.35318011
   0.31149778  0.64779882 -0.00945375
   0.28049064  0.59895719  0.79906453
   0.59204097  0.01302775  0.66085055
   0.29788468  0.03618023  0.35950638
   0.23008552  0.07705886  0.59601563
   0.27490887  0.08094305  0.99967729
   0.65588568  0.29823980  0.42742259
   0.70297194  0.22182657  0.63217538
   0.99197618  0.63657588  0.73690194
   0.02858242  0.56331555  0.95449777
   0.66715626  0.26242640  0.03842258
   0.04514543  0.65343878  0.40977641
   0.07923775  0.68929988  0.64223242
   0.36915431  0.00029819  0.69244165
   0.41055591  0.02491583  0.93444985
   0.08821993  0.63756711  0.03405345
   0.70998906  0.96096518  0.63968332
   0.77759904  0.92244408  0.40006505
   0.73387092  0.91459432  0.99359553
   0.34886052  0.70339172  0.52618314
   0.28688326  0.78397128  0.36249725
   0.98927679  0.37638413  0.29902336
   0.97369613  0.43945567  0.05313481
   0.32800050  0.73519386  0.94918612
   0.97204258  0.31522146  0.62185451
   0.91621719  0.31638741  0.36476161
   0.63924021  0.99012400  0.30728191
   0.59947826  0.96303418  0.06564935
   0.91234053  0.36894885  0.95737918
   0.95418529  0.74762506  0.69471428
   0.97871640  0.70677413  0.07255817
   0.90608381  0.74474977  0.29117752
   0.31112978  0.94281157  0.66359413
   0.33307923  0.96349172  0.02446094
   0.35824954  0.89579930  0.25991388
   0.97637818  0.61113009  0.35684416
   0.74329518  0.31374247  0.68695326
   0.67883167  0.38378327  0.02572463
   0.75185407  0.35966739  0.25130598
   0.41609064  0.97713614  0.33532838
   0.71540476  0.50343510  0.67411868
   0.78741161  0.44707321  0.43810323
   0.11090420  0.21357620  0.22548038
   0.15207060  0.16810297  0.34726958
   0.08828847  0.26018414  0.88482087
   0.12722718  0.21324889  0.02450150
   0.68124245  0.10578524  0.25898838
   0.68468517  0.14666566  0.38473874
   0.65870976  0.08263455  0.91559154
   0.66790536  0.12111021  0.05611263
   0.01001908  0.44646946  0.57434397
   0.01518191  0.48670042  0.69886872
   0.22084254  0.66522604  0.28035583
   0.17197583  0.67547644  0.39504335
   0.27563678  0.62718459  0.95946103
   0.22622942  0.64073766  0.09039492
   0.55038649  0.00343193  0.57872098
   0.50364875  0.00885718  0.69541801
   0.24658478  0.07676447  0.42040544
   0.20719453  0.12332719  0.27934728
   0.22312381  0.12275892  0.07795461
   0.18233102  0.16843793  0.95640718
   0.67978027  0.24143286  0.46562110
   0.67714068  0.20080764  0.31859681
   0.00872341  0.58257374  0.78274744
   0.00367687  0.54272445  0.63610514
   0.66820921  0.21371912  0.11397233
   0.66218716  0.17453222  0.98864262
   0.08143336  0.67019695  0.46771782
   0.12755354  0.66422064  0.32623931
   0.41040883  0.00914119  0.75809534
   0.45828721  0.00045064  0.62108630
   0.12974514  0.64537300  0.12523982
   0.18049329  0.63256249  0.01681677
   0.76163279  0.92218861  0.57659912
   0.80317851  0.87637660  0.71625417
   0.78703211  0.87581059  0.91655473
   0.82909205  0.83210753  0.03967251
   0.31610846  0.76131535  0.51857660
   0.31745106  0.79970198  0.67698097
   0.98523054  0.42476052  0.23205753
   0.99365752  0.46315129  0.37429047
   0.32754651  0.78422299  0.88055261
   0.33528659  0.82247917  0.00689505
   0.92548332  0.31832839  0.55130838
   0.87772677  0.32869324  0.69095835
   0.59880172  0.98003076  0.24146593
   0.55065450  0.98841611  0.37642719
   0.87204866  0.35876397  0.87366156
   0.81830491  0.37902136  0.97314953
   0.90173003  0.78909712  0.77352995
   0.85972013  0.83370375  0.65040538
   0.92441486  0.74536915  0.11900743
   0.88543086  0.78942519  0.97394687
   0.31724322  0.89254573  0.74102737
   0.31075014  0.85374735  0.61451260
   0.34149545  0.91292830  0.08513807
   0.33082236  0.87581282  0.94262683
   0.98769370  0.55898083  0.43495452
   0.98344188  0.51839318  0.31004981
   0.78205136  0.33116845  0.74742066
   0.83374823  0.31467999  0.63778469
   0.73151437  0.37204451  0.07103001
   0.77488104  0.36431092  0.92162019
   0.45821822  0.98577858  0.41839636
   0.50524014  0.98001617  0.30189610
   0.75123081  0.47510875  0.55698162
   0.14048863  0.16790698  0.50110641
   0.69298956  0.13551180  0.54010407
   0.02740915  0.47405685  0.85183345
   0.16793887  0.69240978  0.54464079
   0.50257190  0.02034703  0.85001928
   0.19404884  0.16879818  0.80279943
   0.65376531  0.18560460  0.83321652
   0.18359131  0.61638909  0.86707129
   0.81738433  0.83134851  0.19295270
   0.34459796  0.81066793  0.16158921
   0.80967180  0.41005589  0.09428728
   0.87131178  0.83447643  0.49697949
   0.30208714  0.86585488  0.45994254
   0.97142199  0.53092765  0.15696613
   0.84182629  0.28547889  0.51107175
   0.50614515  0.96869373  0.14718259
   0.71138884  0.33046387  0.41229264
   0.28889644  0.02131896  0.79641388
   0.65977134  0.33245278  0.16346666
   0.95954805  0.68704780  0.49205367
   0.35799157  0.95537000  0.45892139
   0.35434614  0.02277844  0.13132536
   0.71849121  0.97344146  0.19827500
   0.33636504  0.67014129  0.75457478
   0.70065236  0.28162370  0.82570519
   0.98001264  0.31372976  0.16556781
   0.30301147  0.71338734  0.19399882
   0.97740306  0.37928388  0.85053143
   0.65191388  0.96833851  0.86702316
   0.02838427  0.61900944  0.15919115
   0.64500827  0.04156567  0.53920775
   0.02383597  0.69451657  0.84631461
   0.29318947  0.63328264  0.58349486
   0.04291595  0.31495118  0.50698559
   0.83120583  0.35211904  0.31024772
Direct configuration=   104
   0.05855281  0.25443959  0.30328139
   0.03761089  0.30135820  0.95072769
   0.10386958  0.26062136  0.70892457
   0.69065943  0.05421516  0.33520815
   0.66838380  0.03178788  0.97631337
   0.64116958  0.10009772  0.74104661
   0.02072429  0.39391687  0.64783602
   0.26346443  0.67655682  0.35316321
   0.31149574  0.64780266 -0.00950300
   0.28049265  0.59894970  0.79905497
   0.59204168  0.01302916  0.66084645
   0.29788667  0.03618393  0.35953966
   0.23008385  0.07706118  0.59604896
   0.27490855  0.08094230  0.99971013
   0.65590791  0.29823017  0.42745437
   0.70299733  0.22180808  0.63220319
   0.99198384  0.63656992  0.73687300
   0.02858301  0.56331321  0.95448635
   0.66717825  0.26241103  0.03845146
   0.04514785  0.65344775  0.40973106
   0.07923760  0.68929696  0.64218097
   0.36915263  0.00029934  0.69246682
   0.41055630  0.02491770  0.93447179
   0.08822075  0.63756353  0.03401752
   0.71000019  0.96096116  0.63968953
   0.77759767  0.92244848  0.40007424
   0.73387021  0.91459572  0.99358464
   0.34884241  0.70340820  0.52613986
   0.28686137  0.78398815  0.36247324
   0.98926909  0.37638231  0.29903146
   0.97369297  0.43945299  0.05313236
   0.32799484  0.73519672  0.94916252
   0.97204323  0.31521055  0.62186883
   0.91621972  0.31638595  0.36476228
   0.63924726  0.99011526  0.30730559
   0.59947016  0.96304062  0.06565821
   0.91233948  0.36895170  0.95738847
   0.95417907  0.74762180  0.69468955
   0.97871059  0.70677362  0.07250680
   0.90608320  0.74474720  0.29115827
   0.31112863  0.94281373  0.66360332
   0.33308079  0.96349006  0.02447141
   0.35825905  0.89579478  0.25989676
   0.97638147  0.61112677  0.35682132
   0.74328558  0.31374936  0.68696359
   0.67882353  0.38379842  0.02574925
   0.75185247  0.35967754  0.25130938
   0.41609080  0.97713693  0.33534878
   0.71540259  0.50344574  0.67407465
   0.78741770  0.44707952  0.43808983
   0.11090006  0.21356855  0.22547681
   0.15206338  0.16810159  0.34728071
   0.08828200  0.26018104  0.88482533
   0.12722219  0.21324178  0.02452312
   0.68125424  0.10578555  0.25903153
   0.68470806  0.14665542  0.38472649
   0.65870270  0.08263014  0.91562307
   0.66790218  0.12111299  0.05613087
   0.01001701  0.44646640  0.57434579
   0.01517708  0.48669879  0.69886074
   0.22084746  0.66522323  0.28034049
   0.17198173  0.67546808  0.39503214
   0.27563909  0.62718198  0.95942478
   0.22623501  0.64073248  0.09035373
   0.55038376  0.00343516  0.57873310
   0.50364619  0.00886230  0.69543611
   0.24658213  0.07676814  0.42043520
   0.20719223  0.12332631  0.27937553
   0.22312122  0.12275826  0.07798343
   0.18232589  0.16843541  0.95642870
   0.67980641  0.24141467  0.46563415
   0.67716320  0.20079511  0.31863152
   0.00872408  0.58257181  0.78272455
   0.00367353  0.54272089  0.63609283
   0.66821976  0.21371183  0.11397434
   0.66218889  0.17452595  0.98869215
   0.08142969  0.67019867  0.46769269
   0.12756079  0.66421704  0.32620446
   0.41040901  0.00914412  0.75812134
   0.45828416  0.00045567  0.62111375
   0.12974959  0.64536954  0.12519062
   0.18049937  0.63256028  0.01677929
   0.76162633  0.92219891  0.57659214
   0.80317836  0.87638007  0.71625962
   0.78703819  0.87581158  0.91653283
   0.82909716  0.83211314  0.03966682
   0.31608835  0.76133235  0.51856042
   0.31743377  0.79970733  0.67697785
   0.98522705  0.42475848  0.23205715
   0.99365509  0.46314813  0.37428637
   0.32753859  0.78422733  0.88055797
   0.33529015  0.82248035  0.00688918
   0.92548298  0.31832336  0.55131546
   0.87771889  0.32869682  0.69095537
   0.59879678  0.98003116  0.24150338
   0.55065294  0.98841762  0.37643711
   0.87203929  0.35876993  0.87367082
   0.81829869  0.37903404  0.97315350
   0.90172939  0.78909810  0.77350574
   0.85972366  0.83370211  0.65040506
   0.92441788  0.74536661  0.11898044
   0.88543277  0.78942771  0.97394397
   0.31723830  0.89254860  0.74100735
   0.31073513  0.85376230  0.61453907
   0.34150417  0.91292628  0.08517196
   0.33082601  0.87581213  0.94262257
   0.98769339  0.55897448  0.43494907
   0.98344126  0.51838897  0.31004233
   0.78204034  0.33118619  0.74743906
   0.83374025  0.31469115  0.63776704
   0.73150457  0.37206185  0.07102793
   0.77486988  0.36432776  0.92161883
   0.45821470  0.98578190  0.41841863
   0.50523646  0.98002040  0.30191871
   0.75123352  0.47511635  0.55694932
   0.14048217  0.16790339  0.50112315
   0.69302727  0.13549344  0.54012295
   0.02740293  0.47405707  0.85183682
   0.16794870  0.69239640  0.54462245
   0.50257002  0.02035262  0.85003753
   0.19404626  0.16879351  0.80281916
   0.65376553  0.18560039  0.83322744
   0.18360013  0.61638733  0.86702939
   0.81738941  0.83135710  0.19293172
   0.34461653  0.81065920  0.16156638
   0.80966705  0.41006342  0.09428805
   0.87130707  0.83447946  0.49696421
   0.30207130  0.86586835  0.45995546
   0.97142460  0.53092243  0.15695664
   0.84181586  0.28548089  0.51109869
   0.50613939  0.96869549  0.14720144
   0.71140395  0.33046290  0.41231510
   0.28889662  0.02132167  0.79643580
   0.65977512  0.33244970  0.16348291
   0.95954960  0.68704413  0.49203506
   0.35799294  0.95537024  0.45893598
   0.35434558  0.02278231  0.13133745
   0.71849310  0.97343439  0.19828326
   0.33635832  0.67014533  0.75451887
   0.70066364  0.28161264  0.82573304
   0.98000640  0.31372829  0.16558468
   0.30301395  0.71338829  0.19399042
   0.97739931  0.37928171  0.85053709
   0.65191458  0.96834155  0.86701844
   0.02838795  0.61900695  0.15915797
   0.64501143  0.04156227  0.53920973
   0.02383574  0.69451752  0.84627729
   0.29318591  0.63328097  0.58345300
   0.04291329  0.31494684  0.50697993
   0.83121288  0.35211935  0.31022698
Direct configuration=   105
   0.05854903  0.25443771  0.30328370
   0.03761025  0.30135700  0.95073085
   0.10386842  0.26061934  0.70892690
   0.69066406  0.05421271  0.33521727
   0.66838007  0.03179067  0.97632293
   0.64116728  0.10009839  0.74105793
   0.02072343  0.39391542  0.64783678
   0.26346599  0.67655550  0.35315741
   0.31149504  0.64780397 -0.00951988
   0.28049334  0.59894714  0.79905169
   0.59204192  0.01302964  0.66084505
   0.29788735  0.03618520  0.35955107
   0.23008327  0.07706197  0.59606039
   0.27490844  0.08094204  0.99972139
   0.65591553  0.29822686  0.42746526
   0.70300604  0.22180174  0.63221273
   0.99198647  0.63656787  0.73686308
   0.02858321  0.56331240  0.95448244
   0.66718579  0.26240576  0.03846137
   0.04514868  0.65345083  0.40971551
   0.07923755  0.68929596  0.64216333
   0.36915206  0.00029974  0.69247545
   0.41055643  0.02491834  0.93447931
   0.08822104  0.63756231  0.03400519
   0.71000400  0.96095978  0.63969166
   0.77759719  0.92244999  0.40007739
   0.73386997  0.91459621  0.99358090
   0.34883620  0.70341385  0.52612502
   0.28685386  0.78399393  0.36246501
   0.98926645  0.37638169  0.29903424
   0.97369188  0.43945207  0.05313152
   0.32799290  0.73519770  0.94915443
   0.97204345  0.31520682  0.62187374
   0.91622059  0.31638545  0.36476251
   0.63924968  0.99011226  0.30731370
   0.59946738  0.96304282  0.06566125
   0.91233911  0.36895267  0.95739165
   0.95417694  0.74762068  0.69468107
   0.97870860  0.70677344  0.07248918
   0.90608300  0.74474632  0.29115167
   0.31112824  0.94281447  0.66360647
   0.33308133  0.96348949  0.02447500
   0.35826231  0.89579322  0.25989089
   0.97638259  0.61112562  0.35681349
   0.74328229  0.31375172  0.68696714
   0.67882073  0.38380361  0.02575770
   0.75185193  0.35968102  0.25131054
   0.41609085  0.97713720  0.33535578
   0.71540184  0.50344939  0.67405955
   0.78741979  0.44708168  0.43808524
   0.11089864  0.21356592  0.22547558
   0.15206091  0.16810111  0.34728453
   0.08827978  0.26017998  0.88482686
   0.12722048  0.21323934  0.02453054
   0.68125828  0.10578566  0.25904632
   0.68471591  0.14665191  0.38472229
   0.65870028  0.08262863  0.91563388
   0.66790109  0.12111394  0.05613712
   0.01001630  0.44646535  0.57434642
   0.01517542  0.48669823  0.69885800
   0.22084915  0.66522227  0.28033522
   0.17198375  0.67546521  0.39502829
   0.27563988  0.62718108  0.95941235
   0.22623693  0.64073070  0.09033960
   0.55038282  0.00343627  0.57873726
   0.50364531  0.00886405  0.69544232
   0.24658122  0.07676940  0.42044540
   0.20719144  0.12332601  0.27938522
   0.22312033  0.12275804  0.07799331
   0.18232414  0.16843455  0.95643608
   0.67981537  0.24140843  0.46563862
   0.67717092  0.20079081  0.31864342
   0.00872431  0.58257115  0.78271669
   0.00367239  0.54271966  0.63608861
   0.66822337  0.21370934  0.11397503
   0.66218949  0.17452379  0.98870914
   0.08142843  0.67019926  0.46768407
   0.12756328  0.66421581  0.32619251
   0.41040908  0.00914513  0.75813026
   0.45828311  0.00045739  0.62112316
   0.12975111  0.64536835  0.12517376
   0.18050146  0.63255952  0.01676644
   0.76162411  0.92220245  0.57658975
   0.80317831  0.87638126  0.71626150
   0.78704027  0.87581192  0.91652533
   0.82909891  0.83211506  0.03966487
   0.31608146  0.76133818  0.51855487
   0.31742784  0.79970916  0.67697678
   0.98522585  0.42475778  0.23205702
   0.99365426  0.46314705  0.37428497
   0.32753587  0.78422881  0.88055982
   0.33529137  0.82248075  0.00688716
   0.92548286  0.31832164  0.55131789
   0.87771619  0.32869804  0.69095435
   0.59879509  0.98003129  0.24151622
   0.55065241  0.98841813  0.37644051
   0.87203608  0.35877197  0.87367400
   0.81829656  0.37903839  0.97315486
   0.90172916  0.78909844  0.77349743
   0.85972488  0.83370154  0.65040495
   0.92441891  0.74536574  0.11897118
   0.88543343  0.78942858  0.97394297
   0.31723661  0.89254958  0.74100049
   0.31072999  0.85376743  0.61454814
   0.34150716  0.91292559  0.08518359
   0.33082726  0.87581189  0.94262110
   0.98769328  0.55897230  0.43494721
   0.98344105  0.51838752  0.31003976
   0.78203656  0.33119227  0.74744537
   0.83373751  0.31469497  0.63776099
   0.73150120  0.37206780  0.07102722
   0.77486606  0.36433353  0.92161836
   0.45821350  0.98578304  0.41842627
   0.50523520  0.98002185  0.30192647
   0.75123445  0.47511896  0.55693824
   0.14047995  0.16790216  0.50112889
   0.69304021  0.13548715  0.54012943
   0.02740080  0.47405714  0.85183797
   0.16795207  0.69239182  0.54461617
   0.50256938  0.02035454  0.85004378
   0.19404538  0.16879191  0.80282593
   0.65376560  0.18559894  0.83323118
   0.18360316  0.61638673  0.86701502
   0.81739116  0.83136004  0.19292453
   0.34462289  0.81065620  0.16155855
   0.80966542  0.41006600  0.09428831
   0.87130546  0.83448050  0.49695897
   0.30206586  0.86587296  0.45995989
   0.97142550  0.53092064  0.15695339
   0.84181229  0.28548158  0.51110793
   0.50613741  0.96869609  0.14720790
   0.71140913  0.33046257  0.41232280
   0.28889668  0.02132260  0.79644332
   0.65977642  0.33244864  0.16348848
   0.95955013  0.68704287  0.49202867
   0.35799341  0.95537033  0.45894099
   0.35434539  0.02278364  0.13134160
   0.71849375  0.97343196  0.19828609
   0.33635601  0.67014672  0.75449971
   0.70066750  0.28160884  0.82574258
   0.98000426  0.31372778  0.16559047
   0.30301481  0.71338862  0.19398754
   0.97739803  0.37928097  0.85053904
   0.65191481  0.96834260  0.86701683
   0.02838921  0.61900610  0.15914659
   0.64501251  0.04156110  0.53921041
   0.02383566  0.69451785  0.84626450
   0.29318469  0.63328039  0.58343865
   0.04291238  0.31494534  0.50697799
   0.83121530  0.35211946  0.31021987
Direct configuration=   106
   0.05853580  0.25442865  0.30329074
   0.03760941  0.30135183  0.95075273
   0.10386405  0.26061051  0.70894208
   0.69067917  0.05420658  0.33527199
   0.66836531  0.03179278  0.97637547
   0.64115956  0.10010017  0.74111056
   0.02071847  0.39391074  0.64784581
   0.26347191  0.67655598  0.35310881
   0.31148932  0.64780954 -0.00954740
   0.28050096  0.59893410  0.79902559
   0.59204223  0.01303177  0.66084469
   0.29788728  0.03619098  0.35959586
   0.23008150  0.07706570  0.59609989
   0.27490571  0.08094284  0.99976723
   0.65594682  0.29821515  0.42749136
   0.70303746  0.22178168  0.63223818
   0.99199702  0.63656284  0.73681873
   0.02858192  0.56331063  0.95445706
   0.66721255  0.26238343  0.03849713
   0.04514850  0.65346450  0.40966691
   0.07924196  0.68928869  0.64208060
   0.36915443  0.00030389  0.69251464
   0.41055807  0.02492039  0.93450120
   0.08822803  0.63755766  0.03394454
   0.71001043  0.96096063  0.63971660
   0.77760117  0.92245227  0.40008286
   0.73386064  0.91460350  0.99358378
   0.34881860  0.70342604  0.52608918
   0.28682035  0.78402153  0.36242692
   0.98925742  0.37637897  0.29904485
   0.97368919  0.43944705  0.05312072
   0.32798680  0.73520483  0.94910303
   0.97204316  0.31519281  0.62189785
   0.91622277  0.31638319  0.36477652
   0.63925713  0.99010093  0.30735487
   0.59946377  0.96305205  0.06566515
   0.91233823  0.36895525  0.95740725
   0.95417092  0.74761557  0.69463417
   0.97870492  0.70676701  0.07242995
   0.90608869  0.74473771  0.29111030
   0.31112553  0.94281756  0.66360291
   0.33308664  0.96348660  0.02450361
   0.35827832  0.89578438  0.25988935
   0.97638904  0.61112161  0.35677764
   0.74327559  0.31375742  0.68702184
   0.67880407  0.38382233  0.02577911
   0.75184638  0.35969403  0.25134709
   0.41609116  0.97713782  0.33537724
   0.71540304  0.50346063  0.67398241
   0.78743447  0.44708700  0.43804925
   0.11089360  0.21355555  0.22547239
   0.15205299  0.16809702  0.34729858
   0.08827103  0.26017513  0.88483487
   0.12721401  0.21323063  0.02455303
   0.68127236  0.10577668  0.25903527
   0.68475238  0.14662957  0.38475459
   0.65869280  0.08263366  0.91565898
   0.66790209  0.12110965  0.05621031
   0.01001462  0.44646015  0.57435005
   0.01516987  0.48669400  0.69885623
   0.22085196  0.66521410  0.28031487
   0.17198276  0.67545781  0.39501174
   0.27563964  0.62718174  0.95936150
   0.22624197  0.64072455  0.09029484
   0.55037983  0.00343851  0.57875674
   0.50363910  0.00887170  0.69547442
   0.24657897  0.07677444  0.42048161
   0.20718746  0.12332504  0.27942574
   0.22311535  0.12275668  0.07803288
   0.18231711  0.16843090  0.95647000
   0.67984869  0.24138636  0.46568207
   0.67720199  0.20077822  0.31864756
   0.00872630  0.58256786  0.78269371
   0.00366805  0.54271371  0.63607196
   0.66824404  0.21369784  0.11401241
   0.66218294  0.17452380  0.98872128
   0.08143614  0.67019780  0.46761947
   0.12756617  0.66420970  0.32614371
   0.41041113  0.00914762  0.75814803
   0.45827584  0.00046316  0.62115977
   0.12975821  0.64536608  0.12514003
   0.18050612  0.63255786  0.01670301
   0.76162487  0.92220721  0.57658340
   0.80318198  0.87638342  0.71626014
   0.78704752  0.87581365  0.91650492
   0.82910758  0.83211802  0.03966386
   0.31605151  0.76135666  0.51852039
   0.31740480  0.79971993  0.67697575
   0.98522206  0.42475200  0.23205269
   0.99365249  0.46314256  0.37428765
   0.32752646  0.78423652  0.88055067
   0.33529867  0.82248013  0.00689443
   0.92547812  0.31832110  0.55133608
   0.87770515  0.32870342  0.69093193
   0.59879441  0.98003088  0.24152744
   0.55065128  0.98842121  0.37645941
   0.87202801  0.35877980  0.87367474
   0.81828992  0.37905282  0.97316121
   0.90173015  0.78909596  0.77347091
   0.85972768  0.83370162  0.65039559
   0.92441905  0.74536581  0.11893770
   0.88543563  0.78943149  0.97393230
   0.31722809  0.89256063  0.74103608
   0.31070916  0.85378414  0.61457118
   0.34151086  0.91292476  0.08516235
   0.33083270  0.87580553  0.94262580
   0.98769345  0.55896395  0.43494184
   0.98343839  0.51838279  0.31002957
   0.78202614  0.33122074  0.74745167
   0.83373250  0.31470344  0.63776200
   0.73148915  0.37207970  0.07104617
   0.77484832  0.36436454  0.92162147
   0.45820578  0.98578820  0.41846773
   0.50522770  0.98002744  0.30195626
   0.75122868  0.47513762  0.55692472
   0.14047112  0.16789706  0.50115032
   0.69309001  0.13546446  0.54014714
   0.02739131  0.47405922  0.85182830
   0.16796701  0.69237263  0.54458415
   0.50256629  0.02036240  0.85007675
   0.19404016  0.16878692  0.80285643
   0.65377008  0.18559242  0.83326890
   0.18361722  0.61638304  0.86696221
   0.81739931  0.83137049  0.19290932
   0.34464262  0.81064903  0.16151276
   0.80965574  0.41007841  0.09429334
   0.87129758  0.83448549  0.49694453
   0.30204129  0.86589278  0.45995792
   0.97142805  0.53091309  0.15694106
   0.84179644  0.28548737  0.51113648
   0.50613096  0.96869856  0.14723579
   0.71142370  0.33046567  0.41229989
   0.28889469  0.02132510  0.79646578
   0.65978425  0.33244411  0.16350918
   0.95955075  0.68703936  0.49199871
   0.35799359  0.95537124  0.45895248
   0.35434339  0.02278876  0.13137302
   0.71849771  0.97342331  0.19829250
   0.33634769  0.67015559  0.75442803
   0.70068024  0.28160041  0.82576397
   0.97999915  0.31372472  0.16560452
   0.30301999  0.71339250  0.19396892
   0.97739516  0.37927868  0.85053480
   0.65191083  0.96834809  0.86701872
   0.02839191  0.61900191  0.15910200
   0.64501845  0.04155628  0.53922048
   0.02382708  0.69452342  0.84621605
   0.29318260  0.63327558  0.58341467
   0.04290544  0.31493966  0.50698127
   0.83122291  0.35212093  0.31019687
Direct configuration=   107
   0.05851994  0.25441777  0.30329918
   0.03760839  0.30134563  0.95077899
   0.10385880  0.26059991  0.70896028
   0.69069730  0.05419923  0.33533763
   0.66834761  0.03179530  0.97643848
   0.64115030  0.10010230  0.74117368
   0.02071251  0.39390513  0.64785663
   0.26347901  0.67655656  0.35305052
   0.31148244  0.64781621 -0.00958041
   0.28051010  0.59891847  0.79899429
   0.59204259  0.01303432  0.66084426
   0.29788719  0.03619792  0.35964958
   0.23007937  0.07707017  0.59614726
   0.27490245  0.08094380  0.99982222
   0.65598434  0.29820109  0.42752267
   0.70307514  0.22175762  0.63226871
   0.99200969  0.63655680  0.73676554
   0.02858039  0.56330850  0.95442661
   0.66724465  0.26235665  0.03854002
   0.04514828  0.65348090  0.40960861
   0.07924725  0.68927997  0.64198135
   0.36915728  0.00030888  0.69256164
   0.41056003  0.02492285  0.93452746
   0.08823642  0.63755209  0.03387179
   0.71001815  0.96096164  0.63974651
   0.77760595  0.92245501  0.40008942
   0.73384944  0.91461226  0.99358723
   0.34879749  0.70344067  0.52604619
   0.28678015  0.78405464  0.36238122
   0.98924658  0.37637570  0.29905757
   0.97368595  0.43944103  0.05310778
   0.32797948  0.73521338  0.94904137
   0.97204281  0.31517600  0.62192676
   0.91622537  0.31638048  0.36479332
   0.63926606  0.99008733  0.30740425
   0.59945945  0.96306313  0.06566983
   0.91233716  0.36895835  0.95742596
   0.95416370  0.74760944  0.69457791
   0.97870050  0.70675929  0.07235890
   0.90609553  0.74472738  0.29106069
   0.31112229  0.94282127  0.66359864
   0.33309301  0.96348314  0.02453792
   0.35829753  0.89577378  0.25988751
   0.97639677  0.61111680  0.35673463
   0.74326756  0.31376426  0.68708746
   0.67878408  0.38384479  0.02580479
   0.75183973  0.35970964  0.25139092
   0.41609153  0.97713856  0.33540299
   0.71540449  0.50347412  0.67388988
   0.78745209  0.44709339  0.43800608
   0.11088756  0.21354310  0.22546855
   0.15204350  0.16809210  0.34731545
   0.08826054  0.26016932  0.88484448
   0.12720624  0.21322017  0.02458002
   0.68128925  0.10576591  0.25902201
   0.68479614  0.14660278  0.38479334
   0.65868383  0.08263969  0.91568908
   0.66790330  0.12110450  0.05629810
   0.01001260  0.44645391  0.57435440
   0.01516321  0.48668892  0.69885410
   0.22085534  0.66520430  0.28029045
   0.17198158  0.67544894  0.39499190
   0.27563935  0.62718253  0.95930051
   0.22624801  0.64071717  0.09024116
   0.55037624  0.00344119  0.57878010
   0.50363166  0.00888088  0.69551294
   0.24657627  0.07678050  0.42052504
   0.20718268  0.12332388  0.27947435
   0.22310938  0.12275504  0.07808036
   0.18230868  0.16842652  0.95651068
   0.67988866  0.24135989  0.46573420
   0.67723925  0.20076312  0.31865252
   0.00872868  0.58256392  0.78266615
   0.00366284  0.54270657  0.63605198
   0.66826884  0.21368406  0.11405726
   0.66217509  0.17452380  0.98873585
   0.08144538  0.67019605  0.46754199
   0.12756964  0.66420238  0.32608519
   0.41041360  0.00915061  0.75816935
   0.45826713  0.00047009  0.62120368
   0.12976673  0.64536335  0.12509958
   0.18051171  0.63255586  0.01662692
   0.76162577  0.92221293  0.57657579
   0.80318639  0.87638602  0.71625852
   0.78705621  0.87581572  0.91648045
   0.82911797  0.83212157  0.03966264
   0.31601558  0.76137882  0.51847904
   0.31737716  0.79973285  0.67697452
   0.98521753  0.42474506  0.23204750
   0.99365037  0.46313718  0.37429087
   0.32751517  0.78424577  0.88053969
   0.33530742  0.82247938  0.00690314
   0.92547243  0.31832044  0.55135789
   0.87769191  0.32870987  0.69090504
   0.59879359  0.98003039  0.24154091
   0.55064993  0.98842490  0.37648209
   0.87201833  0.35878919  0.87367562
   0.81828195  0.37907013  0.97316882
   0.90173134  0.78909300  0.77343909
   0.85973103  0.83370170  0.65038435
   0.92441922  0.74536589  0.11889754
   0.88543827  0.78943499  0.97391950
   0.31721787  0.89257387  0.74107878
   0.31068419  0.85380419  0.61459881
   0.34151530  0.91292377  0.08513689
   0.33083924  0.87579789  0.94263144
   0.98769365  0.55895394  0.43493540
   0.98343520  0.51837711  0.31001735
   0.78201363  0.33125490  0.74745922
   0.83372649  0.31471360  0.63776321
   0.73147470  0.37209398  0.07106891
   0.77482705  0.36440173  0.92162520
   0.45819652  0.98579439  0.41851747
   0.50521871  0.98003413  0.30199199
   0.75122176  0.47516001  0.55690850
   0.14046054  0.16789094  0.50117603
   0.69314975  0.13543725  0.54016840
   0.02737994  0.47406171  0.85181670
   0.16798491  0.69234961  0.54454575
   0.50256259  0.02037182  0.85011631
   0.19403389  0.16878093  0.80289302
   0.65377545  0.18558459  0.83331415
   0.18363410  0.61637863  0.86689886
   0.81740909  0.83138302  0.19289106
   0.34466629  0.81064042  0.16145785
   0.80964412  0.41009330  0.09429937
   0.87128813  0.83449146  0.49692722
   0.30201181  0.86591654  0.45995555
   0.97143111  0.53090403  0.15692628
   0.84177744  0.28549432  0.51117073
   0.50612321  0.96870152  0.14726925
   0.71144119  0.33046938  0.41227242
   0.28889230  0.02132810  0.79649272
   0.65979365  0.33243867  0.16353400
   0.95955151  0.68703515  0.49196277
   0.35799380  0.95537234  0.45896627
   0.35434100  0.02279491  0.13141072
   0.71850247  0.97341292  0.19830020
   0.33633771  0.67016622  0.75434205
   0.70069553  0.28159030  0.82578961
   0.97999301  0.31372104  0.16562139
   0.30302621  0.71339715  0.19394659
   0.97739172  0.37927593  0.85052972
   0.65190606  0.96835467  0.86702098
   0.02839516  0.61899688  0.15904851
   0.64502557  0.04155050  0.53923257
   0.02381678  0.69453010  0.84615793
   0.29318011  0.63326981  0.58338592
   0.04289712  0.31493283  0.50698520
   0.83123203  0.35212268  0.31016927
Direct configuration=   108
   0.05851400  0.25441113  0.30330139
   0.03760702  0.30134373  0.95079386
   0.10385608  0.26059474  0.70896934
   0.69070531  0.05419595  0.33536956
   0.66833876  0.03179644  0.97646949
   0.64114583  0.10010389  0.74119972
   0.02070947  0.39390279  0.64786175
   0.26348120  0.67655737  0.35301885
   0.31147873  0.64781950 -0.00959162
   0.28051594  0.59891051  0.79897523
   0.59204232  0.01303555  0.66084657
   0.29788641  0.03620163  0.35967529
   0.23007844  0.07707259  0.59616813
   0.27490021  0.08094466  0.99984854
   0.65600399  0.29819158  0.42753777
   0.70309297  0.22174681  0.63228482
   0.99201615  0.63655366  0.73673912
   0.02857924  0.56330766  0.95441025
   0.66725945  0.26234572  0.03855742
   0.04514541  0.65348800  0.40957653
   0.07925115  0.68927654  0.64194213
   0.36915853  0.00031143  0.69258230
   0.41056126  0.02492408  0.93454007
   0.08824197  0.63754980  0.03383617
   0.71001909  0.96096443  0.63976345
   0.77760962  0.92245555  0.40008844
   0.73384625  0.91461453  0.99358799
   0.34878734  0.70344809  0.52602457
   0.28676152  0.78406981  0.36236422
   0.98924167  0.37637449  0.29906249
   0.97368505  0.43943741  0.05310330
   0.32797638  0.73521726  0.94901170
   0.97204245  0.31516829  0.62194377
   0.91622585  0.31637925  0.36480354
   0.63926924  0.99008049  0.30742789
   0.59945890  0.96306861  0.06567092
   0.91233560  0.36895904  0.95743245
   0.95416100  0.74760635  0.69454849
   0.97869957  0.70675421  0.07232708
   0.90609980  0.74472151  0.29103611
   0.31112033  0.94282396  0.66359610
   0.33309605  0.96348291  0.02455311
   0.35830655  0.89576883  0.25988382
   0.97640151  0.61111246  0.35671651
   0.74326669  0.31376797  0.68712710
   0.67877418  0.38385451  0.02581716
   0.75183537  0.35971751  0.25141033
   0.41609097  0.97713883  0.33541474
   0.71539705  0.50348716  0.67387041
   0.78745347  0.44710258  0.43800961
   0.11088258  0.21353847  0.22547471
   0.15203926  0.16808900  0.34732723
   0.08825707  0.26016487  0.88485201
   0.12720178  0.21321635  0.02458612
   0.68129829  0.10575806  0.25902489
   0.68481773  0.14659039  0.38480992
   0.65868082  0.08264221  0.91571293
   0.66790357  0.12110231  0.05632783
   0.01001155  0.44645036  0.57435581
   0.01516003  0.48668649  0.69885308
   0.22085659  0.66519867  0.28027525
   0.17198183  0.67544449  0.39497289
   0.27563902  0.62718361  0.95927355
   0.22624940  0.64071464  0.09022226
   0.55037446  0.00344231  0.57879334
   0.50362814  0.00888523  0.69553112
   0.24657558  0.07678282  0.42054749
   0.20718008  0.12332358  0.27949594
   0.22310632  0.12275407  0.07810338
   0.18230564  0.16842348  0.95652914
   0.67990615  0.24135117  0.46575476
   0.67725839  0.20075305  0.31865894
   0.00872971  0.58256205  0.78265126
   0.00366061  0.54270361  0.63604539
   0.66828150  0.21367523  0.11407654
   0.66217117  0.17452476  0.98874987
   0.08145191  0.67019423  0.46749570
   0.12757078  0.66419863  0.32605675
   0.41041430  0.00915233  0.75818243
   0.45826392  0.00047307  0.62122225
   0.12977040  0.64536189  0.12507821
   0.18051349  0.63255559  0.01659400
   0.76162964  0.92221233  0.57657790
   0.80318942  0.87638690  0.71625227
   0.78705708  0.87581863  0.91648126
   0.82912168  0.83212411  0.03965732
   0.31599769  0.76138852  0.51845626
   0.31736347  0.79974218  0.67697097
   0.98521546  0.42474138  0.23204427
   0.99364954  0.46313405  0.37429182
   0.32751030  0.78425116  0.88052997
   0.33531149  0.82247698  0.00689822
   0.92546922  0.31832099  0.55136737
   0.87768710  0.32871453  0.69089754
   0.59879541  0.98003033  0.24154111
   0.55064812  0.98842674  0.37649319
   0.87201562  0.35879360  0.87367245
   0.81827818  0.37907828  0.97317243
   0.90173184  0.78909104  0.77342689
   0.85973139  0.83370285  0.65037612
   0.92441929  0.74536574  0.11887775
   0.88544040  0.78943607  0.97390749
   0.31721237  0.89257993  0.74110540
   0.31067168  0.85381253  0.61460456
   0.34151762  0.91292126  0.08512452
   0.33084211  0.87579591  0.94263745
   0.98769333  0.55895136  0.43492623
   0.98343351  0.51837419  0.31001307
   0.78200694  0.33127087  0.74745818
   0.83372217  0.31471762  0.63777122
   0.73146815  0.37209910  0.07108587
   0.77481610  0.36442057  0.92162834
   0.45819261  0.98579743  0.41854118
   0.50521461  0.98003735  0.30201017
   0.75123418  0.47515875  0.55684887
   0.14045532  0.16788808  0.50118613
   0.69317869  0.13542401  0.54017856
   0.02737441  0.47406303  0.85181073
   0.16799329  0.69233890  0.54453057
   0.50256060  0.02037646  0.85013689
   0.19403033  0.16877834  0.80291297
   0.65377830  0.18558113  0.83333498
   0.18364242  0.61637601  0.86686643
   0.81741395  0.83138869  0.19288960
   0.34467711  0.81063658  0.16143789
   0.80963795  0.41010143  0.09430482
   0.87128349  0.83449439  0.49691942
   0.30199695  0.86592825  0.45995648
   0.97143227  0.53089953  0.15691872
   0.84176797  0.28549810  0.51118375
   0.50611961  0.96870312  0.14728733
   0.71144793  0.33047165  0.41225188
   0.28889091  0.02132925  0.79650457
   0.65979925  0.33243556  0.16354468
   0.95955179  0.68703320  0.49194287
   0.35799357  0.95537283  0.45897073
   0.35433967  0.02279781  0.13143190
   0.71850459  0.97340890  0.19830303
   0.33633262  0.67017189  0.75430536
   0.70070235  0.28158684  0.82579967
   0.97999093  0.31371883  0.16562717
   0.30302924  0.71340015  0.19393258
   0.97739067  0.37927443  0.85052523
   0.65190255  0.96835827  0.86702430
   0.02839641  0.61899459  0.15902372
   0.64502924  0.04154786  0.53924018
   0.02381122  0.69453336  0.84612885
   0.29317948  0.63326671  0.58337690
   0.04289231  0.31492934  0.50698917
   0.83123583  0.35212400  0.31015712
Direct configuration=   109
   0.05850415  0.25440011  0.30330506
   0.03760474  0.30134057  0.95081855
   0.10385156  0.26058616  0.70898437
   0.69071860  0.05419050  0.33542258
   0.66832407  0.03179833  0.97652098
   0.64113841  0.10010653  0.74124296
   0.02070441  0.39389892  0.64787024
   0.26348484  0.67655872  0.35296626
   0.31147256  0.64782496 -0.00961023
   0.28052563  0.59889731  0.79894359
   0.59204186  0.01303760  0.66085040
   0.29788511  0.03620780  0.35971799
   0.23007690  0.07707661  0.59620279
   0.27489650  0.08094609  0.99989225
   0.65603662  0.29817580  0.42756286
   0.70312256  0.22172886  0.63231158
   0.99202687  0.63654843  0.73669524
   0.02857733  0.56330626  0.95438307
   0.66728403  0.26232757  0.03858630
   0.04514064  0.65349980  0.40952326
   0.07925764  0.68927083  0.64187700
   0.36916060  0.00031566  0.69261662
   0.41056330  0.02492610  0.93456102
   0.08825118  0.63754599  0.03377704
   0.71002064  0.96096907  0.63979159
   0.77761573  0.92245644  0.40008682
   0.73384094  0.91461830  0.99358924
   0.34877049  0.70346042  0.52598867
   0.28673059  0.78409499  0.36233598
   0.98923351  0.37637248  0.29907066
   0.97368355  0.43943140  0.05309587
   0.32797122  0.73522371  0.94896243
   0.97204184  0.31515548  0.62197203
   0.91622666  0.31637720  0.36482053
   0.63927452  0.99006912  0.30746715
   0.59945797  0.96307771  0.06567273
   0.91233301  0.36896019  0.95744323
   0.95415652  0.74760122  0.69449965
   0.97869804  0.70674577  0.07227424
   0.90610690  0.74471176  0.29099531
   0.31111709  0.94282843  0.66359187
   0.33310109  0.96348253  0.02457833
   0.35832152  0.89576061  0.25987771
   0.97640939  0.61110525  0.35668643
   0.74326526  0.31377414  0.68719291
   0.67875773  0.38387066  0.02583772
   0.75182815  0.35973057  0.25144255
   0.41609005  0.97713927  0.33543426
   0.71538471  0.50350880  0.67383808
   0.78745575  0.44711784  0.43801546
   0.11087431  0.21353078  0.22548493
   0.15203222  0.16808384  0.34734679
   0.08825132  0.26015749  0.88486450
   0.12719438  0.21321000  0.02459626
   0.68131330  0.10574502  0.25902968
   0.68485359  0.14656981  0.38483746
   0.65867582  0.08264639  0.91575254
   0.66790402  0.12109868  0.05637720
   0.01000981  0.44644446  0.57435814
   0.01515477  0.48668246  0.69885139
   0.22085867  0.66518932  0.28025001
   0.17198224  0.67543709  0.39494132
   0.27563846  0.62718539  0.95922879
   0.22625170  0.64071044  0.09019088
   0.55037149  0.00344418  0.57881533
   0.50362231  0.00889246  0.69556130
   0.24657444  0.07678669  0.42058479
   0.20717575  0.12332309  0.27953178
   0.22310125  0.12275244  0.07814160
   0.18230059  0.16841844  0.95655979
   0.67993520  0.24133671  0.46578889
   0.67729016  0.20073632  0.31866961
   0.00873142  0.58255895  0.78262653
   0.00365691  0.54269870  0.63603445
   0.66830253  0.21366058  0.11410856
   0.66216466  0.17452634  0.98877315
   0.08146274  0.67019121  0.46741885
   0.12757267  0.66419241  0.32600954
   0.41041546  0.00915518  0.75820414
   0.45825859  0.00047802  0.62125310
   0.12977649  0.64535947  0.12504271
   0.18051645  0.63255515  0.01653933
   0.76163607  0.92221133  0.57658141
   0.80319445  0.87638837  0.71624189
   0.78705852  0.87582347  0.91648261
   0.82912783  0.83212834  0.03964849
   0.31596797  0.76140461  0.51841844
   0.31734074  0.79975766  0.67696508
   0.98521203  0.42473527  0.23203892
   0.99364816  0.46312884  0.37429339
   0.32750221  0.78426011  0.88051383
   0.33531824  0.82247301  0.00689004
   0.92546390  0.31832190  0.55138310
   0.87767912  0.32872229  0.69088509
   0.59879843  0.98003024  0.24154144
   0.55064513  0.98842979  0.37651162
   0.87201113  0.35880092  0.87366720
   0.81827191  0.37909181  0.97317841
   0.90173267  0.78908779  0.77340663
   0.85973198  0.83370475  0.65036245
   0.92441942  0.74536550  0.11884489
   0.88544392  0.78943786  0.97388755
   0.31720324  0.89258999  0.74114960
   0.31065093  0.85382638  0.61461412
   0.34152148  0.91291709  0.08510399
   0.33084690  0.87579261  0.94264744
   0.98769279  0.55894708  0.43491100
   0.98343069  0.51836934  0.31000595
   0.78199583  0.33129740  0.74745645
   0.83371500  0.31472428  0.63778452
   0.73145728  0.37210759  0.07111403
   0.77479793  0.36445186  0.92163356
   0.45818612  0.98580248  0.41858056
   0.50520781  0.98004269  0.30204035
   0.75125478  0.47515665  0.55674985
   0.14044667  0.16788333  0.50120291
   0.69322676  0.13540204  0.54019544
   0.02736523  0.47406523  0.85180082
   0.16800721  0.69232111  0.54450537
   0.50255729  0.02038417  0.85017107
   0.19402442  0.16877404  0.80294610
   0.65378305  0.18557539  0.83336958
   0.18365623  0.61637167  0.86681260
   0.81742201  0.83139811  0.19288718
   0.34469507  0.81063021  0.16140476
   0.80962771  0.41011492  0.09431386
   0.87127580  0.83449926  0.49690648
   0.30197227  0.86594770  0.45995803
   0.97143420  0.53089205  0.15690615
   0.84175226  0.28550436  0.51120537
   0.50611362  0.96870578  0.14731737
   0.71145913  0.33047544  0.41221777
   0.28888861  0.02133116  0.79652426
   0.65980854  0.33243038  0.16356242
   0.95955225  0.68702995  0.49190981
   0.35799319  0.95537364  0.45897814
   0.35433748  0.02280263  0.13146706
   0.71850810  0.97340221  0.19830773
   0.33632418  0.67018132  0.75424445
   0.70071369  0.28158110  0.82581638
   0.97998746  0.31371516  0.16563677
   0.30303429  0.71340513  0.19390933
   0.97738892  0.37927192  0.85051778
   0.65189672  0.96836425  0.86702982
   0.02839849  0.61899078  0.15898255
   0.64503535  0.04154347  0.53925283
   0.02380199  0.69453876  0.84608056
   0.29317845  0.63326156  0.58336192
   0.04288432  0.31492354  0.50699576
   0.83124213  0.35212618  0.31013695
Direct configuration=   110
   0.05849988  0.25439151  0.30330615
   0.03760206  0.30134012  0.95083593
   0.10384819  0.26058075  0.70899348
   0.69072629  0.05418620  0.33545357
   0.66831421  0.03180139  0.97655275
   0.64113403  0.10010887  0.74126500
   0.02070123  0.39389674  0.64787432
   0.26348477  0.67655926  0.35293234
   0.31146852  0.64782855 -0.00962077
   0.28053348  0.59888914  0.79892218
   0.59204079  0.01303893  0.66085695
   0.29788388  0.03621184  0.35974431
   0.23007591  0.07707955  0.59622353
   0.27489360  0.08094713  0.99991910
   0.65605930  0.29816209  0.42758021
   0.70314083  0.22171865  0.63233139
   0.99203429  0.63654417  0.73666652
   0.02857582  0.56330543  0.95436551
   0.66729886  0.26231942  0.03859982
   0.04513449  0.65350593  0.40948087
   0.07926366  0.68926843  0.64184708
   0.36916062  0.00031817  0.69263345
   0.41056485  0.02492765  0.93457682
   0.08825817  0.63754430  0.03374015
   0.71002076  0.96097301  0.63980854
   0.77762077  0.92245620  0.40008363
   0.73384211  0.91461691  0.99358719
   0.34875858  0.70347077  0.52595951
   0.28671266  0.78410866  0.36232627
   0.98922874  0.37637144  0.29907415
   0.97368352  0.43942652  0.05309467
   0.32796848  0.73522684  0.94893424
   0.97204131  0.31514799  0.62199457
   0.91622575  0.31637620  0.36483162
   0.63927722  0.99006141  0.30749079
   0.59945905  0.96308339  0.06567063
   0.91233012  0.36895980  0.95744584
   0.95415439  0.74759813  0.69446728
   0.97869823  0.70673921  0.07224328
   0.90611176  0.74470502  0.29097159
   0.31111447  0.94283225  0.66359293
   0.33310370  0.96348397  0.02458962
   0.35832989  0.89575603  0.25986447
   0.97641575  0.61109770  0.35667193
   0.74326787  0.31377924  0.68723939
   0.67874843  0.38387877  0.02585370
   0.75182224  0.35973951  0.25145664
   0.41608827  0.97713952  0.33544712
   0.71538447  0.50351667  0.67379059
   0.78746396  0.44712301  0.43799836
   0.11086649  0.21352751  0.22550166
   0.15202776  0.16808000  0.34736414
   0.08824967  0.26015088  0.88487651
   0.12718884  0.21320720  0.02459630
   0.68132455  0.10573486  0.25905838
   0.68487651  0.14655813  0.38484346
   0.65867406  0.08264632  0.91579143
   0.66790330  0.12109786  0.05638301
   0.01000828  0.44644026  0.57435802
   0.01515122  0.48668059  0.69884759
   0.22086043  0.66518297  0.28022898
   0.17198519  0.67543178  0.39490869
   0.27563811  0.62718669  0.95920503
   0.22625116  0.64070898  0.09017705
   0.55036939  0.00344541  0.57883145
   0.50361944  0.00889678  0.69557907
   0.24657413  0.07678852  0.42061048
   0.20717269  0.12332303  0.27955156
   0.22309792  0.12275120  0.07816561
   0.18229854  0.16841416  0.95657710
   0.67995190  0.24133191  0.46580008
   0.67731233  0.20072089  0.31869033
   0.00873205  0.58255722  0.78260626
   0.00365490  0.54269675  0.63603052
   0.66831606  0.21364867  0.11411991
   0.66216199  0.17452707  0.98880694
   0.08146897  0.67018857  0.46736694
   0.12757476  0.66418816  0.32597784
   0.41041514  0.00915769  0.75822510
   0.45825741  0.00048074  0.62126882
   0.12977921  0.64535728  0.12501057
   0.18051770  0.63255565  0.01651227
   0.76164232  0.92220852  0.57659072
   0.80319771  0.87638936  0.71623324
   0.78705495  0.87582913  0.91649856
   0.82912917  0.83213294  0.03963720
   0.31594906  0.76141417  0.51839588
   0.31732560  0.79977102  0.67695319
   0.98521006  0.42473163  0.23203579
   0.99364733  0.46312466  0.37429164
   0.32749789  0.78426662  0.88049731
   0.33532211  0.82246787  0.00686993
   0.92546062  0.31832295  0.55139147
   0.87767619  0.32872968  0.69088893
   0.59880171  0.98003088  0.24154086
   0.55064180  0.98843159  0.37652147
   0.87200997  0.35880572  0.87366092
   0.81826769  0.37910064  0.97318188
   0.90173273  0.78908571  0.77339458
   0.85973127  0.83370663  0.65035196
   0.92442087  0.74536380  0.11882144
   0.88544723  0.78943824  0.97386734
   0.31719642  0.89259467  0.74117192
   0.31063706  0.85383503  0.61461227
   0.34152581  0.91291191  0.08510413
   0.33084909  0.87579392  0.94265633
   0.98769200  0.55894709  0.43489329
   0.98342892  0.51836588  0.31000361
   0.78198688  0.33131303  0.74745468
   0.83370806  0.31472823  0.63780047
   0.73145054  0.37211235  0.07113359
   0.77478574  0.36447153  0.92163878
   0.45818335  0.98580557  0.41860198
   0.50520441  0.98004603  0.30206081
   0.75125403  0.47516680  0.55673186
   0.14044094  0.16788046  0.50121099
   0.69325772  0.13538756  0.54020721
   0.02735958  0.47406645  0.85179720
   0.16801528  0.69231049  0.54449395
   0.50255485  0.02038915  0.85019345
   0.19402014  0.16877154  0.80296961
   0.65378582  0.18557260  0.83338663
   0.18366485  0.61636842  0.86677598
   0.81742748  0.83140345  0.19289494
   0.34470604  0.81062600  0.16139632
   0.80962091  0.41012471  0.09432273
   0.87127117  0.83450226  0.49689710
   0.30195578  0.86596041  0.45996493
   0.97143499  0.53088703  0.15689777
   0.84174200  0.28550877  0.51121496
   0.50610983  0.96870777  0.14733960
   0.71146402  0.33047788  0.41219343
   0.28888717  0.02133201  0.79653609
   0.65981569  0.33242634  0.16357007
   0.95955273  0.68702770  0.49188463
   0.35799262  0.95537398  0.45898004
   0.35433597  0.02280551  0.13149267
   0.71850978  0.97339961  0.19831067
   0.33631810  0.67018772  0.75421579
   0.70072025  0.28157908  0.82582548
   0.97998645  0.31371213  0.16563990
   0.30303713  0.71340931  0.19388906
   0.97738857  0.37926973  0.85051160
   0.65189160  0.96836861  0.86703512
   0.02839969  0.61898875  0.15895782
   0.64503930  0.04154114  0.53926413
   0.02379686  0.69454125  0.84604688
   0.29317835  0.63325861  0.58335346
   0.04287830  0.31491940  0.50700227
   0.83124555  0.35212787  0.31012496
Direct configuration=   111
   0.05848707  0.25436571  0.30330941
   0.03759402  0.30133876  0.95088808
   0.10383807  0.26056452  0.70902081
   0.69074935  0.05417332  0.33554655
   0.66828464  0.03181060  0.97664805
   0.64112088  0.10011587  0.74133114
   0.02069169  0.39389022  0.64788654
   0.26348455  0.67656088  0.35283057
   0.31145640  0.64783930 -0.00965239
   0.28055702  0.59886462  0.79885795
   0.59203759  0.01304291  0.66087663
   0.29788019  0.03622396  0.35982326
   0.23007295  0.07708838  0.59628578
   0.27488491  0.08095025  0.99999962
   0.65612735  0.29812097  0.42763228
   0.70319566  0.22168801  0.63239080
   0.99205654  0.63653137  0.73658035
   0.02857130  0.56330294  0.95431282
   0.66734334  0.26229495  0.03864035
   0.04511603  0.65352432  0.40935368
   0.07928174  0.68926122  0.64175734
   0.36916067  0.00032572  0.69268395
   0.41056949  0.02493228  0.93462422
   0.08827911  0.63753924  0.03362949
   0.71002109  0.96098482  0.63985939
   0.77763589  0.92245546  0.40007405
   0.73384563  0.91461275  0.99358103
   0.34872285  0.70350182  0.52587205
   0.28665886  0.78414966  0.36229713
   0.98921442  0.37636833  0.29908462
   0.97368342  0.43941189  0.05309107
   0.32796028  0.73523623  0.94884966
   0.97203972  0.31512555  0.62206219
   0.91622304  0.31637318  0.36486491
   0.63928529  0.99003827  0.30756169
   0.59946229  0.96310043  0.06566432
   0.91232146  0.36895865  0.95745366
   0.95414803  0.74758885  0.69437015
   0.97869878  0.70671954  0.07215042
   0.90612634  0.74468480  0.29090045
   0.31110664  0.94284372  0.66359611
   0.33311153  0.96348831  0.02462349
   0.35835502  0.89574229  0.25982474
   0.97643480  0.61107507  0.35662844
   0.74327572  0.31379456  0.68737883
   0.67872053  0.38390308  0.02590166
   0.75180451  0.35976633  0.25149890
   0.41608291  0.97714028  0.33548571
   0.71538375  0.50354029  0.67364812
   0.78748857  0.44713850  0.43794704
   0.11084303  0.21351772  0.22555187
   0.15201437  0.16806850  0.34741619
   0.08824473  0.26013105  0.88491253
   0.12717219  0.21319881  0.02459642
   0.68135829  0.10570438  0.25914449
   0.68494524  0.14652308  0.38486147
   0.65866880  0.08264614  0.91590813
   0.66790111  0.12109540  0.05640043
   0.01000370  0.44642766  0.57435765
   0.01514057  0.48667499  0.69883617
   0.22086573  0.66516392  0.28016591
   0.17199402  0.67541585  0.39481081
   0.27563706  0.62719060  0.95913375
   0.22624957  0.64070458  0.09013557
   0.55036306  0.00344910  0.57887979
   0.50361084  0.00890973  0.69563237
   0.24657321  0.07679403  0.42068758
   0.20716350  0.12332286  0.27961090
   0.22308794  0.12274748  0.07823764
   0.18229238  0.16840130  0.95662903
   0.68000201  0.24131751  0.46583364
   0.67737883  0.20067459  0.31875250
   0.00873396  0.58255201  0.78254546
   0.00364885  0.54269092  0.63601874
   0.66835664  0.21361295  0.11415395
   0.66215396  0.17452925  0.98890831
   0.08148766  0.67018064  0.46721121
   0.12758103  0.66417542  0.32588273
   0.41041418  0.00916519  0.75828800
   0.45825385  0.00048889  0.62131599
   0.12978737  0.64535072  0.12491412
   0.18052144  0.63255716  0.01643107
   0.76166107  0.92220007  0.57661864
   0.80320747  0.87639232  0.71620730
   0.78704424  0.87584612  0.91654639
   0.82913318  0.83214676  0.03960333
   0.31589234  0.76144285  0.51832821
   0.31728018  0.79981109  0.67691752
   0.98520413  0.42472070  0.23202639
   0.99364482  0.46311211  0.37428639
   0.32748494  0.78428615  0.88044777
   0.33533371  0.82245246  0.00680959
   0.92545078  0.31832610  0.55141658
   0.87766742  0.32875188  0.69090046
   0.59881155  0.98003283  0.24153912
   0.55063183  0.98843699  0.37655102
   0.87200649  0.35882010  0.87364208
   0.81825501  0.37912714  0.97319228
   0.90173290  0.78907946  0.77335843
   0.85972912  0.83371227  0.65032050
   0.92442524  0.74535872  0.11875109
   0.88545716  0.78943938  0.97380672
   0.31717596  0.89260872  0.74123888
   0.31059546  0.85386099  0.61460671
   0.34153882  0.91289639  0.08510457
   0.33085568  0.87579786  0.94268302
   0.98768960  0.55894714  0.43484017
   0.98342361  0.51835552  0.30999659
   0.78196003  0.33135991  0.74744937
   0.83368727  0.31474010  0.63784831
   0.73143034  0.37212662  0.07119227
   0.77474918  0.36453051  0.92165444
   0.45817507  0.98581484  0.41866625
   0.50519421  0.98005604  0.30212218
   0.75125176  0.47519725  0.55667789
   0.14042375  0.16787185  0.50123524
   0.69335058  0.13534409  0.54024254
   0.02734264  0.47407012  0.85178635
   0.16803949  0.69227864  0.54445969
   0.50254753  0.02040407  0.85026060
   0.19400731  0.16876404  0.80304015
   0.65379415  0.18556421  0.83343777
   0.18369072  0.61635868  0.86666613
   0.81744389  0.83141946  0.19291823
   0.34473898  0.81061334  0.16137101
   0.80960049  0.41015408  0.09434935
   0.87125727  0.83451126  0.49686899
   0.30190629  0.86599853  0.45998562
   0.97143739  0.53087198  0.15687262
   0.84171122  0.28552200  0.51124374
   0.50609848  0.96871375  0.14740632
   0.71147869  0.33048521  0.41212044
   0.28888286  0.02133454  0.79657160
   0.65983714  0.33241422  0.16359302
   0.95955415  0.68702094  0.49180911
   0.35799092  0.95537500  0.45898575
   0.35433144  0.02281414  0.13156948
   0.71851481  0.97339182  0.19831951
   0.33629987  0.67020691  0.75412982
   0.70073994  0.28157302  0.82585280
   0.97998340  0.31370304  0.16564929
   0.30304564  0.71342186  0.19382825
   0.97738754  0.37926315  0.85049307
   0.65187626  0.96838167  0.86705101
   0.02840330  0.61898266  0.15888363
   0.64505114  0.04153415  0.53929801
   0.02378148  0.69454872  0.84594582
   0.29317805  0.63324976  0.58332806
   0.04286022  0.31490697  0.50702180
   0.83125579  0.35213294  0.31008897
Direct configuration=   112
   0.05848183  0.25435949  0.30331766
   0.03759301  0.30133813  0.95090058
   0.10383370  0.26056006  0.70902879
   0.69075549  0.05416555  0.33556865
   0.66827638  0.03181520  0.97667895
   0.64112015  0.10011569  0.74136011
   0.02068968  0.39388769  0.64788638
   0.26348140  0.67655873  0.35281168
   0.31145350  0.64784258 -0.00966796
   0.28056529  0.59886025  0.79885292
   0.59203529  0.01304434  0.66088909
   0.29788054  0.03622606  0.35984343
   0.23007161  0.07709144  0.59630880
   0.27488319  0.08094975  0.00001952
   0.65614601  0.29811076  0.42764244
   0.70320898  0.22168342  0.63240201
   0.99206351  0.63652665  0.73655188
   0.02856981  0.56330238  0.95429983
   0.66735493  0.26229021  0.03864858
   0.04511181  0.65352886  0.40930645
   0.07928913  0.68925833  0.64172358
   0.36915813  0.00032771  0.69269172
   0.41057041  0.02493467  0.93464950
   0.08828208  0.63753893  0.03359581
   0.71002940  0.96098229  0.63986219
   0.77763959  0.92245463  0.40008558
   0.73384849  0.91460979  0.99358261
   0.34870998  0.70351514  0.52583287
   0.28664431  0.78415789  0.36229155
   0.98921110  0.37636605  0.29908703
   0.97368446  0.43940642  0.05309095
   0.32795870  0.73523774  0.94883098
   0.97203945  0.31512030  0.62208591
   0.91622011  0.31637299  0.36487089
   0.63929080  0.99003141  0.30758187
   0.59946468  0.96310468  0.06565601
   0.91232085  0.36895757  0.95745377
   0.95414597  0.74758762  0.69434383
   0.97869994  0.70671329  0.07212351
   0.90612935  0.74467975  0.29088337
   0.31110355  0.94284590  0.66361040
   0.33311286  0.96348730  0.02462758
   0.35836149  0.89573732  0.25981475
   0.97644108  0.61106821  0.35661709
   0.74327681  0.31380037  0.68740528
   0.67871646  0.38390598  0.02592356
   0.75179851  0.35977482  0.25149953
   0.41608081  0.97714085  0.33550160
   0.71538211  0.50354860  0.67360751
   0.78749567  0.44714430  0.43793450
   0.11083831  0.21351315  0.22556254
   0.15200928  0.16806626  0.34742897
   0.08824178  0.26012741  0.88492385
   0.12716838  0.21319421  0.02461110
   0.68136848  0.10569868  0.25917526
   0.68496669  0.14650976  0.38487288
   0.65866474  0.08264518  0.91592584
   0.66790206  0.12109237  0.05641392
   0.01000097  0.44642522  0.57435312
   0.01513685  0.48667549  0.69882641
   0.22087037  0.66516038  0.28014220
   0.17199947  0.67541165  0.39478673
   0.27563666  0.62718962  0.95912013
   0.22624930  0.64070303  0.09011224
   0.55036130  0.00345047  0.57889025
   0.50361086  0.00891288  0.69564849
   0.24657155  0.07679650  0.42070673
   0.20716052  0.12332258  0.27962839
   0.22308511  0.12274637  0.07825547
   0.18228879  0.16839862  0.95664490
   0.68002081  0.24130590  0.46584418
   0.67739926  0.20066232  0.31877284
   0.00873431  0.58255001  0.78252404
   0.00364678  0.54269149  0.63600584
   0.66836848  0.21360550  0.11417198
   0.66215481  0.17452709  0.98893153
   0.08148290  0.67017964  0.46719546
   0.12758681  0.66417079  0.32584554
   0.41041209  0.00916779  0.75831024
   0.45825479  0.00049105  0.62132800
   0.12978792  0.64534824  0.12487148
   0.18052366  0.63255639  0.01640643
   0.76166082  0.92220348  0.57662234
   0.80320652  0.87639441  0.71622320
   0.78704246  0.87585002  0.91654904
   0.82913303  0.83215065  0.03960439
   0.31587813  0.76145344  0.51832860
   0.31726636  0.79982098  0.67689178
   0.98520309  0.42471873  0.23202901
   0.99364376  0.46310794  0.37428065
   0.32748183  0.78428921  0.88041653
   0.33533780  0.82244965  0.00679532
   0.92544933  0.31832674  0.55142492
   0.87766262  0.32875942  0.69091325
   0.59880909  0.98003472  0.24155266
   0.55063095  0.98843838  0.37655566
   0.87200199  0.35882631  0.87364256
   0.81824955  0.37913672  0.97319492
   0.90173249  0.78907882  0.77333384
   0.85972917  0.83371211  0.65031491
   0.92443002  0.74535308  0.11872586
   0.88545804  0.78944065  0.97378923
   0.31716832  0.89261199  0.74122701
   0.31058244  0.85387362  0.61460505
   0.34154489  0.91289684  0.08511729
   0.33085500  0.87580041  0.94268175
   0.98769019  0.55894433  0.43482946
   0.98342232  0.51835233  0.30999269
   0.78195107  0.33137232  0.74746980
   0.83368331  0.31474575  0.63786613
   0.73142401  0.37213403  0.07119416
   0.77474010  0.36454394  0.92165995
   0.45817407  0.98581684  0.41867533
   0.50519263  0.98005832  0.30213590
   0.75125371  0.47520505  0.55665348
   0.14041804  0.16786934  0.50124624
   0.69337790  0.13533101  0.54024702
   0.02733823  0.47407048  0.85178995
   0.16804504  0.69226939  0.54444312
   0.50254477  0.02040823  0.85027620
   0.19400394  0.16876163  0.80305799
   0.65379597  0.18556306  0.83345658
   0.18369706  0.61635647  0.86664009
   0.81745040  0.83142271  0.19292723
   0.34474729  0.81060902  0.16137022
   0.80959544  0.41016353  0.09435865
   0.87125438  0.83451342  0.49685466
   0.30189015  0.86601102  0.45999646
   0.97143754  0.53086674  0.15686729
   0.84170196  0.28552705  0.51125200
   0.50609506  0.96871601  0.14742982
   0.71148025  0.33048617  0.41211489
   0.28888208  0.02133502  0.79658459
   0.65984473  0.33240888  0.16359054
   0.95955517  0.68701839  0.49178210
   0.35799023  0.95537510  0.45898480
   0.35432983  0.02281613  0.13159440
   0.71851517  0.97339225  0.19832517
   0.33629300  0.67021279  0.75412409
   0.70074505  0.28157295  0.82585986
   0.97998399  0.31369934  0.16564804
   0.30304610  0.71342691  0.19380224
   0.97738812  0.37925972  0.85048937
   0.65187093  0.96838601  0.86705418
   0.02840506  0.61898132  0.15886172
   0.64505393  0.04153384  0.53931848
   0.02378213  0.69454696  0.84590974
   0.29317827  0.63324978  0.58330895
   0.04285402  0.31490238  0.50703010
   0.83125758  0.35213520  0.31008023
Direct configuration=   113
   0.05846610  0.25434084  0.30334238
   0.03758995  0.30133622  0.95093809
   0.10382060  0.26054670  0.70905273
   0.69077391  0.05414225  0.33563496
   0.66825161  0.03182902  0.97677165
   0.64111797  0.10011515  0.74144703
   0.02068363  0.39388010  0.64788591
   0.26347195  0.67655231  0.35275503
   0.31144480  0.64785241 -0.00971465
   0.28059009  0.59884714  0.79883781
   0.59202838  0.01304864  0.66092648
   0.29788157  0.03623238  0.35990395
   0.23006756  0.07710062  0.59637787
   0.27487804  0.08094823  0.00007924
   0.65620200  0.29808015  0.42767290
   0.70324894  0.22166965  0.63243565
   0.99208443  0.63651248  0.73646647
   0.02856537  0.56330071  0.95426084
   0.66738972  0.26227597  0.03867324
   0.04509915  0.65354246  0.40916476
   0.07931129  0.68924967  0.64162233
   0.36915050  0.00033368  0.69271503
   0.41057318  0.02494185  0.93472534
   0.08829098  0.63753802  0.03349475
   0.71005433  0.96097471  0.63987058
   0.77765067  0.92245213  0.40012015
   0.73385707  0.91460089  0.99358735
   0.34867140  0.70355509  0.52571533
   0.28660065  0.78418259  0.36227482
   0.98920114  0.37635923  0.29909427
   0.97368757  0.43939003  0.05309058
   0.32795395  0.73524228  0.94877495
   0.97203864  0.31510458  0.62215708
   0.91621131  0.31637240  0.36488884
   0.63930735  0.99001083  0.30764242
   0.59947185  0.96311742  0.06563106
   0.91231901  0.36895433  0.95745411
   0.95413979  0.74758393  0.69426487
   0.97870343  0.70669453  0.07204279
   0.90613837  0.74466459  0.29083211
   0.31109430  0.94285245  0.66365326
   0.33311684  0.96348424  0.02463986
   0.35838089  0.89572238  0.25978478
   0.97645992  0.61104762  0.35658307
   0.74328010  0.31381780  0.68748461
   0.67870425  0.38391468  0.02598925
   0.75178050  0.35980028  0.25150144
   0.41607452  0.97714259  0.33554927
   0.71537721  0.50357351  0.67348569
   0.78751697  0.44716172  0.43789688
   0.11082414  0.21349944  0.22559452
   0.15199398  0.16805953  0.34746732
   0.08823292  0.26011648  0.88495780
   0.12715693  0.21318042  0.02465515
   0.68139907  0.10568161  0.25926758
   0.68503105  0.14646981  0.38490711
   0.65865256  0.08264231  0.91597898
   0.66790489  0.12108328  0.05645441
   0.00999280  0.44641791  0.57433954
   0.01512570  0.48667699  0.69879711
   0.22088430  0.66514976  0.28007106
   0.17201583  0.67539906  0.39471450
   0.27563546  0.62718669  0.95907924
   0.22624851  0.64069835  0.09004227
   0.55035601  0.00345455  0.57892165
   0.50361091  0.00892235  0.69569682
   0.24656655  0.07680392  0.42076418
   0.20715157  0.12332175  0.27968086
   0.22307663  0.12274304  0.07830897
   0.18227802  0.16839058  0.95669250
   0.68007723  0.24127106  0.46587580
   0.67746058  0.20062553  0.31883387
   0.00873536  0.58254398  0.78245979
   0.00364057  0.54269318  0.63596716
   0.66840400  0.21358315  0.11422604
   0.66215738  0.17452061  0.98900120
   0.08146862  0.67017662  0.46714820
   0.12760414  0.66415691  0.32573397
   0.41040584  0.00917559  0.75837695
   0.45825763  0.00049751  0.62136402
   0.12978955  0.64534083  0.12474355
   0.18053030  0.63255408  0.01633251
   0.76166009  0.92221369  0.57663344
   0.80320366  0.87640069  0.71627089
   0.78703712  0.87586172  0.91655697
   0.82913256  0.83216232  0.03960757
   0.31583550  0.76148523  0.51832979
   0.31722493  0.79985067  0.67681458
   0.98519997  0.42471281  0.23203689
   0.99364058  0.46309541  0.37426343
   0.32747250  0.78429838  0.88032281
   0.33535004  0.82244122  0.00675253
   0.92544499  0.31832868  0.55144993
   0.87764821  0.32878202  0.69095163
   0.59880174  0.98004040  0.24159328
   0.55062832  0.98844256  0.37656957
   0.87198851  0.35884497  0.87364397
   0.81823318  0.37916546  0.97320285
   0.90173125  0.78907690  0.77326006
   0.85972930  0.83371162  0.65029814
   0.92444438  0.74533618  0.11865015
   0.88546068  0.78944444  0.97373678
   0.31714540  0.89262178  0.74119140
   0.31054338  0.85391151  0.61460010
   0.34156312  0.91289819  0.08515545
   0.33085296  0.87580809  0.94267794
   0.98769195  0.55893593  0.43479734
   0.98341846  0.51834277  0.30998100
   0.78192419  0.33140953  0.74753109
   0.83367144  0.31476268  0.63791961
   0.73140503  0.37215627  0.07119984
   0.77471289  0.36458423  0.92167648
   0.45817106  0.98582283  0.41870256
   0.50518790  0.98006513  0.30217706
   0.75125953  0.47522845  0.55658026
   0.14040092  0.16786180  0.50127921
   0.69345987  0.13529174  0.54026045
   0.02732499  0.47407158  0.85180074
   0.16806170  0.69224165  0.54439340
   0.50253648  0.02042069  0.85032297
   0.19399384  0.16875438  0.80311151
   0.65380141  0.18555963  0.83351299
   0.18371610  0.61634984  0.86656198
   0.81746994  0.83143246  0.19295422
   0.34477225  0.81059605  0.16136786
   0.80958029  0.41019188  0.09438658
   0.87124571  0.83451989  0.49681168
   0.30184173  0.86604850  0.46002898
   0.97143799  0.53085102  0.15685129
   0.84167420  0.28554221  0.51127677
   0.50608481  0.96872281  0.14750034
   0.71148494  0.33048906  0.41209826
   0.28887974  0.02133645  0.79662356
   0.65986750  0.33239286  0.16358312
   0.95955821  0.68701073  0.49170106
   0.35798815  0.95537538  0.45898195
   0.35432500  0.02282211  0.13166914
   0.71851624  0.97339354  0.19834217
   0.33627240  0.67023042  0.75410691
   0.70076037  0.28157273  0.82588104
   0.97998577  0.31368821  0.16564428
   0.30304746  0.71344207  0.19372422
   0.97738985  0.37924943  0.85047829
   0.65185491  0.96839902  0.86706370
   0.02841035  0.61897731  0.15879598
   0.64506230  0.04153289  0.53937988
   0.02378406  0.69454170  0.84580150
   0.29317892  0.63324986  0.58325161
   0.04283544  0.31488861  0.50705502
   0.83126296  0.35214197  0.31005398
Direct configuration=   114
   0.05846161  0.25433552  0.30334944
   0.03758908  0.30133568  0.95094879
   0.10381686  0.26054289  0.70905956
   0.69077916  0.05413561  0.33565388
   0.66824454  0.03183296  0.97679810
   0.64111734  0.10011500  0.74147183
   0.02068191  0.39387794  0.64788577
   0.26346926  0.67655047  0.35273886
   0.31144232  0.64785521 -0.00972798
   0.28059717  0.59884340  0.79883350
   0.59202642  0.01304986  0.66093714
   0.29788186  0.03623419  0.35992122
   0.23006640  0.07710324  0.59639758
   0.27487657  0.08094780  0.00009628
   0.65621797  0.29807141  0.42768159
   0.70326034  0.22166571  0.63244525
   0.99209040  0.63650843  0.73644209
   0.02856410  0.56330024  0.95424971
   0.66739964  0.26227191  0.03868028
   0.04509553  0.65354635  0.40912433
   0.07931761  0.68924720  0.64159344
   0.36914833  0.00033538  0.69272168
   0.41057397  0.02494390  0.93474698
   0.08829351  0.63753776  0.03346592
   0.71006144  0.96097254  0.63987298
   0.77765384  0.92245141  0.40013002
   0.73385952  0.91459836  0.99358870
   0.34866039  0.70356649  0.52568179
   0.28658820  0.78418964  0.36227005
   0.98919829  0.37635728  0.29909633
   0.97368846  0.43938535  0.05309048
   0.32795259  0.73524357  0.94875896
   0.97203841  0.31510009  0.62217739
   0.91620880  0.31637223  0.36489396
   0.63931207  0.99000496  0.30765970
   0.59947389  0.96312106  0.06562395
   0.91231848  0.36895340  0.95745420
   0.95413802  0.74758288  0.69424234
   0.97870443  0.70668917  0.07201975
   0.90614094  0.74466026  0.29081749
   0.31109166  0.94285432  0.66366549
   0.33311798  0.96348337  0.02464337
   0.35838643  0.89571812  0.25977622
   0.97646529  0.61104174  0.35657336
   0.74328104  0.31382277  0.68750725
   0.67870077  0.38391716  0.02600800
   0.75177536  0.35980755  0.25150198
   0.41607272  0.97714308  0.33556287
   0.71537581  0.50358062  0.67345093
   0.78752305  0.44716669  0.43788615
   0.11082010  0.21349553  0.22560365
   0.15198962  0.16805760  0.34747826
   0.08823039  0.26011337  0.88496749
   0.12715366  0.21317649  0.02466772
   0.68140780  0.10567673  0.25929392
   0.68504942  0.14645841  0.38491688
   0.65864908  0.08264149  0.91599414
   0.66790570  0.12108068  0.05646596
   0.00999047  0.44641583  0.57433566
   0.01512252  0.48667742  0.69878875
   0.22088827  0.66514672  0.28005076
   0.17202050  0.67539547  0.39469388
   0.27563512  0.62718586  0.95906758
   0.22624828  0.64069702  0.09002230
   0.55035450  0.00345572  0.57893061
   0.50361093  0.00892505  0.69571061
   0.24656513  0.07680604  0.42078057
   0.20714902  0.12332152  0.27969584
   0.22307421  0.12274209  0.07832424
   0.18227494  0.16838828  0.95670608
   0.68009333  0.24126111  0.46588482
   0.67747807  0.20061503  0.31885128
   0.00873566  0.58254226  0.78244145
   0.00363880  0.54269366  0.63595612
   0.66841414  0.21357677  0.11424147
   0.66215811  0.17451876  0.98902108
   0.08146455  0.67017576  0.46713472
   0.12760909  0.66415295  0.32570213
   0.41040406  0.00917781  0.75839599
   0.45825844  0.00049936  0.62137429
   0.12979001  0.64533871  0.12470704
   0.18053220  0.63255342  0.01631141
   0.76165989  0.92221661  0.57663661
   0.80320284  0.87640248  0.71628450
   0.78703559  0.87586505  0.91655924
   0.82913243  0.83216565  0.03960848
   0.31582334  0.76149430  0.51833013
   0.31721310  0.79985915  0.67679255
   0.98519908  0.42471112  0.23203913
   0.99363967  0.46309184  0.37425852
   0.32746983  0.78430099  0.88029607
   0.33535354  0.82243882  0.00674031
   0.92544375  0.31832923  0.55145707
   0.87764411  0.32878848  0.69096258
   0.59879964  0.98004202  0.24160487
   0.55062757  0.98844375  0.37657354
   0.87198467  0.35885029  0.87364438
   0.81822851  0.37917366  0.97320511
   0.90173090  0.78907636  0.77323900
   0.85972934  0.83371148  0.65029335
   0.92444848  0.74533136  0.11862855
   0.88546144  0.78944552  0.97372181
   0.31713885  0.89262457  0.74118123
   0.31053224  0.85392232  0.61459868
   0.34156832  0.91289858  0.08516634
   0.33085238  0.87581028  0.94267686
   0.98769246  0.55893353  0.43478817
   0.98341736  0.51834004  0.30997767
   0.78191652  0.33142014  0.74754858
   0.83366806  0.31476752  0.63793486
   0.73139962  0.37216262  0.07120146
   0.77470513  0.36459572  0.92168120
   0.45817020  0.98582454  0.41871033
   0.50518655  0.98006708  0.30218880
   0.75126119  0.47523513  0.55655937
   0.14039604  0.16785965  0.50128862
   0.69348325  0.13528053  0.54026429
   0.02732121  0.47407190  0.85180383
   0.16806645  0.69223373  0.54437921
   0.50253412  0.02042425  0.85033631
   0.19399096  0.16875231  0.80312678
   0.65380296  0.18555866  0.83352908
   0.18372154  0.61634795  0.86653969
   0.81747551  0.83143525  0.19296193
   0.34477937  0.81059234  0.16136719
   0.80957597  0.41019997  0.09439455
   0.87124323  0.83452174  0.49679941
   0.30182792  0.86605920  0.46003825
   0.97143812  0.53084653  0.15684672
   0.84166627  0.28554654  0.51128383
   0.50608189  0.96872475  0.14752046
   0.71148628  0.33048988  0.41209351
   0.28887907  0.02133686  0.79663468
   0.65987400  0.33238829  0.16358100
   0.95955908  0.68700855  0.49167794
   0.35798756  0.95537546  0.45898114
   0.35432363  0.02282382  0.13169047
   0.71851654  0.97339391  0.19834702
   0.33626652  0.67023545  0.75410200
   0.70076474  0.28157267  0.82588708
   0.97998627  0.31368504  0.16564321
   0.30304785  0.71344640  0.19370196
   0.97739034  0.37924650  0.85047513
   0.65185034  0.96840273  0.86706641
   0.02841185  0.61897617  0.15877723
   0.64506468  0.04153262  0.53939740
   0.02378462  0.69454019  0.84577061
   0.29317910  0.63324989  0.58323525
   0.04283014  0.31488468  0.50706213
   0.83126449  0.35214390  0.31004649
Direct configuration=   115
   0.05845173  0.25432891  0.30336894
   0.03758969  0.30133405  0.95096379
   0.10380947  0.26053622  0.70907435
   0.69078657  0.05412501  0.33567892
   0.66823431  0.03183444  0.97684550
   0.64111722  0.10011384  0.74149611
   0.02068013  0.39387440  0.64787983
   0.26346856  0.67654598  0.35272527
   0.31143823  0.64786028 -0.00975041
   0.28060936  0.59883880  0.79882765
   0.59202292  0.01305265  0.66095780
   0.29788080  0.03623782  0.35995016
   0.23006492  0.07710774  0.59642767
   0.27487470  0.08094585  0.00012066
   0.65624210  0.29805806  0.42768483
   0.70327962  0.22165986  0.63247412
   0.99210010  0.63650258  0.73639595
   0.02856089  0.56330019  0.95422620
   0.66741429  0.26226161  0.03869627
   0.04508926  0.65355282  0.40906123
   0.07932408  0.68924332  0.64155655
   0.36914618  0.00033954  0.69273902
   0.41057288  0.02494700  0.93477978
   0.08828915  0.63753768  0.03340725
   0.71006534  0.96097538  0.63988213
   0.77765860  0.92245054  0.40014350
   0.73385648  0.91460008  0.99360378
   0.34864330  0.70358180  0.52563745
   0.28656681  0.78420047  0.36226384
   0.98919468  0.37635365  0.29910077
   0.97369091  0.43937748  0.05309002
   0.32795133  0.73524682  0.94872880
   0.97203752  0.31509391  0.62220696
   0.91620467  0.31637264  0.36490977
   0.63931771  0.98999513  0.30768659
   0.59947486  0.96312882  0.06563802
   0.91232108  0.36895205  0.95745673
   0.95413664  0.74758105  0.69420458
   0.97870963  0.70667860  0.07197343
   0.90614546  0.74465404  0.29077991
   0.31108617  0.94286002  0.66368449
   0.33311949  0.96348456  0.02464730
   0.35839776  0.89570898  0.25979756
   0.97647411  0.61103444  0.35655287
   0.74327477  0.31383177  0.68751722
   0.67869514  0.38391885  0.02603449
   0.75176824  0.35981947  0.25149724
   0.41607169  0.97714439  0.33559026
   0.71536869  0.50359653  0.67340517
   0.78753065  0.44717811  0.43787889
   0.11081534  0.21348757  0.22561517
   0.15198267  0.16805421  0.34749509
   0.08822507  0.26011027  0.88498144
   0.12714841  0.21316924  0.02469751
   0.68142092  0.10566647  0.25930299
   0.68508113  0.14643944  0.38494978
   0.65864247  0.08264398  0.91602295
   0.66791039  0.12107473  0.05652503
   0.00998560  0.44641490  0.57432920
   0.01511775  0.48667797  0.69878265
   0.22089246  0.66514411  0.28001066
   0.17202630  0.67538809  0.39465994
   0.27563754  0.62718320  0.95905639
   0.22625173  0.64069524  0.08998402
   0.55035473  0.00345801  0.57893711
   0.50361071  0.00892814  0.69572864
   0.24656272  0.07680854  0.42080774
   0.20714451  0.12332073  0.27972050
   0.22307101  0.12273988  0.07834563
   0.18226848  0.16838513  0.95672953
   0.68012213  0.24124161  0.46589292
   0.67750637  0.20060194  0.31885886
   0.00873781  0.58253838  0.78242181
   0.00363661  0.54269205  0.63593229
   0.66843072  0.21357258  0.11427965
   0.66216436  0.17451194  0.98903859
   0.08146326  0.67017366  0.46709337
   0.12761367  0.66414702  0.32566119
   0.41040028  0.00918107  0.75842240
   0.45825722  0.00050278  0.62139653
   0.12979370  0.64533704  0.12465691
   0.18053507  0.63254898  0.01626004
   0.76166734  0.92221535  0.57664325
   0.80320282  0.87640416  0.71629947
   0.78704069  0.87586369  0.91655652
   0.82913930  0.83216464  0.03961663
   0.31580293  0.76151332  0.51831358
   0.31719530  0.79987139  0.67677303
   0.98519819  0.42470514  0.23204190
   0.99363749  0.46308892  0.37425272
   0.32746604  0.78430248  0.88024854
   0.33535945  0.82244091  0.00673139
   0.92544038  0.31833010  0.55147200
   0.87763505  0.32879630  0.69096766
   0.59879978  0.98004321  0.24161354
   0.55062780  0.98844656  0.37658738
   0.87197245  0.35886303  0.87366548
   0.81821819  0.37919093  0.97321420
   0.90172991  0.78907604  0.77320706
   0.85972397  0.83371514  0.65028044
   0.92445025  0.74532526  0.11860156
   0.88545901  0.78944819  0.97370929
   0.31712933  0.89263276  0.74117826
   0.31051208  0.85393641  0.61458403
   0.34157405  0.91289952  0.08515234
   0.33084973  0.87581004  0.94266110
   0.98769460  0.55892514  0.43477555
   0.98341637  0.51833412  0.30996806
   0.78191278  0.33143229  0.74758280
   0.83366142  0.31477896  0.63796032
   0.73139279  0.37217750  0.07119863
   0.77469527  0.36461135  0.92169472
   0.45816896  0.98582692  0.41872525
   0.50518514  0.98006957  0.30220302
   0.75127228  0.47524046  0.55649781
   0.14038723  0.16785615  0.50130947
   0.69352242  0.13526071  0.54027252
   0.02731432  0.47407315  0.85179991
   0.16807258  0.69222113  0.54434767
   0.50253020  0.02042983  0.85035414
   0.19398671  0.16874870  0.80314693
   0.65380445  0.18555837  0.83356524
   0.18372901  0.61634579  0.86651019
   0.81748611  0.83143833  0.19297516
   0.34478871  0.81058585  0.16135208
   0.80957059  0.41021293  0.09440356
   0.87123930  0.83452462  0.49678131
   0.30180232  0.86608015  0.46004298
   0.97143761  0.53083861  0.15684045
   0.84165294  0.28555747  0.51130899
   0.50607740  0.96872766  0.14754520
   0.71148694  0.33049002  0.41210891
   0.28887810  0.02133753  0.79665666
   0.65988494  0.33237856  0.16356941
   0.95955999  0.68700479  0.49163818
   0.35798608  0.95537519  0.45898395
   0.35432094  0.02282597  0.13172466
   0.71851698  0.97339527  0.19835853
   0.33625632  0.67024505  0.75409790
   0.70077140  0.28157413  0.82589596
   0.97998749  0.31367952  0.16564094
   0.30304513  0.71345476  0.19366744
   0.97739135  0.37924047  0.85047391
   0.65184494  0.96840858  0.86707073
   0.02841538  0.61897326  0.15874184
   0.64506772  0.04153283  0.53943673
   0.02379179  0.69453342  0.84571961
   0.29317999  0.63325204  0.58320082
   0.04282074  0.31487776  0.50707455
   0.83126508  0.35214805  0.31003602
Direct configuration=   116
   0.05843206  0.25431577  0.30340771
   0.03759089  0.30133081  0.95099360
   0.10379479  0.26052295  0.70910377
   0.69080132  0.05410394  0.33572873
   0.66821397  0.03183739  0.97693973
   0.64111699  0.10011154  0.74154438
   0.02067659  0.39386737  0.64786801
   0.26346718  0.67653704  0.35269825
   0.31143011  0.64787036 -0.00979500
   0.28063359  0.59882967  0.79881603
   0.59201597  0.01305818  0.66099887
   0.29787868  0.03624505  0.36000771
   0.23006196  0.07711669  0.59648751
   0.27487100  0.08094196  0.00016914
   0.65629008  0.29803151  0.42769128
   0.70331796  0.22164821  0.63253153
   0.99211939  0.63649094  0.73630420
   0.02855452  0.56330011  0.95417943
   0.66744341  0.26224113  0.03872806
   0.04507680  0.65356570  0.40893578
   0.07933696  0.68923561  0.64148320
   0.36914190  0.00034782  0.69277352
   0.41057073  0.02495316  0.93484498
   0.08828047  0.63753753  0.03329059
   0.71007309  0.96098103  0.63990032
   0.77766806  0.92244880  0.40017032
   0.73385045  0.91460350  0.99363376
   0.34860931  0.70361223  0.52554930
   0.28652428  0.78422202  0.36225150
   0.98918749  0.37634644  0.29910959
   0.97369578  0.43936182  0.05308910
   0.32794882  0.73525328  0.94866885
   0.97203574  0.31508162  0.62226576
   0.91619644  0.31637346  0.36494121
   0.63932893  0.98997557  0.30774006
   0.59947679  0.96314423  0.06566601
   0.91232626  0.36894936  0.95746174
   0.95413389  0.74757742  0.69412951
   0.97871996  0.70665757  0.07188132
   0.90615445  0.74464166  0.29070519
   0.31107524  0.94287136  0.66372227
   0.33312250  0.96348694  0.02465511
   0.35842029  0.89569081  0.25983999
   0.97649166  0.61101991  0.35651212
   0.74326229  0.31384966  0.68753706
   0.67868396  0.38392223  0.02608718
   0.75175408  0.35984318  0.25148783
   0.41606964  0.97714699  0.33564473
   0.71535453  0.50362816  0.67331419
   0.78754575  0.44720082  0.43786446
   0.11080587  0.21347175  0.22563807
   0.15196887  0.16804746  0.34752854
   0.08821448  0.26010411  0.88500919
   0.12713798  0.21315485  0.02475674
   0.68144701  0.10564606  0.25932104
   0.68514418  0.14640173  0.38501520
   0.65862932  0.08264892  0.91608025
   0.66791971  0.12106290  0.05664248
   0.00997591  0.44641306  0.57431636
   0.01510826  0.48667907  0.69877051
   0.22090079  0.66513890  0.27993090
   0.17203782  0.67537343  0.39459245
   0.27564235  0.62717792  0.95903414
   0.22625861  0.64069169  0.08990790
   0.55035518  0.00346258  0.57895004
   0.50361027  0.00893429  0.69576450
   0.24655794  0.07681352  0.42086177
   0.20713556  0.12331916  0.27976954
   0.22306464  0.12273550  0.07838815
   0.18225563  0.16837887  0.95677616
   0.68017939  0.24120283  0.46590902
   0.67756263  0.20057590  0.31887392
   0.00874209  0.58253065  0.78238274
   0.00363227  0.54268886  0.63588490
   0.66846370  0.21356426  0.11435557
   0.66217678  0.17449838  0.98907341
   0.08146070  0.67016948  0.46701114
   0.12762279  0.66413523  0.32557978
   0.41039277  0.00918755  0.75847494
   0.45825480  0.00050958  0.62144076
   0.12980104  0.64533370  0.12455722
   0.18054077  0.63254014  0.01615791
   0.76168215  0.92221285  0.57665645
   0.80320279  0.87640752  0.71632921
   0.78705083  0.87586098  0.91655110
   0.82915295  0.83216262  0.03963284
   0.31576236  0.76155112  0.51828067
   0.31715990  0.79989575  0.67673420
   0.98519642  0.42469327  0.23204739
   0.99363316  0.46308313  0.37424121
   0.32745850  0.78430543  0.88015403
   0.33537120  0.82244507  0.00671366
   0.92543369  0.31833183  0.55150170
   0.87761705  0.32881186  0.69097776
   0.59880006  0.98004555  0.24163078
   0.55062825  0.98845215  0.37661489
   0.87194816  0.35888836  0.87370745
   0.81819769  0.37922527  0.97323229
   0.90172793  0.78907540  0.77314356
   0.85971330  0.83372241  0.65025476
   0.92445379  0.74531315  0.11854790
   0.88545419  0.78945350  0.97368439
   0.31711038  0.89264903  0.74117233
   0.31047202  0.85396443  0.61455489
   0.34158545  0.91290139  0.08512450
   0.33084446  0.87580956  0.94262978
   0.98769888  0.55890845  0.43475046
   0.98341441  0.51832236  0.30994897
   0.78190536  0.33145643  0.74765085
   0.83364824  0.31480171  0.63801094
   0.73137921  0.37220708  0.07119300
   0.77467566  0.36464244  0.92172160
   0.45816651  0.98583163  0.41875492
   0.50518233  0.98007452  0.30223129
   0.75129433  0.47525105  0.55637541
   0.14036972  0.16784921  0.50135094
   0.69360029  0.13522131  0.54028889
   0.02730061  0.47407563  0.85179213
   0.16808478  0.69219606  0.54428495
   0.50252240  0.02044094  0.85038957
   0.19397826  0.16874154  0.80318699
   0.65380742  0.18555780  0.83363714
   0.18374386  0.61634150  0.86645152
   0.81750717  0.83144447  0.19300146
   0.34480728  0.81057295  0.16132203
   0.80955989  0.41023870  0.09442146
   0.87123149  0.83453034  0.49674533
   0.30175143  0.86612180  0.46005238
   0.97143661  0.53082287  0.15682797
   0.84162644  0.28557919  0.51135900
   0.50606847  0.96873344  0.14759438
   0.71148825  0.33049029  0.41213952
   0.28887617  0.02133886  0.79670037
   0.65990671  0.33235924  0.16354637
   0.95956182  0.68699732  0.49155913
   0.35798314  0.95537465  0.45898956
   0.35431560  0.02283027  0.13179264
   0.71851784  0.97339800  0.19838141
   0.33623605  0.67026414  0.75408974
   0.70078463  0.28157703  0.82591360
   0.97998992  0.31366854  0.16563643
   0.30303971  0.71347138  0.19359881
   0.97739334  0.37922849  0.85047150
   0.65183419  0.96842021  0.86707930
   0.02842239  0.61896749  0.15867148
   0.64507377  0.04153324  0.53951493
   0.02380606  0.69451995  0.84561821
   0.29318177  0.63325632  0.58313236
   0.04280207  0.31486400  0.50709922
   0.83126624  0.35215631  0.31001519
Direct configuration=   117
   0.05842683  0.25431209  0.30341844
   0.03759107  0.30133024  0.95100232
   0.10379082  0.26051912  0.70911139
   0.69080493  0.05409890  0.33574021
   0.66820835  0.03183821  0.97696366
   0.64111713  0.10011090  0.74155566
   0.02067576  0.39386574  0.64786349
   0.26346795  0.67653470  0.35269134
   0.31142809  0.64787341 -0.00980545
   0.28064019  0.59882717  0.79880999
   0.59201439  0.01305999  0.66101018
   0.29787771  0.03624717  0.36002359
   0.23006128  0.07711909  0.59650310
   0.27486991  0.08094089  0.00018199
   0.65630288  0.29802357  0.42769080
   0.70332855  0.22164471  0.63254896
   0.99212474  0.63648768  0.73627882
   0.02855275  0.56329994  0.95416727
   0.66745095  0.26223532  0.03873750
   0.04507372  0.65356945  0.40890424
   0.07933937  0.68923323  0.64146347
   0.36914086  0.00035032  0.69278447
   0.41056948  0.02495459  0.93486020
   0.08827774  0.63753756  0.03325859
   0.71007427  0.96098332  0.63990614
   0.77767080  0.92244830  0.40017536
   0.73384884  0.91460464  0.99364249
   0.34860014  0.70362000  0.52552993
   0.28651179  0.78422883  0.36224545
   0.98918573  0.37634423  0.29911266
   0.97369731  0.43935755  0.05308876
   0.32794829  0.73525531  0.94865127
   0.97203477  0.31507851  0.62228022
   0.91619443  0.31637382  0.36495143
   0.63933166  0.98997037  0.30775526
   0.59947643  0.96314844  0.06567575
   0.91232736  0.36894876  0.95746383
   0.95413320  0.74757657  0.69410949
   0.97872210  0.70665253  0.07185496
   0.90615673  0.74463835  0.29068490
   0.31107205  0.94287537  0.66373100
   0.33312347  0.96348791  0.02465813
   0.35842581  0.89568678  0.25984738
   0.97649649  0.61101580  0.35650035
   0.74325821  0.31385509  0.68753851
   0.67868109  0.38392297  0.02609896
   0.75175082  0.35984959  0.25148601
   0.41606938  0.97714779  0.33565980
   0.71535520  0.50363328  0.67327384
   0.78755401  0.44720404  0.43784756
   0.11080262  0.21346790  0.22564657
   0.15196536  0.16804526  0.34753907
   0.08821210  0.26010193  0.88501783
   0.12713476  0.21315149  0.02477059
   0.68145447  0.10563994  0.25933018
   0.68516107  0.14639212  0.38502671
   0.65862614  0.08264998  0.91609990
   0.66792214  0.12106045  0.05667091
   0.00997330  0.44641285  0.57431429
   0.01510570  0.48667898  0.69876788
   0.22090197  0.66513785  0.27990897
   0.17204021  0.67536898  0.39457254
   0.27564473  0.62717635  0.95902790
   0.22626048  0.64069077  0.08988702
   0.55035536  0.00346395  0.57895391
   0.50360986  0.00893567  0.69577227
   0.24655663  0.07681468  0.42087672
   0.20713322  0.12331854  0.27978220
   0.22306296  0.12273417  0.07839968
   0.18225246  0.16837686  0.95678806
   0.68019495  0.24119343  0.46591359
   0.67757824  0.20056813  0.31887972
   0.00874320  0.58252898  0.78237082
   0.00363153  0.54268706  0.63587406
   0.66847242  0.21356115  0.11437029
   0.66218163  0.17449465  0.98908952
   0.08146163  0.67016828  0.46698421
   0.12762440  0.66413222  0.32555987
   0.41039117  0.00918935  0.75848911
   0.45825359  0.00051147  0.62145359
   0.12980273  0.64533292  0.12453068
   0.18054254  0.63253772  0.01613209
   0.76168609  0.92221209  0.57666256
   0.80320315  0.87640822  0.71633308
   0.78705355  0.87585983  0.91655414
   0.82915680  0.83216194  0.03963721
   0.31575192  0.76156037  0.51826785
   0.31715065  0.79990228  0.67672618
   0.98519602  0.42468962  0.23204808
   0.99363185  0.46308159  0.37423893
   0.32745690  0.78430717  0.88013553
   0.33537390  0.82244529  0.00670561
   0.92543140  0.31833230  0.55151099
   0.87761231  0.32881619  0.69098161
   0.59880111  0.98004609  0.24163677
   0.55062832  0.98845373  0.37662229
   0.87194195  0.35889528  0.87371949
   0.81819160  0.37923535  0.97323893
   0.90172701  0.78907547  0.77312887
   0.85971059  0.83372417  0.65024625
   0.92445490  0.74530988  0.11853058
   0.88545411  0.78945362  0.97367723
   0.31710533  0.89265330  0.74117169
   0.31046094  0.85397176  0.61454831
   0.34158860  0.91290031  0.08511978
   0.33084322  0.87580984  0.94262184
   0.98770003  0.55890415  0.43474146
   0.98341402  0.51831913  0.30994278
   0.78190391  0.33146165  0.74766766
   0.83364403  0.31480804  0.63802234
   0.73137506  0.37221580  0.07119352
   0.77467103  0.36465046  0.92172894
   0.45816598  0.98583294  0.41876531
   0.50518179  0.98007590  0.30223993
   0.75129183  0.47526082  0.55636969
   0.14036487  0.16784733  0.50136233
   0.69362189  0.13521001  0.54029710
   0.02729674  0.47407650  0.85178811
   0.16808779  0.69218939  0.54426685
   0.50252039  0.02044389  0.85039828
   0.19397588  0.16873962  0.80319782
   0.65380788  0.18555786  0.83365672
   0.18374765  0.61634006  0.86643274
   0.81751315  0.83144581  0.19300888
   0.34481194  0.81056942  0.16131079
   0.80955714  0.41024595  0.09442635
   0.87122914  0.83453201  0.49673683
   0.30173685  0.86613392  0.46005068
   0.97143616  0.53081857  0.15682400
   0.84161913  0.28558603  0.51137589
   0.50606618  0.96873485  0.14760454
   0.71148854  0.33049032  0.41215126
   0.28887555  0.02133940  0.79671259
   0.65991272  0.33235353  0.16353922
   0.95956214  0.68699524  0.49153768
   0.35798225  0.95537440  0.45899240
   0.35431422  0.02283131  0.13181066
   0.71851813  0.97339860  0.19838851
   0.33623068  0.67026974  0.75408550
   0.70078804  0.28157802  0.82591865
   0.97999048  0.31366559  0.16563550
   0.30303746  0.71347603  0.19358191
   0.97739392  0.37922518  0.85047143
   0.65183205  0.96842312  0.86708160
   0.02842439  0.61896568  0.15865147
   0.64507529  0.04153321  0.53953709
   0.02381070  0.69451574  0.84559167
   0.29318255  0.63325756  0.58311552
   0.04279708  0.31486028  0.50710568
   0.83126614  0.35215866  0.31000966
Direct configuration=   118
   0.05841114  0.25430105  0.30345065
   0.03759161  0.30132855  0.95102848
   0.10377891  0.26050763  0.70913424
   0.69081575  0.05408380  0.33577465
   0.66819147  0.03184069  0.97703545
   0.64111756  0.10010901  0.74158948
   0.02067327  0.39386085  0.64784995
   0.26347028  0.67652767  0.35267060
   0.31142206  0.64788255 -0.00983680
   0.28066001  0.59881966  0.79879185
   0.59200965  0.01306542  0.66104412
   0.29787480  0.03625351  0.36007124
   0.23005924  0.07712630  0.59654989
   0.27486665  0.08093767  0.00022056
   0.65634127  0.29799974  0.42768935
   0.70336034  0.22163422  0.63260126
   0.99214080  0.63647790  0.73620267
   0.02854746  0.56329944  0.95413079
   0.66747360  0.26221789  0.03876584
   0.04506448  0.65358070  0.40880962
   0.07934658  0.68922609  0.64140430
   0.36913777  0.00035784  0.69281735
   0.41056575  0.02495888  0.93490588
   0.08826957  0.63753768  0.03316261
   0.71007782  0.96099020  0.63992360
   0.77767901  0.92244680  0.40019050
   0.73384402  0.91460804  0.99366865
   0.34857264  0.70364328  0.52547183
   0.28647432  0.78424927  0.36222733
   0.98918047  0.37633757  0.29912187
   0.97370189  0.43934473  0.05308773
   0.32794670  0.73526138  0.94859853
   0.97203183  0.31506918  0.62232361
   0.91618841  0.31637490  0.36498212
   0.63933984  0.98995476  0.30780089
   0.59947535  0.96316108  0.06570495
   0.91233068  0.36894697  0.95747008
   0.95413113  0.74757403  0.69404941
   0.97872853  0.70663740  0.07177589
   0.90616359  0.74462841  0.29062401
   0.31106246  0.94288742  0.66375720
   0.33312638  0.96349083  0.02466721
   0.35844238  0.89567471  0.25986957
   0.97651100  0.61100347  0.35646504
   0.74324597  0.31387136  0.68754287
   0.67867249  0.38392519  0.02613428
   0.75174103  0.35986882  0.25148057
   0.41606859  0.97715019  0.33570499
   0.71535720  0.50364866  0.67315278
   0.78757878  0.44721370  0.43779686
   0.11079287  0.21345636  0.22567208
   0.15195482  0.16803867  0.34757068
   0.08820499  0.26009537  0.88504376
   0.12712511  0.21314141  0.02481214
   0.68147686  0.10562159  0.25935761
   0.68521175  0.14636330  0.38506124
   0.65861661  0.08265316  0.91615886
   0.66792943  0.12105307  0.05675618
   0.00996546  0.44641221  0.57430807
   0.01509803  0.48667874  0.69876001
   0.22090551  0.66513469  0.27984315
   0.17204738  0.67535563  0.39451280
   0.27565186  0.62717164  0.95900921
   0.22626608  0.64068801  0.08982438
   0.55035589  0.00346807  0.57896552
   0.50360865  0.00893981  0.69579559
   0.24655272  0.07681815  0.42092157
   0.20712623  0.12331665  0.27982017
   0.22305793  0.12273018  0.07843427
   0.18224292  0.16837082  0.95682377
   0.68024164  0.24116522  0.46592730
   0.67762505  0.20054481  0.31889709
   0.00874654  0.58252397  0.78233503
   0.00362931  0.54268165  0.63584155
   0.66849858  0.21355184  0.11441445
   0.66219616  0.17448347  0.98913785
   0.08146445  0.67016465  0.46690344
   0.12762922  0.66412319  0.32550015
   0.41038635  0.00919476  0.75853162
   0.45824995  0.00051715  0.62149210
   0.12980777  0.64533059  0.12445108
   0.18054785  0.63253048  0.01605466
   0.76169791  0.92220980  0.57668091
   0.80320423  0.87641031  0.71634467
   0.78706171  0.87585638  0.91656325
   0.82916836  0.83215989  0.03965034
   0.31572061  0.76158811  0.51822939
   0.31712293  0.79992187  0.67670210
   0.98519483  0.42467869  0.23205016
   0.99362795  0.46307697  0.37423211
   0.32745209  0.78431236  0.88008001
   0.33538201  0.82244597  0.00668147
   0.92542453  0.31833371  0.55153888
   0.87759811  0.32882920  0.69099318
   0.59880427  0.98004768  0.24165474
   0.55062853  0.98845846  0.37664449
   0.87192331  0.35891604  0.87375561
   0.81817336  0.37926560  0.97325883
   0.90172423  0.78907568  0.77308480
   0.85970243  0.83372945  0.65022073
   0.92445824  0.74530008  0.11847862
   0.88545384  0.78945397  0.97365576
   0.31709017  0.89266610  0.74116978
   0.31042769  0.85399376  0.61452858
   0.34159805  0.91289708  0.08510560
   0.33083950  0.87581067  0.94259802
   0.98770348  0.55889124  0.43471445
   0.98341284  0.51830945  0.30992422
   0.78189957  0.33147730  0.74771811
   0.83363142  0.31482701  0.63805655
   0.73136261  0.37224197  0.07119508
   0.77465717  0.36467453  0.92175097
   0.45816442  0.98583685  0.41879646
   0.50518015  0.98008003  0.30226586
   0.75128431  0.47529012  0.55635253
   0.14035033  0.16784169  0.50139650
   0.69368668  0.13517611  0.54032174
   0.02728511  0.47407910  0.85177604
   0.16809682  0.69216939  0.54421254
   0.50251438  0.02045274  0.85042439
   0.19396875  0.16873385  0.80323030
   0.65380927  0.18555805  0.83371545
   0.18375899  0.61633575  0.86637639
   0.81753106  0.83144986  0.19303116
   0.34482591  0.81055884  0.16127707
   0.80954889  0.41026772  0.09444103
   0.87122208  0.83453702  0.49671132
   0.30169309  0.86617026  0.46004557
   0.97143478  0.53080567  0.15681209
   0.84159720  0.28560654  0.51142656
   0.50605934  0.96873906  0.14763503
   0.71148941  0.33049041  0.41218646
   0.28887370  0.02134105  0.79674924
   0.65993077  0.33233640  0.16351777
   0.95956312  0.68698899  0.49147335
   0.35797958  0.95537365  0.45900093
   0.35431007  0.02283445  0.13186474
   0.71851899  0.97340043  0.19840980
   0.33621457  0.67028655  0.75407278
   0.70079825  0.28158100  0.82593377
   0.97999218  0.31365674  0.16563271
   0.30303073  0.71348998  0.19353118
   0.97739564  0.37921523  0.85047123
   0.65182564  0.96843184  0.86708850
   0.02843038  0.61896023  0.15859144
   0.64507985  0.04153311  0.53960358
   0.02382464  0.69450309  0.84551203
   0.29318490  0.63326126  0.58306500
   0.04278211  0.31484912  0.50712506
   0.83126584  0.35216571  0.30999308
Direct configuration=   119
   0.05840770  0.25429863  0.30345770
   0.03759172  0.30132818  0.95103421
   0.10377630  0.26050512  0.70913924
   0.69081812  0.05408049  0.33578219
   0.66818778  0.03184123  0.97705118
   0.64111766  0.10010859  0.74159689
   0.02067272  0.39385978  0.64784698
   0.26347079  0.67652613  0.35266606
   0.31142074  0.64788455 -0.00984366
   0.28066435  0.59881802  0.79878788
   0.59200862  0.01306661  0.66105156
   0.29787416  0.03625490  0.36008168
   0.23005879  0.07712788  0.59656014
   0.27486593  0.08093697  0.00022901
   0.65634968  0.29799452  0.42768904
   0.70336731  0.22163192  0.63261271
   0.99214431  0.63647575  0.73618598
   0.02854630  0.56329933  0.95412279
   0.66747856  0.26221407  0.03877204
   0.04506245  0.65358317  0.40878889
   0.07934816  0.68922452  0.64139133
   0.36913709  0.00035948  0.69282455
   0.41056493  0.02495982  0.93491588
   0.08826777  0.63753770  0.03314158
   0.71007860  0.96099171  0.63992742
   0.77768081  0.92244647  0.40019382
   0.73384297  0.91460878  0.99367439
   0.34856662  0.70364838  0.52545910
   0.28646611  0.78425375  0.36222336
   0.98917932  0.37633612  0.29912389
   0.97370289  0.43934192  0.05308751
   0.32794635  0.73526272  0.94858698
   0.97203119  0.31506713  0.62233311
   0.91618709  0.31637514  0.36498884
   0.63934163  0.98995135  0.30781089
   0.59947512  0.96316384  0.06571135
   0.91233140  0.36894658  0.95747145
   0.95413067  0.74757347  0.69403625
   0.97872993  0.70663409  0.07175857
   0.90616509  0.74462623  0.29061067
   0.31106036  0.94289005  0.66376294
   0.33312702  0.96349147  0.02466920
   0.35844601  0.89567206  0.25987443
   0.97651417  0.61100077  0.35645730
   0.74324329  0.31387493  0.68754383
   0.67867061  0.38392567  0.02614202
   0.75173889  0.35987303  0.25147938
   0.41606842  0.97715072  0.33571488
   0.71535764  0.50365202  0.67312626
   0.78758420  0.44721582  0.43778575
   0.11079073  0.21345383  0.22567767
   0.15195251  0.16803723  0.34757761
   0.08820343  0.26009394  0.88504943
   0.12712300  0.21313920  0.02482124
   0.68148176  0.10561757  0.25936362
   0.68522286  0.14635698  0.38506880
   0.65861452  0.08265385  0.91617177
   0.66793103  0.12105146  0.05677487
   0.00996374  0.44641207  0.57430670
   0.01509635  0.48667869  0.69875828
   0.22090628  0.66513400  0.27982873
   0.17204896  0.67535270  0.39449971
   0.27565343  0.62717061  0.95900511
   0.22626731  0.64068740  0.08981065
   0.55035601  0.00346897  0.57896806
   0.50360838  0.00894072  0.69580070
   0.24655186  0.07681891  0.42093139
   0.20712469  0.12331624  0.27982849
   0.22305683  0.12272931  0.07844185
   0.18224084  0.16836950  0.95683159
   0.68025186  0.24115903  0.46593030
   0.67763531  0.20053970  0.31890090
   0.00874727  0.58252287  0.78232719
   0.00362882  0.54268047  0.63583442
   0.66850431  0.21354980  0.11442412
   0.66219935  0.17448102  0.98914844
   0.08146507  0.67016386  0.46688575
   0.12763028  0.66412122  0.32548706
   0.41038529  0.00919595  0.75854094
   0.45824915  0.00051839  0.62150053
   0.12980888  0.64533008  0.12443364
   0.18054902  0.63252889  0.01603769
   0.76170049  0.92220930  0.57668492
   0.80320447  0.87641077  0.71634720
   0.78706350  0.87585563  0.91656525
   0.82917089  0.83215944  0.03965321
   0.31571375  0.76159419  0.51822096
   0.31711685  0.79992616  0.67669682
   0.98519457  0.42467630  0.23205061
   0.99362710  0.46307596  0.37423062
   0.32745104  0.78431350  0.88006785
   0.33538378  0.82244612  0.00667618
   0.92542302  0.31833402  0.55154499
   0.87759499  0.32883205  0.69099571
   0.59880496  0.98004803  0.24165868
   0.55062858  0.98845949  0.37664935
   0.87191923  0.35892058  0.87376353
   0.81816936  0.37927222  0.97326319
   0.90172362  0.78907573  0.77307515
   0.85970064  0.83373061  0.65021514
   0.92445897  0.74529793  0.11846724
   0.88545378  0.78945405  0.97365105
   0.31708686  0.89266891  0.74116936
   0.31042041  0.85399857  0.61452426
   0.34160012  0.91289637  0.08510249
   0.33083869  0.87581086  0.94259280
   0.98770423  0.55888842  0.43470854
   0.98341259  0.51830733  0.30992015
   0.78189862  0.33148072  0.74772916
   0.83362866  0.31483116  0.63806404
   0.73135988  0.37224771  0.07119542
   0.77465413  0.36467981  0.92175580
   0.45816408  0.98583770  0.41880329
   0.50517980  0.98008094  0.30227154
   0.75128267  0.47529654  0.55634877
   0.14034715  0.16784046  0.50140399
   0.69370088  0.13516868  0.54032714
   0.02728257  0.47407967  0.85177340
   0.16809880  0.69216500  0.54420065
   0.50251306  0.02045467  0.85043011
   0.19396719  0.16873259  0.80323742
   0.65380957  0.18555809  0.83372832
   0.18376148  0.61633480  0.86636404
   0.81753499  0.83145074  0.19303603
   0.34482897  0.81055652  0.16126968
   0.80954708  0.41027248  0.09444424
   0.87122054  0.83453811  0.49670573
   0.30168350  0.86617822  0.46004445
   0.97143448  0.53080285  0.15680948
   0.84159240  0.28561103  0.51143767
   0.50605784  0.96873998  0.14764171
   0.71148960  0.33049043  0.41219417
   0.28887330  0.02134141  0.79675727
   0.65993472  0.33233264  0.16351307
   0.95956334  0.68698762  0.49145925
   0.35797899  0.95537349  0.45900280
   0.35430916  0.02283514  0.13187659
   0.71851918  0.97340083  0.19841447
   0.33621104  0.67029023  0.75407000
   0.70080049  0.28158165  0.82593709
   0.97999255  0.31365480  0.16563210
   0.30302926  0.71349303  0.19352007
   0.97739602  0.37921305  0.85047118
   0.65182423  0.96843375  0.86709001
   0.02843169  0.61895904  0.15857829
   0.64508085  0.04153309  0.53961815
   0.02382769  0.69450032  0.84549459
   0.29318541  0.63326207  0.58305393
   0.04277883  0.31484667  0.50712930
   0.83126577  0.35216725  0.30998945
Direct configuration=   120
   0.05840450  0.25429509  0.30346472
   0.03759109  0.30132870  0.95104323
   0.10377361  0.26050164  0.70914322
   0.69082007  0.05407820  0.33578749
   0.66818288  0.03184321  0.97706436
   0.64111842  0.10010807  0.74160722
   0.02067217  0.39385921  0.64784178
   0.26347296  0.67652489  0.35265804
   0.31141998  0.64788778 -0.00984725
   0.28066936  0.59881593  0.79877589
   0.59200823  0.01306870  0.66105980
   0.29787294  0.03625653  0.36009414
   0.23005844  0.07712958  0.59657138
   0.27486472  0.08093640  0.00023869
   0.65635913  0.29798664  0.42768499
   0.70337566  0.22162835  0.63262652
   0.99214869  0.63647290  0.73616674
   0.02854508  0.56329872  0.95411589
   0.66748369  0.26221008  0.03877940
   0.04506129  0.65358664  0.40877032
   0.07934827  0.68922174  0.64137280
   0.36913613  0.00036172  0.69283511
   0.41056283  0.02496047  0.93492283
   0.08826727  0.63753785  0.03311997
   0.71007960  0.96099343  0.63993249
   0.77768320  0.92244602  0.40019458
   0.73384394  0.91460854  0.99367946
   0.34855958  0.70365377  0.52545387
   0.28645462  0.78426137  0.36221176
   0.98917829  0.37633374  0.29912763
   0.97370439  0.43933858  0.05308683
   0.32794620  0.73526457  0.94857181
   0.97202932  0.31506514  0.62234139
   0.91618611  0.31637559  0.36499905
   0.63934387  0.98994786  0.30782536
   0.59947311  0.96316658  0.06571738
   0.91233058  0.36894653  0.95747490
   0.95412970  0.74757342  0.69402253
   0.97872903  0.70663237  0.07173695
   0.90616634  0.74462365  0.29059776
   0.31105754  0.94289471  0.66376598
   0.33312835  0.96349163  0.02467501
   0.35844817  0.89567168  0.25986221
   0.97651805  0.61099661  0.35644752
   0.74324001  0.31388044  0.68754114
   0.67866881  0.38392629  0.02614536
   0.75173749  0.35987784  0.25148175
   0.41606857  0.97715144  0.33572584
   0.71535673  0.50365726  0.67309854
   0.78758913  0.44721985  0.43777847
   0.11078629  0.21345231  0.22569018
   0.15195030  0.16803478  0.34758909
   0.08820301  0.26009069  0.88505869
   0.12711975  0.21313801  0.02482470
   0.68148852  0.10561235  0.25938658
   0.68523502  0.14635098  0.38506243
   0.65861316  0.08265341  0.91619317
   0.66793208  0.12105138  0.05677982
   0.00996203  0.44641190  0.57430811
   0.01509432  0.48667775  0.69875609
   0.22090529  0.66513370  0.27981391
   0.17204940  0.67534861  0.39448154
   0.27565717  0.62716921  0.95899714
   0.22626798  0.64068670  0.08979566
   0.55035548  0.00347030  0.57897417
   0.50360752  0.00894139  0.69580322
   0.24655076  0.07681961  0.42094284
   0.20712321  0.12331531  0.27983646
   0.22305543  0.12272813  0.07845126
   0.18223940  0.16836713  0.95683856
   0.68026330  0.24115506  0.46593683
   0.67764808  0.20053143  0.31891257
   0.00874771  0.58252260  0.78231256
   0.00362915  0.54267758  0.63583180
   0.66851062  0.21354392  0.11442137
   0.66220552  0.17447884  0.98917584
   0.08146792  0.67016310  0.46686102
   0.12763028  0.66411919  0.32547278
   0.41038526  0.00919746  0.75855160
   0.45824757  0.00051979  0.62151065
   0.12980828  0.64532936  0.12441257
   0.18055089  0.63252775  0.01602636
   0.76170075  0.92221062  0.57669362
   0.80320519  0.87641098  0.71634356
   0.78706355  0.87585554  0.91657903
   0.82917263  0.83215994  0.03965535
   0.31570732  0.76159786  0.51820626
   0.31711050  0.79993108  0.67669221
   0.98519441  0.42467335  0.23204993
   0.99362591  0.46307413  0.37423048
   0.32745067  0.78431738  0.88007147
   0.33538454  0.82244326  0.00666093
   0.92542026  0.31833446  0.55155439
   0.87759206  0.32883639  0.69100573
   0.59880685  0.98004849  0.24166975
   0.55062834  0.98846065  0.37665318
   0.87191691  0.35892483  0.87376863
   0.81816439  0.37928073  0.97327015
   0.90172234  0.78907600  0.77306956
   0.85970051  0.83373024  0.65020683
   0.92446140  0.74529499  0.11844600
   0.88545742  0.78945074  0.97364128
   0.31708291  0.89267123  0.74116763
   0.31041179  0.85400462  0.61452453
   0.34160293  0.91289245  0.08511146
   0.33083874  0.87581274  0.94259163
   0.98770491  0.55888672  0.43469648
   0.98341248  0.51830513  0.30991376
   0.78189674  0.33148252  0.74773643
   0.83362430  0.31483583  0.63806786
   0.73135531  0.37225486  0.07120328
   0.77465165  0.36468544  0.92175975
   0.45816405  0.98583882  0.41881646
   0.50517972  0.98008215  0.30228085
   0.75128397  0.47530176  0.55633357
   0.14034346  0.16783900  0.50141191
   0.69371808  0.13515908  0.54034008
   0.02727947  0.47408058  0.85176827
   0.16810061  0.69216023  0.54418554
   0.50251190  0.02045670  0.85043437
   0.19396508  0.16873123  0.80324639
   0.65380936  0.18555825  0.83374330
   0.18376391  0.61633283  0.86634113
   0.81753991  0.83145116  0.19304229
   0.34483195  0.81055387  0.16125583
   0.80954489  0.41027902  0.09445003
   0.87121818  0.83453971  0.49670150
   0.30167110  0.86618864  0.46003567
   0.97143376  0.53079967  0.15680417
   0.84158678  0.28561755  0.51145455
   0.50605645  0.96874073  0.14764362
   0.71149005  0.33049071  0.41220580
   0.28887260  0.02134238  0.79676675
   0.65993967  0.33232759  0.16350637
   0.95956330  0.68698595  0.49144362
   0.35797826  0.95537323  0.45900774
   0.35430841  0.02283573  0.13188930
   0.71851960  0.97340062  0.19842182
   0.33620745  0.67029537  0.75406051
   0.70080274  0.28158260  0.82594214
   0.97999255  0.31365274  0.16563272
   0.30302626  0.71349649  0.19351151
   0.97739654  0.37921061  0.85047149
   0.65182422  0.96843527  0.86709200
   0.02843318  0.61895718  0.15856191
   0.64508188  0.04153261  0.53963493
   0.02383159  0.69449672  0.84547707
   0.29318668  0.63326245  0.58304766
   0.04277543  0.31484410  0.50713362
   0.83126483  0.35216939  0.30998573
Direct configuration=   121
   0.05839492  0.25428446  0.30348577
   0.03758918  0.30133026  0.95107031
   0.10376557  0.26049121  0.70915515
   0.69082592  0.05407132  0.33580338
   0.66816821  0.03184915  0.97710391
   0.64112069  0.10010649  0.74163822
   0.02067051  0.39385752  0.64782617
   0.26347947  0.67652118  0.35263399
   0.31141771  0.64789748 -0.00985802
   0.28068439  0.59880965  0.79873993
   0.59200708  0.01307496  0.66108454
   0.29786928  0.03626145  0.36013152
   0.23005740  0.07713467  0.59660510
   0.27486108  0.08093471  0.00026771
   0.65638748  0.29796297  0.42767286
   0.70340074  0.22161764  0.63266796
   0.99216181  0.63646434  0.73610902
   0.02854142  0.56329687  0.95409517
   0.66749908  0.26219810  0.03880147
   0.04505781  0.65359708  0.40871461
   0.07934861  0.68921341  0.64131721
   0.36913325  0.00036842  0.69286679
   0.41055651  0.02496240  0.93494367
   0.08826577  0.63753830  0.03305512
   0.71008258  0.96099858  0.63994769
   0.77769037  0.92244466  0.40019689
   0.73384685  0.91460780  0.99369468
   0.34853847  0.70366994  0.52543817
   0.28642016  0.78428421  0.36217695
   0.98917518  0.37632662  0.29913887
   0.97370887  0.43932856  0.05308480
   0.32794575  0.73527013  0.94852630
   0.97202372  0.31505916  0.62236624
   0.91618318  0.31637695  0.36502969
   0.63935062  0.98993741  0.30786876
   0.59946709  0.96317479  0.06573548
   0.91232811  0.36894639  0.95748524
   0.95412680  0.74757327  0.69398137
   0.97872633  0.70662724  0.07167208
   0.90617010  0.74461591  0.29055904
   0.31104909  0.94290866  0.66377511
   0.33313234  0.96349209  0.02469244
   0.35845466  0.89567053  0.25982555
   0.97652969  0.61098415  0.35641817
   0.74323015  0.31389697  0.68753309
   0.67866340  0.38392814  0.02615538
   0.75173327  0.35989227  0.25148887
   0.41606901  0.97715363  0.33575872
   0.71535400  0.50367295  0.67301537
   0.78760390  0.44723194  0.43775661
   0.11077295  0.21344774  0.22572769
   0.15194366  0.16802745  0.34762355
   0.08820174  0.26008095  0.88508647
   0.12711002  0.21313443  0.02483507
   0.68150880  0.10559669  0.25945544
   0.68527153  0.14633298  0.38504330
   0.65860909  0.08265209  0.91625738
   0.66793523  0.12105115  0.05679467
   0.00995690  0.44641137  0.57431231
   0.01508822  0.48667495  0.69874949
   0.22090230  0.66513278  0.27976945
   0.17205075  0.67533633  0.39442704
   0.27566840  0.62716499  0.95897322
   0.22626998  0.64068459  0.08975070
   0.55035389  0.00347427  0.57899251
   0.50360494  0.00894343  0.69581081
   0.24654747  0.07682170  0.42097720
   0.20711876  0.12331250  0.27986034
   0.22305123  0.12272459  0.07847948
   0.18223511  0.16836004  0.95685945
   0.68029762  0.24114314  0.46595641
   0.67768640  0.20050662  0.31894759
   0.00874903  0.58252177  0.78226867
   0.00363015  0.54266890  0.63582392
   0.66852957  0.21352627  0.11441314
   0.66222402  0.17447229  0.98925806
   0.08147647  0.67016083  0.46678683
   0.12763028  0.66411310  0.32542993
   0.41038518  0.00920199  0.75858359
   0.45824282  0.00052399  0.62154101
   0.12980649  0.64532721  0.12434936
   0.18055650  0.63252431  0.01599235
   0.76170152  0.92221459  0.57671973
   0.80320736  0.87641159  0.71633262
   0.78706371  0.87585529  0.91662035
   0.82917783  0.83216145  0.03966176
   0.31568801  0.76160887  0.51816216
   0.31709142  0.79994581  0.67667836
   0.98519392  0.42466451  0.23204790
   0.99362236  0.46306863  0.37423006
   0.32744957  0.78432902  0.88008231
   0.33538683  0.82243466  0.00661516
   0.92541196  0.31833579  0.55158261
   0.87758325  0.32884940  0.69103580
   0.59881251  0.98004987  0.24170296
   0.55062760  0.98846415  0.37666466
   0.87190994  0.35893758  0.87378396
   0.81814950  0.37930624  0.97329102
   0.90171851  0.78907682  0.77305278
   0.85970011  0.83372913  0.65018188
   0.92446867  0.74528617  0.11838229
   0.88546836  0.78944083  0.97361195
   0.31707109  0.89267818  0.74116245
   0.31038595  0.85402277  0.61452537
   0.34161136  0.91288068  0.08513838
   0.33083888  0.87581839  0.94258814
   0.98770693  0.55888164  0.43466032
   0.98341218  0.51829852  0.30989458
   0.78189110  0.33148792  0.74775823
   0.83361124  0.31484984  0.63807933
   0.73134158  0.37227632  0.07122684
   0.77464420  0.36470234  0.92177162
   0.45816396  0.98584218  0.41885596
   0.50517948  0.98008578  0.30230878
   0.75128788  0.47531740  0.55628797
   0.14033239  0.16783464  0.50143569
   0.69376968  0.13513028  0.54037889
   0.02727018  0.47408333  0.85175287
   0.16810602  0.69214592  0.54414022
   0.50250840  0.02046279  0.85044712
   0.19395875  0.16872716  0.80327330
   0.65380875  0.18555874  0.83378826
   0.18377121  0.61632692  0.86627239
   0.81755468  0.83145240  0.19306104
   0.34484086  0.81054595  0.16121428
   0.80953833  0.41029864  0.09446740
   0.87121112  0.83454448  0.49668882
   0.30163388  0.86621988  0.46000936
   0.97143159  0.53079014  0.15678824
   0.84156992  0.28563711  0.51150520
   0.50605228  0.96874299  0.14764936
   0.71149140  0.33049155  0.41224068
   0.28887050  0.02134529  0.79679516
   0.65995453  0.33231243  0.16348626
   0.95956319  0.68698094  0.49139673
   0.35797607  0.95537245  0.45902254
   0.35430614  0.02283748  0.13192745
   0.71852086  0.97339999  0.19844389
   0.33619668  0.67031080  0.75403206
   0.70080948  0.28158544  0.82595730
   0.97999252  0.31364655  0.16563458
   0.30301727  0.71350685  0.19348585
   0.97739811  0.37920330  0.85047240
   0.65182418  0.96843984  0.86709799
   0.02843763  0.61895162  0.15851277
   0.64508495  0.04153118  0.53968529
   0.02384330  0.69448593  0.84542449
   0.29319049  0.63326360  0.58302885
   0.04276524  0.31483640  0.50714658
   0.83126199  0.35217578  0.30997460
Direct configuration=   122
   0.05837575  0.25426321  0.30352787
   0.03758536  0.30133338  0.95112445
   0.10374948  0.26047035  0.70917901
   0.69083763  0.05405758  0.33583516
   0.66813886  0.03186104  0.97718302
   0.64112524  0.10010335  0.74170022
   0.02066720  0.39385415  0.64779497
   0.26349250  0.67651376  0.35258590
   0.31141318  0.64791687 -0.00987955
   0.28071444  0.59879709  0.79866801
   0.59200478  0.01308747  0.66113403
   0.29786196  0.03627128  0.36020629
   0.23005531  0.07714486  0.59667254
   0.27485380  0.08093134  0.00032574
   0.65644418  0.29791565  0.42764860
   0.70345088  0.22159621  0.63275083
   0.99218805  0.63644721  0.73599358
   0.02853410  0.56329318  0.95405374
   0.66752987  0.26217415  0.03884562
   0.04505084  0.65361794  0.40860320
   0.07934928  0.68919675  0.64120602
   0.36912748  0.00038184  0.69293014
   0.41054388  0.02496627  0.93498535
   0.08826277  0.63753920  0.03292543
   0.71008855  0.96100889  0.63997810
   0.77770471  0.92244194  0.40020149
   0.73385267  0.91460634  0.99372513
   0.34849624  0.70370228  0.52540678
   0.28635123  0.78432990  0.36210734
   0.98916897  0.37631237  0.29916133
   0.97371783  0.43930853  0.05308075
   0.32794486  0.73528124  0.94843529
   0.97201252  0.31504720  0.62241592
   0.91617732  0.31637967  0.36509096
   0.63936410  0.98991650  0.30795557
   0.59945505  0.96319122  0.06577167
   0.91232318  0.36894611  0.95750592
   0.95412100  0.74757296  0.69389904
   0.97872091  0.70661696  0.07154235
   0.90617762  0.74460043  0.29048161
   0.31103217  0.94293657  0.66379336
   0.33314031  0.96349301  0.02472730
   0.35846764  0.89566824  0.25975224
   0.97655296  0.61095921  0.35635948
   0.74321045  0.31393004  0.68751698
   0.67865260  0.38393183  0.02617543
   0.75172484  0.35992114  0.25150311
   0.41606989  0.97715799  0.33582448
   0.71534855  0.50370435  0.67284902
   0.78763344  0.44725613  0.43771291
   0.11074627  0.21343861  0.22580272
   0.15193038  0.16801279  0.34769247
   0.08819921  0.26006148  0.88514201
   0.12709055  0.21312726  0.02485582
   0.68154936  0.10556536  0.25959315
   0.68534454  0.14629697  0.38500506
   0.65860094  0.08264945  0.91638578
   0.66794154  0.12105068  0.05682437
   0.00994664  0.44641031  0.57432073
   0.01507603  0.48666935  0.69873631
   0.22089634  0.66513095  0.27968052
   0.17205345  0.67531178  0.39431803
   0.27569086  0.62715656  0.95892537
   0.22627398  0.64068038  0.08966078
   0.55035070  0.00348222  0.57902918
   0.50359978  0.00894749  0.69582599
   0.24654089  0.07682590  0.42104590
   0.20710986  0.12330690  0.27990810
   0.22304284  0.12271752  0.07853593
   0.18222651  0.16834586  0.95690124
   0.68036626  0.24111929  0.46599558
   0.67776304  0.20045700  0.31901762
   0.00875166  0.58252012  0.78218089
   0.00363214  0.54265153  0.63580817
   0.66856745  0.21349099  0.11439667
   0.66226103  0.17445920  0.98942249
   0.08149357  0.67015629  0.46663844
   0.12763029  0.66410092  0.32534423
   0.41038500  0.00921104  0.75864757
   0.45823334  0.00053240  0.62160173
   0.12980292  0.64532290  0.12422295
   0.18056773  0.63251745  0.01592434
   0.76170306  0.92222252  0.57677193
   0.80321170  0.87641281  0.71631073
   0.78706402  0.87585477  0.91670301
   0.82918822  0.83216447  0.03967459
   0.31564939  0.76163089  0.51807395
   0.31705328  0.79997529  0.67665066
   0.98519293  0.42464684  0.23204383
   0.99361526  0.46305764  0.37422923
   0.32744736  0.78435230  0.88010398
   0.33539140  0.82241747  0.00652362
   0.92539537  0.31833844  0.55163905
   0.87756563  0.32887542  0.69109595
   0.59882384  0.98005263  0.24176939
   0.55062613  0.98847113  0.37668761
   0.87189601  0.35896308  0.87381461
   0.81811971  0.37935727  0.97333276
   0.90171084  0.78907846  0.77301923
   0.85969932  0.83372691  0.65013198
   0.92448322  0.74526854  0.11825487
   0.88549023  0.78942100  0.97355329
   0.31704744  0.89269210  0.74115210
   0.31033425  0.85405906  0.61452703
   0.34162822  0.91285714  0.08519221
   0.33083915  0.87582969  0.94258116
   0.98771098  0.55887148  0.43458800
   0.98341156  0.51828530  0.30985622
   0.78187983  0.33149870  0.74780183
   0.83358511  0.31487787  0.63810228
   0.73131412  0.37231923  0.07127397
   0.77462931  0.36473614  0.92179536
   0.45816379  0.98584890  0.41893497
   0.50517900  0.98009304  0.30236466
   0.75129571  0.47534869  0.55619677
   0.14031025  0.16782592  0.50148325
   0.69387289  0.13507266  0.54045653
   0.02725159  0.47408881  0.85172207
   0.16811684  0.69211729  0.54404958
   0.50250141  0.02047497  0.85047263
   0.19394608  0.16871902  0.80332713
   0.65380751  0.18555971  0.83387818
   0.18378581  0.61631510  0.86613491
   0.81758422  0.83145488  0.19309855
   0.34485868  0.81053009  0.16113117
   0.80952520  0.41033787  0.09450214
   0.87119699  0.83455402  0.49666345
   0.30155945  0.86628237  0.45995673
   0.97142725  0.53077108  0.15675638
   0.84153620  0.28567624  0.51160651
   0.50604394  0.96874751  0.14766082
   0.71149410  0.33049321  0.41231043
   0.28886630  0.02135112  0.79685198
   0.65998424  0.33228210  0.16344604
   0.95956298  0.68697090  0.49130294
   0.35797168  0.95537090  0.45905216
   0.35430161  0.02284099  0.13200374
   0.71852338  0.97339872  0.19848802
   0.33617515  0.67034164  0.75397515
   0.70082296  0.28159111  0.82598763
   0.97999247  0.31363417  0.16563829
   0.30299929  0.71352758  0.19343452
   0.97740123  0.37918868  0.85047424
   0.65182411  0.96844896  0.86710997
   0.02844655  0.61894051  0.15841449
   0.64509109  0.04152831  0.53978602
   0.02386670  0.69446435  0.84531935
   0.29319811  0.63326591  0.58299124
   0.04274484  0.31482098  0.50717251
   0.83125632  0.35218858  0.30995233
Direct configuration=   123
   0.05838449  0.25427290  0.30350868
   0.03758710  0.30133196  0.95109977
   0.10375681  0.26047986  0.70916813
   0.69083229  0.05406384  0.33582067
   0.66815224  0.03185562  0.97714696
   0.64112317  0.10010478  0.74167196
   0.02066871  0.39385569  0.64780919
   0.26348656  0.67651714  0.35260782
   0.31141525  0.64790803 -0.00986973
   0.28070074  0.59880282  0.79870079
   0.59200583  0.01308176  0.66111147
   0.29786530  0.03626680  0.36017220
   0.23005626  0.07714021  0.59664180
   0.27485712  0.08093288  0.00029929
   0.65641834  0.29793722  0.42765966
   0.70342802  0.22160598  0.63271305
   0.99217609  0.63645502  0.73604620
   0.02853744  0.56329486  0.95407263
   0.66751583  0.26218507  0.03882549
   0.04505402  0.65360843  0.40865399
   0.07934897  0.68920435  0.64125670
   0.36913011  0.00037572  0.69290126
   0.41054964  0.02496450  0.93496635
   0.08826414  0.63753879  0.03298455
   0.71008583  0.96100419  0.63996424
   0.77769818  0.92244318  0.40019939
   0.73385001  0.91460700  0.99371125
   0.34851549  0.70368754  0.52542109
   0.28638265  0.78430907  0.36213908
   0.98917180  0.37631887  0.29915109
   0.97371374  0.43931766  0.05308260
   0.32794527  0.73527617  0.94847678
   0.97201763  0.31505265  0.62239327
   0.91617999  0.31637843  0.36506303
   0.63935795  0.98992603  0.30791600
   0.59946054  0.96318373  0.06575517
   0.91232543  0.36894623  0.95749649
   0.95412365  0.74757310  0.69393657
   0.97872338  0.70662164  0.07160149
   0.90617419  0.74460749  0.29051691
   0.31103988  0.94292385  0.66378504
   0.33313668  0.96349259  0.02471141
   0.35846172  0.89566929  0.25978566
   0.97654235  0.61097058  0.35638624
   0.74321943  0.31391497  0.68752432
   0.67865753  0.38393015  0.02616629
   0.75172868  0.35990798  0.25149662
   0.41606949  0.97715600  0.33579451
   0.71535104  0.50369004  0.67292485
   0.78761997  0.44724510  0.43773283
   0.11075843  0.21344277  0.22576852
   0.15193643  0.16801947  0.34766105
   0.08820037  0.26007036  0.88511669
   0.12709943  0.21313053  0.02484636
   0.68153087  0.10557964  0.25953037
   0.68531125  0.14631338  0.38502249
   0.65860465  0.08265066  0.91632725
   0.66793866  0.12105089  0.05681083
   0.00995132  0.44641079  0.57431689
   0.01508159  0.48667191  0.69874232
   0.22089906  0.66513179  0.27972106
   0.17205222  0.67532297  0.39436773
   0.27568062  0.62716040  0.95894718
   0.22627216  0.64068230  0.08970177
   0.55035215  0.00347860  0.57901246
   0.50360214  0.00894564  0.69581907
   0.24654389  0.07682399  0.42101458
   0.20711392  0.12330945  0.27988633
   0.22304667  0.12272074  0.07851020
   0.18223043  0.16835233  0.95688219
   0.68033497  0.24113016  0.46597772
   0.67772810  0.20047962  0.31898570
   0.00875046  0.58252087  0.78222091
   0.00363123  0.54265945  0.63581535
   0.66855018  0.21350707  0.11440418
   0.66224416  0.17446517  0.98934753
   0.08148578  0.67015836  0.46670608
   0.12763029  0.66410647  0.32538329
   0.41038508  0.00920691  0.75861840
   0.45823766  0.00052857  0.62157405
   0.12980455  0.64532486  0.12428057
   0.18056261  0.63252058  0.01595535
   0.76170236  0.92221891  0.57674813
   0.80320972  0.87641225  0.71632071
   0.78706388  0.87585500  0.91666533
   0.82918348  0.83216309  0.03966874
   0.31566700  0.76162085  0.51811416
   0.31707067  0.79996185  0.67666329
   0.98519338  0.42465490  0.23204569
   0.99361850  0.46306265  0.37422961
   0.32744837  0.78434169  0.88009410
   0.33538932  0.82242531  0.00656535
   0.92540294  0.31833723  0.55161332
   0.87757366  0.32886356  0.69106853
   0.59881868  0.98005137  0.24173911
   0.55062680  0.98846794  0.37667715
   0.87190236  0.35895146  0.87380064
   0.81813329  0.37933401  0.97331373
   0.90171433  0.78907771  0.77303453
   0.85969968  0.83372792  0.65015473
   0.92447659  0.74527658  0.11831295
   0.88548026  0.78943004  0.97358003
   0.31705822  0.89268575  0.74115682
   0.31035782  0.85404251  0.61452627
   0.34162053  0.91286787  0.08516767
   0.33083903  0.87582454  0.94258434
   0.98770914  0.55887611  0.43462097
   0.98341184  0.51829132  0.30987370
   0.78188497  0.33149379  0.74778195
   0.83359702  0.31486509  0.63809182
   0.73132664  0.37229967  0.07125249
   0.77463610  0.36472073  0.92178454
   0.45816387  0.98584584  0.41889895
   0.50517922  0.98008973  0.30233919
   0.75129214  0.47533443  0.55623835
   0.14032034  0.16782990  0.50146157
   0.69382584  0.13509893  0.54042114
   0.02726006  0.47408631  0.85173611
   0.16811190  0.69213034  0.54409090
   0.50250460  0.02046942  0.85046100
   0.19395186  0.16872273  0.80330259
   0.65380807  0.18555927  0.83383719
   0.18377915  0.61632049  0.86619759
   0.81757075  0.83145375  0.19308145
   0.34485055  0.81053732  0.16116906
   0.80953118  0.41031999  0.09448631
   0.87120343  0.83454967  0.49667501
   0.30159338  0.86625388  0.45998072
   0.97142923  0.53077977  0.15677090
   0.84155157  0.28565840  0.51156033
   0.50604774  0.96874545  0.14765560
   0.71149287  0.33049245  0.41227863
   0.28886822  0.02134846  0.79682608
   0.65997070  0.33229593  0.16346438
   0.95956308  0.68697548  0.49134570
   0.35797368  0.95537161  0.45903866
   0.35430368  0.02283939  0.13196896
   0.71852223  0.97339930  0.19846791
   0.33618496  0.67032758  0.75400109
   0.70081681  0.28158852  0.82597380
   0.97999249  0.31363981  0.16563660
   0.30300749  0.71351813  0.19345792
   0.97739981  0.37919534  0.85047340
   0.65182414  0.96844480  0.86710451
   0.02844249  0.61894558  0.15845929
   0.64508829  0.04152961  0.53974010
   0.02385603  0.69447419  0.84536728
   0.29319463  0.63326486  0.58300838
   0.04275414  0.31482801  0.50716069
   0.83125891  0.35218275  0.30996248
Direct configuration=   124
   0.05837831  0.25426637  0.30352225
   0.03758693  0.30133250  0.95112015
   0.10375263  0.26047211  0.70917554
   0.69083446  0.05406078  0.33583519
   0.66814317  0.03185866  0.97716979
   0.64112693  0.10010247  0.74170744
   0.02066775  0.39385456  0.64780224
   0.26348958  0.67651548  0.35258212
   0.31141627  0.64791496 -0.00987157
   0.28071009  0.59879951  0.79867399
   0.59200545  0.01308678  0.66112372
   0.29786376  0.03626834  0.36019380
   0.23005528  0.07714316  0.59666447
   0.27485453  0.08093231  0.00031811
   0.65643272  0.29792477  0.42764369
   0.70344364  0.22159945  0.63273448
   0.99218405  0.63645106  0.73600949
   0.02853444  0.56329449  0.95405523
   0.66752392  0.26217822  0.03883197
   0.04505452  0.65361485  0.40862204
   0.07934847  0.68919772  0.64121620
   0.36912819  0.00037998  0.69292051
   0.41054486  0.02496611  0.93498287
   0.08826796  0.63753878  0.03295203
   0.71008767  0.96100721  0.63997754
   0.77770031  0.92244348  0.40021132
   0.73385460  0.91460567  0.99372096
   0.34850337  0.70369584  0.52541991
   0.28636244  0.78432343  0.36211683
   0.98917024  0.37631368  0.29915831
   0.97371703  0.43931109  0.05307936
   0.32794547  0.73527930  0.94845641
   0.97201332  0.31504970  0.62240707
   0.91617799  0.31637954  0.36508209
   0.63936514  0.98992123  0.30795141
   0.59945488  0.96318828  0.06576896
   0.91232179  0.36894790  0.95751097
   0.95412089  0.74757393  0.69391698
   0.97872262  0.70661827  0.07155494
   0.90617742  0.74460224  0.29048324
   0.31103423  0.94293132  0.66378269
   0.33314087  0.96348678  0.02473340
   0.35846589  0.89566771  0.25977536
   0.97654943  0.61096288  0.35636421
   0.74321270  0.31392719  0.68751786
   0.67865434  0.38393245  0.02616278
   0.75172657  0.35991719  0.25151454
   0.41607052  0.97715754  0.33581305
   0.71534174  0.50370614  0.67289555
   0.78762391  0.44725755  0.43773857
   0.11075137  0.21343943  0.22578844
   0.15193194  0.16801535  0.34767888
   0.08819839  0.26006536  0.88512882
   0.12709492  0.21312703  0.02485670
   0.68154171  0.10557212  0.25954190
   0.68533588  0.14629984  0.38505218
   0.65860226  0.08265359  0.91634983
   0.66794304  0.12104675  0.05683492
   0.00994855  0.44640851  0.57431469
   0.01507776  0.48666966  0.69873993
   0.22089774  0.66513157  0.27970039
   0.17205202  0.67531636  0.39433992
   0.27568866  0.62715761  0.95892174
   0.22627465  0.64068096  0.08968000
   0.55034989  0.00348137  0.57902811
   0.50360055  0.00894740  0.69582817
   0.24654155  0.07682534  0.42103282
   0.20711061  0.12330748  0.27990230
   0.22304343  0.12271858  0.07852690
   0.18222690  0.16834875  0.95689578
   0.68035669  0.24111980  0.46600003
   0.67775126  0.20046751  0.31899000
   0.00875262  0.58251711  0.78219692
   0.00363175  0.54265556  0.63580408
   0.66856491  0.21349633  0.11443228
   0.66225511  0.17445924  0.98935354
   0.08148872  0.67015788  0.46666996
   0.12762967  0.66410209  0.32533920
   0.41038415  0.00920903  0.75862902
   0.45823545  0.00053061  0.62159017
   0.12980132  0.64532339  0.12424714
   0.18056460  0.63251773  0.01592717
   0.76170016  0.92222407  0.57674868
   0.80321092  0.87641091  0.71632586
   0.78706329  0.87585605  0.91668161
   0.82918965  0.83216109  0.03967183
   0.31565361  0.76162822  0.51808311
   0.31706084  0.79997027  0.67665521
   0.98519366  0.42464953  0.23204774
   0.99361583  0.46305911  0.37423011
   0.32744644  0.78434589  0.88008838
   0.33538994  0.82242655  0.00655233
   0.92539622  0.31833880  0.55163534
   0.87756683  0.32887224  0.69109403
   0.59882000  0.98005096  0.24175915
   0.55062695  0.98847054  0.37668944
   0.87189955  0.35895795  0.87380578
   0.81812723  0.37934753  0.97331530
   0.90171591  0.78907467  0.77302515
   0.85969994  0.83372617  0.65014694
   0.92447963  0.74527201  0.11828293
   0.88548480  0.78942528  0.97355896
   0.31705140  0.89269418  0.74116550
   0.31034084  0.85405393  0.61451342
   0.34162084  0.91286724  0.08515611
   0.33084088  0.87582500  0.94258293
   0.98771164  0.55887258  0.43460393
   0.98341204  0.51828681  0.30986018
   0.78187933  0.33149648  0.74778827
   0.83358861  0.31487659  0.63810859
   0.73131909  0.37231117  0.07127519
   0.77463093  0.36473050  0.92179225
   0.45816378  0.98584772  0.41892636
   0.50517864  0.98009128  0.30234908
   0.75130802  0.47533401  0.55616562
   0.14031393  0.16782665  0.50147848
   0.69385697  0.13508209  0.54042623
   0.02725471  0.47408765  0.85172956
   0.16811400  0.69212179  0.54405723
   0.50250340  0.02047226  0.85045977
   0.19394786  0.16872018  0.80331745
   0.65380818  0.18555818  0.83388659
   0.18378235  0.61631680  0.86615469
   0.81758079  0.83145285  0.19309316
   0.34485467  0.81053235  0.16113030
   0.80952608  0.41033546  0.09450515
   0.87119906  0.83455273  0.49666434
   0.30156900  0.86627359  0.45996851
   0.97142712  0.53077428  0.15675370
   0.84154267  0.28566937  0.51158225
   0.50604588  0.96874709  0.14765982
   0.71149424  0.33049460  0.41229581
   0.28886687  0.02135118  0.79684527
   0.65998097  0.33228526  0.16345095
   0.95956236  0.68697320  0.49131911
   0.35797257  0.95537226  0.45905557
   0.35430278  0.02283951  0.13198968
   0.71852404  0.97339674  0.19848598
   0.33617951  0.67033841  0.75397474
   0.70081980  0.28158993  0.82598855
   0.97999087  0.31363661  0.16564262
   0.30299897  0.71352483  0.19344920
   0.97740126  0.37919126  0.85047219
   0.65182672  0.96844568  0.86711158
   0.02844479  0.61894136  0.15842851
   0.64508985  0.04152890  0.53976985
   0.02386055  0.69446887  0.84533771
   0.29319824  0.63326441  0.58300768
   0.04274906  0.31482437  0.50716908
   0.83125551  0.35218729  0.30995717
Direct configuration=   125
   0.05837238  0.25426012  0.30353527
   0.03758678  0.30133303  0.95113970
   0.10374861  0.26046467  0.70918264
   0.69083654  0.05405785  0.33584911
   0.66813447  0.03186158  0.97719169
   0.64113054  0.10010025  0.74174146
   0.02066683  0.39385349  0.64779558
   0.26349248  0.67651388  0.35255747
   0.31141725  0.64792160 -0.00987333
   0.28071905  0.59879634  0.79864830
   0.59200508  0.01309159  0.66113547
   0.29786228  0.03626981  0.36021451
   0.23005433  0.07714599  0.59668621
   0.27485205  0.08093177  0.00033616
   0.65644652  0.29791284  0.42762837
   0.70345861  0.22159319  0.63275502
   0.99219168  0.63644726  0.73597428
   0.02853157  0.56329414  0.95403855
   0.66753168  0.26217166  0.03883817
   0.04505501  0.65362101  0.40859141
   0.07934799  0.68919137  0.64117736
   0.36912635  0.00038406  0.69293896
   0.41054028  0.02496765  0.93499872
   0.08827162  0.63753877  0.03292085
   0.71008944  0.96101010  0.63999030
   0.77770235  0.92244376  0.40022276
   0.73385899  0.91460440  0.99373028
   0.34849175  0.70370379  0.52541878
   0.28634306  0.78433720  0.36209551
   0.98916874  0.37630871  0.29916524
   0.97372019  0.43930478  0.05307626
   0.32794566  0.73528231  0.94843687
   0.97200919  0.31504687  0.62242031
   0.91617607  0.31638060  0.36510037
   0.63937203  0.98991662  0.30798537
   0.59944945  0.96319264  0.06578218
   0.91231831  0.36894950  0.95752486
   0.95411824  0.74757472  0.69389820
   0.97872190  0.70661503  0.07151029
   0.90618051  0.74459722  0.29045095
   0.31102881  0.94293849  0.66378045
   0.33314488  0.96348121  0.02475448
   0.35846989  0.89566620  0.25976547
   0.97655621  0.61095549  0.35634309
   0.74320624  0.31393891  0.68751167
   0.67865129  0.38393466  0.02615942
   0.75172454  0.35992602  0.25153173
   0.41607150  0.97715901  0.33583084
   0.71533282  0.50372159  0.67286745
   0.78762768  0.44726949  0.43774407
   0.11074460  0.21343622  0.22580755
   0.15192762  0.16801140  0.34769598
   0.08819649  0.26006056  0.88514045
   0.12709060  0.21312367  0.02486661
   0.68155211  0.10556490  0.25955296
   0.68535949  0.14628685  0.38508065
   0.65859996  0.08265640  0.91637148
   0.66794723  0.12104279  0.05685802
   0.00994589  0.44640633  0.57431258
   0.01507409  0.48666750  0.69873763
   0.22089647  0.66513136  0.27968057
   0.17205183  0.67531002  0.39431326
   0.27569636  0.62715493  0.95889733
   0.22627704  0.64067967  0.08965913
   0.55034772  0.00348403  0.57904312
   0.50359903  0.00894909  0.69583690
   0.24653930  0.07682663  0.42105031
   0.20710743  0.12330559  0.27991761
   0.22304032  0.12271651  0.07854292
   0.18222351  0.16834532  0.95690881
   0.68037752  0.24110986  0.46602142
   0.67777348  0.20045590  0.31899412
   0.00875469  0.58251350  0.78217392
   0.00363225  0.54265183  0.63579328
   0.66857903  0.21348602  0.11445923
   0.66226561  0.17445355  0.98935930
   0.08149154  0.67015742  0.46663533
   0.12762909  0.66409789  0.32529692
   0.41038326  0.00921105  0.75863920
   0.45823332  0.00053257  0.62160563
   0.12979823  0.64532198  0.12421508
   0.18056650  0.63251500  0.01590014
   0.76169805  0.92222903  0.57674921
   0.80321207  0.87640962  0.71633080
   0.78706273  0.87585706  0.91669722
   0.82919557  0.83215916  0.03967480
   0.31564077  0.76163529  0.51805333
   0.31705142  0.79997835  0.67664746
   0.98519392  0.42464438  0.23204970
   0.99361327  0.46305571  0.37423060
   0.32744460  0.78434992  0.88008289
   0.33539054  0.82242773  0.00653984
   0.92538978  0.31834031  0.55165645
   0.87756027  0.32888057  0.69111848
   0.59882126  0.98005057  0.24177837
   0.55062710  0.98847302  0.37670122
   0.87189686  0.35896417  0.87381072
   0.81812142  0.37936049  0.97331681
   0.90171742  0.78907175  0.77301615
   0.85970018  0.83372448  0.65013948
   0.92448255  0.74526762  0.11825415
   0.88548915  0.78942072  0.97353875
   0.31704486  0.89270226  0.74117382
   0.31032455  0.85406487  0.61450109
   0.34162114  0.91286663  0.08514503
   0.33084266  0.87582545  0.94258157
   0.98771404  0.55886920  0.43458759
   0.98341223  0.51828248  0.30984721
   0.78187393  0.33149905  0.74779432
   0.83358055  0.31488761  0.63812467
   0.73131186  0.37232219  0.07129696
   0.77462598  0.36473986  0.92179965
   0.45816369  0.98584953  0.41895264
   0.50517809  0.98009276  0.30235856
   0.75132325  0.47533360  0.55609588
   0.14030779  0.16782353  0.50149470
   0.69388683  0.13506595  0.54043111
   0.02724957  0.47408893  0.85172327
   0.16811601  0.69211359  0.54402494
   0.50250225  0.02047499  0.85045859
   0.19394402  0.16871774  0.80333170
   0.65380828  0.18555714  0.83393395
   0.18378542  0.61631327  0.86611355
   0.81759041  0.83145198  0.19310438
   0.34485862  0.81052758  0.16109314
   0.80952119  0.41035029  0.09452322
   0.87119487  0.83455566  0.49665410
   0.30154561  0.86629248  0.45995679
   0.97142509  0.53076901  0.15673720
   0.84153414  0.28567988  0.51160326
   0.50604409  0.96874867  0.14766387
   0.71149556  0.33049666  0.41231227
   0.28886559  0.02135379  0.79686367
   0.65999081  0.33227503  0.16343807
   0.95956166  0.68697102  0.49129361
   0.35797150  0.95537289  0.45907179
   0.35430193  0.02283962  0.13200954
   0.71852577  0.97339429  0.19850331
   0.33617428  0.67034880  0.75394948
   0.70082267  0.28159128  0.82600269
   0.97998932  0.31363355  0.16564839
   0.30299080  0.71353125  0.19344084
   0.97740266  0.37918735  0.85047102
   0.65182920  0.96844653  0.86711836
   0.02844701  0.61893732  0.15839899
   0.64509134  0.04152821  0.53979837
   0.02386489  0.69446377  0.84530936
   0.29320170  0.63326398  0.58300701
   0.04274420  0.31482087  0.50717713
   0.83125224  0.35219164  0.30995209
Direct configuration=   126
   0.05836787  0.25425595  0.30354493
   0.03758732  0.30133298  0.95115433
   0.10374598  0.26045901  0.70918786
   0.69083753  0.05405599  0.33586093
   0.66812845  0.03186351  0.97720735
   0.64113348  0.10009891  0.74176680
   0.02066627  0.39385221  0.64779261
   0.26349375  0.67651280  0.35253743
   0.31141870  0.64792607 -0.00987522
   0.28072548  0.59879431  0.79863091
   0.59200451  0.01309525  0.66114272
   0.29786150  0.03627032  0.36022843
   0.23005352  0.07714792  0.59670184
   0.27485026  0.08093148  0.00034938
   0.65645525  0.29790536  0.42761631
   0.70346941  0.22158887  0.63276944
   0.99219717  0.63644458  0.73594943
   0.02852934  0.56329411  0.95402501
   0.66753672  0.26216686  0.03884085
   0.04505542  0.65362486  0.40856801
   0.07934792  0.68918688  0.64115142
   0.36912480  0.00038680  0.69295060
   0.41053706  0.02496889  0.93501097
   0.08827486  0.63753844  0.03290000
   0.71009035  0.96101241  0.64000078
   0.77770290  0.92244459  0.40023278
   0.73386238  0.91460369  0.99373797
   0.34848374  0.70370931  0.52541721
   0.28633058  0.78434609  0.36208196
   0.98916775  0.37630522  0.29916963
   0.97372266  0.43930006  0.05307442
   0.32794588  0.73528416  0.94842724
   0.97200624  0.31504514  0.62243021
   0.91617427  0.31638149  0.36511324
   0.63937716  0.98991361  0.30801027
   0.59944538  0.96319566  0.06579379
   0.91231581  0.36895129  0.95753799
   0.95411671  0.74757500  0.69388659
   0.97872238  0.70661208  0.07147729
   0.90618303  0.74459340  0.29042577
   0.31102480  0.94294299  0.66377730
   0.33314777  0.96347686  0.02476958
   0.35847276  0.89566451  0.25976395
   0.97656092  0.61095059  0.35632663
   0.74320114  0.31394749  0.68750748
   0.67864938  0.38393657  0.02615524
   0.75172278  0.35993256  0.25154854
   0.41607236  0.97716009  0.33584314
   0.71533277  0.50372768  0.67282644
   0.78763647  0.44727345  0.43772886
   0.11074090  0.21343331  0.22581780
   0.15192420  0.16800900  0.34770639
   0.08819434  0.26005789  0.88514656
   0.12708817  0.21312062  0.02487703
   0.68155892  0.10556111  0.25955301
   0.68537646  0.14627712  0.38510789
   0.65859889  0.08265856  0.91638434
   0.66795111  0.12103915  0.05687792
   0.00994415  0.44640426  0.57430931
   0.01507142  0.48666617  0.69873538
   0.22089628  0.66513110  0.27966855
   0.17205170  0.67530593  0.39429505
   0.27570154  0.62715352  0.95887913
   0.22627916  0.64067845  0.08964445
   0.55034618  0.00348604  0.57905448
   0.50359807  0.00895052  0.69584465
   0.24653772  0.07682741  0.42106211
   0.20710488  0.12330426  0.27992894
   0.22303783  0.12271512  0.07855397
   0.18222063  0.16834334  0.95691868
   0.68039193  0.24110158  0.46603566
   0.67778929  0.20044822  0.31899690
   0.00875649  0.58251025  0.78215884
   0.00363247  0.54264980  0.63578244
   0.66859001  0.21347918  0.11448446
   0.66227302  0.17444818  0.98935638
   0.08149241  0.67015722  0.46661325
   0.12762885  0.66409500  0.32526334
   0.41038202  0.00921239  0.75864501
   0.45823235  0.00053377  0.62161606
   0.12979683  0.64532080  0.12419378
   0.18056753  0.63251273  0.01587736
   0.76169669  0.92223225  0.57674731
   0.80321246  0.87640843  0.71633841
   0.78706350  0.87585722  0.91670249
   0.82920054  0.83215696  0.03967601
   0.31563083  0.76164161  0.51803427
   0.31704526  0.79998373  0.67663939
   0.98519426  0.42464071  0.23205190
   0.99361130  0.46305356  0.37423000
   0.32744268  0.78435176  0.88007143
   0.33539066  0.82243090  0.00653485
   0.92538496  0.31834167  0.55167207
   0.87755529  0.32888625  0.69113516
   0.59882189  0.98005002  0.24179138
   0.55062708  0.98847486  0.37671180
   0.87189476  0.35896849  0.87381491
   0.81811804  0.37936899  0.97331520
   0.90171963  0.78906874  0.77300809
   0.85970006  0.83372329  0.65013780
   0.92448394  0.74526499  0.11823658
   0.88549061  0.78941867  0.97352572
   0.31704030  0.89270869  0.74118038
   0.31031298  0.85407315  0.61449043
   0.34162029  0.91286756  0.08513166
   0.33084420  0.87582502  0.94257875
   0.98771626  0.55886608  0.43457820
   0.98341245  0.51827926  0.30983788
   0.78186950  0.33150190  0.74779916
   0.83357489  0.31489606  0.63813893
   0.73130780  0.37232904  0.07131200
   0.77462202  0.36474619  0.92180603
   0.45816370  0.98585056  0.41896870
   0.50517764  0.98009364  0.30236361
   0.75132166  0.47534320  0.55608649
   0.14030371  0.16782108  0.50150683
   0.69390769  0.13505478  0.54043095
   0.02724619  0.47408955  0.85172100
   0.16811681  0.69210804  0.54400135
   0.50250175  0.02047668  0.85045603
   0.19394133  0.16871597  0.80334092
   0.65380832  0.18555628  0.83396915
   0.18378707  0.61631100  0.86608679
   0.81759761  0.83145068  0.19311173
   0.34486109  0.81052409  0.16106577
   0.80951753  0.41036135  0.09453626
   0.87119200  0.83455767  0.49664605
   0.30152877  0.86630572  0.45995121
   0.97142348  0.53076538  0.15672363
   0.84152883  0.28568679  0.51161410
   0.50604306  0.96874995  0.14766814
   0.71149649  0.33049879  0.41232072
   0.28886476  0.02135590  0.79687737
   0.65999794  0.33226767  0.16342863
   0.95956109  0.68696977  0.49127668
   0.35797092  0.95537370  0.45908524
   0.35430150  0.02283934  0.13202235
   0.71852721  0.97339197  0.19851634
   0.33617092  0.67035635  0.75393040
   0.70082427  0.28159210  0.82601467
   0.97998761  0.31363167  0.16565470
   0.30298397  0.71353599  0.19343671
   0.97740373  0.37918474  0.85046940
   0.65183168  0.96844647  0.86712506
   0.02844839  0.61893436  0.15837866
   0.64509222  0.04152791  0.53981731
   0.02386660  0.69446089  0.84528958
   0.29320445  0.63326362  0.58300733
   0.04274109  0.31481889  0.50718319
   0.83124955  0.35219471  0.30994886
Direct configuration=   127
   0.05835480  0.25424388  0.30357291
   0.03758888  0.30133284  0.95119665
   0.10373837  0.26044260  0.70920297
   0.69084039  0.05405063  0.33589515
   0.66811102  0.03186909  0.97725269
   0.64114198  0.10009504  0.74184012
   0.02066467  0.39384852  0.64778401
   0.26349742  0.67650965  0.35247941
   0.31142290  0.64793901 -0.00988071
   0.28074408  0.59878842  0.79858060
   0.59200287  0.01310584  0.66116371
   0.29785924  0.03627178  0.36026873
   0.23005117  0.07715353  0.59674709
   0.27484508  0.08093064  0.00038766
   0.65648052  0.29788370  0.42758139
   0.70350066  0.22157637  0.63281119
   0.99221307  0.63643681  0.73587752
   0.02852287  0.56329402  0.95398580
   0.66755129  0.26215297  0.03884859
   0.04505661  0.65363602  0.40850027
   0.07934773  0.68917391  0.64107635
   0.36912032  0.00039473  0.69298426
   0.41052773  0.02497247  0.93504645
   0.08828423  0.63753750  0.03283965
   0.71009296  0.96101911  0.64003113
   0.77770449  0.92244700  0.40026178
   0.73387219  0.91460163  0.99376022
   0.34846056  0.70372529  0.52541266
   0.28629444  0.78437180  0.36204275
   0.98916490  0.37629511  0.29918232
   0.97372981  0.43928639  0.05306908
   0.32794650  0.73528954  0.94839937
   0.97199771  0.31504012  0.62245889
   0.91616905  0.31638406  0.36515047
   0.63939201  0.98990490  0.30808234
   0.59943359  0.96320439  0.06582738
   0.91230857  0.36895648  0.95757598
   0.95411227  0.74757582  0.69385298
   0.97872377  0.70660352  0.07138175
   0.90619030  0.74458237  0.29035289
   0.31101320  0.94295600  0.66376820
   0.33315612  0.96346426  0.02481330
   0.35848106  0.89565959  0.25975956
   0.97657454  0.61093639  0.35627901
   0.74318640  0.31397232  0.68749535
   0.67864388  0.38394209  0.02614313
   0.75171769  0.35995152  0.25159720
   0.41607484  0.97716320  0.33587874
   0.71533263  0.50374531  0.67270773
   0.78766192  0.44728490  0.43768484
   0.11073021  0.21342490  0.22584748
   0.15191427  0.16800206  0.34773650
   0.08818813  0.26005017  0.88516426
   0.12708111  0.21311179  0.02490717
   0.68157861  0.10555015  0.25955314
   0.68542557  0.14624893  0.38518674
   0.65859578  0.08266481  0.91642155
   0.66796235  0.12102864  0.05693553
   0.00993909  0.44639826  0.57429985
   0.01506369  0.48666231  0.69872886
   0.22089573  0.66513036  0.27963378
   0.17205132  0.67529409  0.39424232
   0.27571652  0.62714944  0.95882645
   0.22628530  0.64067494  0.08960197
   0.55034174  0.00349184  0.57908735
   0.50359527  0.00895465  0.69586711
   0.24653315  0.07682967  0.42109624
   0.20709750  0.12330041  0.27996172
   0.22303063  0.12271110  0.07858593
   0.18221228  0.16833759  0.95694724
   0.68043365  0.24107761  0.46607689
   0.67783508  0.20042598  0.31900492
   0.00876168  0.58250086  0.78211518
   0.00363309  0.54264393  0.63575106
   0.66862179  0.21345935  0.11455747
   0.66229445  0.17443265  0.98934795
   0.08149493  0.67015664  0.46654934
   0.12762816  0.66408662  0.32516613
   0.41037844  0.00921625  0.75866183
   0.45822954  0.00053723  0.62164628
   0.12979279  0.64531739  0.12413212
   0.18057050  0.63250618  0.01581140
   0.76169277  0.92224158  0.57674180
   0.80321358  0.87640498  0.71636043
   0.78706575  0.87585770  0.91671774
   0.82921495  0.83215057  0.03967952
   0.31560205  0.76165990  0.51797909
   0.31702742  0.79999928  0.67661602
   0.98519523  0.42463008  0.23205824
   0.99360561  0.46304734  0.37422827
   0.32743714  0.78435708  0.88003828
   0.33539101  0.82244008  0.00652038
   0.92537102  0.31834562  0.55171728
   0.87754086  0.32890270  0.69118345
   0.59882370  0.98004843  0.24182903
   0.55062700  0.98848018  0.37674241
   0.87188868  0.35898098  0.87382704
   0.81810825  0.37939360  0.97331055
   0.90172602  0.78906004  0.77298475
   0.85969970  0.83371982  0.65013293
   0.92448796  0.74525739  0.11818571
   0.88549482  0.78941273  0.97348800
   0.31702711  0.89272729  0.74119935
   0.31027950  0.85409713  0.61445959
   0.34161782  0.91287026  0.08509299
   0.33084865  0.87582376  0.94257058
   0.98772269  0.55885702  0.43455103
   0.98341309  0.51826993  0.30981086
   0.78185668  0.33151012  0.74781315
   0.83355852  0.31492052  0.63818021
   0.73129606  0.37234888  0.07135555
   0.77461056  0.36476452  0.92182451
   0.45816375  0.98585353  0.41901521
   0.50517632  0.98009618  0.30237822
   0.75131708  0.47537097  0.55605930
   0.14029189  0.16781398  0.50154196
   0.69396808  0.13502243  0.54043048
   0.02723641  0.47409136  0.85171444
   0.16811915  0.69209200  0.54393308
   0.50250031  0.02048158  0.85044861
   0.19393354  0.16871086  0.80336760
   0.65380842  0.18555378  0.83407103
   0.18379185  0.61630443  0.86600931
   0.81761845  0.83144690  0.19313298
   0.34486826  0.81051396  0.16098654
   0.80950692  0.41039336  0.09457401
   0.87118370  0.83456350  0.49662273
   0.30148003  0.86634407  0.45993505
   0.97141883  0.53075487  0.15668436
   0.84151347  0.28570677  0.51164546
   0.50604007  0.96875363  0.14768049
   0.71149917  0.33050496  0.41234517
   0.28886237  0.02136201  0.79691700
   0.66001855  0.33224637  0.16340130
   0.95955944  0.68696615  0.49122769
   0.35796921  0.95537606  0.45912418
   0.35430026  0.02283853  0.13205940
   0.71853137  0.97338527  0.19855407
   0.33616120  0.67037818  0.75387516
   0.70082889  0.28159447  0.82604933
   0.97998266  0.31362623  0.16567295
   0.30296423  0.71354969  0.19342477
   0.97740685  0.37917718  0.85046471
   0.65183885  0.96844630  0.86714444
   0.02845237  0.61892580  0.15831981
   0.64509479  0.04152702  0.53987214
   0.02387155  0.69445255  0.84523232
   0.29321241  0.63326258  0.58300827
   0.04273210  0.31481313  0.50720075
   0.83124176  0.35220359  0.30993951
Direct configuration=   128
   0.05835205  0.25424208  0.30357861
   0.03759007  0.30133227  0.95120448
   0.10373714  0.26043931  0.70920503
   0.69084020  0.05405019  0.33590237
   0.66810826  0.03187052  0.97726177
   0.64114293  0.10009651  0.74184325
   0.02066461  0.39384639  0.64778573
   0.26349665  0.67650874  0.35247021
   0.31142407  0.64793992 -0.00988818
   0.28074784  0.59878743  0.79857686
   0.59200139  0.01310776  0.66116677
   0.29785896  0.03627149  0.36027469
   0.23005065  0.07715445  0.59675387
   0.27484427  0.08093043  0.00039550
   0.65648433  0.29788043  0.42757813
   0.70350691  0.22157405  0.63282067
   0.99221642  0.63643406  0.73586552
   0.02852182  0.56329386  0.95397819
   0.66755329  0.26214988  0.03885105
   0.04505474  0.65363639  0.40848072
   0.07934895  0.68917277  0.64107300
   0.36911867  0.00039553  0.69298566
   0.41052665  0.02497310  0.93505122
   0.08828439  0.63753632  0.03282732
   0.71009258  0.96102108  0.64003834
   0.77770374  0.92244861  0.40026326
   0.73387329  0.91460231  0.99376709
   0.34845602  0.70372955  0.52540343
   0.28629084  0.78437375  0.36203959
   0.98916443  0.37629407  0.29918322
   0.97373158  0.43928333  0.05307080
   0.32794659  0.73529013  0.94840190
   0.97199645  0.31503970  0.62246722
   0.91616672  0.31638478  0.36515765
   0.63939271  0.98990271  0.30809068
   0.59943222  0.96320593  0.06583771
   0.91230814  0.36895850  0.95758739
   0.95411367  0.74757404  0.69384747
   0.97872553  0.70660065  0.07136620
   0.90619183  0.74457970  0.29034266
   0.31101078  0.94295784  0.66376759
   0.33315625  0.96346615  0.02481189
   0.35848170  0.89565815  0.25976032
   0.97657684  0.61093468  0.35626895
   0.74318197  0.31397625  0.68749517
   0.67864375  0.38394330  0.02614356
   0.75171516  0.35995597  0.25160901
   0.41607501  0.97716372  0.33588513
   0.71533372  0.50374782  0.67268135
   0.78766771  0.44728648  0.43767432
   0.11072999  0.21342237  0.22584744
   0.15191184  0.16800140  0.34774044
   0.08818608  0.26004945  0.88516671
   0.12708014  0.21310970  0.02491741
   0.68158220  0.10555030  0.25956062
   0.68543327  0.14624456  0.38518326
   0.65859734  0.08266279  0.91643624
   0.66796531  0.12102764  0.05693992
   0.00993833  0.44639712  0.57429734
   0.01506211  0.48666243  0.69872414
   0.22089708  0.66512936  0.27962703
   0.17205189  0.67529240  0.39422910
   0.27571784  0.62715073  0.95882211
   0.22628646  0.64067330  0.08958949
   0.55034184  0.00349315  0.57909291
   0.50359503  0.00895563  0.69587127
   0.24653266  0.07682943  0.42110333
   0.20709562  0.12329988  0.27996785
   0.22302878  0.12271060  0.07859181
   0.18221041  0.16833694  0.95695310
   0.68043933  0.24107315  0.46607382
   0.67784455  0.20042006  0.31902267
   0.00876233  0.58250011  0.78210599
   0.00363315  0.54264311  0.63574209
   0.66862829  0.21345552  0.11455932
   0.66229937  0.17442767  0.98936705
   0.08149414  0.67015618  0.46653590
   0.12762891  0.66408616  0.32515266
   0.41037690  0.00921731  0.75866869
   0.45823001  0.00053763  0.62165222
   0.12979622  0.64531611  0.12411892
   0.18057177  0.63250482  0.01579652
   0.76169378  0.92224059  0.57674941
   0.80321261  0.87640486  0.71636495
   0.78706990  0.87585526  0.91671364
   0.82921678  0.83214976  0.03967781
   0.31559573  0.76166599  0.51797854
   0.31702432  0.80000174  0.67660226
   0.98519536  0.42462792  0.23205876
   0.99360444  0.46304680  0.37422436
   0.32743538  0.78435820  0.88002325
   0.33539017  0.82244238  0.00651226
   0.92536878  0.31834672  0.55172328
   0.87753831  0.32890471  0.69118664
   0.59882517  0.98004850  0.24183741
   0.55062599  0.98848099  0.37675049
   0.87188644  0.35898389  0.87383472
   0.81810579  0.37939819  0.97331236
   0.90172698  0.78905876  0.77297575
   0.85969900  0.83371947  0.65013589
   0.92448853  0.74525647  0.11817419
   0.88549361  0.78941310  0.97348582
   0.31702441  0.89272898  0.74119271
   0.31027420  0.85410328  0.61446142
   0.34161843  0.91286857  0.08509788
   0.33084904  0.87582450  0.94256337
   0.98772442  0.55885381  0.43454565
   0.98341315  0.51826826  0.30980595
   0.78185375  0.33151554  0.74782327
   0.83355590  0.31492422  0.63818638
   0.73129640  0.37235055  0.07136064
   0.77460811  0.36476735  0.92183060
   0.45816427  0.98585347  0.41901410
   0.50517640  0.98009672  0.30238280
   0.75131419  0.47537791  0.55606068
   0.14029028  0.16781228  0.50154811
   0.69397936  0.13501602  0.54043719
   0.02723506  0.47409114  0.85171719
   0.16811830  0.69208982  0.54392280
   0.50250040  0.02048249  0.85044979
   0.19393209  0.16870988  0.80337172
   0.65380766  0.18555412  0.83407576
   0.18379190  0.61630374  0.86600047
   0.81762302  0.83144505  0.19313436
   0.34486961  0.81051171  0.16097933
   0.80950513  0.41039839  0.09457450
   0.87118223  0.83456436  0.49661983
   0.30147073  0.86635078  0.45993635
   0.97141800  0.53075291  0.15667689
   0.84151179  0.28571019  0.51164691
   0.50603983  0.96875457  0.14768560
   0.71149922  0.33050695  0.41234289
   0.28886218  0.02136351  0.79692521
   0.66002305  0.33224269  0.16339511
   0.95955938  0.68696564  0.49122044
   0.35796933  0.95537683  0.45913192
   0.35430023  0.02283785  0.13206439
   0.71853201  0.97338372  0.19856023
   0.33615987  0.67038183  0.75386870
   0.70082938  0.28159476  0.82605755
   0.97998068  0.31362564  0.16567925
   0.30295921  0.71355254  0.19342366
   0.97740731  0.37917597  0.85046362
   0.65184068  0.96844549  0.86715188
   0.02845283  0.61892454  0.15831040
   0.64509494  0.04152736  0.53987901
   0.02387019  0.69445233  0.84522031
   0.29321413  0.63326318  0.58300268
   0.04273118  0.31481253  0.50720410
   0.83123983  0.35220531  0.30993868
Direct configuration=   129
   0.05834381  0.25423668  0.30359574
   0.03759365  0.30133058  0.95122797
   0.10373346  0.26042946  0.70921120
   0.69083963  0.05404885  0.33592406
   0.66809995  0.03187483  0.97728901
   0.64114577  0.10010092  0.74185264
   0.02066443  0.39384001  0.64779090
   0.26349433  0.67650603  0.35244262
   0.31142756  0.64794264 -0.00991059
   0.28075913  0.59878447  0.79856565
   0.59199693  0.01311351  0.66117594
   0.29785812  0.03627062  0.36029257
   0.23004911  0.07715719  0.59677420
   0.27484181  0.08092979  0.00041903
   0.65649575  0.29787059  0.42756834
   0.70352568  0.22156708  0.63284911
   0.99222648  0.63642580  0.73582954
   0.02851866  0.56329337  0.95395538
   0.66755929  0.26214060  0.03885846
   0.04504914  0.65363751  0.40842207
   0.07935263  0.68916933  0.64106293
   0.36911371  0.00039795  0.69298985
   0.41052342  0.02497499  0.93506554
   0.08828487  0.63753278  0.03279034
   0.71009147  0.96102697  0.64005996
   0.77770150  0.92245346  0.40026771
   0.73387659  0.91460435  0.99378771
   0.34844238  0.70374231  0.52537572
   0.28628004  0.78437958  0.36203011
   0.98916299  0.37629093  0.29918591
   0.97373691  0.43927415  0.05307595
   0.32794687  0.73529191  0.94840950
   0.97199266  0.31503843  0.62249221
   0.91615971  0.31638694  0.36517917
   0.63939483  0.98989611  0.30811569
   0.59942810  0.96321055  0.06586872
   0.91230684  0.36896457  0.95762161
   0.95411787  0.74756871  0.69383091
   0.97873084  0.70659202  0.07131955
   0.90619640  0.74457169  0.29031199
   0.31100353  0.94296338  0.66376577
   0.33315665  0.96347180  0.02480768
   0.35848361  0.89565381  0.25976259
   0.97658375  0.61092955  0.35623878
   0.74316868  0.31398805  0.68749463
   0.67864334  0.38394691  0.02614484
   0.75170756  0.35996932  0.25164445
   0.41607551  0.97716531  0.33590432
   0.71533700  0.50375534  0.67260222
   0.78768509  0.44729121  0.43764278
   0.11072933  0.21341479  0.22584733
   0.15190455  0.16799944  0.34775225
   0.08817993  0.26004727  0.88517408
   0.12707722  0.21310343  0.02494812
   0.68159295  0.10555076  0.25958307
   0.68545638  0.14623145  0.38517282
   0.65860199  0.08265675  0.91648033
   0.66797420  0.12102463  0.05695310
   0.00993605  0.44639368  0.57428984
   0.01505735  0.48666279  0.69870997
   0.22090113  0.66512638  0.27960679
   0.17205358  0.67528732  0.39418944
   0.27572178  0.62715461  0.95880911
   0.22628993  0.64066837  0.08955204
   0.55034215  0.00349706  0.57910958
   0.50359428  0.00895855  0.69588377
   0.24653119  0.07682869  0.42112459
   0.20708997  0.12329827  0.27998624
   0.22302324  0.12270911  0.07860944
   0.18220478  0.16833500  0.95697070
   0.68045636  0.24105976  0.46606461
   0.67787296  0.20040229  0.31907592
   0.00876427  0.58249786  0.78207840
   0.00363332  0.54264063  0.63571518
   0.66864778  0.21344402  0.11456488
   0.66231411  0.17441273  0.98942437
   0.08149179  0.67015478  0.46649559
   0.12763114  0.66408477  0.32511224
   0.41037227  0.00922049  0.75868925
   0.45823145  0.00053883  0.62167004
   0.12980651  0.64531225  0.12407931
   0.18057560  0.63250074  0.01575187
   0.76169679  0.92223763  0.57677222
   0.80320967  0.87640453  0.71637852
   0.78708238  0.87584796  0.91670134
   0.82922229  0.83214732  0.03967266
   0.31557676  0.76168427  0.51797688
   0.31701500  0.80000909  0.67656099
   0.98519574  0.42462143  0.23206033
   0.99360092  0.46304519  0.37421262
   0.32743011  0.78436158  0.87997816
   0.33538765  0.82244928  0.00648790
   0.92536206  0.31835000  0.55174129
   0.87753066  0.32891071  0.69119623
   0.59882957  0.98004872  0.24186253
   0.55062296  0.98848342  0.37677474
   0.87187974  0.35899263  0.87385776
   0.81809838  0.37941197  0.97331780
   0.90172987  0.78905493  0.77294874
   0.85969689  0.83371843  0.65014476
   0.92449025  0.74525372  0.11813961
   0.88549000  0.78941422  0.97347928
   0.31701632  0.89273407  0.74117279
   0.31025832  0.85412175  0.61446692
   0.34162026  0.91286348  0.08511254
   0.33085024  0.87582670  0.94254171
   0.98772961  0.55884419  0.43452948
   0.98341335  0.51826326  0.30979120
   0.78184493  0.33153180  0.74785364
   0.83354804  0.31493534  0.63820489
   0.73129741  0.37235558  0.07137592
   0.77460076  0.36477582  0.92184886
   0.45816583  0.98585326  0.41901076
   0.50517665  0.98009836  0.30239655
   0.75130551  0.47539873  0.55606483
   0.14028543  0.16780718  0.50156655
   0.69401320  0.13499678  0.54045732
   0.02723100  0.47409047  0.85172543
   0.16811573  0.69208329  0.54389196
   0.50250068  0.02048522  0.85045334
   0.19392776  0.16870693  0.80338410
   0.65380539  0.18555516  0.83408993
   0.18379206  0.61630166  0.86597397
   0.81763673  0.83143950  0.19313848
   0.34487365  0.81050496  0.16095771
   0.80949976  0.41041348  0.09457596
   0.87117781  0.83456696  0.49661115
   0.30144283  0.86637092  0.45994025
   0.97141549  0.53074705  0.15665445
   0.84150676  0.28572043  0.51165127
   0.50603910  0.96875739  0.14770092
   0.71149938  0.33051292  0.41233607
   0.28886160  0.02136799  0.79694984
   0.66003656  0.33223164  0.16337654
   0.95955919  0.68696413  0.49119871
   0.35796967  0.95537914  0.45915512
   0.35430016  0.02283583  0.13207939
   0.71853394  0.97337908  0.19857870
   0.33615591  0.67039276  0.75384933
   0.70083087  0.28159560  0.82608222
   0.97997475  0.31362387  0.16569813
   0.30294417  0.71356108  0.19342034
   0.97740869  0.37917233  0.85046036
   0.65184618  0.96844307  0.86717421
   0.02845421  0.61892077  0.15828218
   0.64509537  0.04152840  0.53989964
   0.02386612  0.69445168  0.84518427
   0.29321928  0.63326499  0.58298592
   0.04272841  0.31481072  0.50721413
   0.83123406  0.35221045  0.30993619
Direct configuration=   130
   0.05834139  0.25423474  0.30360090
   0.03759470  0.30133029  0.95123612
   0.10373219  0.26042607  0.70921303
   0.69083898  0.05404923  0.33593125
   0.66809762  0.03187578  0.97729986
   0.64114703  0.10010281  0.74185580
   0.02066445  0.39383751  0.64779357
   0.26349313  0.67650503  0.35243504
   0.31142898  0.64794291 -0.00992073
   0.28076302  0.59878370  0.79856503
   0.59199524  0.01311541  0.66117972
   0.29785772  0.03627016  0.36029788
   0.23004858  0.07715797  0.59678055
   0.27484090  0.08092975  0.00042768
   0.65649937  0.29786716  0.42756660
   0.70353161  0.22156537  0.63285525
   0.99222989  0.63642288  0.73581742
   0.02851773  0.56329298  0.95394755
   0.66756096  0.26213723  0.03886146
   0.04504666  0.65363732  0.40840036
   0.07935440  0.68916831  0.64105999
   0.36911194  0.00039854  0.69298944
   0.41052260  0.02497569  0.93506989
   0.08828488  0.63753110  0.03277808
   0.71009152  0.96102855  0.64006772
   0.77770020  0.92245539  0.40027066
   0.73387859  0.91460466  0.99379425
   0.34843743  0.70374772  0.52536257
   0.28627741  0.78438076  0.36202729
   0.98916259  0.37629001  0.29918694
   0.97373886  0.43927088  0.05307762
   0.32794677  0.73529287  0.94841456
   0.97199135  0.31503835  0.62250185
   0.91615661  0.31638781  0.36518637
   0.63939521  0.98989372  0.30812240
   0.59942746  0.96321191  0.06587965
   0.91230637  0.36896711  0.95763432
   0.95412011  0.74756617  0.69382518
   0.97873234  0.70658921  0.07130604
   0.90619817  0.74456864  0.29030296
   0.31100088  0.94296527  0.66376531
   0.33315632  0.96347425  0.02480352
   0.35848371  0.89565211  0.25976462
   0.97658601  0.61092765  0.35622889
   0.74316410  0.31399208  0.68749728
   0.67864405  0.38394803  0.02614782
   0.75170419  0.35997444  0.25165594
   0.41607533  0.97716575  0.33590971
   0.71533213  0.50376267  0.67259439
   0.78768574  0.44729705  0.43764981
   0.11072878  0.21341258  0.22584799
   0.15190225  0.16799858  0.34775657
   0.08817829  0.26004603  0.88517730
   0.12707607  0.21310168  0.02495642
   0.68159658  0.10555040  0.25959194
   0.68546405  0.14622701  0.38516976
   0.65860382  0.08265465  0.91649126
   0.66797810  0.12102249  0.05695858
   0.00993533  0.44639256  0.57428722
   0.01505596  0.48666282  0.69870564
   0.22090277  0.66512443  0.27959635
   0.17205462  0.67528616  0.39417617
   0.27572231  0.62715653  0.95880596
   0.22629125  0.64066661  0.08953944
   0.55034231  0.00349842  0.57911409
   0.50359417  0.00895962  0.69588782
   0.24653087  0.07682813  0.42113133
   0.20708795  0.12329770  0.27999228
   0.22302126  0.12270863  0.07861553
   0.18220310  0.16833424  0.95697636
   0.68046157  0.24105563  0.46606353
   0.67788240  0.20039654  0.31909170
   0.00876490  0.58249719  0.78206871
   0.00363349  0.54263972  0.63570584
   0.66865490  0.21343964  0.11456782
   0.66231885  0.17440870  0.98944311
   0.08149031  0.67015432  0.46648367
   0.12763212  0.66408479  0.32510137
   0.41037056  0.00922147  0.75869575
   0.45823203  0.00053902  0.62167471
   0.12981075  0.64531060  0.12406462
   0.18057770  0.63249936  0.01573663
   0.76169763  0.92223637  0.57678221
   0.80320882  0.87640425  0.71638074
   0.78708621  0.87584582  0.91669819
   0.82922340  0.83214682  0.03967117
   0.31557078  0.76169038  0.51797947
   0.31701185  0.80001210  0.67654636
   0.98519583  0.42461945  0.23206063
   0.99359992  0.46304444  0.37420817
   0.32742809  0.78436305  0.87996134
   0.33538633  0.82245078  0.00647550
   0.92536030  0.31835122  0.55174617
   0.87752841  0.32891250  0.69119853
   0.59883032  0.98004899  0.24187232
   0.55062210  0.98848411  0.37678349
   0.87187738  0.35899581  0.87386796
   0.81809547  0.37941664  0.97332213
   0.90173028  0.78905400  0.77294015
   0.85969627  0.83371811  0.65014578
   0.92449139  0.74525238  0.11812790
   0.88548927  0.78941435  0.97347625
   0.31701364  0.89273561  0.74116340
   0.31025331  0.85412753  0.61446852
   0.34162118  0.91286238  0.08512033
   0.33085031  0.87582804  0.94253285
   0.98773133  0.55884120  0.43452150
   0.98341324  0.51826172  0.30978482
   0.78184106  0.33153855  0.74786394
   0.83354538  0.31493837  0.63820939
   0.73129823  0.37235639  0.07138090
   0.77459856  0.36477875  0.92185759
   0.45816649  0.98585313  0.41900822
   0.50517692  0.98009892  0.30240154
   0.75131400  0.47539690  0.55602910
   0.14028409  0.16780533  0.50157176
   0.69402432  0.13499028  0.54046398
   0.02722969  0.47409018  0.85172789
   0.16811417  0.69208154  0.54388255
   0.50250095  0.02048623  0.85045723
   0.19392619  0.16870596  0.80338853
   0.65380461  0.18555538  0.83409275
   0.18379172  0.61630105  0.86596617
   0.81764161  0.83143710  0.19313797
   0.34487489  0.81050272  0.16095326
   0.80949800  0.41041797  0.09457261
   0.87117619  0.83456773  0.49661095
   0.30143334  0.86637753  0.45994479
   0.97141477  0.53074503  0.15664783
   0.84150554  0.28572398  0.51165140
   0.50603914  0.96875846  0.14770739
   0.71149901  0.33051527  0.41233083
   0.28886143  0.02136964  0.79695824
   0.66004150  0.33222817  0.16336968
   0.95955933  0.68696355  0.49119217
   0.35797001  0.95538009  0.45916300
   0.35430020  0.02283486  0.13208371
   0.71853439  0.97337755  0.19858450
   0.33615489  0.67039607  0.75384472
   0.70083117  0.28159570  0.82609063
   0.97997228  0.31362340  0.16570585
   0.30293858  0.71356411  0.19341980
   0.97740902  0.37917118  0.85045971
   0.65184806  0.96844185  0.86718374
   0.02845459  0.61891964  0.15827319
   0.64509533  0.04152925  0.53990491
   0.02386405  0.69445193  0.84517199
   0.29322109  0.63326606  0.58297741
   0.04272798  0.31481019  0.50721721
   0.83123178  0.35221236  0.30993606
Direct configuration=   131
   0.05833645  0.25423079  0.30361143
   0.03759683  0.30132969  0.95125273
   0.10372959  0.26041916  0.70921675
   0.69083766  0.05405002  0.33594592
   0.66809286  0.03187773  0.97732198
   0.64114961  0.10010667  0.74186225
   0.02066450  0.39383243  0.64779900
   0.26349069  0.67650300  0.35241957
   0.31143187  0.64794346 -0.00994142
   0.28077097  0.59878214  0.79856378
   0.59199178  0.01311928  0.66118741
   0.29785690  0.03626922  0.36030872
   0.23004750  0.07715956  0.59679349
   0.27483904  0.08092967  0.00044532
   0.65650675  0.29786015  0.42756305
   0.70354371  0.22156188  0.63286776
   0.99223686  0.63641691  0.73579271
   0.02851582  0.56329220  0.95393159
   0.66756436  0.26213036  0.03886760
   0.04504162  0.65363693  0.40835609
   0.07935801  0.68916622  0.64105400
   0.36910832  0.00039974  0.69298860
   0.41052092  0.02497713  0.93507877
   0.08828490  0.63752767  0.03275309
   0.71009164  0.96103176  0.64008355
   0.77769754  0.92245933  0.40027666
   0.73388265  0.91460529  0.99380757
   0.34842734  0.70375875  0.52533574
   0.28627205  0.78438316  0.36202152
   0.98916178  0.37628813  0.29918902
   0.97374284  0.43926421  0.05308102
   0.32794656  0.73529482  0.94842486
   0.97198869  0.31503819  0.62252150
   0.91615031  0.31638960  0.36520105
   0.63939598  0.98988883  0.30813607
   0.59942615  0.96321468  0.06590196
   0.91230540  0.36897229  0.95766024
   0.95412466  0.74756101  0.69381348
   0.97873540  0.70658347  0.07127849
   0.90620176  0.74456244  0.29028455
   0.31099547  0.94296914  0.66376436
   0.33315564  0.96347923  0.02479503
   0.35848390  0.89564863  0.25976875
   0.97659063  0.61092377  0.35620871
   0.74315474  0.31400029  0.68750266
   0.67864550  0.38395032  0.02615391
   0.75169733  0.35998489  0.25167937
   0.41607496  0.97716665  0.33592071
   0.71532222  0.50377763  0.67257842
   0.78768705  0.44730896  0.43766413
   0.11072766  0.21340807  0.22584933
   0.15189756  0.16799684  0.34776538
   0.08817496  0.26004351  0.88518387
   0.12707373  0.21309812  0.02497334
   0.68160398  0.10554966  0.25961005
   0.68547968  0.14621796  0.38516352
   0.65860753  0.08265037  0.91651355
   0.66798604  0.12101810  0.05696976
   0.00993387  0.44639028  0.57428187
   0.01505314  0.48666288  0.69869681
   0.22090612  0.66512046  0.27957505
   0.17205673  0.67528380  0.39414910
   0.27572339  0.62716043  0.95879955
   0.22629395  0.64066303  0.08951373
   0.55034262  0.00350118  0.57912329
   0.50359394  0.00896180  0.69589609
   0.24653022  0.07682698  0.42114507
   0.20708381  0.12329652  0.28000460
   0.22301721  0.12270764  0.07862794
   0.18219967  0.16833267  0.95698789
   0.68047219  0.24104719  0.46606132
   0.67790166  0.20038482  0.31912388
   0.00876618  0.58249582  0.78204896
   0.00363383  0.54263785  0.63568679
   0.66866942  0.21343069  0.11457382
   0.66232850  0.17440049  0.98948132
   0.08148728  0.67015339  0.46645936
   0.12763412  0.66408482  0.32507919
   0.41036708  0.00922348  0.75870899
   0.45823323  0.00053940  0.62168423
   0.12981941  0.64530724  0.12403468
   0.18058199  0.63249656  0.01570554
   0.76169934  0.92223380  0.57680257
   0.80320710  0.87640370  0.71638528
   0.78709402  0.87584145  0.91669177
   0.82922567  0.83214579  0.03966813
   0.31555859  0.76170286  0.51798474
   0.31700541  0.80001823  0.67651653
   0.98519600  0.42461542  0.23206123
   0.99359789  0.46304290  0.37419909
   0.32742399  0.78436603  0.87992703
   0.33538364  0.82245385  0.00645021
   0.92535671  0.31835371  0.55175611
   0.87752383  0.32891615  0.69120322
   0.59883184  0.98004954  0.24189230
   0.55062035  0.98848552  0.37680134
   0.87187258  0.35900228  0.87388876
   0.81808952  0.37942617  0.97333096
   0.90173113  0.78905212  0.77292263
   0.85969499  0.83371745  0.65014787
   0.92449372  0.74524962  0.11810403
   0.88548780  0.78941462  0.97347005
   0.31700818  0.89273875  0.74114425
   0.31024310  0.85413930  0.61447178
   0.34162305  0.91286014  0.08513621
   0.33085045  0.87583079  0.94251480
   0.98773484  0.55883511  0.43450523
   0.98341302  0.51825858  0.30977181
   0.78183317  0.33155232  0.74788494
   0.83353995  0.31494457  0.63821858
   0.73129991  0.37235805  0.07139107
   0.77459407  0.36478474  0.92187541
   0.45816782  0.98585285  0.41900303
   0.50517748  0.98010006  0.30241173
   0.75133130  0.47539317  0.55595622
   0.14028136  0.16780155  0.50158237
   0.69404700  0.13497703  0.54047756
   0.02722700  0.47408958  0.85173289
   0.16811100  0.69207796  0.54386337
   0.50250149  0.02048829  0.85046517
   0.19392299  0.16870400  0.80339757
   0.65380301  0.18555585  0.83409851
   0.18379102  0.61629980  0.86595026
   0.81765154  0.83143220  0.19313692
   0.34487742  0.81049815  0.16094419
   0.80949441  0.41042713  0.09456577
   0.87117289  0.83456928  0.49661053
   0.30141399  0.86639100  0.45995405
   0.97141330  0.53074092  0.15663431
   0.84150306  0.28573121  0.51165166
   0.50603920  0.96876065  0.14772061
   0.71149826  0.33052007  0.41232015
   0.28886108  0.02137300  0.79697538
   0.66005159  0.33222108  0.16335570
   0.95955962  0.68696238  0.49117883
   0.35797071  0.95538202  0.45917907
   0.35430030  0.02283289  0.13209251
   0.71853532  0.97337445  0.19859632
   0.33615282  0.67040283  0.75383533
   0.70083178  0.28159590  0.82610779
   0.97996723  0.31362242  0.16572161
   0.30292717  0.71357030  0.19341869
   0.97740969  0.37916883  0.85045838
   0.65185187  0.96843935  0.86720317
   0.02845537  0.61891735  0.15825487
   0.64509524  0.04153098  0.53991566
   0.02385981  0.69445243  0.84514693
   0.29322479  0.63326823  0.58296007
   0.04272710  0.31480911  0.50722349
   0.83122715  0.35221627  0.30993581
Direct configuration=   132
   0.05833438  0.25422809  0.30361594
   0.03759736  0.30133009  0.95126310
   0.10372794  0.26041497  0.70921920
   0.69083636  0.05405154  0.33595457
   0.66809074  0.03187775  0.97733741
   0.64115217  0.10010846  0.74187155
   0.02066458  0.39382976  0.64780192
   0.26348916  0.67650180  0.35241271
   0.31143373  0.64794360 -0.00995497
   0.28077569  0.59878163  0.79856521
   0.59199017  0.01312151  0.66119399
   0.29785612  0.03626855  0.36031440
   0.23004691  0.07716023  0.59680105
   0.27483772  0.08093004  0.00045682
   0.65651109  0.29785552  0.42756252
   0.70355007  0.22156083  0.63286844
   0.99224071  0.63641404  0.73577710
   0.02851487  0.56329139  0.95392201
   0.66756610  0.26212624  0.03887136
   0.04503895  0.65363670  0.40833104
   0.07936027  0.68916444  0.64104452
   0.36910658  0.00040043  0.69298747
   0.41052005  0.02497810  0.93508365
   0.08828595  0.63752521  0.03273982
   0.71009288  0.96103249  0.64009376
   0.77769538  0.92246157  0.40028585
   0.73388717  0.91460437  0.99381308
   0.34842103  0.70376623  0.52531872
   0.28626904  0.78438487  0.36201649
   0.98916143  0.37628676  0.29919126
   0.97374523  0.43926028  0.05308087
   0.32794610  0.73529709  0.94843079
   0.97198694  0.31503857  0.62253363
   0.91614587  0.31639085  0.36520900
   0.63939710  0.98988604  0.30814424
   0.59942641  0.96321587  0.06591361
   0.91230414  0.36897575  0.95767570
   0.95412729  0.74755791  0.69380598
   0.97873594  0.70658088  0.07126530
   0.90620426  0.74455843  0.29027396
   0.31099196  0.94297191  0.66376272
   0.33315525  0.96348051  0.02479096
   0.35848336  0.89564648  0.25977349
   0.97659327  0.61092072  0.35619794
   0.74314964  0.31400573  0.68751112
   0.67864732  0.38395135  0.02616114
   0.75169276  0.35999182  0.25169211
   0.41607426  0.97716699  0.33592488
   0.71532081  0.50378310  0.67255365
   0.78769209  0.44731295  0.43765963
   0.11072550  0.21340653  0.22585439
   0.15189538  0.16799516  0.34777167
   0.08817412  0.26004088  0.88518915
   0.12707195  0.21309682  0.02497732
   0.68160838  0.10554706  0.25961816
   0.68548953  0.14621225  0.38517188
   0.65860927  0.08264935  0.91651584
   0.66799211  0.12101305  0.05698134
   0.00993308  0.44638884  0.57427898
   0.01505202  0.48666220  0.69869433
   0.22090787  0.66511681  0.27955666
   0.17205831  0.67528325  0.39413539
   0.27572354  0.62716269  0.95879416
   0.22629603  0.64066128  0.08950096
   0.55034231  0.00350281  0.57912753
   0.50359380  0.00896316  0.69590113
   0.24652987  0.07682610  0.42115185
   0.20708145  0.12329558  0.28001160
   0.22301488  0.12270692  0.07863584
   0.18219812  0.16833140  0.95699376
   0.68047842  0.24104318  0.46606859
   0.67791231  0.20037915  0.31912961
   0.00876714  0.58249434  0.78203712
   0.00363430  0.54263643  0.63567634
   0.66867882  0.21342456  0.11458686
   0.66233326  0.17439821  0.98948984
   0.08148482  0.67015299  0.46644870
   0.12763515  0.66408509  0.32506783
   0.41036527  0.00922424  0.75871329
   0.45823357  0.00053933  0.62168711
   0.12982340  0.64530497  0.12401598
   0.18058542  0.63249496  0.01568822
   0.76169902  0.92223337  0.57681315
   0.80320714  0.87640258  0.71638379
   0.78709584  0.87584092  0.91669333
   0.82922653  0.83214520  0.03966738
   0.31555257  0.76170888  0.51798724
   0.31700148  0.80002297  0.67650339
   0.98519610  0.42461348  0.23206163
   0.99359716  0.46304132  0.37419503
   0.32742141  0.78436805  0.87990848
   0.33538175  0.82245426  0.00643255
   0.92535518  0.31835524  0.55176202
   0.87752161  0.32891858  0.69120846
   0.59883063  0.98004998  0.24190557
   0.55062020  0.98848621  0.37681154
   0.87187016  0.35900614  0.87390236
   0.81808595  0.37943141  0.97333842
   0.90173105  0.78905120  0.77291549
   0.85969466  0.83371693  0.65014392
   0.92449601  0.74524699  0.11809196
   0.88548878  0.78941363  0.97346222
   0.31700525  0.89274149  0.74113467
   0.31023722  0.85414440  0.61446842
   0.34162388  0.91286143  0.08514238
   0.33085016  0.87583277  0.94250464
   0.98773661  0.55883279  0.43449109
   0.98341265  0.51825678  0.30976167
   0.78182718  0.33156073  0.74789225
   0.83353628  0.31494768  0.63822231
   0.73130051  0.37235847  0.07139832
   0.77459206  0.36478874  0.92188951
   0.45816846  0.98585291  0.41900308
   0.50517798  0.98010068  0.30241734
   0.75133295  0.47539796  0.55594080
   0.14028000  0.16779923  0.50158718
   0.69405991  0.13496933  0.54048123
   0.02722524  0.47408941  0.85173287
   0.16810844  0.69207633  0.54385248
   0.50250201  0.02048966  0.85047353
   0.19392087  0.16870290  0.80340383
   0.65380252  0.18555536  0.83410688
   0.18379030  0.61629890  0.86593949
   0.81765752  0.83142877  0.19313448
   0.34487849  0.81049585  0.16093807
   0.80949213  0.41043223  0.09455851
   0.87117069  0.83457009  0.49661388
   0.30140229  0.86639896  0.45996318
   0.97141260  0.53073843  0.15662750
   0.84150193  0.28573575  0.51165091
   0.50603970  0.96876204  0.14772937
   0.71149712  0.33052313  0.41231168
   0.28886075  0.02137511  0.79698527
   0.66005797  0.33221735  0.16334543
   0.95956001  0.68696146  0.49117137
   0.35797135  0.95538333  0.45918854
   0.35430036  0.02283146  0.13209720
   0.71853556  0.97337288  0.19860326
   0.33615215  0.67040654  0.75383153
   0.70083203  0.28159576  0.82611740
   0.97996379  0.31362197  0.16573277
   0.30292003  0.71357411  0.19341855
   0.97740985  0.37916740  0.85045834
   0.65185396  0.96843743  0.86721707
   0.02845589  0.61891593  0.15824382
   0.64509494  0.04153271  0.53992032
   0.02385729  0.69445281  0.84513270
   0.29322712  0.63326971  0.58294765
   0.04272706  0.31480845  0.50722670
   0.83122409  0.35221867  0.30993623
Direct configuration=   133
   0.05832816  0.25421999  0.30362946
   0.03759896  0.30133127  0.95129424
   0.10372297  0.26040243  0.70922658
   0.69083245  0.05405612  0.33598052
   0.66808437  0.03187779  0.97738371
   0.64115984  0.10011383  0.74189945
   0.02066483  0.39382176  0.64781067
   0.26348457  0.67649823  0.35239212
   0.31143933  0.64794400 -0.00999562
   0.28078987  0.59878011  0.79856949
   0.59198534  0.01312822  0.66121372
   0.29785379  0.03626655  0.36033144
   0.23004514  0.07716225  0.59682374
   0.27483374  0.08093116  0.00049131
   0.65652410  0.29784163  0.42756094
   0.70356914  0.22155769  0.63287048
   0.99225224  0.63640544  0.73573028
   0.02851199  0.56328897  0.95389326
   0.66757129  0.26211389  0.03888264
   0.04503096  0.65363601  0.40825589
   0.07936705  0.68915909  0.64101607
   0.36910135  0.00040250  0.69298407
   0.41051746  0.02498101  0.93509827
   0.08828909  0.63751781  0.03270001
   0.71009660  0.96103467  0.64012441
   0.77768892  0.92246829  0.40031342
   0.73390074  0.91460163  0.99382962
   0.34840213  0.70378866  0.52526767
   0.28626003  0.78438999  0.36200139
   0.98916039  0.37628267  0.29919798
   0.97375241  0.43924848  0.05308042
   0.32794472  0.73530387  0.94844857
   0.97198169  0.31503972  0.62257002
   0.91613255  0.31639462  0.36523283
   0.63940046  0.98987766  0.30816872
   0.59942721  0.96321943  0.06594857
   0.91230038  0.36898614  0.95772208
   0.95413520  0.74754864  0.69378348
   0.97873756  0.70657311  0.07122571
   0.90621178  0.74454640  0.29024218
   0.31098144  0.94298021  0.66375780
   0.33315407  0.96348435  0.02477874
   0.35848174  0.89564004  0.25978771
   0.97660120  0.61091156  0.35616560
   0.74313431  0.31402204  0.68753651
   0.67865277  0.38395442  0.02618283
   0.75167905  0.36001261  0.25173033
   0.41607216  0.97716801  0.33593739
   0.71531658  0.50379952  0.67247936
   0.78770723  0.44732495  0.43764613
   0.11071900  0.21340189  0.22586956
   0.15188883  0.16799011  0.34779055
   0.08817161  0.26003302  0.88520501
   0.12706661  0.21309292  0.02498929
   0.68162156  0.10553927  0.25964247
   0.68551907  0.14619512  0.38519696
   0.65861450  0.08264631  0.91652270
   0.66801032  0.12099789  0.05701609
   0.00993071  0.44638453  0.57427033
   0.01504867  0.48666015  0.69868691
   0.22091312  0.66510589  0.27950150
   0.17206307  0.67528160  0.39409425
   0.27572398  0.62716946  0.95877801
   0.22630226  0.64065603  0.08946263
   0.55034139  0.00350770  0.57914024
   0.50359340  0.00896726  0.69591623
   0.24652882  0.07682346  0.42117216
   0.20707438  0.12329274  0.28003259
   0.22300789  0.12270477  0.07865955
   0.18219350  0.16832758  0.95701136
   0.68049710  0.24103113  0.46609039
   0.67794428  0.20036213  0.31914681
   0.00877003  0.58248988  0.78200159
   0.00363571  0.54263216  0.63564499
   0.66870700  0.21340615  0.11462595
   0.66234756  0.17439135  0.98951539
   0.08147744  0.67015178  0.46641671
   0.12763824  0.66408589  0.32503377
   0.41035982  0.00922653  0.75872618
   0.45823459  0.00053912  0.62169575
   0.12983540  0.64529813  0.12395988
   0.18059571  0.63249017  0.01563628
   0.76169807  0.92223209  0.57684488
   0.80320727  0.87639922  0.71637929
   0.78710129  0.87583933  0.91669801
   0.82922910  0.83214342  0.03966512
   0.31553450  0.76172693  0.51799474
   0.31698970  0.80003721  0.67646397
   0.98519639  0.42460764  0.23206285
   0.99359497  0.46303658  0.37418285
   0.32741369  0.78437411  0.87985282
   0.33537606  0.82245551  0.00637954
   0.92535061  0.31835984  0.55177975
   0.87751493  0.32892586  0.69122421
   0.59882700  0.98005129  0.24194539
   0.55061976  0.98848828  0.37684213
   0.87186292  0.35901770  0.87394319
   0.81807527  0.37944712  0.97336080
   0.90173080  0.78904846  0.77289407
   0.85969365  0.83371538  0.65013207
   0.92450288  0.74523910  0.11805575
   0.88549174  0.78941067  0.97343873
   0.31699646  0.89274972  0.74110594
   0.31021958  0.85415967  0.61445832
   0.34162638  0.91286528  0.08516087
   0.33084928  0.87583870  0.94247415
   0.98774190  0.55882581  0.43444868
   0.98341153  0.51825137  0.30973125
   0.78180924  0.33158595  0.74791418
   0.83352527  0.31495701  0.63823352
   0.73130233  0.37235975  0.07142009
   0.77458601  0.36480073  0.92193181
   0.45817038  0.98585311  0.41900325
   0.50517950  0.98010254  0.30243416
   0.75133791  0.47541234  0.55589453
   0.14027595  0.16779225  0.50160160
   0.69409863  0.13494625  0.54049224
   0.02721995  0.47408889  0.85173283
   0.16810075  0.69207147  0.54381981
   0.50250356  0.02049376  0.85049861
   0.19391453  0.16869959  0.80342261
   0.65380103  0.18555392  0.83413200
   0.18378814  0.61629620  0.86590718
   0.81767546  0.83141849  0.19312716
   0.34488167  0.81048893  0.16091972
   0.80948528  0.41044755  0.09453672
   0.87116411  0.83457250  0.49662394
   0.30136720  0.86642283  0.45999058
   0.97141052  0.53073095  0.15660707
   0.84149854  0.28574940  0.51164866
   0.50604122  0.96876622  0.14775568
   0.71149367  0.33053230  0.41228625
   0.28885978  0.02138144  0.79701494
   0.66007712  0.33220615  0.16331464
   0.95956118  0.68695870  0.49114899
   0.35797326  0.95538726  0.45921697
   0.35430053  0.02282717  0.13211128
   0.71853625  0.97336818  0.19862408
   0.33615014  0.67041765  0.75382014
   0.70083276  0.28159536  0.82614626
   0.97995349  0.31362061  0.16576626
   0.30289860  0.71358552  0.19341814
   0.97741031  0.37916312  0.85045824
   0.65186025  0.96843166  0.86725877
   0.02845744  0.61891169  0.15821069
   0.64509406  0.04153790  0.53993430
   0.02384973  0.69445394  0.84509002
   0.29323410  0.63327415  0.58291038
   0.04272695  0.31480645  0.50723635
   0.83121492  0.35222585  0.30993749
Direct configuration=   134
   0.05831573  0.25420378  0.30365650
   0.03760214  0.30133364  0.95135650
   0.10371304  0.26037734  0.70924132
   0.69082463  0.05406528  0.33603243
   0.66807163  0.03187787  0.97747630
   0.64117518  0.10012458  0.74195525
   0.02066533  0.39380575  0.64782818
   0.26347538  0.67649107  0.35235096
   0.31145053  0.64794482 -0.01007691
   0.28081824  0.59877707  0.79857807
   0.59197569  0.01314164  0.66125319
   0.29784913  0.03626255  0.36036551
   0.23004160  0.07716630  0.59686910
   0.27482577  0.08093339  0.00056031
   0.65655013  0.29781386  0.42755777
   0.70360729  0.22155140  0.63287457
   0.99227530  0.63638824  0.73563664
   0.02850625  0.56328413  0.95383577
   0.66758167  0.26208919  0.03890521
   0.04501497  0.65363463  0.40810559
   0.07938063  0.68914840  0.64095917
   0.36909090  0.00040663  0.69297728
   0.41051226  0.02498683  0.93512751
   0.08829537  0.63750303  0.03262038
   0.71010404  0.96103904  0.64018570
   0.77767599  0.92248172  0.40036855
   0.73392788  0.91459613  0.99386268
   0.34836432  0.70383353  0.52516556
   0.28624199  0.78440022  0.36197120
   0.98915832  0.37627449  0.29921142
   0.97376675  0.43922488  0.05307953
   0.32794196  0.73531744  0.94848414
   0.97197119  0.31504202  0.62264280
   0.91610592  0.31640214  0.36528049
   0.63940717  0.98986091  0.30821769
   0.59942881  0.96322657  0.06601848
   0.91229285  0.36900691  0.95781483
   0.95415102  0.74753008  0.69373847
   0.97874078  0.70655758  0.07114654
   0.90622681  0.74452235  0.29017863
   0.31096039  0.94299681  0.66374797
   0.33315170  0.96349204  0.02475429
   0.35847850  0.89562715  0.25981613
   0.97661704  0.61089324  0.35610094
   0.74310367  0.31405466  0.68758727
   0.67866367  0.38396057  0.02622621
   0.75165163  0.36005419  0.25180675
   0.41606796  0.97717006  0.33596241
   0.71530813  0.50383236  0.67233078
   0.78773749  0.44734894  0.43761913
   0.11070600  0.21339263  0.22589991
   0.15187573  0.16798000  0.34782829
   0.08816659  0.26001729  0.88523671
   0.12705592  0.21308513  0.02501321
   0.68164793  0.10552369  0.25969109
   0.68557817  0.14616086  0.38524712
   0.65862496  0.08264022  0.91653643
   0.66804673  0.12096758  0.05708560
   0.00992596  0.44637591  0.57425303
   0.01504197  0.48665606  0.69867206
   0.22092361  0.66508405  0.27939119
   0.17207260  0.67527830  0.39401196
   0.27572488  0.62718300  0.95874569
   0.22631472  0.64064554  0.08938598
   0.55033955  0.00351747  0.57916567
   0.50359259  0.00897544  0.69594643
   0.24652671  0.07681818  0.42121280
   0.20706024  0.12328707  0.28007456
   0.22299389  0.12270047  0.07870697
   0.18218425  0.16831994  0.95704656
   0.68053447  0.24100703  0.46613400
   0.67800822  0.20032809  0.31918122
   0.00877581  0.58248096  0.78193053
   0.00363852  0.54262361  0.63558230
   0.66876337  0.21336933  0.11470414
   0.66237616  0.17437764  0.98956650
   0.08146267  0.67014936  0.46635273
   0.12764442  0.66408750  0.32496564
   0.41034892  0.00923111  0.75875197
   0.45823663  0.00053871  0.62171304
   0.12985939  0.64528447  0.12384769
   0.18061630  0.63248058  0.01553240
   0.76169617  0.92222954  0.57690835
   0.80320753  0.87639251  0.71637030
   0.78711221  0.87583615  0.91670738
   0.82923426  0.83213985  0.03966062
   0.31549836  0.76176304  0.51800974
   0.31696613  0.80006569  0.67638514
   0.98519697  0.42459597  0.23206529
   0.99359060  0.46302709  0.37415850
   0.32739826  0.78438621  0.87974151
   0.33536468  0.82245801  0.00627354
   0.92534146  0.31836904  0.55181521
   0.87750159  0.32894043  0.69125570
   0.59881973  0.98005392  0.24202502
   0.55061888  0.98849242  0.37690331
   0.87184844  0.35904083  0.87402483
   0.81805390  0.37947855  0.97340556
   0.90173032  0.78904296  0.77285123
   0.85969162  0.83371229  0.65010836
   0.92451663  0.74522331  0.11798334
   0.88549765  0.78940476  0.97339174
   0.31697889  0.89276617  0.74104849
   0.31018429  0.85419022  0.61443811
   0.34163137  0.91287300  0.08519786
   0.33084753  0.87585055  0.94241318
   0.98775250  0.55881185  0.43436385
   0.98340930  0.51824055  0.30967042
   0.78177335  0.33163641  0.74795804
   0.83350327  0.31497568  0.63825592
   0.73130597  0.37236230  0.07146364
   0.77457391  0.36482471  0.92201642
   0.45817421  0.98585350  0.41900359
   0.50518254  0.98010627  0.30246781
   0.75134782  0.47544109  0.55580200
   0.14026783  0.16777830  0.50163045
   0.69417609  0.13490009  0.54051427
   0.02720938  0.47408785  0.85173276
   0.16808539  0.69206175  0.54375447
   0.50250667  0.02050197  0.85054876
   0.19390184  0.16869297  0.80346016
   0.65379805  0.18555104  0.83418223
   0.18378381  0.61629078  0.86584256
   0.81771134  0.83139792  0.19311253
   0.34488805  0.81047509  0.16088301
   0.80947159  0.41047819  0.09449314
   0.87115094  0.83457733  0.49664405
   0.30129702  0.86647058  0.46004538
   0.97140635  0.53071600  0.15656621
   0.84149175  0.28577669  0.51164414
   0.50604424  0.96877458  0.14780828
   0.71148679  0.33055065  0.41223540
   0.28885784  0.02139411  0.79707427
   0.66011543  0.33218375  0.16325306
   0.95956352  0.68695317  0.49110423
   0.35797709  0.95539512  0.45927382
   0.35430088  0.02281858  0.13213943
   0.71853763  0.97335878  0.19866573
   0.33614611  0.67043989  0.75379735
   0.70083422  0.28159456  0.82620397
   0.97993289  0.31361788  0.16583323
   0.30285575  0.71360836  0.19341732
   0.97741124  0.37915456  0.85045803
   0.65187281  0.96842013  0.86734218
   0.02846055  0.61890321  0.15814443
   0.64509229  0.04154829  0.53996227
   0.02383461  0.69445621  0.84500465
   0.29324806  0.63328303  0.58283584
   0.04272672  0.31480247  0.50725563
   0.83119657  0.35224023  0.30994002
Direct configuration=   135
   0.05832396  0.25421450  0.30363860
   0.03760003  0.30133207  0.95131530
   0.10371961  0.26039394  0.70923156
   0.69082981  0.05405922  0.33599808
   0.66808006  0.03187782  0.97741503
   0.64116503  0.10011747  0.74191832
   0.02066500  0.39381634  0.64781659
   0.26348146  0.67649580  0.35237820
   0.31144312  0.64794428 -0.01002312
   0.28079947  0.59877908  0.79857240
   0.59198208  0.01313276  0.66122707
   0.29785221  0.03626520  0.36034296
   0.23004394  0.07716362  0.59683908
   0.27483104  0.08093191  0.00051465
   0.65653291  0.29783224  0.42755987
   0.70358205  0.22155556  0.63287187
   0.99226004  0.63639962  0.73569860
   0.02851005  0.56328733  0.95387382
   0.66757480  0.26210554  0.03889028
   0.04502555  0.65363554  0.40820505
   0.07937165  0.68915548  0.64099682
   0.36909782  0.00040389  0.69298178
   0.41051570  0.02498298  0.93510816
   0.08829121  0.63751281  0.03267307
   0.71009912  0.96103615  0.64014514
   0.77768454  0.92247283  0.40033207
   0.73390992  0.91459977  0.99384080
   0.34838934  0.70380384  0.52523313
   0.28625393  0.78439345  0.36199118
   0.98915969  0.37627990  0.29920253
   0.97375726  0.43924049  0.05308012
   0.32794378  0.73530846  0.94846060
   0.97197814  0.31504050  0.62259464
   0.91612354  0.31639716  0.36524895
   0.63940273  0.98987199  0.30818529
   0.59942775  0.96322185  0.06597222
   0.91229783  0.36899317  0.95775345
   0.95414055  0.74754236  0.69376825
   0.97873865  0.70656786  0.07119893
   0.90621686  0.74453827  0.29022069
   0.31097432  0.94298582  0.66375448
   0.33315327  0.96348695  0.02477047
   0.35848065  0.89563568  0.25979732
   0.97660656  0.61090536  0.35614373
   0.74312395  0.31403307  0.68755368
   0.67865646  0.38395650  0.02619750
   0.75166978  0.36002668  0.25175618
   0.41607074  0.97716870  0.33594585
   0.71531372  0.50381063  0.67242910
   0.78771746  0.44733307  0.43763700
   0.11071460  0.21339876  0.22587983
   0.15188440  0.16798669  0.34780331
   0.08816992  0.26002770  0.88521573
   0.12706299  0.21309029  0.02499738
   0.68163048  0.10553400  0.25965892
   0.68553906  0.14618353  0.38521393
   0.65861804  0.08264425  0.91652734
   0.66802264  0.12098764  0.05703960
   0.00992910  0.44638161  0.57426448
   0.01504641  0.48665877  0.69868189
   0.22091667  0.66509850  0.27946419
   0.17206630  0.67528048  0.39406641
   0.27572429  0.62717404  0.95876707
   0.22630648  0.64065248  0.08943670
   0.55034077  0.00351101  0.57914884
   0.50359312  0.00897003  0.69592644
   0.24652810  0.07682168  0.42118591
   0.20706960  0.12329083  0.28004679
   0.22300315  0.12270332  0.07867559
   0.18219037  0.16832499  0.95702327
   0.68050974  0.24102298  0.46610514
   0.67796591  0.20035062  0.31915845
   0.00877199  0.58248686  0.78197755
   0.00363666  0.54262927  0.63562379
   0.66872607  0.21339369  0.11465240
   0.66235724  0.17438671  0.98953268
   0.08147244  0.67015096  0.46639507
   0.12764033  0.66408644  0.32501072
   0.41035613  0.00922808  0.75873490
   0.45823528  0.00053899  0.62170160
   0.12984351  0.64529351  0.12392193
   0.18060268  0.63248693  0.01560115
   0.76169743  0.92223123  0.57686635
   0.80320736  0.87639695  0.71637625
   0.78710499  0.87583825  0.91670118
   0.82923085  0.83214221  0.03966360
   0.31552228  0.76173914  0.51799982
   0.31698173  0.80004685  0.67643731
   0.98519658  0.42460369  0.23206368
   0.99359349  0.46303337  0.37417461
   0.32740847  0.78437820  0.87981517
   0.33537221  0.82245636  0.00634368
   0.92534751  0.31836295  0.55179174
   0.87751042  0.32893079  0.69123486
   0.59882454  0.98005218  0.24197232
   0.55061946  0.98848968  0.37686282
   0.87185802  0.35902552  0.87397081
   0.81806804  0.37945775  0.97337594
   0.90173064  0.78904660  0.77287958
   0.85969296  0.83371434  0.65012405
   0.92450753  0.74523375  0.11803125
   0.88549374  0.78940867  0.97342283
   0.31699052  0.89275528  0.74108651
   0.31020764  0.85417001  0.61445148
   0.34162807  0.91286789  0.08517338
   0.33084869  0.87584271  0.94245353
   0.98774549  0.55882109  0.43441998
   0.98341077  0.51824771  0.30971068
   0.78179710  0.33160302  0.74792902
   0.83351783  0.31496333  0.63824109
   0.73130356  0.37236061  0.07143482
   0.77458192  0.36480884  0.92196043
   0.45817167  0.98585324  0.41900337
   0.50518053  0.98010380  0.30244554
   0.75134126  0.47542206  0.55586324
   0.14027320  0.16778753  0.50161136
   0.69412483  0.13493064  0.54049969
   0.02721638  0.47408854  0.85173281
   0.16809556  0.69206818  0.54379771
   0.50250461  0.02049654  0.85051557
   0.19391024  0.16869735  0.80343531
   0.65380002  0.18555295  0.83414899
   0.18378667  0.61629436  0.86588532
   0.81768760  0.83141153  0.19312221
   0.34488383  0.81048425  0.16090730
   0.80948065  0.41045792  0.09452198
   0.87115966  0.83457413  0.49663074
   0.30134346  0.86643898  0.46000912
   0.97140911  0.53072589  0.15659324
   0.84149624  0.28575863  0.51164713
   0.50604224  0.96876905  0.14777347
   0.71149134  0.33053851  0.41226905
   0.28885913  0.02138573  0.79703501
   0.66009008  0.33219857  0.16329381
   0.95956197  0.68695683  0.49113385
   0.35797456  0.95538992  0.45923620
   0.35430065  0.02282427  0.13212080
   0.71853672  0.97336500  0.19863817
   0.33614877  0.67042518  0.75381243
   0.70083326  0.28159509  0.82616578
   0.97994653  0.31361968  0.16578891
   0.30288411  0.71359325  0.19341786
   0.97741062  0.37916022  0.85045817
   0.65186450  0.96842776  0.86728699
   0.02845849  0.61890882  0.15818828
   0.64509346  0.04154142  0.53994376
   0.02384462  0.69445471  0.84506114
   0.29323882  0.63327715  0.58288516
   0.04272687  0.31480511  0.50724287
   0.83120871  0.35223072  0.30993835
Direct configuration=   136
   0.05832166  0.25421110  0.30364362
   0.03760000  0.30133304  0.95133014
   0.10371675  0.26038809  0.70923697
   0.69082817  0.05405861  0.33601503
   0.66807734  0.03187843  0.97742984
   0.64117016  0.10011777  0.74193353
   0.02066481  0.39381601  0.64781444
   0.26348089  0.67649453  0.35236585
   0.31144505  0.64794684 -0.01003150
   0.28080510  0.59877877  0.79856215
   0.59198250  0.01313553  0.66124197
   0.29785062  0.03626406  0.36034921
   0.23004375  0.07716368  0.59684962
   0.27482930  0.08093281  0.00053142
   0.65653857  0.29782684  0.42755961
   0.70359160  0.22155331  0.63287851
   0.99226446  0.63639793  0.73567414
   0.02850905  0.56328557  0.95386069
   0.66757755  0.26210204  0.03889761
   0.04502589  0.65363787  0.40818703
   0.07937168  0.68915097  0.64096469
   0.36909750  0.00040574  0.69298594
   0.41051386  0.02498394  0.93510813
   0.08829772  0.63750937  0.03265861
   0.71010026  0.96103649  0.64016729
   0.77768187  0.92247445  0.40035302
   0.73391705  0.91459798  0.99384470
   0.34838287  0.70381030  0.52522460
   0.28624594  0.78440122  0.36197733
   0.98915948  0.37627683  0.29920961
   0.97376009  0.43923596  0.05307183
   0.32794166  0.73531418  0.94845500
   0.97197605  0.31504182  0.62260573
   0.91611829  0.31639905  0.36525884
   0.63940615  0.98986925  0.30820443
   0.59942884  0.96322210  0.06598209
   0.91229267  0.36899815  0.95777067
   0.95413883  0.74754237  0.69375643
   0.97873860  0.70656483  0.07118242
   0.90622066  0.74453289  0.29020357
   0.31096868  0.94299253  0.66374535
   0.33315444  0.96348351  0.02477866
   0.35847821  0.89563562  0.25980165
   0.97660955  0.61090061  0.35612923
   0.74311823  0.31404333  0.68757552
   0.67865669  0.38395780  0.02620891
   0.75166540  0.36003660  0.25177394
   0.41607035  0.97716872  0.33594673
   0.71531978  0.50381229  0.67236696
   0.78773274  0.44733281  0.43760518
   0.11070931  0.21339808  0.22589307
   0.15188227  0.16798351  0.34781106
   0.08816887  0.26002435  0.88522346
   0.12706030  0.21308872  0.02499753
   0.68163725  0.10552748  0.25966700
   0.68555368  0.14617679  0.38524034
   0.65862129  0.08264345  0.91653374
   0.66803146  0.12098284  0.05704737
   0.00992842  0.44637892  0.57426536
   0.01504581  0.48665608  0.69867987
   0.22091686  0.66509413  0.27944662
   0.17206588  0.67528022  0.39405065
   0.27572791  0.62717420  0.95874830
   0.22631071  0.64065126  0.08942204
   0.55033888  0.00351348  0.57915991
   0.50359127  0.00897201  0.69593698
   0.24652623  0.07682119  0.42119248
   0.20706769  0.12328810  0.28005557
   0.22300043  0.12270214  0.07868746
   0.18218854  0.16832274  0.95703080
   0.68051799  0.24102107  0.46611488
   0.67797989  0.20034254  0.31915329
   0.00877413  0.58248245  0.78196107
   0.00363801  0.54262570  0.63561080
   0.66873822  0.21338454  0.11467199
   0.66236351  0.17438232  0.98952481
   0.08147164  0.67014981  0.46637588
   0.12763991  0.66408538  0.32498830
   0.41035624  0.00922799  0.75873099
   0.45823413  0.00053907  0.62170472
   0.12984205  0.64529121  0.12390535
   0.18060518  0.63248498  0.01558388
   0.76169473  0.92223387  0.57686873
   0.80320999  0.87639335  0.71637396
   0.78710312  0.87584046  0.91671153
   0.82923617  0.83213824  0.03965581
   0.31551628  0.76174412  0.51797806
   0.31697555  0.80005306  0.67644074
   0.98519703  0.42460102  0.23206399
   0.99359364  0.46303043  0.37417503
   0.32740528  0.78438075  0.87980828
   0.33537100  0.82245760  0.00633639
   0.92534391  0.31836526  0.55180568
   0.87750650  0.32893623  0.69125839
   0.59882155  0.98005222  0.24198657
   0.55062047  0.98849047  0.37687144
   0.87185673  0.35902915  0.87398008
   0.81806716  0.37946174  0.97338206
   0.90173235  0.78904356  0.77287313
   0.85969321  0.83371240  0.65011794
   0.92450928  0.74522980  0.11802420
   0.88549785  0.78940529  0.97340787
   0.31698761  0.89276173  0.74109192
   0.31019948  0.85417367  0.61443780
   0.34162727  0.91287140  0.08516205
   0.33084805  0.87584338  0.94245078
   0.98774723  0.55881936  0.43439837
   0.98341073  0.51824407  0.30969946
   0.78178895  0.33161024  0.74791981
   0.83351177  0.31497022  0.63825334
   0.73130266  0.37236317  0.07145343
   0.77457996  0.36481451  0.92197412
   0.45817081  0.98585418  0.41901739
   0.50518082  0.98010472  0.30245500
   0.75132755  0.47544193  0.55589365
   0.14027130  0.16778431  0.50161815
   0.69414191  0.13492009  0.54050074
   0.02721335  0.47408898  0.85172461
   0.16809223  0.69206706  0.54378303
   0.50250548  0.02049838  0.85052846
   0.19390722  0.16869575  0.80344461
   0.65380066  0.18555080  0.83417496
   0.18378643  0.61629194  0.86585929
   0.81769469  0.83140638  0.19312348
   0.34488304  0.81048334  0.16087560
   0.80947597  0.41046745  0.09452055
   0.87115724  0.83457495  0.49662874
   0.30132614  0.86645093  0.46001433
   0.97140811  0.53072259  0.15658047
   0.84149430  0.28576510  0.51164507
   0.50604414  0.96877068  0.14778129
   0.71148791  0.33054216  0.41226403
   0.28885772  0.02138890  0.79704617
   0.66009889  0.33219346  0.16327472
   0.95956250  0.68695491  0.49112335
   0.35797546  0.95539120  0.45924706
   0.35430026  0.02282253  0.13212841
   0.71853610  0.97336421  0.19864905
   0.33614928  0.67043023  0.75380478
   0.70083355  0.28159449  0.82617731
   0.97994187  0.31361887  0.16580533
   0.30287502  0.71359873  0.19341753
   0.97741037  0.37915798  0.85046155
   0.65186643  0.96842526  0.86730809
   0.02845998  0.61890579  0.15816879
   0.64509260  0.04154408  0.53994877
   0.02384474  0.69445316  0.84504682
   0.29324236  0.63327803  0.58287476
   0.04272725  0.31480344  0.50724604
   0.83120384  0.35223453  0.30994030
Direct configuration=   137
   0.05832140  0.25421071  0.30364419
   0.03760000  0.30133315  0.95133184
   0.10371642  0.26038742  0.70923759
   0.69082798  0.05405855  0.33601696
   0.66807703  0.03187850  0.97743152
   0.64117075  0.10011780  0.74193526
   0.02066479  0.39381597  0.64781420
   0.26348083  0.67649438  0.35236445
   0.31144527  0.64794713 -0.01003245
   0.28080575  0.59877873  0.79856098
   0.59198255  0.01313584  0.66124366
   0.29785044  0.03626393  0.36034992
   0.23004373  0.07716368  0.59685082
   0.27482910  0.08093291  0.00053333
   0.65653921  0.29782623  0.42755958
   0.70359268  0.22155306  0.63287927
   0.99226496  0.63639774  0.73567135
   0.02850893  0.56328537  0.95385919
   0.66757786  0.26210164  0.03889845
   0.04502593  0.65363814  0.40818498
   0.07937168  0.68915045  0.64096104
   0.36909747  0.00040596  0.69298641
   0.41051365  0.02498405  0.93510812
   0.08829846  0.63750898  0.03265696
   0.71010039  0.96103653  0.64016981
   0.77768157  0.92247464  0.40035541
   0.73391787  0.91459778  0.99384514
   0.34838213  0.70381103  0.52522363
   0.28624503  0.78440210  0.36197575
   0.98915945  0.37627648  0.29921042
   0.97376041  0.43923544  0.05307089
   0.32794142  0.73531483  0.94845436
   0.97197582  0.31504197  0.62260699
   0.91611769  0.31639926  0.36525996
   0.63940654  0.98986894  0.30820661
   0.59942896  0.96322213  0.06598321
   0.91229208  0.36899872  0.95777263
   0.95413864  0.74754237  0.69375509
   0.97873859  0.70656448  0.07118054
   0.90622110  0.74453227  0.29020162
   0.31096804  0.94299330  0.66374431
   0.33315458  0.96348312  0.02477959
   0.35847793  0.89563562  0.25980214
   0.97660989  0.61090006  0.35612758
   0.74311758  0.31404450  0.68757801
   0.67865672  0.38395795  0.02621021
   0.75166490  0.36003773  0.25177597
   0.41607031  0.97716872  0.33594683
   0.71532047  0.50381247  0.67235988
   0.78773448  0.44733278  0.43760156
   0.11070871  0.21339800  0.22589458
   0.15188203  0.16798315  0.34781194
   0.08816875  0.26002397  0.88522435
   0.12705999  0.21308854  0.02499755
   0.68163802  0.10552674  0.25966792
   0.68555534  0.14617603  0.38524335
   0.65862166  0.08264336  0.91653447
   0.66803246  0.12098229  0.05704825
   0.00992834  0.44637861  0.57426546
   0.01504575  0.48665578  0.69867964
   0.22091689  0.66509363  0.27944462
   0.17206583  0.67528019  0.39404886
   0.27572833  0.62717422  0.95874617
   0.22631119  0.64065112  0.08942037
   0.55033866  0.00351376  0.57916118
   0.50359106  0.00897224  0.69593818
   0.24652602  0.07682113  0.42119323
   0.20706748  0.12328779  0.28005657
   0.22300012  0.12270201  0.07868882
   0.18218833  0.16832249  0.95703166
   0.68051893  0.24102085  0.46611599
   0.67798149  0.20034162  0.31915270
   0.00877437  0.58248195  0.78195919
   0.00363816  0.54262529  0.63560932
   0.66873960  0.21338350  0.11467422
   0.66236422  0.17438181  0.98952391
   0.08147155  0.67014968  0.46637369
   0.12763986  0.66408525  0.32498575
   0.41035625  0.00922798  0.75873055
   0.45823400  0.00053908  0.62170508
   0.12984188  0.64529095  0.12390347
   0.18060547  0.63248476  0.01558191
   0.76169443  0.92223417  0.57686900
   0.80321029  0.87639293  0.71637370
   0.78710290  0.87584071  0.91671271
   0.82923677  0.83213779  0.03965493
   0.31551560  0.76174468  0.51797558
   0.31697484  0.80005377  0.67644114
   0.98519708  0.42460072  0.23206403
   0.99359366  0.46303009  0.37417508
   0.32740492  0.78438104  0.87980750
   0.33537087  0.82245774  0.00633556
   0.92534350  0.31836552  0.55180727
   0.87750606  0.32893685  0.69126106
   0.59882121  0.98005222  0.24198819
   0.55062058  0.98849056  0.37687242
   0.87185658  0.35902956  0.87398113
   0.81806706  0.37946219  0.97338276
   0.90173255  0.78904322  0.77287240
   0.85969324  0.83371218  0.65011725
   0.92450948  0.74522935  0.11802340
   0.88549832  0.78940490  0.97340617
   0.31698728  0.89276246  0.74109254
   0.31019855  0.85417408  0.61443624
   0.34162718  0.91287180  0.08516076
   0.33084798  0.87584345  0.94245047
   0.98774743  0.55881916  0.43439591
   0.98341072  0.51824365  0.30969818
   0.78178803  0.33161106  0.74791876
   0.83351109  0.31497101  0.63825473
   0.73130256  0.37236346  0.07145555
   0.77457974  0.36481515  0.92197568
   0.45817071  0.98585428  0.41901898
   0.50518085  0.98010482  0.30245608
   0.75132599  0.47544419  0.55589712
   0.14027108  0.16778394  0.50161893
   0.69414386  0.13491889  0.54050086
   0.02721300  0.47408904  0.85172368
   0.16809186  0.69206693  0.54378136
   0.50250558  0.02049859  0.85052993
   0.19390688  0.16869557  0.80344567
   0.65380074  0.18555055  0.83417792
   0.18378640  0.61629167  0.86585633
   0.81769550  0.83140580  0.19312363
   0.34488295  0.81048324  0.16087199
   0.80947544  0.41046853  0.09452038
   0.87115697  0.83457505  0.49662851
   0.30132416  0.86645229  0.46001492
   0.97140800  0.53072222  0.15657901
   0.84149408  0.28576584  0.51164483
   0.50604436  0.96877086  0.14778218
   0.71148752  0.33054257  0.41226346
   0.28885756  0.02138927  0.79704744
   0.66009989  0.33219288  0.16327255
   0.95956257  0.68695469  0.49112215
   0.35797556  0.95539135  0.45924830
   0.35430022  0.02282233  0.13212928
   0.71853603  0.97336413  0.19865029
   0.33614933  0.67043081  0.75380391
   0.70083359  0.28159442  0.82617862
   0.97994134  0.31361878  0.16580720
   0.30287399  0.71359936  0.19341750
   0.97741034  0.37915773  0.85046194
   0.65186665  0.96842497  0.86731049
   0.02846015  0.61890545  0.15816657
   0.64509251  0.04154438  0.53994934
   0.02384476  0.69445299  0.84504519
   0.29324276  0.63327813  0.58287358
   0.04272729  0.31480325  0.50724640
   0.83120329  0.35223497  0.30994053
Direct configuration=   138
   0.05831924  0.25420856  0.30364877
   0.03759975  0.30133393  0.95134466
   0.10371360  0.26038247  0.70924291
   0.69082693  0.05405585  0.33603397
   0.66807482  0.03187968  0.97743929
   0.64117599  0.10011669  0.74194727
   0.02066451  0.39381725  0.64780913
   0.26348136  0.67649346  0.35235221
   0.31144637  0.64795088 -0.01003328
   0.28081002  0.59877841  0.79854247
   0.59198415  0.01313781  0.66125963
   0.29784863  0.03626292  0.36035419
   0.23004394  0.07716323  0.59685949
   0.27482791  0.08093367  0.00054766
   0.65654353  0.29782301  0.42755949
   0.70360129  0.22155061  0.63288904
   0.99226850  0.63639666  0.73564973
   0.02850831  0.56328345  0.95384800
   0.66758052  0.26209984  0.03890732
   0.04502788  0.65364135  0.40817816
   0.07936965  0.68914592  0.64092665
   0.36909820  0.00040797  0.69299280
   0.41051180  0.02498451  0.93510302
   0.08830594  0.63750589  0.03264531
   0.71010031  0.96103697  0.64019400
   0.77767976  0.92247525  0.40037269
   0.73392294  0.91459704  0.99384830
   0.34837819  0.70381388  0.52522490
   0.28623572  0.78441217  0.36195903
   0.98915937  0.37627353  0.29921803
   0.97376262  0.43923203  0.05306113
   0.32793855  0.73532061  0.94844123
   0.97197408  0.31504366  0.62261200
   0.91611406  0.31640091  0.36526993
   0.63940951  0.98986713  0.30822679
   0.59943013  0.96322146  0.06598866
   0.91228623  0.36900303  0.95778477
   0.95413430  0.74754464  0.69374337
   0.97873866  0.70656176  0.07116759
   0.90622408  0.74452787  0.29018860
   0.31096278  0.94300063  0.66373378
   0.33315636  0.96347884  0.02479257
   0.35847445  0.89563796  0.25980091
   0.97661195  0.61089625  0.35611456
   0.74311271  0.31405470  0.68760045
   0.67865518  0.38395918  0.02622061
   0.75166249  0.36004621  0.25179197
   0.41607066  0.97716844  0.33594544
   0.71531588  0.50382189  0.67233695
   0.78773926  0.44733947  0.43760220
   0.11070393  0.21339748  0.22590657
   0.15188039  0.16798027  0.34781759
   0.08816730  0.26002188  0.88523102
   0.12705760  0.21308697  0.02499819
   0.68164442  0.10552078  0.25967634
   0.68556797  0.14617044  0.38526489
   0.65862529  0.08264247  0.91654519
   0.66804004  0.12097975  0.05704842
   0.00992802  0.44637626  0.57426862
   0.01504563  0.48665287  0.69867638
   0.22091589  0.66509091  0.27943733
   0.17206341  0.67527997  0.39403607
   0.27573373  0.62717274  0.95872525
   0.22631477  0.64065049  0.08940749
   0.55033663  0.00351605  0.57917494
   0.50358858  0.00897398  0.69594926
   0.24652378  0.07682089  0.42119769
   0.20706647  0.12328483  0.28006324
   0.22299822  0.12270087  0.07869927
   0.18218664  0.16832047  0.95703821
   0.68052612  0.24102057  0.46612165
   0.67799324  0.20033441  0.31914789
   0.00877639  0.58247776  0.78194411
   0.00363969  0.54262131  0.63559837
   0.66874880  0.21337555  0.11468337
   0.66237012  0.17437681  0.98951555
   0.08147341  0.67014819  0.46635120
   0.12763841  0.66408348  0.32496355
   0.41035794  0.00922749  0.75872373
   0.45823228  0.00053945  0.62170905
   0.12983791  0.64528959  0.12389566
   0.18060608  0.63248323  0.01557133
   0.76169144  0.92223741  0.57686910
   0.80321302  0.87638948  0.71637349
   0.78710114  0.87584246  0.91672303
   0.82924317  0.83213302  0.03964530
   0.31551187  0.76174744  0.51794454
   0.31696890  0.80005812  0.67645279
   0.98519767  0.42459814  0.23206292
   0.99359445  0.46302725  0.37417833
   0.32740250  0.78438383  0.87981500
   0.33537055  0.82245945  0.00633661
   0.92533934  0.31836772  0.55182231
   0.87750222  0.32894234  0.69128833
   0.59881971  0.98005192  0.24199715
   0.55062147  0.98849126  0.37687751
   0.87185644  0.35903167  0.87398340
   0.81806828  0.37946394  0.97338688
   0.90173487  0.78903989  0.77286743
   0.85969393  0.83370960  0.65011306
   0.92451014  0.74522604  0.11801975
   0.88550328  0.78940075  0.97339333
   0.31698520  0.89276838  0.74110401
   0.31019186  0.85417663  0.61442641
   0.34162586  0.91287332  0.08514556
   0.33084723  0.87584333  0.94245484
   0.98774863  0.55881772  0.43437894
   0.98341104  0.51823997  0.30969061
   0.78178194  0.33161512  0.74790464
   0.83350591  0.31497823  0.63826751
   0.73130092  0.37236731  0.07147539
   0.77457852  0.36481962  0.92198079
   0.45816905  0.98585539  0.41903619
   0.50518065  0.98010569  0.30246614
   0.75133278  0.47544710  0.55586318
   0.14026942  0.16778116  0.50162516
   0.69415814  0.13490979  0.54050371
   0.02721018  0.47408970  0.85171307
   0.16808927  0.69206675  0.54376909
   0.50250630  0.02050010  0.85054111
   0.19390436  0.16869409  0.80345354
   0.65380188  0.18554816  0.83420349
   0.18378676  0.61628901  0.86582863
   0.81770094  0.83140107  0.19312637
   0.34488105  0.81048373  0.16083412
   0.80947058  0.41047803  0.09452465
   0.87115547  0.83457548  0.49662120
   0.30130857  0.86646310  0.46001209
   0.97140716  0.53071937  0.15656621
   0.84149205  0.28577183  0.51164417
   0.50604671  0.96877204  0.14778610
   0.71148345  0.33054527  0.41226497
   0.28885581  0.02139211  0.79705497
   0.66010723  0.33218841  0.16325316
   0.95956307  0.68695256  0.49111305
   0.35797623  0.95539195  0.45925516
   0.35429953  0.02282119  0.13213617
   0.71853483  0.97336442  0.19866022
   0.33615065  0.67043498  0.75379650
   0.70083384  0.28159369  0.82618731
   0.97993757  0.31361801  0.16582161
   0.30286691  0.71360415  0.19341613
   0.97740976  0.37915561  0.85046674
   0.65186760  0.96842315  0.86732894
   0.02846194  0.61890226  0.15814727
   0.64509142  0.04154658  0.53995353
   0.02384738  0.69445022  0.84503574
   0.29324601  0.63327813  0.58286900
   0.04272762  0.31480135  0.50724869
   0.83119857  0.35223888  0.30994367
Direct configuration=   139
   0.05831541  0.25420474  0.30365687
   0.03759930  0.30133531  0.95136740
   0.10370860  0.26037368  0.70925234
   0.69082507  0.05405106  0.33606410
   0.66807092  0.03188175  0.97745305
   0.64118528  0.10011472  0.74196855
   0.02066401  0.39381950  0.64780014
   0.26348230  0.67649183  0.35233052
   0.31144830  0.64795752 -0.01003475
   0.28081760  0.59877784  0.79850966
   0.59198700  0.01314130  0.66128792
   0.29784542  0.03626114  0.36036176
   0.23004432  0.07716241  0.59687486
   0.27482580  0.08093502  0.00057305
   0.65655118  0.29781731  0.42755934
   0.70361655  0.22154627  0.63290637
   0.99227476  0.63639474  0.73561141
   0.02850722  0.56328004  0.95382816
   0.66758524  0.26209665  0.03892304
   0.04503132  0.65364705  0.40816607
   0.07936606  0.68913789  0.64086570
   0.36909950  0.00041155  0.69300411
   0.41050851  0.02498533  0.93509399
   0.08831921  0.63750040  0.03262466
   0.71010017  0.96103774  0.64023689
   0.77767657  0.92247632  0.40040332
   0.73393193  0.91459574  0.99385389
   0.34837119  0.70381893  0.52522714
   0.28621922  0.78443002  0.36192938
   0.98915923  0.37626829  0.29923153
   0.97376652  0.43922598  0.05304383
   0.32793345  0.73533084  0.94841795
   0.97197101  0.31504667  0.62262089
   0.91610763  0.31640382  0.36528760
   0.63941477  0.98986392  0.30826256
   0.59943219  0.96322027  0.06599833
   0.91227587  0.36901068  0.95780630
   0.95412661  0.74754866  0.69372261
   0.97873879  0.70655694  0.07114464
   0.90622937  0.74452007  0.29016554
   0.31095345  0.94301363  0.66371511
   0.33315951  0.96347126  0.02481557
   0.35846829  0.89564211  0.25979874
   0.97661560  0.61088948  0.35609148
   0.74310408  0.31407279  0.68764023
   0.67865246  0.38396135  0.02623906
   0.75165823  0.36006125  0.25182034
   0.41607127  0.97716795  0.33594298
   0.71530775  0.50383857  0.67229631
   0.78774774  0.44735134  0.43760334
   0.11069545  0.21339656  0.22592782
   0.15187749  0.16797516  0.34782759
   0.08816471  0.26001818  0.88524286
   0.12705336  0.21308420  0.02499932
   0.68165577  0.10551021  0.25969128
   0.68559037  0.14616053  0.38530307
   0.65863173  0.08264088  0.91656419
   0.66805348  0.12097524  0.05704873
   0.00992744  0.44637210  0.57427422
   0.01504543  0.48664773  0.69867060
   0.22091412  0.66508609  0.27942440
   0.17205911  0.67527956  0.39401341
   0.27574330  0.62717012  0.95868817
   0.22632112  0.64064939  0.08938465
   0.55033304  0.00352013  0.57919933
   0.50358418  0.00897706  0.69596891
   0.24651980  0.07682046  0.42120561
   0.20706470  0.12327959  0.28007505
   0.22299484  0.12269887  0.07871779
   0.18218364  0.16831689  0.95704982
   0.68053887  0.24102007  0.46613168
   0.67801408  0.20032163  0.31913936
   0.00877996  0.58247034  0.78191738
   0.00364241  0.54261425  0.63557895
   0.66876511  0.21336148  0.11469957
   0.66238057  0.17436794  0.98950072
   0.08147672  0.67014553  0.46631134
   0.12763585  0.66408034  0.32492420
   0.41036094  0.00922660  0.75871166
   0.45822922  0.00054011  0.62171609
   0.12983087  0.64528716  0.12388182
   0.18060717  0.63248052  0.01555258
   0.76168614  0.92224314  0.57686927
   0.80321784  0.87638335  0.71637313
   0.78709801  0.87584556  0.91674131
   0.82925451  0.83212455  0.03962823
   0.31550527  0.76175234  0.51788951
   0.31695837  0.80006583  0.67647344
   0.98519872  0.42459358  0.23206097
   0.99359584  0.46302222  0.37418408
   0.32739821  0.78438878  0.87982829
   0.33537000  0.82246246  0.00633848
   0.92533196  0.31837162  0.55184897
   0.87749543  0.32895207  0.69133667
   0.59881707  0.98005139  0.24201303
   0.55062305  0.98849249  0.37688652
   0.87185620  0.35903540  0.87398743
   0.81807043  0.37946704  0.97339418
   0.90173897  0.78903400  0.77285862
   0.85969516  0.83370503  0.65010565
   0.92451130  0.74522017  0.11801329
   0.88551207  0.78939339  0.97337057
   0.31698151  0.89277888  0.74112435
   0.31018000  0.85418115  0.61440900
   0.34162353  0.91287602  0.08511861
   0.33084591  0.87584310  0.94246259
   0.98775077  0.55881515  0.43434886
   0.98341159  0.51823345  0.30967718
   0.78177117  0.33162231  0.74787962
   0.83349673  0.31499103  0.63829016
   0.73129802  0.37237413  0.07151055
   0.77457636  0.36482754  0.92198985
   0.45816609  0.98585737  0.41906670
   0.50518029  0.98010723  0.30248397
   0.75134481  0.47545224  0.55580303
   0.14026648  0.16777622  0.50163622
   0.69418346  0.13489367  0.54050878
   0.02720517  0.47409089  0.85169426
   0.16808468  0.69206645  0.54374735
   0.50250758  0.02050277  0.85056092
   0.19389989  0.16869147  0.80346749
   0.65380390  0.18554392  0.83424881
   0.18378739  0.61628431  0.86577954
   0.81771058  0.83139268  0.19313123
   0.34487768  0.81048461  0.16076701
   0.80946196  0.41049486  0.09453221
   0.87115283  0.83457625  0.49660823
   0.30128092  0.86648227  0.46000708
   0.97140567  0.53071431  0.15654350
   0.84148846  0.28578247  0.51164300
   0.50605087  0.96877413  0.14779305
   0.71147624  0.33055005  0.41226766
   0.28885271  0.02139716  0.79706833
   0.66012022  0.33218049  0.16321881
   0.95956397  0.68694877  0.49109693
   0.35797741  0.95539300  0.45926731
   0.35429833  0.02281917  0.13214838
   0.71853270  0.97336495  0.19867781
   0.33615298  0.67044237  0.75378338
   0.70083428  0.28159239  0.82620272
   0.97993088  0.31361664  0.16584714
   0.30285436  0.71361265  0.19341371
   0.97740872  0.37915187  0.85047525
   0.65186928  0.96841992  0.86736165
   0.02846510  0.61889662  0.15811305
   0.64508950  0.04155049  0.53996096
   0.02385203  0.69444532  0.84501900
   0.29325176  0.63327812  0.58286089
   0.04272822  0.31479799  0.50725275
   0.83119023  0.35224582  0.30994925
Direct configuration=   140
   0.05831109  0.25420414  0.30366622
   0.03759904  0.30133578  0.95138267
   0.10370473  0.26036830  0.70925620
   0.69082471  0.05404632  0.33608199
   0.66806889  0.03188339  0.97746002
   0.64119213  0.10011224  0.74197749
   0.02066381  0.39381923  0.64779654
   0.26348327  0.67649055  0.35231737
   0.31144898  0.64796252 -0.01003467
   0.28082264  0.59877676  0.79847844
   0.59198775  0.01314267  0.66130788
   0.29784243  0.03626024  0.36036579
   0.23004456  0.07716177  0.59688372
   0.27482537  0.08093512  0.00058823
   0.65655511  0.29781673  0.42755977
   0.70362621  0.22154387  0.63291589
   0.99228009  0.63638958  0.73558913
   0.02850675  0.56327744  0.95381308
   0.66758888  0.26209370  0.03893858
   0.04503075  0.65364920  0.40815172
   0.07936294  0.68913459  0.64083964
   0.36909957  0.00041348  0.69300840
   0.41050685  0.02498555  0.93508522
   0.08832385  0.63749578  0.03260369
   0.71009798  0.96103963  0.64026830
   0.77767518  0.92247729  0.40040575
   0.73393305  0.91459837  0.99386464
   0.34836723  0.70382179  0.52522432
   0.28620770  0.78444283  0.36190659
   0.98915886  0.37626620  0.29923784
   0.97376938  0.43922152  0.05303963
   0.32792862  0.73533548  0.94840181
   0.97196769  0.31504955  0.62262147
   0.91610394  0.31640593  0.36530763
   0.63941462  0.98986143  0.30828411
   0.59943351  0.96321884  0.06600728
   0.91227069  0.36901603  0.95781940
   0.95412305  0.74754988  0.69370418
   0.97874079  0.70655213  0.07113146
   0.90623106  0.74451525  0.29016212
   0.31094703  0.94302177  0.66370863
   0.33316069  0.96347195  0.02482235
   0.35846234  0.89564738  0.25978678
   0.97661759  0.61088663  0.35607291
   0.74309449  0.31408463  0.68765965
   0.67864989  0.38396322  0.02625452
   0.75165636  0.36007109  0.25184414
   0.41607291  0.97716734  0.33594319
   0.71530553  0.50384762  0.67225651
   0.78775569  0.44735822  0.43759810
   0.11069312  0.21339336  0.22593289
   0.15187449  0.16797257  0.34783341
   0.08816120  0.26001718  0.88525230
   0.12705017  0.21308143  0.02501175
   0.68166441  0.10550662  0.25970970
   0.68560441  0.14615125  0.38529964
   0.65863705  0.08263892  0.91658146
   0.66806294  0.12097081  0.05705134
   0.00992708  0.44637074  0.57427481
   0.01504504  0.48664575  0.69865902
   0.22091332  0.66508482  0.27942381
   0.17205451  0.67527855  0.39399549
   0.27575051  0.62716852  0.95866960
   0.22632210  0.64064775  0.08936246
   0.55033225  0.00352306  0.57922014
   0.50358189  0.00897916  0.69598246
   0.24651795  0.07681879  0.42121234
   0.20706249  0.12327699  0.28008207
   0.22299318  0.12269743  0.07872888
   0.18218071  0.16831487  0.95705979
   0.68054948  0.24101665  0.46613429
   0.67802857  0.20031360  0.31915228
   0.00878146  0.58246851  0.78189565
   0.00364425  0.54260957  0.63556290
   0.66877373  0.21335359  0.11468657
   0.66239010  0.17436152  0.98951889
   0.08148243  0.67014321  0.46627324
   0.12763425  0.66407810  0.32490186
   0.41036298  0.00922678  0.75871109
   0.45822801  0.00054122  0.62172659
   0.12983186  0.64528560  0.12387420
   0.18060781  0.63247838  0.01553943
   0.76168440  0.92224394  0.57688984
   0.80321761  0.87638214  0.71637844
   0.78710411  0.87584118  0.91674347
   0.82925968  0.83212059  0.03962333
   0.31550138  0.76175719  0.51786183
   0.31695010  0.80006902  0.67647287
   0.98519971  0.42458951  0.23205538
   0.99359692  0.46301868  0.37418423
   0.32739529  0.78439519  0.87984394
   0.33536896  0.82246527  0.00632634
   0.92532690  0.31837468  0.55186847
   0.87749170  0.32895692  0.69135770
   0.59882130  0.98005090  0.24202091
   0.55062187  0.98849399  0.37689816
   0.87185522  0.35903835  0.87399410
   0.81806952  0.37946996  0.97340664
   0.90174038  0.78903152  0.77284839
   0.85969598  0.83370148  0.65010173
   0.92451288  0.74521619  0.11799797
   0.88551803  0.78938767  0.97336299
   0.31697800  0.89278234  0.74112310
   0.31017301  0.85418882  0.61442141
   0.34162340  0.91287013  0.08512161
   0.33084435  0.87584554  0.94246595
   0.98775245  0.55881052  0.43433689
   0.98341218  0.51822962  0.30966753
   0.78176700  0.33162924  0.74788259
   0.83349218  0.31499880  0.63829503
   0.73129566  0.37238131  0.07152622
   0.77457488  0.36483158  0.92198751
   0.45816448  0.98585808  0.41907658
   0.50517930  0.98010844  0.30249892
   0.75134777  0.47546038  0.55577931
   0.14026456  0.16777273  0.50164406
   0.69420067  0.13488248  0.54052622
   0.02720220  0.47409130  0.85168481
   0.16808173  0.69206718  0.54373223
   0.50250787  0.02050443  0.85057353
   0.19389727  0.16868937  0.80347563
   0.65380495  0.18554179  0.83426131
   0.18378823  0.61628170  0.86575232
   0.81771743  0.83138630  0.19312785
   0.34487573  0.81048512  0.16073665
   0.80945626  0.41050543  0.09453631
   0.87115184  0.83457614  0.49659447
   0.30126176  0.86649519  0.45999578
   0.97140509  0.53071014  0.15653004
   0.84148552  0.28579155  0.51164993
   0.50605405  0.96877549  0.14779811
   0.71147042  0.33055304  0.41227760
   0.28885071  0.02140047  0.79707526
   0.66012826  0.33217490  0.16319275
   0.95956503  0.68694550  0.49108620
   0.35797791  0.95539291  0.45926984
   0.35429723  0.02281846  0.13215551
   0.71853057  0.97336626  0.19868870
   0.33615502  0.67044658  0.75377789
   0.70083481  0.28159154  0.82621206
   0.97992698  0.31361561  0.16586239
   0.30284696  0.71361849  0.19340689
   0.97740784  0.37914902  0.85048247
   0.65186971  0.96841853  0.86738189
   0.02846775  0.61889283  0.15808868
   0.64508755  0.04155258  0.53996994
   0.02385708  0.69444067  0.84500632
   0.29325593  0.63327830  0.58285524
   0.04272850  0.31479519  0.50725630
   0.83118442  0.35225102  0.30995457
