O  C  H  Co Li                          
   1.00000000000000     
    25.9869300222800774    0.0014776472087939   -0.0002841704448074
    12.9947443186480527   22.5035161465627063   -0.0005769115704474
    -0.0000740905812471   -0.0001328080293999    6.8098320633878924
   O    C    H    Co   Li
    56    73    18    18     1
Direct
  0.0568485074998165  0.2551388112640245  0.3123918447320361
  0.0374812455697408  0.3026877031628114  0.9603786167052658
  0.1036476374545593  0.2608144939703860  0.7184014253072853
  0.3978562738621380  0.5843451894950572  0.6592705927867601
  0.6873386190128724  0.0575090832216921  0.3237422477896392
  0.6654721954485318  0.0347569302980576  0.9638587383262386
  0.6381332082271005  0.1025617318810706  0.7270299604306577
  0.0202193112156555  0.3943621325319772  0.6483934195277299
  0.2584489074604307  0.6844928131378957  0.3241136264910032
  0.3037841637356950  0.6624037369872319  0.9653180988762884
  0.2631909671492286  0.6356902130459146  0.7268999185682608
  0.5863049386016541  0.0195624124504043  0.6566810066407387
  0.2952141231774417  0.0368076258937314  0.3717223579031745
  0.2270253284111109  0.0767827995767389  0.6074205251237356
  0.6337586648854378  0.3638859761020325  0.7114640054015251
  0.5674860602541769  0.4062574847528932  0.9523592164205581
  0.2726195233356513  0.0813769122615637  0.0107648021546356
  0.6778999275530304  0.2906253008427850  0.3707026843084416
  0.6954934805895224  0.2270993641958799  0.6172331248257918
  0.0036700771353623  0.6313498462292609  0.7063763498847876
  0.0308781708202704  0.5634696438491469  0.9428240950900381
  0.6483474046338153  0.2719925860900145  0.0209578771834119
  0.0381260139239644  0.6682535628522819  0.3728535462283457
  0.0786694223438042  0.6952009642431873  0.6106109104063202
  0.3665091033201827  0.0023176463854471  0.7055674471688128
  0.4071497754199108  0.0291780442263360  0.9433207216172415
  0.0835778868062017  0.6458138619543888  0.0130484148483136
  0.7028032917203488  0.9633044347683480  0.6297492062185779
  0.7705433733479599  0.9237974833384741  0.3921306784865712
  0.3750083533979856  0.6290236821396681  0.2988221009128577
  0.4431431194406695  0.5894441751670180  0.0626871109632468
  0.7265262370151812  0.9179343570718285  0.9890404119121350
  0.3371491428939862  0.7003951194203019  0.6310536082694342
  0.3088066116793705  0.7679686566900349  0.3928519512903108
 -0.0093485131390593  0.3757617290684846  0.3004058343392936
  0.9729729469415410  0.4391115719070371  0.0529296987268101
  0.3586143321895615  0.7244417546680044  0.9902885230350364
  0.9733827468064131  0.3172345834007840  0.6312781100415485
  0.9170351152959046  0.3155591489453679  0.3807414425359973
  0.6318916999096016 -0.0030848182001629  0.2975091316667526
  0.5913305397243021  0.9701482817624996  0.0591915263638852
  0.9142131362326733  0.3661710261260361  0.9717234640584598
  0.9433655877420969  0.7480435896330141  0.6806745296755550
  0.9671898920473987  0.7028890418039675  0.0406793546159928
  0.8992247544419982  0.7422837226690404  0.2775779674148268
  0.6139855162109040  0.4114454253562445  0.3563994962740559
  0.3106598349890470  0.9414401376699439  0.6797222959842895
  0.3320107270401227  0.9654792693519503  0.0396680024329249
  0.3606075459055953  0.8976806716205544  0.2771386308577151
  0.9817536204274623  0.6086846888714553  0.3459270481396108
  0.7561280267056111  0.2985283835511384  0.6925522960024765
  0.7007426661602160  0.3411489294026444  0.0419641504128528
  0.7509541841203617  0.3554942767986920  0.2851616917926857
  0.4116877702619932  0.9804256749465673  0.3460415642565436
  0.6930057426086170  0.4776546086187890  0.6477063412265536
  0.7828385437369679  0.4408872766555716  0.4762311796780441
  0.1090090157240849  0.2138348224864212  0.2344754939833403
  0.1494635746772709  0.1682044701409996  0.3569440460935863
  0.0875876515349836  0.2608583863547140  0.8940366187828663
  0.1256493644708682  0.2136060284124517  0.0341730380436887
  0.4497544819887117  0.5431467946886910  0.5806239506495577
  0.4903575964570723  0.4976853862897597  0.7028046785679138
  0.6773573503503992  0.1091513525382136  0.2450324851647757
  0.6825028456949559  0.1495421340545545  0.3673033409053594
  0.6545271273977256  0.0860342788349212  0.9024837425454710
  0.6619367413831290  0.1251579361353590  0.0438017131895629
  0.0105496948115506  0.4462786140816214  0.5715435876628931
  0.0163289734320567  0.4863329267216781  0.6937380260475833
  0.2167096112329325  0.6748193247380869  0.2441334551367514
  0.1708394068646735  0.6799415821004277  0.3648230608189227
  0.2632466284455751  0.6519765635105534  0.9025474818818056
  0.2163562630298156  0.6597010619171745  0.0424850070640062
  0.5446760651841562  0.0097401840375165  0.5764027268757331
  0.4988809115305476  0.0147131831903532  0.6971554594957665
  0.2437352997208409  0.0768848641677357  0.4323273653771804
  0.2046497121314183  0.1233375447705361  0.2903766294686634
  0.5835651749189470  0.4058641016109440  0.7764219110636363
  0.5454474476621074  0.4528896931440479  0.6357032699843727
  0.2209090614486277  0.1229433943140265  0.0894491070182615
  0.1806126849258076  0.1685994127466800  0.9671704233475487
  0.6826249811106651  0.2421568377998367  0.4390609971223896
  0.6733562878743541  0.2041039573735471  0.2991538585478878
  0.0144490412884231  0.5801055134098237  0.7674525315728227
  0.0067831749324361  0.5411572841484166  0.6260661549483640
  0.6578594473332653  0.2202167427545052  0.0982765635318700
  0.6522089154880035  0.1800404934520896  0.9761588713583409
  0.0787035122777603  0.6786314280019471  0.4352332408723577
  0.1256839772856181  0.6705881145641427  0.2951477255331185
  0.4070252344079893  0.0128486172862297  0.7677706231973388
  0.4538222595686016  0.0051882520431878  0.6275915755957849
  0.1253336689208174  0.6554236193318577  0.0934467640446852
  0.1712219728622209  0.6503055579008497  0.9727972313061145
  0.7542328048446756  0.9236023936446488  0.5676873301611596
  0.7941485236750924  0.8774162908454375  0.7080861357593091
  0.4265573860233761  0.5892214901145255  0.2378775882841506
  0.4659337928158243  0.5429108803615170  0.3797194946403983
  0.7786598595979825  0.8773944555293409  0.9094907029763108
  0.8204110022476437  0.8324167400241520  0.0306374378233097
  0.3252447866209415  0.7518331235024996  0.5685710645145851
  0.3312555393635550  0.7919463568245747  0.7086839471085583
  0.9857967685074736  0.4242192943432015  0.2312618337071856
  0.9949551648387396  0.4624323099216930  0.3708232204655822
  0.3467525493271474  0.7766098447341969  0.9102000071053890
  0.3497015488488615  0.8185843817883578  0.0308853591350559
  0.9280868614515446  0.3167107003882349  0.5652409078972921
  0.8840449939607060  0.3210171163862741  0.7106839334865094
  0.5913156838188816  0.9865935187240543  0.2347251613758126
  0.5443599270122320  0.9945228669808881  0.3747610965647645
  0.8772387526050781  0.3499344537740875  0.8950915223447814
  0.8269723789849861  0.3618098808626631  0.0048663424640312
  0.8912470371942219  0.7886307117929243  0.7601899586527776
  0.8494929503147398  0.8336248826561942  0.6390418557978700
  0.9156502810758849  0.7425121660983093  0.1021743525580663
  0.8757615881574380  0.7886312382309303  0.9616181783377424
  0.5618974754685893  0.4527143065072874  0.4351507734913359
  0.5212361166160310  0.4983007702513367  0.3130036497217826
  0.3224348531160307  0.8893025550381315  0.7597867316063421
  0.3194617927922536  0.8473187992568586  0.6391082263606038
  0.3439986072130914  0.9139750068378398  0.1016085945496624
  0.3379195002627189  0.8739513525608071  0.9613257785304555
  0.9913967984932663  0.5571871617706776  0.4247993846751880
  0.9859708362717523  0.5169250037835544  0.3026195902625150
  0.7939220248084751  0.3135807350015506  0.7695312275556652
  0.8441174053188663  0.3019026192088767  0.6583734699925574
  0.7434406158486855  0.3473756448238831  0.1020772985226562
  0.7873740933698012  0.3421946708422586  0.9551184129940894
  0.4534374340178269  0.9900930318750498  0.4259442508107417
  0.4992721914759174  0.9850474166345283  0.3051820275931946
  0.7376534556110996  0.4593044758048645  0.5620909060453436
  0.1374138343147321  0.1680909019950050  0.5103215847149664
  0.4782819129754521  0.4973874395623192  0.8559980347910774
  0.6942408879297690  0.1376926167326630  0.5209747742067188
  0.0281895348359050  0.4744331661797845  0.8473531382671993
  0.1706385064965338  0.6915523469043764  0.5188349308903737
  0.4986890457571936  0.0263122602639052  0.8511718956120508
  0.1927971807839464  0.1688235943873943  0.8140590624396187
  0.6403986698486992  0.1918911055936682  0.8224939002439861
  0.1714020618182251  0.6387226044248694  0.8187645839953395
  0.8091921224513364  0.8318362803962880  0.1846226952398246
  0.3614928042608695  0.8075300207902933  0.1849611515770867
  0.8172592204863789  0.3922084529363454  0.1284814065144158
  0.8607163483543170  0.8342358675547342  0.4850786925622734
  0.5331236505949091  0.4984630741359144  0.1594691599491548
  0.3076378402804792  0.8583737917555444  0.4850484615752568
  0.9742872181329170  0.5287696617665899  0.1489097314893884
  0.8526042957014516  0.2745105331957876  0.5265427774751296
  0.4994738581053335  0.9734458042290639  0.1511601765799645
  0.3186915025714147  0.6393927880455463  0.5279586781998350
  0.0439240496497043  0.3154537733139317  0.5132182044111917
  0.6419587018509409  0.0430087168238892  0.5275536529816302
  0.0229653163716188  0.6919002815906337  0.8098807861687094
  0.3514818367101208  0.0258681192546651  0.1422557633173435
  0.2868347600075836  0.0210875211437916  0.8077796123922741
  0.6262564376014131  0.3506303296099594  0.1565594662306322
  0.6931501770039818  0.2858058697457001  0.8181166402601174
  0.0275647208788977  0.6228253851618283  0.1421552991245217
  0.6468894467997626  0.9738045336088851  0.8599483231645600
  0.9791437986780540  0.3139066539354005  0.1749290249985524
  0.3829857972813831  0.6447455867502793  0.8622785405926034
  0.7111788590780985  0.9784086634961309  0.1925451659118356
  0.9769745304581222  0.3793401932209566  0.8517529797883208
  0.3138426785108585  0.7084132183629682  0.1939099890865715
  0.6907899722967830  0.3520003271213326  0.4935537671299891
  0.9584775106381656  0.6876332028520801  0.4772120390468946
  0.3558401490964253  0.9570621088260957  0.4762309632676781
  0.8283465294545400  0.3483723530046560  0.3596251071965432
 
  0.00000000E+00  0.00000000E+00  0.00000000E+00
  0.00000000E+00  0.00000000E+00  0.00000000E+00
  0.00000000E+00  0.00000000E+00  0.00000000E+00
  0.00000000E+00  0.00000000E+00  0.00000000E+00
  0.00000000E+00  0.00000000E+00  0.00000000E+00
  0.00000000E+00  0.00000000E+00  0.00000000E+00
  0.00000000E+00  0.00000000E+00  0.00000000E+00
  0.00000000E+00  0.00000000E+00  0.00000000E+00
  0.00000000E+00  0.00000000E+00  0.00000000E+00
  0.00000000E+00  0.00000000E+00  0.00000000E+00
  0.00000000E+00  0.00000000E+00  0.00000000E+00
  0.00000000E+00  0.00000000E+00  0.00000000E+00
  0.00000000E+00  0.00000000E+00  0.00000000E+00
  0.00000000E+00  0.00000000E+00  0.00000000E+00
  0.00000000E+00  0.00000000E+00  0.00000000E+00
  0.00000000E+00  0.00000000E+00  0.00000000E+00
  0.00000000E+00  0.00000000E+00  0.00000000E+00
  0.00000000E+00  0.00000000E+00  0.00000000E+00
  0.00000000E+00  0.00000000E+00  0.00000000E+00
  0.00000000E+00  0.00000000E+00  0.00000000E+00
  0.00000000E+00  0.00000000E+00  0.00000000E+00
  0.00000000E+00  0.00000000E+00  0.00000000E+00
  0.00000000E+00  0.00000000E+00  0.00000000E+00
  0.00000000E+00  0.00000000E+00  0.00000000E+00
  0.00000000E+00  0.00000000E+00  0.00000000E+00
  0.00000000E+00  0.00000000E+00  0.00000000E+00
  0.00000000E+00  0.00000000E+00  0.00000000E+00
  0.00000000E+00  0.00000000E+00  0.00000000E+00
  0.00000000E+00  0.00000000E+00  0.00000000E+00
  0.00000000E+00  0.00000000E+00  0.00000000E+00
  0.00000000E+00  0.00000000E+00  0.00000000E+00
  0.00000000E+00  0.00000000E+00  0.00000000E+00
  0.00000000E+00  0.00000000E+00  0.00000000E+00
  0.00000000E+00  0.00000000E+00  0.00000000E+00
  0.00000000E+00  0.00000000E+00  0.00000000E+00
  0.00000000E+00  0.00000000E+00  0.00000000E+00
  0.00000000E+00  0.00000000E+00  0.00000000E+00
  0.00000000E+00  0.00000000E+00  0.00000000E+00
  0.00000000E+00  0.00000000E+00  0.00000000E+00
  0.00000000E+00  0.00000000E+00  0.00000000E+00
  0.00000000E+00  0.00000000E+00  0.00000000E+00
  0.00000000E+00  0.00000000E+00  0.00000000E+00
  0.00000000E+00  0.00000000E+00  0.00000000E+00
  0.00000000E+00  0.00000000E+00  0.00000000E+00
  0.00000000E+00  0.00000000E+00  0.00000000E+00
  0.00000000E+00  0.00000000E+00  0.00000000E+00
  0.00000000E+00  0.00000000E+00  0.00000000E+00
  0.00000000E+00  0.00000000E+00  0.00000000E+00
  0.00000000E+00  0.00000000E+00  0.00000000E+00
  0.00000000E+00  0.00000000E+00  0.00000000E+00
  0.00000000E+00  0.00000000E+00  0.00000000E+00
  0.00000000E+00  0.00000000E+00  0.00000000E+00
  0.00000000E+00  0.00000000E+00  0.00000000E+00
  0.00000000E+00  0.00000000E+00  0.00000000E+00
  0.00000000E+00  0.00000000E+00  0.00000000E+00
  0.00000000E+00  0.00000000E+00  0.00000000E+00
  0.00000000E+00  0.00000000E+00  0.00000000E+00
  0.00000000E+00  0.00000000E+00  0.00000000E+00
  0.00000000E+00  0.00000000E+00  0.00000000E+00
  0.00000000E+00  0.00000000E+00  0.00000000E+00
  0.00000000E+00  0.00000000E+00  0.00000000E+00
  0.00000000E+00  0.00000000E+00  0.00000000E+00
  0.00000000E+00  0.00000000E+00  0.00000000E+00
  0.00000000E+00  0.00000000E+00  0.00000000E+00
  0.00000000E+00  0.00000000E+00  0.00000000E+00
  0.00000000E+00  0.00000000E+00  0.00000000E+00
  0.00000000E+00  0.00000000E+00  0.00000000E+00
  0.00000000E+00  0.00000000E+00  0.00000000E+00
  0.00000000E+00  0.00000000E+00  0.00000000E+00
  0.00000000E+00  0.00000000E+00  0.00000000E+00
  0.00000000E+00  0.00000000E+00  0.00000000E+00
  0.00000000E+00  0.00000000E+00  0.00000000E+00
  0.00000000E+00  0.00000000E+00  0.00000000E+00
  0.00000000E+00  0.00000000E+00  0.00000000E+00
  0.00000000E+00  0.00000000E+00  0.00000000E+00
  0.00000000E+00  0.00000000E+00  0.00000000E+00
  0.00000000E+00  0.00000000E+00  0.00000000E+00
  0.00000000E+00  0.00000000E+00  0.00000000E+00
  0.00000000E+00  0.00000000E+00  0.00000000E+00
  0.00000000E+00  0.00000000E+00  0.00000000E+00
  0.00000000E+00  0.00000000E+00  0.00000000E+00
  0.00000000E+00  0.00000000E+00  0.00000000E+00
  0.00000000E+00  0.00000000E+00  0.00000000E+00
  0.00000000E+00  0.00000000E+00  0.00000000E+00
  0.00000000E+00  0.00000000E+00  0.00000000E+00
  0.00000000E+00  0.00000000E+00  0.00000000E+00
  0.00000000E+00  0.00000000E+00  0.00000000E+00
  0.00000000E+00  0.00000000E+00  0.00000000E+00
  0.00000000E+00  0.00000000E+00  0.00000000E+00
  0.00000000E+00  0.00000000E+00  0.00000000E+00
  0.00000000E+00  0.00000000E+00  0.00000000E+00
  0.00000000E+00  0.00000000E+00  0.00000000E+00
  0.00000000E+00  0.00000000E+00  0.00000000E+00
  0.00000000E+00  0.00000000E+00  0.00000000E+00
  0.00000000E+00  0.00000000E+00  0.00000000E+00
  0.00000000E+00  0.00000000E+00  0.00000000E+00
  0.00000000E+00  0.00000000E+00  0.00000000E+00
  0.00000000E+00  0.00000000E+00  0.00000000E+00
  0.00000000E+00  0.00000000E+00  0.00000000E+00
  0.00000000E+00  0.00000000E+00  0.00000000E+00
  0.00000000E+00  0.00000000E+00  0.00000000E+00
  0.00000000E+00  0.00000000E+00  0.00000000E+00
  0.00000000E+00  0.00000000E+00  0.00000000E+00
  0.00000000E+00  0.00000000E+00  0.00000000E+00
  0.00000000E+00  0.00000000E+00  0.00000000E+00
  0.00000000E+00  0.00000000E+00  0.00000000E+00
  0.00000000E+00  0.00000000E+00  0.00000000E+00
  0.00000000E+00  0.00000000E+00  0.00000000E+00
  0.00000000E+00  0.00000000E+00  0.00000000E+00
  0.00000000E+00  0.00000000E+00  0.00000000E+00
  0.00000000E+00  0.00000000E+00  0.00000000E+00
  0.00000000E+00  0.00000000E+00  0.00000000E+00
  0.00000000E+00  0.00000000E+00  0.00000000E+00
  0.00000000E+00  0.00000000E+00  0.00000000E+00
  0.00000000E+00  0.00000000E+00  0.00000000E+00
  0.00000000E+00  0.00000000E+00  0.00000000E+00
  0.00000000E+00  0.00000000E+00  0.00000000E+00
  0.00000000E+00  0.00000000E+00  0.00000000E+00
  0.00000000E+00  0.00000000E+00  0.00000000E+00
  0.00000000E+00  0.00000000E+00  0.00000000E+00
  0.00000000E+00  0.00000000E+00  0.00000000E+00
  0.00000000E+00  0.00000000E+00  0.00000000E+00
  0.00000000E+00  0.00000000E+00  0.00000000E+00
  0.00000000E+00  0.00000000E+00  0.00000000E+00
  0.00000000E+00  0.00000000E+00  0.00000000E+00
  0.00000000E+00  0.00000000E+00  0.00000000E+00
  0.00000000E+00  0.00000000E+00  0.00000000E+00
  0.00000000E+00  0.00000000E+00  0.00000000E+00
  0.00000000E+00  0.00000000E+00  0.00000000E+00
  0.00000000E+00  0.00000000E+00  0.00000000E+00
  0.00000000E+00  0.00000000E+00  0.00000000E+00
  0.00000000E+00  0.00000000E+00  0.00000000E+00
  0.00000000E+00  0.00000000E+00  0.00000000E+00
  0.00000000E+00  0.00000000E+00  0.00000000E+00
  0.00000000E+00  0.00000000E+00  0.00000000E+00
  0.00000000E+00  0.00000000E+00  0.00000000E+00
  0.00000000E+00  0.00000000E+00  0.00000000E+00
  0.00000000E+00  0.00000000E+00  0.00000000E+00
  0.00000000E+00  0.00000000E+00  0.00000000E+00
  0.00000000E+00  0.00000000E+00  0.00000000E+00
  0.00000000E+00  0.00000000E+00  0.00000000E+00
  0.00000000E+00  0.00000000E+00  0.00000000E+00
  0.00000000E+00  0.00000000E+00  0.00000000E+00
  0.00000000E+00  0.00000000E+00  0.00000000E+00
  0.00000000E+00  0.00000000E+00  0.00000000E+00
  0.00000000E+00  0.00000000E+00  0.00000000E+00
  0.00000000E+00  0.00000000E+00  0.00000000E+00
  0.00000000E+00  0.00000000E+00  0.00000000E+00
  0.00000000E+00  0.00000000E+00  0.00000000E+00
  0.00000000E+00  0.00000000E+00  0.00000000E+00
  0.00000000E+00  0.00000000E+00  0.00000000E+00
  0.00000000E+00  0.00000000E+00  0.00000000E+00
  0.00000000E+00  0.00000000E+00  0.00000000E+00
  0.00000000E+00  0.00000000E+00  0.00000000E+00
  0.00000000E+00  0.00000000E+00  0.00000000E+00
  0.00000000E+00  0.00000000E+00  0.00000000E+00
  0.00000000E+00  0.00000000E+00  0.00000000E+00
  0.00000000E+00  0.00000000E+00  0.00000000E+00
  0.00000000E+00  0.00000000E+00  0.00000000E+00
  0.00000000E+00  0.00000000E+00  0.00000000E+00
  0.00000000E+00  0.00000000E+00  0.00000000E+00
  0.00000000E+00  0.00000000E+00  0.00000000E+00
  0.00000000E+00  0.00000000E+00  0.00000000E+00
  0.00000000E+00  0.00000000E+00  0.00000000E+00
  0.00000000E+00  0.00000000E+00  0.00000000E+00
  0.00000000E+00  0.00000000E+00  0.00000000E+00
