 166 166   0   0
  0.2398940E+02  0.2598693E-08  0.2598599E-08  0.6809832E-09  0.5000000E-15
  1.000000000000000E-004
  CAR 
 Co–organic framework                  
      6.74134451    -28.43504167  301     -0.92086873      1.00000000
    -28.435  0.0000E+00  0.0000E+00  0.0000E+00  0.0000E+00
    -28.318  0.0000E+00  0.0000E+00  0.0000E+00  0.0000E+00
    -28.201  0.0000E+00  0.0000E+00  0.0000E+00  0.0000E+00
    -28.083  0.0000E+00  0.0000E+00  0.0000E+00  0.0000E+00
    -27.966  0.0000E+00  0.0000E+00  0.0000E+00  0.0000E+00
    -27.849  0.0000E+00  0.0000E+00  0.0000E+00  0.0000E+00
    -27.732  0.0000E+00  0.0000E+00  0.0000E+00  0.0000E+00
    -27.614  0.0000E+00  0.0000E+00  0.0000E+00  0.0000E+00
    -27.497  0.0000E+00  0.0000E+00  0.0000E+00  0.0000E+00
    -27.380  0.0000E+00  0.0000E+00  0.0000E+00  0.0000E+00
    -27.262  0.0000E+00  0.0000E+00  0.0000E+00  0.0000E+00
    -27.145  0.0000E+00  0.0000E+00  0.0000E+00  0.0000E+00
    -27.028  0.2445E-09  0.2080E-09  0.2866E-10  0.2439E-10
    -26.911  0.1485E-03  0.1382E-03  0.1741E-04  0.1621E-04
    -26.793  0.7408E-02  0.7371E-02  0.8861E-03  0.8804E-03
    -26.676  0.9715E-03  0.1020E-02  0.1000E-02  0.1000E-02
    -26.559  0.2607E-07  0.2985E-07  0.1000E-02  0.1000E-02
    -26.442  0.1894E-16  0.2462E-16  0.1000E-02  0.1000E-02
    -26.324  0.0000E+00  0.0000E+00  0.1000E-02  0.1000E-02
    -26.207  0.0000E+00  0.0000E+00  0.1000E-02  0.1000E-02
    -26.090  0.2687E-14  0.1992E-14  0.1000E-02  0.1000E-02
    -25.973  0.4503E-06  0.3806E-06  0.1000E-02  0.1000E-02
    -25.855  0.2451E-02  0.2334E-02  0.1287E-02  0.1274E-02
    -25.738  0.6052E-02  0.6166E-02  0.1997E-02  0.1997E-02
    -25.621  0.2498E-04  0.2828E-04  0.2000E-02  0.2000E-02
    -25.504  0.5386E-11  0.6936E-11  0.2000E-02  0.2000E-02
    -25.386  0.0000E+00  0.0000E+00  0.2000E-02  0.2000E-02
    -25.269  0.0000E+00  0.0000E+00  0.2000E-02  0.2000E-02
    -25.152  0.0000E+00  0.0000E+00  0.2000E-02  0.2000E-02
    -25.035  0.0000E+00  0.0000E+00  0.2000E-02  0.2000E-02
    -24.917  0.4924E-16  0.0000E+00  0.2000E-02  0.2000E-02
    -24.800  0.4533E-07  0.5527E-13  0.2000E-02  0.2000E-02
    -24.683  0.1186E-02  0.2368E-05  0.2139E-02  0.2000E-02
    -24.566  0.1184E-01  0.3923E-02  0.3527E-02  0.2460E-02
    -24.448  0.4033E-02  0.1202E-01  0.4000E-02  0.3870E-02
    -24.331  0.1312E-02  0.1107E-02  0.4154E-02  0.4000E-02
    -24.214  0.4529E-01  0.1178E-02  0.9464E-02  0.4138E-02
    -24.097  0.5589E-01  0.4492E-01  0.1602E-01  0.9406E-02
    -23.979  0.3393E-01  0.5838E-01  0.2000E-01  0.1625E-01
    -23.862  0.3497E-04  0.3194E-01  0.2000E-01  0.2000E-01
    -23.745  0.1929E-11  0.2668E-04  0.2000E-01  0.2000E-01
    -23.628  0.0000E+00  0.1128E-11  0.2000E-01  0.2000E-01
    -23.510  0.0000E+00  0.0000E+00  0.2000E-01  0.2000E-01
    -23.393  0.0000E+00  0.0000E+00  0.2000E-01  0.2000E-01
    -23.276  0.0000E+00  0.0000E+00  0.2000E-01  0.2000E-01
    -23.159  0.0000E+00  0.0000E+00  0.2000E-01  0.2000E-01
    -23.041  0.2862E-10  0.0000E+00  0.2000E-01  0.2000E-01
    -22.924  0.5648E-04  0.7441E-12  0.2001E-01  0.2000E-01
    -22.807  0.9526E-02  0.9298E-05  0.2112E-01  0.2000E-01
    -22.690  0.7457E-02  0.6236E-02  0.2200E-01  0.2073E-01
    -22.572  0.6915E-04  0.1069E-01  0.2201E-01  0.2199E-01
    -22.455  0.2085E-01  0.1184E-03  0.2445E-01  0.2200E-01
    -22.338  0.1044E+00  0.6738E-03  0.3670E-01  0.2208E-01
    -22.221  0.2796E-01  0.3301E-01  0.3998E-01  0.2595E-01
    -22.103  0.1987E-03  0.1057E+00  0.4000E-01  0.3834E-01
    -21.986  0.3570E-04  0.1412E-01  0.4000E-01  0.4000E-01
    -21.869  0.1282E-01  0.6872E-05  0.4151E-01  0.4000E-01
    -21.752  0.7471E-01  0.6234E-02  0.5027E-01  0.4073E-01
    -21.634  0.4882E-01  0.5398E-01  0.5599E-01  0.4706E-01
    -21.517  0.7105E-04  0.7565E-01  0.5600E-01  0.5593E-01
    -21.400  0.1036E-10  0.5928E-03  0.5600E-01  0.5600E-01
    -21.283  0.0000E+00  0.6025E-09  0.5600E-01  0.5600E-01
    -21.165  0.0000E+00  0.0000E+00  0.5600E-01  0.5600E-01
    -21.048  0.0000E+00  0.0000E+00  0.5600E-01  0.5600E-01
    -20.931  0.0000E+00  0.0000E+00  0.5600E-01  0.5600E-01
    -20.813  0.0000E+00  0.0000E+00  0.5600E-01  0.5600E-01
    -20.696  0.0000E+00  0.0000E+00  0.5600E-01  0.5600E-01
    -20.579  0.0000E+00  0.0000E+00  0.5600E-01  0.5600E-01
    -20.462  0.0000E+00  0.0000E+00  0.5600E-01  0.5600E-01
    -20.344  0.0000E+00  0.0000E+00  0.5600E-01  0.5600E-01
    -20.227  0.0000E+00  0.0000E+00  0.5600E-01  0.5600E-01
    -20.110  0.0000E+00  0.0000E+00  0.5600E-01  0.5600E-01
    -19.993  0.0000E+00  0.0000E+00  0.5600E-01  0.5600E-01
    -19.875  0.0000E+00  0.0000E+00  0.5600E-01  0.5600E-01
    -19.758  0.0000E+00  0.0000E+00  0.5600E-01  0.5600E-01
    -19.641  0.0000E+00  0.0000E+00  0.5600E-01  0.5600E-01
    -19.524  0.0000E+00  0.0000E+00  0.5600E-01  0.5600E-01
    -19.406  0.0000E+00  0.0000E+00  0.5600E-01  0.5600E-01
    -19.289  0.0000E+00  0.0000E+00  0.5600E-01  0.5600E-01
    -19.172  0.0000E+00  0.0000E+00  0.5600E-01  0.5600E-01
    -19.055  0.0000E+00  0.0000E+00  0.5600E-01  0.5600E-01
    -18.937  0.3404E-13  0.3409E-16  0.5600E-01  0.5600E-01
    -18.820  0.1824E-05  0.3650E-07  0.5600E-01  0.5600E-01
    -18.703  0.3567E-02  0.1095E-02  0.5642E-01  0.5613E-01
    -18.586  0.4952E-02  0.7310E-02  0.5700E-01  0.5699E-01
    -18.468  0.7964E-05  0.1240E-03  0.5700E-01  0.5700E-01
    -18.351  0.5550E-12  0.1631E-09  0.5700E-01  0.5700E-01
    -18.234  0.2488E-11  0.7101E-17  0.5700E-01  0.5700E-01
    -18.117  0.2444E-04  0.1815E-07  0.5700E-01  0.5700E-01
    -17.999  0.2032E-01  0.1581E-02  0.5939E-01  0.5719E-01
    -17.882  0.4705E-01  0.5005E-01  0.6490E-01  0.6305E-01
    -17.765  0.8262E-03  0.1658E-01  0.6500E-01  0.6500E-01
    -17.648  0.3095E-08  0.1066E-04  0.6500E-01  0.6500E-01
    -17.530  0.0000E+00  0.4578E-12  0.6500E-01  0.6500E-01
    -17.413  0.0000E+00  0.0000E+00  0.6500E-01  0.6500E-01
    -17.296  0.0000E+00  0.0000E+00  0.6500E-01  0.6500E-01
    -17.179  0.0000E+00  0.0000E+00  0.6500E-01  0.6500E-01
    -17.061  0.1055E-08  0.6241E-10  0.6500E-01  0.6500E-01
    -16.944  0.2784E-03  0.8020E-04  0.6503E-01  0.6501E-01
    -16.827  0.7650E-02  0.7026E-02  0.6593E-01  0.6583E-01
    -16.710  0.6000E-03  0.1422E-02  0.6600E-01  0.6600E-01
    -16.592  0.7125E-08  0.7842E-07  0.6600E-01  0.6600E-01
    -16.475  0.0000E+00  0.1269E-15  0.6600E-01  0.6600E-01
    -16.358  0.2807E-10  0.1197E-13  0.6600E-01  0.6600E-01
    -16.241  0.8201E-04  0.1349E-05  0.6601E-01  0.6600E-01
    -16.123  0.2786E-01  0.8034E-02  0.6928E-01  0.6694E-01
    -16.006  0.3995E-01  0.5575E-01  0.7396E-01  0.7348E-01
    -15.889  0.3382E-03  0.4446E-02  0.7400E-01  0.7400E-01
    -15.772  0.4396E-09  0.2022E-06  0.7400E-01  0.7400E-01
    -15.654  0.1621E-10  0.3245E-14  0.7400E-01  0.7400E-01
    -15.537  0.4260E-04  0.4662E-06  0.7400E-01  0.7400E-01
    -15.420  0.6528E-02  0.2476E-02  0.7477E-01  0.7429E-01
    -15.303  0.1958E-02  0.6028E-02  0.7500E-01  0.7500E-01
    -15.185  0.2122E-06  0.2435E-04  0.7500E-01  0.7500E-01
    -15.068  0.8773E-15  0.5109E-11  0.7500E-01  0.7500E-01
    -14.951  0.9331E-07  0.6725E-13  0.7500E-01  0.7500E-01
    -14.834  0.1891E-02  0.2735E-05  0.7522E-01  0.7500E-01
    -14.716  0.3441E-01  0.6443E-02  0.7926E-01  0.7576E-01
    -14.599  0.3127E-01  0.4232E-01  0.8292E-01  0.8072E-01
    -14.482  0.6589E-03  0.1940E-01  0.8300E-01  0.8299E-01
    -14.364  0.1027E-06  0.6214E-04  0.8300E-01  0.8300E-01
    -14.247  0.1542E-02  0.1967E-03  0.8318E-01  0.8302E-01
    -14.130  0.6917E-02  0.7538E-02  0.8399E-01  0.8391E-01
    -14.013  0.6912E-04  0.7934E-03  0.8400E-01  0.8400E-01
    -13.895  0.4525E-10  0.1495E-07  0.8400E-01  0.8400E-01
    -13.778  0.1088E-06  0.2820E-11  0.8400E-01  0.8400E-01
    -13.661  0.3040E-02  0.2409E-04  0.8436E-01  0.8400E-01
    -13.544  0.5422E-01  0.1935E-01  0.9071E-01  0.8627E-01
    -13.426  0.1097E-01  0.4787E-01  0.9200E-01  0.9188E-01
    -13.309  0.2430E-05  0.9865E-03  0.9200E-01  0.9200E-01
    -13.192  0.2628E-13  0.4268E-08  0.9200E-01  0.9200E-01
    -13.075  0.0000E+00  0.0000E+00  0.9200E-01  0.9200E-01
    -12.957  0.0000E+00  0.0000E+00  0.9200E-01  0.9200E-01
    -12.840  0.1131E-13  0.3361E-16  0.9200E-01  0.9200E-01
    -12.723  0.1000E-05  0.3613E-07  0.9200E-01  0.9200E-01
    -12.606  0.3058E-02  0.1091E-02  0.9236E-01  0.9213E-01
    -12.488  0.5457E-02  0.7313E-02  0.9300E-01  0.9299E-01
    -12.371  0.1336E-04  0.1247E-03  0.9300E-01  0.9300E-01
    -12.254  0.3099E-09  0.1652E-09  0.9300E-01  0.9300E-01
    -12.137  0.1644E-03  0.1329E-07  0.9302E-01  0.9300E-01
    -12.019  0.7467E-02  0.7596E-03  0.9389E-01  0.9309E-01
    -11.902  0.1080E-01  0.7614E-02  0.9516E-01  0.9398E-01
    -11.785  0.4429E-01  0.2213E-01  0.1004E+00  0.9658E-01
    -11.668  0.3398E-01  0.5250E-01  0.1043E+00  0.1027E+00
    -11.550  0.3036E-01  0.1220E-01  0.1079E+00  0.1042E+00
    -11.433  0.2869E-01  0.2871E-01  0.1113E+00  0.1075E+00
    -11.316  0.6296E-02  0.3003E-01  0.1120E+00  0.1111E+00
    -11.199  0.5605E-02  0.8086E-02  0.1127E+00  0.1120E+00
    -11.081  0.7727E-02  0.3440E-02  0.1136E+00  0.1124E+00
    -10.964  0.2055E-01  0.5796E-02  0.1160E+00  0.1131E+00
    -10.847  0.1012E-01  0.2228E-01  0.1172E+00  0.1157E+00
    -10.730  0.1632E-01  0.4302E-02  0.1191E+00  0.1162E+00
    -10.612  0.9113E-02  0.1640E-01  0.1201E+00  0.1181E+00
    -10.495  0.1089E-01  0.2282E-01  0.1214E+00  0.1208E+00
    -10.378  0.2096E-01  0.1251E-01  0.1239E+00  0.1223E+00
    -10.261  0.3131E-01  0.1650E-01  0.1275E+00  0.1242E+00
    -10.143  0.2239E-01  0.1820E-01  0.1302E+00  0.1263E+00
    -10.026  0.2692E-01  0.1935E-01  0.1333E+00  0.1286E+00
     -9.909  0.2107E-01  0.3064E-01  0.1358E+00  0.1322E+00
     -9.792  0.2240E-01  0.2186E-01  0.1384E+00  0.1348E+00
     -9.674  0.2976E-01  0.1695E-01  0.1419E+00  0.1367E+00
     -9.557  0.9275E-02  0.3601E-01  0.1430E+00  0.1410E+00
     -9.440  0.1770E-01  0.1698E-01  0.1451E+00  0.1430E+00
     -9.323  0.4331E-01  0.1032E-01  0.1502E+00  0.1442E+00
     -9.205  0.2047E-01  0.4252E-01  0.1526E+00  0.1492E+00
     -9.088  0.3279E-01  0.2480E-01  0.1564E+00  0.1521E+00
     -8.971  0.3747E-01  0.2329E-01  0.1608E+00  0.1548E+00
     -8.854  0.2644E-01  0.4080E-01  0.1639E+00  0.1596E+00
     -8.736  0.4250E-01  0.2116E-01  0.1689E+00  0.1621E+00
     -8.619  0.1922E-01  0.4093E-01  0.1711E+00  0.1669E+00
     -8.502  0.5943E-01  0.3241E-01  0.1781E+00  0.1707E+00
     -8.385  0.1091E-01  0.5410E-01  0.1794E+00  0.1770E+00
     -8.267  0.2032E-01  0.2450E-01  0.1818E+00  0.1799E+00
     -8.150  0.4623E-01  0.2822E-01  0.1872E+00  0.1832E+00
     -8.033  0.2764E-01  0.4134E-01  0.1904E+00  0.1880E+00
     -7.915  0.1668E-01  0.2871E-01  0.1924E+00  0.1914E+00
     -7.798  0.3483E-01  0.1859E-01  0.1965E+00  0.1936E+00
     -7.681  0.1060E-01  0.2840E-01  0.1977E+00  0.1969E+00
     -7.564  0.1474E-01  0.6409E-02  0.1994E+00  0.1977E+00
     -7.446  0.5278E-01  0.2958E-02  0.2056E+00  0.1980E+00
     -7.329  0.1173E-01  0.2015E-01  0.2070E+00  0.2004E+00
     -7.212  0.9935E-02  0.5495E-01  0.2082E+00  0.2068E+00
     -7.095  0.6677E-01  0.1839E-02  0.2160E+00  0.2070E+00
     -6.977  0.8329E-01  0.5120E-01  0.2258E+00  0.2130E+00
     -6.860  0.4836E-01  0.9486E-01  0.2314E+00  0.2242E+00
     -6.743  0.1786E-01  0.1785E-01  0.2335E+00  0.2262E+00
     -6.626  0.4058E-02  0.3834E-01  0.2340E+00  0.2307E+00
     -6.508  0.4130E-05  0.2417E-01  0.2340E+00  0.2336E+00
     -6.391  0.9622E-02  0.3633E-02  0.2351E+00  0.2340E+00
     -6.274  0.5021E-01  0.1795E-04  0.2410E+00  0.2340E+00
     -6.157  0.1760E-01  0.2027E-01  0.2431E+00  0.2364E+00
     -6.039  0.3286E-01  0.4742E-01  0.2469E+00  0.2419E+00
     -5.922  0.4337E-01  0.1464E-02  0.2520E+00  0.2421E+00
     -5.805  0.2947E-01  0.7434E-02  0.2555E+00  0.2430E+00
     -5.688  0.3976E-01  0.4857E-02  0.2601E+00  0.2436E+00
     -5.570  0.1582E-01  0.3853E-01  0.2620E+00  0.2481E+00
     -5.453  0.1830E-01  0.4310E-01  0.2641E+00  0.2531E+00
     -5.336  0.3610E-01  0.2217E-01  0.2684E+00  0.2557E+00
     -5.219  0.5704E-01  0.4752E-01  0.2751E+00  0.2613E+00
     -5.101  0.6299E-01  0.1855E-01  0.2824E+00  0.2635E+00
     -4.984  0.3251E-01  0.2401E-01  0.2863E+00  0.2663E+00
     -4.867  0.2092E-01  0.3809E-01  0.2887E+00  0.2708E+00
     -4.750  0.3318E-01  0.3362E-01  0.2926E+00  0.2747E+00
     -4.632  0.5737E-01  0.1077E-01  0.2993E+00  0.2760E+00
     -4.515  0.5929E-01  0.7117E-01  0.3063E+00  0.2843E+00
     -4.398  0.3188E-01  0.4013E-01  0.3100E+00  0.2890E+00
     -4.281  0.5726E-01  0.3170E-01  0.3167E+00  0.2927E+00
     -4.163  0.2523E-02  0.4394E-01  0.3170E+00  0.2979E+00
     -4.046  0.7643E-02  0.7531E-01  0.3179E+00  0.3067E+00
     -3.929  0.9517E-02  0.2533E-01  0.3190E+00  0.3097E+00
     -3.812  0.3605E-01  0.4590E-01  0.3233E+00  0.3151E+00
     -3.694  0.4485E-01  0.2458E-01  0.3285E+00  0.3179E+00
     -3.577  0.3759E-01  0.7895E-02  0.3329E+00  0.3189E+00
     -3.460  0.5526E-01  0.2342E-01  0.3394E+00  0.3216E+00
     -3.343  0.5850E-01  0.5626E-01  0.3463E+00  0.3282E+00
     -3.225  0.3154E-01  0.2704E-01  0.3500E+00  0.3314E+00
     -3.108  0.1274E-01  0.5274E-02  0.3515E+00  0.3320E+00
     -2.991  0.5794E-01  0.6397E-05  0.3583E+00  0.3320E+00
     -2.874  0.1064E+00  0.5220E-03  0.3707E+00  0.3321E+00
     -2.756  0.1040E+00  0.7680E-02  0.3829E+00  0.3330E+00
     -2.639  0.5249E-01  0.3259E-03  0.3891E+00  0.3330E+00
     -2.522  0.8681E-01  0.1025E-07  0.3993E+00  0.3330E+00
     -2.405  0.4005E-01  0.9170E-03  0.4040E+00  0.3331E+00
     -2.287  0.7167E-02  0.2686E-01  0.4048E+00  0.3363E+00
     -2.170  0.1003E-01  0.3496E-01  0.4060E+00  0.3404E+00
     -2.053  0.3771E-01  0.5483E-02  0.4104E+00  0.3410E+00
     -1.935  0.3229E-01  0.8212E-05  0.4142E+00  0.3410E+00
     -1.818  0.1874E-01  0.2943E-11  0.4164E+00  0.3410E+00
     -1.701  0.4619E-01  0.1665E-04  0.4218E+00  0.3410E+00
     -1.584  0.1047E-01  0.8217E-02  0.4230E+00  0.3420E+00
     -1.466  0.1625E-01  0.6008E-01  0.4249E+00  0.3490E+00
     -1.349  0.4225E-01  0.4279E-01  0.4299E+00  0.3540E+00
     -1.232  0.9580E-02  0.7629E-01  0.4310E+00  0.3630E+00
     -1.115  0.4333E-05  0.1057E+00  0.4310E+00  0.3754E+00
     -0.997  0.1264E-12  0.1497E-01  0.4310E+00  0.3771E+00
     -0.880  0.0000E+00  0.1202E-01  0.4310E+00  0.3785E+00
     -0.763  0.0000E+00  0.1005E-01  0.4310E+00  0.3797E+00
     -0.646  0.0000E+00  0.3043E-01  0.4310E+00  0.3833E+00
     -0.528  0.0000E+00  0.5659E-01  0.4310E+00  0.3899E+00
     -0.411  0.3169E-10  0.4242E-01  0.4310E+00  0.3949E+00
     -0.294  0.5852E-04  0.9827E-03  0.4310E+00  0.3950E+00
     -0.177  0.6789E-02  0.6925E-02  0.4318E+00  0.3958E+00
     -0.059  0.1681E-02  0.1834E-02  0.4320E+00  0.3960E+00
      0.058  0.1307E-06  0.2662E-01  0.4320E+00  0.3992E+00
      0.175  0.6715E-14  0.9150E-01  0.4320E+00  0.4099E+00
      0.292  0.1003E-05  0.3484E-01  0.4320E+00  0.4140E+00
      0.410  0.7927E-02  0.5935E-03  0.4329E+00  0.4140E+00
      0.527  0.5578E-01  0.2388E-01  0.4395E+00  0.4168E+00
      0.644  0.4522E-02  0.5287E-01  0.4400E+00  0.4230E+00
      0.761  0.2935E-06  0.7080E-01  0.4400E+00  0.4313E+00
      0.879  0.8806E-15  0.7092E-01  0.4400E+00  0.4397E+00
      0.996  0.0000E+00  0.2938E-02  0.4400E+00  0.4400E+00
      1.113  0.2191E-14  0.3290E-07  0.4400E+00  0.4400E+00
      1.230  0.4033E-06  0.3645E-16  0.4400E+00  0.4400E+00
      1.348  0.2714E-02  0.3352E-07  0.4403E+00  0.4400E+00
      1.465  0.1382E-01  0.1069E-02  0.4419E+00  0.4401E+00
      1.582  0.4763E-02  0.1209E-01  0.4425E+00  0.4415E+00
      1.699  0.6003E-02  0.6591E-02  0.4432E+00  0.4423E+00
      1.817  0.1256E-01  0.1925E-01  0.4447E+00  0.4446E+00
      1.934  0.2784E-02  0.3635E-02  0.4450E+00  0.4450E+00
      2.051  0.2367E-04  0.1295E-05  0.4450E+00  0.4450E+00
      2.168  0.1476E-01  0.2496E-04  0.4467E+00  0.4450E+00
      2.286  0.6940E-01  0.1686E-01  0.4549E+00  0.4470E+00
      2.403  0.7041E-01  0.6518E-01  0.4631E+00  0.4546E+00
      2.520  0.2089E-01  0.6433E-01  0.4656E+00  0.4622E+00
      2.637  0.5111E-02  0.1675E-01  0.4662E+00  0.4641E+00
      2.755  0.1159E-01  0.1429E-01  0.4675E+00  0.4658E+00
      2.872  0.4050E-02  0.2213E-02  0.4680E+00  0.4661E+00
      2.989  0.1051E-01  0.1433E-01  0.4692E+00  0.4677E+00
      3.106  0.2479E-01  0.8963E-02  0.4721E+00  0.4688E+00
      3.224  0.2418E-01  0.1929E-01  0.4750E+00  0.4711E+00
      3.341  0.1712E-01  0.1685E-01  0.4770E+00  0.4730E+00
      3.458  0.5467E-02  0.2633E-01  0.4776E+00  0.4761E+00
      3.575  0.1750E-01  0.7512E-02  0.4797E+00  0.4770E+00
      3.693  0.4946E-02  0.5243E-02  0.4803E+00  0.4776E+00
      3.810  0.7259E-02  0.1064E-01  0.4811E+00  0.4789E+00
      3.927  0.2042E-01  0.1834E-01  0.4835E+00  0.4810E+00
      4.044  0.1926E-01  0.2057E-01  0.4858E+00  0.4834E+00
      4.162  0.2946E-01  0.2526E-01  0.4892E+00  0.4864E+00
      4.279  0.3102E-01  0.3511E-01  0.4929E+00  0.4905E+00
      4.396  0.2509E-01  0.1798E-01  0.4958E+00  0.4926E+00
      4.514  0.2943E-01  0.1509E-01  0.4993E+00  0.4944E+00
      4.631  0.1775E-01  0.2009E-01  0.5013E+00  0.4967E+00
      4.748  0.3281E-01  0.2978E-01  0.5052E+00  0.5002E+00
      4.865  0.3487E-01  0.3338E-01  0.5093E+00  0.5041E+00
      4.983  0.3721E-01  0.4343E-01  0.5136E+00  0.5092E+00
      5.100  0.2001E-01  0.4006E-01  0.5160E+00  0.5139E+00
      5.217  0.1756E-03  0.1744E-01  0.5160E+00  0.5160E+00
      5.334  0.1929E-09  0.1819E-03  0.5160E+00  0.5160E+00
      5.452  0.0000E+00  0.2538E-09  0.5160E+00  0.5160E+00
      5.569  0.0000E+00  0.0000E+00  0.5160E+00  0.5160E+00
      5.686  0.0000E+00  0.0000E+00  0.5160E+00  0.5160E+00
      5.803  0.0000E+00  0.0000E+00  0.5160E+00  0.5160E+00
      5.921  0.0000E+00  0.0000E+00  0.5160E+00  0.5160E+00
      6.038  0.0000E+00  0.0000E+00  0.5160E+00  0.5160E+00
      6.155  0.0000E+00  0.0000E+00  0.5160E+00  0.5160E+00
      6.272  0.0000E+00  0.0000E+00  0.5160E+00  0.5160E+00
      6.390  0.0000E+00  0.0000E+00  0.5160E+00  0.5160E+00
      6.507  0.0000E+00  0.0000E+00  0.5160E+00  0.5160E+00
      6.624  0.0000E+00  0.0000E+00  0.5160E+00  0.5160E+00
      6.741  0.0000E+00  0.0000E+00  0.5160E+00  0.5160E+00
