O  C  H  Co Li
 1.0000000000000000
    25.9869300222800774    0.0014776472087939   -0.0002841704448074
    12.9947443186480527   22.5035161465627063   -0.0005769115704474
    -0.0000740905812471   -0.0001328080293999    6.8098320633878924
 O   C   H   Co  Li 
  56  73  18  18   1
Direct
  0.0537010262402458  0.2492108794185354  0.3220339681336106
  0.0267360991832005  0.2911624170140746  0.9288183958617937
  0.1036102093054680  0.2588841474201707  0.7239530148280720
  0.3976706471632492  0.5783223545763557  0.6661288502292354
  0.6949573047026157  0.0556272989472626  0.3342460143630793
  0.6814498901542260  0.0277134037746759  0.9422799056625547
  0.6364793970855255  0.1038634526459669  0.7348841488956650
  0.0294157099689093  0.3909432184349497  0.6527746889227466
  0.2535010579234367  0.6902167950897165  0.3308095407179020
  0.2956312216519861  0.6770213260604983  0.9413144939254972
  0.2644760069837145  0.6327413233587552  0.7306576147346843
  0.5810268592785944  0.0260892930375794  0.6665071221880065
  0.3007728176370030  0.0453599237343321  0.3975400941979143
  0.2248975808132695  0.0754397038571626  0.6056326164352368
  0.6433874419198449  0.3732626044394992  0.7412857080967225
  0.5666042179680618  0.4056796233089405  0.9470557103556266
  0.2725949174298026  0.0866699269136834  0.0065335175437900
  0.6554682222782555  0.3008983964695505  0.4066900891116448
  0.6985258751171242  0.2253232182967435  0.6176588275390587
 -0.0112854305818545  0.6368521232504207  0.7297215695706952
  0.0339014711922158  0.5606646793536584  0.9368865508732467
  0.6418588180073583  0.2732403534555281  0.0180697763894427
  0.0471118128100247  0.6516839622093995  0.3960982987491463
  0.0779494797280130  0.6965176737532641  0.6056418278502713
  0.3745332682729304  0.9875763656495734  0.7313800976121737
  0.4057746072416334  0.0318470173299566  0.9417463774166260
  0.0890419339569932  0.6386666915576957  0.0054068895627116
  0.6963746578967374  0.9543566815972678  0.6083234973427146
  0.7717585675343264  0.9235859759714218  0.3975178113279603
  0.3693543878757127  0.6197704067631743  0.2752497721439084
  0.4451609482014956  0.5898815772628069  0.0669630871775110
  0.7256805152231353  0.9119354917372177  0.9979946834824616
  0.3527043237013688  0.6935330602571249  0.6081988186633658
  0.3071312246356909  0.7688383039913028  0.3976259918779899
  0.0148600880446303  0.3637155907751156  0.2633925331494228
  0.9724310550692867  0.4394168662722446  0.0529454871246697
  0.3654884025212837  0.7230017908666712  0.9979415633011766
  0.9577486527699606  0.3457351365579340  0.5947379792777040
  0.9158867193974151  0.3131032084432907  0.3782266598085449
  0.6229918125296080  0.0129488312783458  0.2758302887462389
  0.5920901211217345  0.9681740593935850  0.0662875887454302
  0.9104932410417779  0.3703547592585461  0.9819747398396912
  0.9443558033594638  0.7526550965984987  0.6739479106041085
  0.9736918815893962  0.7102915446100820  0.0636031228789702
  0.8983130366730810  0.7409672913264004  0.2743941056845443
  0.6160949819869741  0.4157022257092937  0.3480276406516798
  0.3041987968069113  0.9421425021520211  0.6745329580707984
  0.3169404762945424  0.9716122760739735  0.0645948543240749
  0.3624894400510160  0.8962529086828658  0.2749572134927180
  0.9752133091530703  0.6089862497963834  0.3375708244792934
  0.7587889296120482  0.2962148490606891  0.6839402193211428
  0.7142429937736177  0.3180038251966241  0.0778511695029018
  0.7500955293921542  0.3589987169354993  0.2846722924843236
  0.4165920174189876  0.9744149176107380  0.3415205654941394
  0.6887334905088601  0.5069683098535905  0.5884656735486110
  0.7833736691018163  0.4429746455163215  0.4567107052973974
  0.1059061656347673  0.2105551692886392  0.2371460137488905
  0.1481861283669888  0.1654780115848300  0.3585079648225469
  0.0827123950237954  0.2562571503748861  0.8904961674525578
  0.1217042449876987  0.2122160067087560  0.0364495916351253
  0.4496854572587795  0.5403750460496891  0.5802934970321453
  0.4918628297372229  0.4951951467905054  0.7010188843286714
  0.6815454614579319  0.1074806210268300  0.2488419875295957
  0.6843862185039113  0.1495697755292595  0.3705423919111558
  0.6599250602015880  0.0834944738377453  0.9019032330682856
  0.6646515987432883  0.1229866112639455  0.0475643648665373
  0.0164058801928912  0.4430066656337650  0.5681376679977831
  0.0196117626609333  0.4849310576202392  0.6896559026627512
  0.2148738164663390  0.6773903567006812  0.2437741761670320
  0.1693255318528293  0.6806175210428915  0.3633360122234444
  0.2611971292021945  0.6559443177857278  0.8983102184471977
  0.2164617193845348  0.6609030899453205  0.0419476338138473
  0.5423520131513193  0.0133374925194817  0.5791474726013883
  0.4967962304774104  0.0165707812053956  0.6987590995571592
  0.2449323175888077  0.0789710256117561  0.4384712566889084
  0.2049430144961643  0.1230178204023134  0.2930829336233934
  0.5874402489730906  0.4083210386584940  0.7804156593175364
  0.5484623478526554  0.4526147439010211  0.6349165890277958
  0.2205959924831082  0.1247358751601956  0.0921792616223038
  0.1783907215277268  0.1696768987953664  0.9708787541567535
  0.6758784211169253  0.2452058871395907  0.4496297166875612
  0.6710210452104706  0.2059516395822871  0.3044542974835951
  0.0104466204077318  0.5810261817831089  0.7698628525755475
  0.0059239795567232  0.5414737107318833  0.6239850343933393
  0.6545317274691067  0.2213052506141866  0.1029873424347061
  0.6512658779786166  0.1794065238758386  0.9815259019431487
  0.0814166938676398  0.6729280139968558  0.4385068545960188
  0.1261696287770574  0.6678615190885513  0.2947306601340236
  0.4089862837338055  0.0086575804273398  0.7741285733140854
  0.4536684896371551  0.0037321320237383  0.6303098438052682
  0.1277327548198945  0.6513796973532885  0.0928427829334345
  0.1733081056788243  0.6481317856778281  0.9733124471031639
  0.7520066124921025  0.9204016204925977  0.5655991345214777
  0.7924505217128623  0.8764258313768215  0.7094208604140132
  0.4252087981205005  0.5863089167447175  0.2342418265280929
  0.4652649173582869  0.5422991925420906  0.3794969991030610
  0.7776730829630130  0.8744777147805179  0.9110710359424578
  0.8209639438507380  0.8298022156815315  0.0307548947769609
  0.3303674198128793  0.7492300851624053  0.5655217096158550
  0.3335348282388935  0.7898713447389256  0.7095240305934507
  0.9948134720535656  0.4193458166114112  0.2211891993932528
  0.9996532496538004  0.4584907634257387  0.3669117487665124
  0.3504590973121579  0.7751148724821767  0.9110712482342407
  0.3514952011120182  0.8185407527593345  0.0309933502218270
  0.9213186757345472  0.3273637588954504  0.5570709175537437
  0.8817860353911203  0.3270396026131368  0.7077696279200185
  0.5886565987224408  0.9917342130449741  0.2334493156788637
  0.5439213325837480  0.9968024183547712  0.3773129592529607
  0.8744602031890933  0.3537174944910789  0.8971962926782510
  0.8248409684013849  0.3634546356245648  0.0071753511307550
  0.8923493231609100  0.7900927743400449  0.7608495417649629
  0.8490519953638394  0.8347457670955837  0.6411362176447380
  0.9180481917368600  0.7441854755069658  0.1063250071868901
  0.8775747067750507  0.7881377389871491  0.9624908125160457
  0.5641110592800248  0.4545461534129397  0.4342574749213071
  0.5219714046564685  0.4998819872908229  0.3136892581209244
  0.3191831783537927  0.8900406622735669  0.7614467969470575
  0.3181289370746729  0.8466154671180003  0.6415452804760541
  0.3392538863262882  0.9159085563776181  0.1070888573842318
  0.3360869294998939  0.8752865285926402  0.9630221446602750
  0.9888438441676657  0.5570657284630828  0.4229014313502290
  0.9860385029934402  0.5149719093527575  0.3011247076203604
  0.7944029530047060  0.3137724228796840  0.7673136385567909
  0.8425952006153741  0.3060857396706759  0.6533347837415785
  0.7478235321744547  0.3402686611426788  0.1092362464614195
  0.7869884895044307  0.3405885461663531  0.9568148642604301
  0.4552446546779526  0.9872235693061735  0.4285086090910428
  0.5007921543305519  0.9839810974058190  0.3088866333381677
  0.7356431949975005  0.4751300084569922  0.5224517599692342
  0.1351915633222302  0.1637621681267929  0.5095920623255180
  0.4787662416927501  0.4934333011925859  0.8519045849257587
  0.6985915231097919  0.1365883669660894  0.5219652185416948
  0.0339624326056556  0.4719476023641992  0.8410324502433992
  0.1677653101412116  0.6946555736969652  0.5152184575055513
  0.4952301139072767  0.0306258321826732  0.8506247038680973
  0.1914421845709872  0.1712829618065098  0.8198285994265756
  0.6370418741872282  0.1923429326652544  0.8300329496658390
  0.1748830515345760  0.6341004875006676  0.8214117971508206
  0.8088545038776196  0.8277190564601914  0.1826898066851592
  0.3658304552128475  0.8063896659934210  0.1828109445389573
  0.8139465927019977  0.3951003402913835  0.1282320212521193
  0.8611487034059234  0.8368100434598380  0.4891706268913995
  0.5348877416716209  0.5017009920495352  0.1625270163637959
  0.3037997162239833  0.8587491810019485  0.4897164227150387
  0.9716966420635117  0.5280343580496416  0.1498477608723675
  0.8511621776798892  0.2784420476010976  0.5218587973995863
  0.5023668902138695  0.9698996005244059  0.1570516067912024
  0.3196224133297551  0.6352073226925475  0.5240406622443956
  0.0491684701459155  0.3131329926256513  0.5112227752754019
  0.6388729025795129  0.0463255311375301  0.5267335032297441
  0.0227894886556042  0.6947148164818202  0.8134882226203508
  0.3505348859715694  0.0296218568049989  0.1485644398826976
  0.2829038458965913  0.0207717475117260  0.8139117030947334
  0.6211212072255231  0.3511097791725121  0.1588947800160637
  0.6977434327772289  0.2813732781131337  0.8286362487495575
  0.0312639069318108  0.6183365838059844  0.1450442870487921
  0.6472757667293884  0.9699980080842685  0.8584456358715168
  0.9778460623036093  0.3110978263223848  0.1756679631664921
  0.3871028678587372  0.6442845927701149  0.8585176852131675
  0.7146984205747756  0.9781663919018039  0.1906330277148868
  0.9734692405208798  0.3831574852778737  0.8425706042239767
  0.3106811512509223  0.7112814539662653  0.1901165898822013
  0.6917106542276551  0.3540278986858327  0.4923338815498806
  0.9553826811438313  0.6864404000039641  0.4814055740348231
  0.3591503892619329  0.9537064933412942  0.4823762846235163
  0.8269037380052054  0.3517211026449902  0.3572908211388281
Cartesian
  0.0000000000000000  0.0000000000000000  0.0000000000000000
  0.0000000000000000  0.0000000000000000  0.0000000000000000
  0.0000000000000000  0.0000000000000000  0.0000000000000000
  0.0000000000000000  0.0000000000000000  0.0000000000000000
  0.0000000000000000  0.0000000000000000  0.0000000000000000
  0.0000000000000000  0.0000000000000000  0.0000000000000000
  0.0000000000000000  0.0000000000000000  0.0000000000000000
  0.0000000000000000  0.0000000000000000  0.0000000000000000
  0.0000000000000000  0.0000000000000000  0.0000000000000000
  0.0000000000000000  0.0000000000000000  0.0000000000000000
  0.0000000000000000  0.0000000000000000  0.0000000000000000
  0.0000000000000000  0.0000000000000000  0.0000000000000000
  0.0000000000000000  0.0000000000000000  0.0000000000000000
  0.0000000000000000  0.0000000000000000  0.0000000000000000
  0.0000000000000000  0.0000000000000000  0.0000000000000000
  0.0000000000000000  0.0000000000000000  0.0000000000000000
  0.0000000000000000  0.0000000000000000  0.0000000000000000
  0.0000000000000000  0.0000000000000000  0.0000000000000000
  0.0000000000000000  0.0000000000000000  0.0000000000000000
  0.0000000000000000  0.0000000000000000  0.0000000000000000
  0.0000000000000000  0.0000000000000000  0.0000000000000000
  0.0000000000000000  0.0000000000000000  0.0000000000000000
  0.0000000000000000  0.0000000000000000  0.0000000000000000
  0.0000000000000000  0.0000000000000000  0.0000000000000000
  0.0000000000000000  0.0000000000000000  0.0000000000000000
  0.0000000000000000  0.0000000000000000  0.0000000000000000
  0.0000000000000000  0.0000000000000000  0.0000000000000000
  0.0000000000000000  0.0000000000000000  0.0000000000000000
  0.0000000000000000  0.0000000000000000  0.0000000000000000
  0.0000000000000000  0.0000000000000000  0.0000000000000000
  0.0000000000000000  0.0000000000000000  0.0000000000000000
  0.0000000000000000  0.0000000000000000  0.0000000000000000
  0.0000000000000000  0.0000000000000000  0.0000000000000000
  0.0000000000000000  0.0000000000000000  0.0000000000000000
  0.0000000000000000  0.0000000000000000  0.0000000000000000
  0.0000000000000000  0.0000000000000000  0.0000000000000000
  0.0000000000000000  0.0000000000000000  0.0000000000000000
  0.0000000000000000  0.0000000000000000  0.0000000000000000
  0.0000000000000000  0.0000000000000000  0.0000000000000000
  0.0000000000000000  0.0000000000000000  0.0000000000000000
  0.0000000000000000  0.0000000000000000  0.0000000000000000
  0.0000000000000000  0.0000000000000000  0.0000000000000000
  0.0000000000000000  0.0000000000000000  0.0000000000000000
  0.0000000000000000  0.0000000000000000  0.0000000000000000
  0.0000000000000000  0.0000000000000000  0.0000000000000000
  0.0000000000000000  0.0000000000000000  0.0000000000000000
  0.0000000000000000  0.0000000000000000  0.0000000000000000
  0.0000000000000000  0.0000000000000000  0.0000000000000000
  0.0000000000000000  0.0000000000000000  0.0000000000000000
  0.0000000000000000  0.0000000000000000  0.0000000000000000
  0.0000000000000000  0.0000000000000000  0.0000000000000000
  0.0000000000000000  0.0000000000000000  0.0000000000000000
  0.0000000000000000  0.0000000000000000  0.0000000000000000
  0.0000000000000000  0.0000000000000000  0.0000000000000000
  0.0000000000000000  0.0000000000000000  0.0000000000000000
  0.0000000000000000  0.0000000000000000  0.0000000000000000
  0.0000000000000000  0.0000000000000000  0.0000000000000000
  0.0000000000000000  0.0000000000000000  0.0000000000000000
  0.0000000000000000  0.0000000000000000  0.0000000000000000
  0.0000000000000000  0.0000000000000000  0.0000000000000000
  0.0000000000000000  0.0000000000000000  0.0000000000000000
  0.0000000000000000  0.0000000000000000  0.0000000000000000
  0.0000000000000000  0.0000000000000000  0.0000000000000000
  0.0000000000000000  0.0000000000000000  0.0000000000000000
  0.0000000000000000  0.0000000000000000  0.0000000000000000
  0.0000000000000000  0.0000000000000000  0.0000000000000000
  0.0000000000000000  0.0000000000000000  0.0000000000000000
  0.0000000000000000  0.0000000000000000  0.0000000000000000
  0.0000000000000000  0.0000000000000000  0.0000000000000000
  0.0000000000000000  0.0000000000000000  0.0000000000000000
  0.0000000000000000  0.0000000000000000  0.0000000000000000
  0.0000000000000000  0.0000000000000000  0.0000000000000000
  0.0000000000000000  0.0000000000000000  0.0000000000000000
  0.0000000000000000  0.0000000000000000  0.0000000000000000
  0.0000000000000000  0.0000000000000000  0.0000000000000000
  0.0000000000000000  0.0000000000000000  0.0000000000000000
  0.0000000000000000  0.0000000000000000  0.0000000000000000
  0.0000000000000000  0.0000000000000000  0.0000000000000000
  0.0000000000000000  0.0000000000000000  0.0000000000000000
  0.0000000000000000  0.0000000000000000  0.0000000000000000
  0.0000000000000000  0.0000000000000000  0.0000000000000000
  0.0000000000000000  0.0000000000000000  0.0000000000000000
  0.0000000000000000  0.0000000000000000  0.0000000000000000
  0.0000000000000000  0.0000000000000000  0.0000000000000000
  0.0000000000000000  0.0000000000000000  0.0000000000000000
  0.0000000000000000  0.0000000000000000  0.0000000000000000
  0.0000000000000000  0.0000000000000000  0.0000000000000000
  0.0000000000000000  0.0000000000000000  0.0000000000000000
  0.0000000000000000  0.0000000000000000  0.0000000000000000
  0.0000000000000000  0.0000000000000000  0.0000000000000000
  0.0000000000000000  0.0000000000000000  0.0000000000000000
  0.0000000000000000  0.0000000000000000  0.0000000000000000
  0.0000000000000000  0.0000000000000000  0.0000000000000000
  0.0000000000000000  0.0000000000000000  0.0000000000000000
  0.0000000000000000  0.0000000000000000  0.0000000000000000
  0.0000000000000000  0.0000000000000000  0.0000000000000000
  0.0000000000000000  0.0000000000000000  0.0000000000000000
  0.0000000000000000  0.0000000000000000  0.0000000000000000
  0.0000000000000000  0.0000000000000000  0.0000000000000000
  0.0000000000000000  0.0000000000000000  0.0000000000000000
  0.0000000000000000  0.0000000000000000  0.0000000000000000
  0.0000000000000000  0.0000000000000000  0.0000000000000000
  0.0000000000000000  0.0000000000000000  0.0000000000000000
  0.0000000000000000  0.0000000000000000  0.0000000000000000
  0.0000000000000000  0.0000000000000000  0.0000000000000000
  0.0000000000000000  0.0000000000000000  0.0000000000000000
  0.0000000000000000  0.0000000000000000  0.0000000000000000
  0.0000000000000000  0.0000000000000000  0.0000000000000000
  0.0000000000000000  0.0000000000000000  0.0000000000000000
  0.0000000000000000  0.0000000000000000  0.0000000000000000
  0.0000000000000000  0.0000000000000000  0.0000000000000000
  0.0000000000000000  0.0000000000000000  0.0000000000000000
  0.0000000000000000  0.0000000000000000  0.0000000000000000
  0.0000000000000000  0.0000000000000000  0.0000000000000000
  0.0000000000000000  0.0000000000000000  0.0000000000000000
  0.0000000000000000  0.0000000000000000  0.0000000000000000
  0.0000000000000000  0.0000000000000000  0.0000000000000000
  0.0000000000000000  0.0000000000000000  0.0000000000000000
  0.0000000000000000  0.0000000000000000  0.0000000000000000
  0.0000000000000000  0.0000000000000000  0.0000000000000000
  0.0000000000000000  0.0000000000000000  0.0000000000000000
  0.0000000000000000  0.0000000000000000  0.0000000000000000
  0.0000000000000000  0.0000000000000000  0.0000000000000000
  0.0000000000000000  0.0000000000000000  0.0000000000000000
  0.0000000000000000  0.0000000000000000  0.0000000000000000
  0.0000000000000000  0.0000000000000000  0.0000000000000000
  0.0000000000000000  0.0000000000000000  0.0000000000000000
  0.0000000000000000  0.0000000000000000  0.0000000000000000
  0.0000000000000000  0.0000000000000000  0.0000000000000000
  0.0000000000000000  0.0000000000000000  0.0000000000000000
  0.0000000000000000  0.0000000000000000  0.0000000000000000
  0.0000000000000000  0.0000000000000000  0.0000000000000000
  0.0000000000000000  0.0000000000000000  0.0000000000000000
  0.0000000000000000  0.0000000000000000  0.0000000000000000
  0.0000000000000000  0.0000000000000000  0.0000000000000000
  0.0000000000000000  0.0000000000000000  0.0000000000000000
  0.0000000000000000  0.0000000000000000  0.0000000000000000
  0.0000000000000000  0.0000000000000000  0.0000000000000000
  0.0000000000000000  0.0000000000000000  0.0000000000000000
  0.0000000000000000  0.0000000000000000  0.0000000000000000
  0.0000000000000000  0.0000000000000000  0.0000000000000000
  0.0000000000000000  0.0000000000000000  0.0000000000000000
  0.0000000000000000  0.0000000000000000  0.0000000000000000
  0.0000000000000000  0.0000000000000000  0.0000000000000000
  0.0000000000000000  0.0000000000000000  0.0000000000000000
  0.0000000000000000  0.0000000000000000  0.0000000000000000
  0.0000000000000000  0.0000000000000000  0.0000000000000000
  0.0000000000000000  0.0000000000000000  0.0000000000000000
  0.0000000000000000  0.0000000000000000  0.0000000000000000
  0.0000000000000000  0.0000000000000000  0.0000000000000000
  0.0000000000000000  0.0000000000000000  0.0000000000000000
  0.0000000000000000  0.0000000000000000  0.0000000000000000
  0.0000000000000000  0.0000000000000000  0.0000000000000000
  0.0000000000000000  0.0000000000000000  0.0000000000000000
  0.0000000000000000  0.0000000000000000  0.0000000000000000
  0.0000000000000000  0.0000000000000000  0.0000000000000000
  0.0000000000000000  0.0000000000000000  0.0000000000000000
  0.0000000000000000  0.0000000000000000  0.0000000000000000
  0.0000000000000000  0.0000000000000000  0.0000000000000000
  0.0000000000000000  0.0000000000000000  0.0000000000000000
  0.0000000000000000  0.0000000000000000  0.0000000000000000
  0.0000000000000000  0.0000000000000000  0.0000000000000000
  0.0000000000000000  0.0000000000000000  0.0000000000000000
  0.0000000000000000  0.0000000000000000  0.0000000000000000
  0.0000000000000000  0.0000000000000000  0.0000000000000000
  0.0000000000000000  0.0000000000000000  0.0000000000000000
