O  C  H  Co Li                          
   1.00000000000000     
    24.9405637453697402    1.8096167673737018   -0.2082518354083434
    14.0420415721423755   21.8589710767357452   -0.2997580828672043
    -0.0540360488640138   -0.0649881634082379    6.6094440085528854
   O    C    H    Co   Li
    54    67    16    18     3
Direct
  0.0272541157027968  0.2627521458864170  0.3142058889829903
 -0.0052714379655039  0.3068727046901268  0.9127988414632052
  0.0791953699209111  0.2644169523261725  0.6984917591670997
  0.6993267272232310  0.0636659224574027  0.3355684663572229
  0.6926991429026770  0.0362046159142520  0.9263594328581480
  0.6247449396984790  0.1207363297626940  0.7340466305640313
  0.0196084522876962  0.3906225386618230  0.6539005202588768
  0.3177127214546026  0.6442492918033752  0.3162719226263848
  0.3768816598130514  0.6027733493946011  0.9444650963966899
  0.3520941318971071  0.5478378510357969  0.7503614950326806
  0.5819628548875647  0.0380667590389883  0.6458787687629519
  0.3105801253422576  0.0302430770662476  0.3809154659044489
  0.2280166391108396  0.0666556763913871  0.5980672897676901
  0.2773671100381441  0.0735682329818708  0.9940894608856983
  0.6259557993824111  0.3281155144609767  0.4414269269628979
  0.7098795741382254  0.2379859542758378  0.5894187803492769
  0.0329757730268734  0.6111613270379666  0.7452269129976971
  0.0744036380012232  0.5312045003278707  0.9592328754710394
  0.5790526020947898  0.3108064504751643  0.0815769673413943
  0.0984778960167987  0.6172871785576971  0.4141340410399738
  0.1371315957919251  0.6523133058112995  0.6390180881945476
  0.3974817770813829 -0.0339201638403619  0.7103382138147725
  0.4180857701317739  0.0177068968306855  0.9308559278422093
  0.1475761835148943  0.5900662631473030  0.0250518078944961
  0.7068018207770835  0.9615141471923512  0.5875856147658437
  0.7910155260908335  0.9232460339640702  0.3770389523053465
  0.7338339688907253  0.9166599867801976  0.9757072381205454
  0.3944301223713330  0.6703576097557579  0.4804244890301635
  0.3225777606778033  0.7575455899836638  0.3111171812233021
 -0.0024257412782532  0.3732269588612139  0.2577010100790342
  0.9637232570894384  0.4521823903882853  0.0479881607887570
  0.3861329855003371  0.6944635460087973  0.9056122036754953
  0.9182651307973957  0.3887473941182940  0.5873363199651507
  0.8792788244952779  0.3508858228147458  0.3761930242759069
  0.6275133665884419  0.0244971457182607  0.2547708488224006
  0.6020454451362761  0.9792506218281634  0.0215876256854229
  0.8742584800756892  0.4092315132181368  0.9875294014440289
  0.9902538447131285  0.7320579159296771  0.6955101414982822
  0.0165240431476268  0.6868098004640800  0.0835698172426837
  0.9315052226218912  0.7297517356726034  0.2955408677562116
  0.3260644740905108  0.9251711675145448  0.6466660535753654
  0.3403083677896444  0.9480344934159922  0.0376120860500836
  0.3935224265605124  0.8669161966846444  0.2498578210267560
  0.0141688006552396  0.5912728907052206  0.3553735694803992
  0.6908105676514572  0.3713260955733880  0.7076422795149603
  0.6071573865453630  0.4647477590991282  0.0022499637132839
  0.6713700460843158  0.4412332067738148  0.2934173654385671
  0.4414114673054628  0.9524624574696299  0.3196757176855184
  0.5039430249989195  0.4708671916664857  0.2591702406529222
  0.5121483700610200  0.5508083732779433  0.3218079274445362
  0.5604348471221777  0.4693966872562229  0.5380504437963596
  0.7669891862251503  0.2498469559428968  0.1686192624273768
  0.8433125391472132  0.2030437527329828  0.6200876274060935
  0.8751708180608253  0.1153938972534849  0.4083273574721415
  0.0870051405423812  0.2172989518852368  0.2282109879209141
  0.1358996431116822  0.1662825137355403  0.3485984324189770
  0.0573409984361022  0.2654318617502318  0.8720216236224365
  0.1043667941625496  0.2175725353317101  0.0228042559621827
  0.6759887812953731  0.1212839867012730  0.2615335160457954
  0.6781521704032663  0.1644277843094000  0.3865530059501296
  0.6548870644352391  0.0976438880670742  0.9019841170872710
  0.6488614944842299  0.1415417390223887  0.0621142380756592
  0.0208804103824906  0.4374389159869834  0.5759229458125812
  0.0381822727784443  0.4693727265105773  0.7025330062816627
  0.2801038489825420  0.6252064907393091  0.2468032994318832
  0.2281750328550868  0.6381780603238648  0.3694455629495552
  0.3428268414702388  0.5793207154745530  0.9158491076721252
  0.2915879289431772  0.5930209536031675  0.0568056639800354
  0.5486002827270922  0.0175877373271466  0.5574493907570739
  0.5047983934230342  0.0153987139523483  0.6784438126398797
  0.2479261288434164  0.0691512138429734  0.4263431776264366
  0.2003868458242851  0.1183266754053148  0.2799397739330908
  0.2177837707977158  0.1191365508900354  0.0761734670959413
  0.1691104244957241  0.1698076387900416  0.9546606030964462
  0.6628102211942559  0.2653801878075422  0.4642497091250815
  0.6492573085577128  0.2276737036335590  0.3317715206412635
  0.0493460646089970  0.5551334613414610  0.7877269011183710
  0.0350504624581546  0.5219309581234883  0.6374192744424552
  0.6136383838619041  0.2505166490817805  0.1435594075120380
  0.6174124920823756  0.2054899400267783  0.0105859530764731
  0.1377858500953892  0.6322082810934013  0.4612020804526509
  0.1858781452145687  0.6222674081758084  0.3094856012231972
  0.4260523497577591 -0.0071311664446590  0.7565085191229781
  0.4692881179079748 -0.0070228913319274  0.6082873663038597
  0.1919486419403568  0.5968257414192942  0.1091257742609234
  0.2470706634840185  0.5799372446681478 -0.0073063563375729
  0.7699744235787691  0.9215255502483574  0.5485381304665782
  0.8157390614785884  0.8731347634195915  0.6984804937697087
  0.7950265495175476  0.8715640735995349  0.8969071310254411
  0.8416163118298251  0.8217203713660300  0.0244704276461381
  0.3532174286205627  0.7333167535503661  0.4758601546057037
  0.3505477402222578  0.7727952118803346  0.6439738199081515
  0.9864563699642088  0.4276884562307672  0.2203173549882856
  0.0030709116493238  0.4581848507167430  0.3713465750328548
  0.3732969814768567  0.7503700609500716  0.8444675596549758
  0.3798127526354088  0.7890372227853349  0.9779096079954048
  0.8778838417393586  0.3746197660941012  0.5492386903387227
  0.8279229384926233  0.3874357141111730  0.6994263713716125
  0.5968973329714398  0.0004691387466114  0.2016931503304482
  0.5547785036816640 -0.0022404064050225  0.3495567656154119
  0.8265789317899310  0.4067477611110591  0.9045893593032542
  0.7730279013276917  0.4229735218822994  0.0286314267201596
  0.9288705426302739  0.7765616811507176  0.7690748749266094
  0.8818449699012945  0.8263436101580756  0.6410442405464133
  0.9535717653816833  0.7282543604333851  0.1226386378794459
  0.9079537496838952  0.7753720062160445  0.9678518431163232
  0.3391055422746096  0.8713131899738715  0.7217021272184156
  0.3319134171412891  0.8329354206385393  0.5903121848226581
  0.3669995086182345  0.8887420061306280  0.0779742132628599
  0.3624621397909413  0.8491666482992386  0.9231237460163889
  0.0166122616526066  0.5427475822875926  0.4327011448211506
  0.0009884193373649  0.5099191095794274  0.3057169292950435
  0.7300805188772911  0.3903368516001152  0.7622109772928424
  0.7804079826883772  0.3781275424521103  0.6351434708976444
  0.6667276404631816  0.4355855758383239  0.0922796205439018
  0.7238736942808048  0.4174908345886240  0.9596702496493082
  0.4758688689519579  0.9722281615114122  0.4021402880516293
  0.5195683322484618  0.9747023836975531  0.2792410527062914
  0.5241883220636950  0.4979204885045839  0.3801644539443764
  0.8583342591214460  0.1594447691536577  0.5127342160372440
  0.7192584509071925  0.2975321187726354  0.1032339317688248
  0.1233322734683750  0.1650193233108321  0.5049393559724957
  0.7036789665777963  0.1476317702919031  0.5321665981641475
  0.0524270420699835  0.4540490467613986  0.8590231955828385
  0.2190647888682301  0.6629102759205552  0.5153740305681836
  0.4995395446208700  0.0308361998679392  0.8362030182973338
  0.1822018037235572  0.1716352803164408  0.8003036762254354
  0.5952503817406541  0.2214601398991665  0.8605822931003868
  0.2529119059781294  0.5589068298491080  0.8427050483314363
  0.8256205222142435  0.8203847806305546  0.1755566593203401
  0.3973540957984771  0.7728098235221526  0.1318170180393693
  0.7716012542292229  0.4386842663306166  0.1845799436543842
  0.8974311848782546  0.8277362238451780  0.4897864893720687
  0.3142539713277035  0.8494858033112669  0.4368476472354734
  0.9867696972234219  0.5253422611884986  0.1494651523614503
  0.7843009678566349  0.3598087138135281  0.4811702451160537
  0.5252174286209176  0.9589816929013705  0.1217432233350553
  0.3524026594080849  0.5894156208966062  0.5336292557296484
  0.0267914099930750  0.3252414345670691  0.4922171520255855
  0.6387446121538983  0.0601272142128052  0.5170803345150925
  0.0730102728924267  0.6571150691753029  0.8365147375926936
  0.3650235821763919  0.0072846050186986  0.1293425277178812
  0.3006175654201668  0.0046056932040115  0.7940747166314764
  0.5648145037360101  0.3801826889579175  0.2119726813403892
  0.6548938875702042  0.3704061783057639  0.0116696360946100
  0.0750704024049411  0.5905318091872294  0.1606080131950534
  0.6574340253790240  0.9761565486427792  0.8177826238137360
  0.9439943581317406  0.3387643447829984  0.1746382975453495
  0.3908662334084645  0.6330475631542261  0.7100905045513306
  0.7252776222078511  0.9828558693418579  0.1683908301681450
  0.9477668342972475  0.4039155860781163  0.8503257082132140
  0.3597575574230049  0.6733465626456649  0.1541873146330569
  0.6540595978580365  0.3836711115085413  0.4153292772713429
  0.0010742598346737  0.6666261509091984  0.5013021094934523
  0.3810218335159358  0.9349132327151159  0.4525391036865036
  0.5991025787765303  0.5129037425330061  0.4562527851001036
  0.5117899362624212  0.5219650780558255  0.0454322122951131
  0.7473071528348566  0.2746497009523640  0.7109869548865524
 
  0.00000000E+00  0.00000000E+00  0.00000000E+00
  0.00000000E+00  0.00000000E+00  0.00000000E+00
  0.00000000E+00  0.00000000E+00  0.00000000E+00
  0.00000000E+00  0.00000000E+00  0.00000000E+00
  0.00000000E+00  0.00000000E+00  0.00000000E+00
  0.00000000E+00  0.00000000E+00  0.00000000E+00
  0.00000000E+00  0.00000000E+00  0.00000000E+00
  0.00000000E+00  0.00000000E+00  0.00000000E+00
  0.00000000E+00  0.00000000E+00  0.00000000E+00
  0.00000000E+00  0.00000000E+00  0.00000000E+00
  0.00000000E+00  0.00000000E+00  0.00000000E+00
  0.00000000E+00  0.00000000E+00  0.00000000E+00
  0.00000000E+00  0.00000000E+00  0.00000000E+00
  0.00000000E+00  0.00000000E+00  0.00000000E+00
  0.00000000E+00  0.00000000E+00  0.00000000E+00
  0.00000000E+00  0.00000000E+00  0.00000000E+00
  0.00000000E+00  0.00000000E+00  0.00000000E+00
  0.00000000E+00  0.00000000E+00  0.00000000E+00
  0.00000000E+00  0.00000000E+00  0.00000000E+00
  0.00000000E+00  0.00000000E+00  0.00000000E+00
  0.00000000E+00  0.00000000E+00  0.00000000E+00
  0.00000000E+00  0.00000000E+00  0.00000000E+00
  0.00000000E+00  0.00000000E+00  0.00000000E+00
  0.00000000E+00  0.00000000E+00  0.00000000E+00
  0.00000000E+00  0.00000000E+00  0.00000000E+00
  0.00000000E+00  0.00000000E+00  0.00000000E+00
  0.00000000E+00  0.00000000E+00  0.00000000E+00
  0.00000000E+00  0.00000000E+00  0.00000000E+00
  0.00000000E+00  0.00000000E+00  0.00000000E+00
  0.00000000E+00  0.00000000E+00  0.00000000E+00
  0.00000000E+00  0.00000000E+00  0.00000000E+00
  0.00000000E+00  0.00000000E+00  0.00000000E+00
  0.00000000E+00  0.00000000E+00  0.00000000E+00
  0.00000000E+00  0.00000000E+00  0.00000000E+00
  0.00000000E+00  0.00000000E+00  0.00000000E+00
  0.00000000E+00  0.00000000E+00  0.00000000E+00
  0.00000000E+00  0.00000000E+00  0.00000000E+00
  0.00000000E+00  0.00000000E+00  0.00000000E+00
  0.00000000E+00  0.00000000E+00  0.00000000E+00
  0.00000000E+00  0.00000000E+00  0.00000000E+00
  0.00000000E+00  0.00000000E+00  0.00000000E+00
  0.00000000E+00  0.00000000E+00  0.00000000E+00
  0.00000000E+00  0.00000000E+00  0.00000000E+00
  0.00000000E+00  0.00000000E+00  0.00000000E+00
  0.00000000E+00  0.00000000E+00  0.00000000E+00
  0.00000000E+00  0.00000000E+00  0.00000000E+00
  0.00000000E+00  0.00000000E+00  0.00000000E+00
  0.00000000E+00  0.00000000E+00  0.00000000E+00
  0.00000000E+00  0.00000000E+00  0.00000000E+00
  0.00000000E+00  0.00000000E+00  0.00000000E+00
  0.00000000E+00  0.00000000E+00  0.00000000E+00
  0.00000000E+00  0.00000000E+00  0.00000000E+00
  0.00000000E+00  0.00000000E+00  0.00000000E+00
  0.00000000E+00  0.00000000E+00  0.00000000E+00
  0.00000000E+00  0.00000000E+00  0.00000000E+00
  0.00000000E+00  0.00000000E+00  0.00000000E+00
  0.00000000E+00  0.00000000E+00  0.00000000E+00
  0.00000000E+00  0.00000000E+00  0.00000000E+00
  0.00000000E+00  0.00000000E+00  0.00000000E+00
  0.00000000E+00  0.00000000E+00  0.00000000E+00
  0.00000000E+00  0.00000000E+00  0.00000000E+00
  0.00000000E+00  0.00000000E+00  0.00000000E+00
  0.00000000E+00  0.00000000E+00  0.00000000E+00
  0.00000000E+00  0.00000000E+00  0.00000000E+00
  0.00000000E+00  0.00000000E+00  0.00000000E+00
  0.00000000E+00  0.00000000E+00  0.00000000E+00
  0.00000000E+00  0.00000000E+00  0.00000000E+00
  0.00000000E+00  0.00000000E+00  0.00000000E+00
  0.00000000E+00  0.00000000E+00  0.00000000E+00
  0.00000000E+00  0.00000000E+00  0.00000000E+00
  0.00000000E+00  0.00000000E+00  0.00000000E+00
  0.00000000E+00  0.00000000E+00  0.00000000E+00
  0.00000000E+00  0.00000000E+00  0.00000000E+00
  0.00000000E+00  0.00000000E+00  0.00000000E+00
  0.00000000E+00  0.00000000E+00  0.00000000E+00
  0.00000000E+00  0.00000000E+00  0.00000000E+00
  0.00000000E+00  0.00000000E+00  0.00000000E+00
  0.00000000E+00  0.00000000E+00  0.00000000E+00
  0.00000000E+00  0.00000000E+00  0.00000000E+00
  0.00000000E+00  0.00000000E+00  0.00000000E+00
  0.00000000E+00  0.00000000E+00  0.00000000E+00
  0.00000000E+00  0.00000000E+00  0.00000000E+00
  0.00000000E+00  0.00000000E+00  0.00000000E+00
  0.00000000E+00  0.00000000E+00  0.00000000E+00
  0.00000000E+00  0.00000000E+00  0.00000000E+00
  0.00000000E+00  0.00000000E+00  0.00000000E+00
  0.00000000E+00  0.00000000E+00  0.00000000E+00
  0.00000000E+00  0.00000000E+00  0.00000000E+00
  0.00000000E+00  0.00000000E+00  0.00000000E+00
  0.00000000E+00  0.00000000E+00  0.00000000E+00
  0.00000000E+00  0.00000000E+00  0.00000000E+00
  0.00000000E+00  0.00000000E+00  0.00000000E+00
  0.00000000E+00  0.00000000E+00  0.00000000E+00
  0.00000000E+00  0.00000000E+00  0.00000000E+00
  0.00000000E+00  0.00000000E+00  0.00000000E+00
  0.00000000E+00  0.00000000E+00  0.00000000E+00
  0.00000000E+00  0.00000000E+00  0.00000000E+00
  0.00000000E+00  0.00000000E+00  0.00000000E+00
  0.00000000E+00  0.00000000E+00  0.00000000E+00
  0.00000000E+00  0.00000000E+00  0.00000000E+00
  0.00000000E+00  0.00000000E+00  0.00000000E+00
  0.00000000E+00  0.00000000E+00  0.00000000E+00
  0.00000000E+00  0.00000000E+00  0.00000000E+00
  0.00000000E+00  0.00000000E+00  0.00000000E+00
  0.00000000E+00  0.00000000E+00  0.00000000E+00
  0.00000000E+00  0.00000000E+00  0.00000000E+00
  0.00000000E+00  0.00000000E+00  0.00000000E+00
  0.00000000E+00  0.00000000E+00  0.00000000E+00
  0.00000000E+00  0.00000000E+00  0.00000000E+00
  0.00000000E+00  0.00000000E+00  0.00000000E+00
  0.00000000E+00  0.00000000E+00  0.00000000E+00
  0.00000000E+00  0.00000000E+00  0.00000000E+00
  0.00000000E+00  0.00000000E+00  0.00000000E+00
  0.00000000E+00  0.00000000E+00  0.00000000E+00
  0.00000000E+00  0.00000000E+00  0.00000000E+00
  0.00000000E+00  0.00000000E+00  0.00000000E+00
  0.00000000E+00  0.00000000E+00  0.00000000E+00
  0.00000000E+00  0.00000000E+00  0.00000000E+00
  0.00000000E+00  0.00000000E+00  0.00000000E+00
  0.00000000E+00  0.00000000E+00  0.00000000E+00
  0.00000000E+00  0.00000000E+00  0.00000000E+00
  0.00000000E+00  0.00000000E+00  0.00000000E+00
  0.00000000E+00  0.00000000E+00  0.00000000E+00
  0.00000000E+00  0.00000000E+00  0.00000000E+00
  0.00000000E+00  0.00000000E+00  0.00000000E+00
  0.00000000E+00  0.00000000E+00  0.00000000E+00
  0.00000000E+00  0.00000000E+00  0.00000000E+00
  0.00000000E+00  0.00000000E+00  0.00000000E+00
  0.00000000E+00  0.00000000E+00  0.00000000E+00
  0.00000000E+00  0.00000000E+00  0.00000000E+00
  0.00000000E+00  0.00000000E+00  0.00000000E+00
  0.00000000E+00  0.00000000E+00  0.00000000E+00
  0.00000000E+00  0.00000000E+00  0.00000000E+00
  0.00000000E+00  0.00000000E+00  0.00000000E+00
  0.00000000E+00  0.00000000E+00  0.00000000E+00
  0.00000000E+00  0.00000000E+00  0.00000000E+00
  0.00000000E+00  0.00000000E+00  0.00000000E+00
  0.00000000E+00  0.00000000E+00  0.00000000E+00
  0.00000000E+00  0.00000000E+00  0.00000000E+00
  0.00000000E+00  0.00000000E+00  0.00000000E+00
  0.00000000E+00  0.00000000E+00  0.00000000E+00
  0.00000000E+00  0.00000000E+00  0.00000000E+00
  0.00000000E+00  0.00000000E+00  0.00000000E+00
  0.00000000E+00  0.00000000E+00  0.00000000E+00
  0.00000000E+00  0.00000000E+00  0.00000000E+00
  0.00000000E+00  0.00000000E+00  0.00000000E+00
  0.00000000E+00  0.00000000E+00  0.00000000E+00
  0.00000000E+00  0.00000000E+00  0.00000000E+00
  0.00000000E+00  0.00000000E+00  0.00000000E+00
  0.00000000E+00  0.00000000E+00  0.00000000E+00
  0.00000000E+00  0.00000000E+00  0.00000000E+00
  0.00000000E+00  0.00000000E+00  0.00000000E+00
  0.00000000E+00  0.00000000E+00  0.00000000E+00
  0.00000000E+00  0.00000000E+00  0.00000000E+00
  0.00000000E+00  0.00000000E+00  0.00000000E+00
  0.00000000E+00  0.00000000E+00  0.00000000E+00
  0.00000000E+00  0.00000000E+00  0.00000000E+00
  0.00000000E+00  0.00000000E+00  0.00000000E+00
