O  C  H  Co Li                          
   1.00000000000000     
    24.4784816986821525    2.0808679207810949   -0.2525186643124254
    14.0097861066771330   21.9938923679490692   -0.2267165562602295
    -0.0676195351515191   -0.0341332618201119    6.6344475084976402
   O    C    H    Co   Li
    54    67    16    18     3
Direct
  0.0227732246834452  0.2670574269887737  0.3121289342572584
  0.9899159739816896  0.3119220507833436  0.9118579176923922
  0.0760530342060478  0.2656197042090570  0.6977235058993679
  0.6993827809278571  0.0665733705879035  0.3348773421085545
  0.6949926417966334  0.0392827898027243  0.9261027605865025
  0.6240157009605221  0.1234590707355945  0.7308552539265757
  0.0174456472230603  0.3925715836528106  0.6517835249724653
  0.3403376883447459  0.6238003018993354  0.3300094259883983
  0.3916074482636822  0.5939523082726260  0.9610975297341142
  0.3750549020513531  0.5320936135898570  0.7744864387712771
  0.5795897439064619  0.0425431413942515  0.6495184059790845
  0.3102606149189618  0.0281200882676502  0.3856155891253659
  0.2255791782596996  0.0666934910630930  0.6005855514419268
  0.2760538316689884  0.0707731238069467  0.9985540281549202
  0.6150385282706616  0.3337933080233513  0.4392800386952372
  0.7020718666380276  0.2431511406056170  0.5893518431311462
  0.0475533084909055  0.6030509128003967  0.7290508118786952
  0.0785290211581399  0.5278302379459332  0.9559986887734705
  0.5679151444952860  0.3159894542015629  0.0791967003746417
  0.1001540690439066  0.6204793483369360  0.3996130469807522
  0.1426724623860975  0.6508490847235462  0.6301113777289014
  0.3991652884709234  0.9626077080831843  0.7189641735712645
  0.4194065009426474  0.0145533832578374  0.9371535664382297
  0.1560076347990558  0.5848890082770635  0.0246601591807068
  0.7064384499032567  0.9663391579541769  0.5957633036608818
  0.7917921422760078  0.9270158087481509  0.3832564766756892
  0.7356111490493265  0.9189577195761444  0.9814266024212021
  0.4055696990742395  0.6669616711672095  0.4958172520869144
  0.3236133155525416  0.7537411294070255  0.3342742877157763
  0.9943588505892504  0.3762046262450635  0.2556721780685343
  0.9593694639626940  0.4558804526791353  0.0463352883228565
  0.3910572298739389  0.6923893978489424  0.9285531972193312
  0.9144211790062673  0.3918320667305425  0.5830822428536587
  0.8730710271591366  0.3565749168362690  0.3696772829621497
  0.6240229459958769  0.0309686010681187  0.2560893675066630
  0.6003666975978127  0.9832886187188498  0.0288901004219124
  0.8668869485551490  0.4159391422541975  0.9781675034685520
  0.9940642106546222  0.7267438221500763  0.6895153498920583
  0.0212372062753142  0.6791173137444709  0.0676828777515478
  0.9358859439143508  0.7268074300179763  0.2862995470286201
  0.3247418980438288  0.9240163582612511  0.6553658788807765
  0.3385855581109123  0.9478079810528316  0.0459199850709646
  0.3934589656248352  0.8664974000812388  0.2604323977310077
  0.0210849079574719  0.5869470133206929  0.3537201668599963
  0.6838292721723297  0.3732023017063744  0.6958238266956771
  0.5988489901189451  0.4626981359042945 -0.0147646341754323
  0.6631294582932274  0.4438223097161754  0.2769337004210029
  0.4435587439266174  0.9495864869930690  0.3292526141868691
  0.4907437565367814  0.4761817042800401  0.2487748523353820
  0.5037192447116730  0.5540666057437684  0.2812835693320397
  0.5509162203480218  0.4769169124155200  0.5153295552464213
  0.7653966797527423  0.2485792989218116  0.1595881880349098
  0.8404803165083686  0.2076351228269408  0.6143276620883918
  0.8747127088142025  0.1184423203509963  0.4113216771678451
  0.0830206387229381  0.2197228920245345  0.2275139039318239
  0.1325521387923401  0.1681747157187923  0.3499674632597722
  0.0532645953007688  0.2676977920935341  0.8703783908571157
  0.1002719856674484  0.2181491492876407  0.0209416789594771
  0.6733080459810298  0.1248552289175934  0.2599930482215685
  0.6731798614650792  0.1688679941306626  0.3852028706959091
  0.6545398272369163  0.1006809923041446  0.9000266588446635
  0.6457773862401794  0.1451445070875401  0.0599983356264846
  0.0193425474276263  0.4387919342556780  0.5737840041115102
  0.0382792900340348  0.4692919731075557  0.7011408368671856
  0.2962688477841428  0.6122650890258210  0.2561567810380768
  0.2418592775707652  0.6279059621684060  0.3746421273762132
  0.3605068122419102  0.5671633526947253  0.9322662536210343
  0.3061384621857096  0.5825720230914693  0.0651160535192156
  0.5465275439825784  0.0212089440950630  0.5618893175152244
  0.5036383889688105  0.0170199341948097  0.6833007174284631
  0.2461864223872937  0.0684948414510369  0.4293884944861855
  0.1979395619416601  0.1182779209431952  0.2821738427190585
  0.2152657101890254  0.1174860009191631  0.0777622114056931
  0.1654408217624517  0.1678649089259671  0.9531786333242185
  0.6538257572242405  0.2708117874840794  0.4628613880307024
  0.6414108474082287  0.2326839398647521  0.3299263864087814
  0.0563882554243086  0.5512007307550834  0.7808352636139522
  0.0382662686302263  0.5198431268490470  0.6351877131114135
  0.6050522304175038  0.2554048855504957  0.1412364556526133
  0.6112303194582354  0.2096402598288248  0.0083124573949350
  0.1432953724197449  0.6305134490720131  0.4526348364277882
  0.1956540475653563  0.6164422090316479  0.3085872301034586
  0.4273709512243625  0.9901018057177409  0.7633240310244654
  0.4697660733426252  0.9921379437840184  0.6150536480275562
  0.2018302861715057  0.5912171377810328  0.1096182690950437
  0.2585760691358001  0.5729352540480224  0.9956991522186378
  0.7707278966250923  0.9250690414956282  0.5541064115459559
  0.8177326527941906  0.8750001404376324  0.7017183343072274
  0.7977458889451705  0.8739916818397986  0.9012311760059766
  0.8461173678205571  0.8234749746802981  0.0274851448045385
  0.3586470479045119  0.7297093058571464  0.4948713977615619
  0.3542475192203278  0.7698824590172526  0.6617290318313898
  0.9830766967458279  0.4305834822467615  0.2179461590141901
  0.0011881326927240  0.4598660100672308  0.3695132456783511
  0.3754879185801687  0.7488661369699684  0.8650917258143324
  0.3789205331200752  0.7894874750853702  0.9967319993535565
  0.8726198738752724  0.3787987043289225  0.5432390090225423
  0.8219910459511367  0.3912054098079831  0.6915533170298761
  0.5942228660294494  0.0054944481517458  0.2064492087037959
  0.5524698627858071  0.0018696669885600  0.3548145620874574
  0.8196295356216187  0.4116769639371107  0.8941442851993812
  0.7650459892845666  0.4272666281617777  0.0155341962650814
  0.9323645557434970  0.7743623710487995  0.7640417428198660
  0.8843812256176296  0.8258805408628268  0.6391414378590446
  0.9585672484851205  0.7243094559275588  0.1129277420464874
  0.9124131131237950  0.7745687372917714  0.9647953408150469
  0.3390893125907720  0.8699949394072344  0.7332435418501804
  0.3344881381561290  0.8300049514980420  0.6031048175239184
  0.3658762466132628  0.8886295997198763  0.0886851212804178
  0.3612354804913187  0.8491366513489977  0.9363485949380843
  0.0203066787825725  0.5403284436445107  0.4304303539843020
  0.0014706970012968  0.5101141457792625  0.3035158782655210
  0.7230303338793307  0.3926975978120904  0.7507242823953626
  0.7743369862138393  0.3810185818960290  0.6264278459702503
  0.6593029906957028  0.4362334133201129  0.0776256005930263
  0.7163402376956786  0.4199436494503155  0.9464278999757563
  0.4764292361033446  0.9717082246221986  0.4101714298648572
  0.5184226288673017  0.9770257176089858  0.2865599208471060
  0.5136571557916288  0.5035983326381623  0.3553259963829191
  0.8568469735771936  0.1631257133066841  0.5111296263236705
  0.7154944713544350  0.2968347845080349  0.0953037470368366
  0.1197521894836701  0.1682332656675891  0.5061768420272807
  0.6992757515189698  0.1522264641845700  0.5310767431486587
  0.0523346455619692  0.4536219723246727  0.8572240380067062
  0.2345345213586219  0.6499754841164629  0.5230891198780038
  0.4979119974591955  0.0324867840256236  0.8398537358033473
  0.1784641976266154  0.1671636746684088  0.7967018187085525
  0.5885870884598782  0.2254445492606095  0.8578252150823531
  0.2643672772760823  0.5525705048732040  0.8455594886719232
  0.8316240233643374  0.8223809721863803  0.1805072784196707
  0.3955541318737486  0.7748015774076892  0.1523578167405814
  0.7623090535680263  0.4439584858199072  0.1695027921426653
  0.8987288680123608  0.8270265097579155  0.4859162851150224
  0.3184972299161750  0.8450260484879449  0.4474167356630072
  0.9874488849085737  0.5259600072540265  0.1476372931173748
  0.7790263842193239  0.3624161690965557  0.4738956509405711
  0.5237587422552437  0.9619340723970758  0.1294499129357283
  0.3811202193783243  0.5702618269238550  0.5522250009055694
  0.0238286708769464  0.3278646525310593  0.4902951423194928
  0.6367736816081427  0.0649090087334670  0.5139106879649643
  0.0843605362629841  0.6529543503059332  0.8346171405522231
  0.3660653008834100  0.0045937171806098  0.1363908829779903
  0.2990955913272229  0.0033133425384306  0.7980951972895737
  0.5529613074178406  0.3852689254528061  0.2071441625591523
  0.6485929594479012  0.3703163021330441  0.0068633767191688
  0.0826897125602014  0.5824994604049781  0.1579590330456890
  0.6568751750024306  0.9797694143403975  0.8257902883153995
  0.9375744463865801  0.3444769369273101  0.1682865346351339
  0.4070707988256366  0.6236496547486186  0.7220751659894690
  0.7248767198449431  0.9862867123130818  0.1684854087704596
  0.9438421190996998  0.4081274111593198  0.8444936695175104
  0.3702453356788534  0.6679570722917511  0.1777679486751670
  0.6444143790551577  0.3880202318041979  0.4043901319890865
  0.0006484585742507  0.6660896362719997  0.4929174414743825
  0.3812097667141501  0.9329223233932393  0.4624714028753015
  0.5901526197277760  0.5193576981141983  0.4240843091369669
  0.5021144573774643  0.5207696788985307  0.0139769767173890
  0.7412617506702270  0.2786771286886016  0.7042653630770426
 
  0.00000000E+00  0.00000000E+00  0.00000000E+00
  0.00000000E+00  0.00000000E+00  0.00000000E+00
  0.00000000E+00  0.00000000E+00  0.00000000E+00
  0.00000000E+00  0.00000000E+00  0.00000000E+00
  0.00000000E+00  0.00000000E+00  0.00000000E+00
  0.00000000E+00  0.00000000E+00  0.00000000E+00
  0.00000000E+00  0.00000000E+00  0.00000000E+00
  0.00000000E+00  0.00000000E+00  0.00000000E+00
  0.00000000E+00  0.00000000E+00  0.00000000E+00
  0.00000000E+00  0.00000000E+00  0.00000000E+00
  0.00000000E+00  0.00000000E+00  0.00000000E+00
  0.00000000E+00  0.00000000E+00  0.00000000E+00
  0.00000000E+00  0.00000000E+00  0.00000000E+00
  0.00000000E+00  0.00000000E+00  0.00000000E+00
  0.00000000E+00  0.00000000E+00  0.00000000E+00
  0.00000000E+00  0.00000000E+00  0.00000000E+00
  0.00000000E+00  0.00000000E+00  0.00000000E+00
  0.00000000E+00  0.00000000E+00  0.00000000E+00
  0.00000000E+00  0.00000000E+00  0.00000000E+00
  0.00000000E+00  0.00000000E+00  0.00000000E+00
  0.00000000E+00  0.00000000E+00  0.00000000E+00
  0.00000000E+00  0.00000000E+00  0.00000000E+00
  0.00000000E+00  0.00000000E+00  0.00000000E+00
  0.00000000E+00  0.00000000E+00  0.00000000E+00
  0.00000000E+00  0.00000000E+00  0.00000000E+00
  0.00000000E+00  0.00000000E+00  0.00000000E+00
  0.00000000E+00  0.00000000E+00  0.00000000E+00
  0.00000000E+00  0.00000000E+00  0.00000000E+00
  0.00000000E+00  0.00000000E+00  0.00000000E+00
  0.00000000E+00  0.00000000E+00  0.00000000E+00
  0.00000000E+00  0.00000000E+00  0.00000000E+00
  0.00000000E+00  0.00000000E+00  0.00000000E+00
  0.00000000E+00  0.00000000E+00  0.00000000E+00
  0.00000000E+00  0.00000000E+00  0.00000000E+00
  0.00000000E+00  0.00000000E+00  0.00000000E+00
  0.00000000E+00  0.00000000E+00  0.00000000E+00
  0.00000000E+00  0.00000000E+00  0.00000000E+00
  0.00000000E+00  0.00000000E+00  0.00000000E+00
  0.00000000E+00  0.00000000E+00  0.00000000E+00
  0.00000000E+00  0.00000000E+00  0.00000000E+00
  0.00000000E+00  0.00000000E+00  0.00000000E+00
  0.00000000E+00  0.00000000E+00  0.00000000E+00
  0.00000000E+00  0.00000000E+00  0.00000000E+00
  0.00000000E+00  0.00000000E+00  0.00000000E+00
  0.00000000E+00  0.00000000E+00  0.00000000E+00
  0.00000000E+00  0.00000000E+00  0.00000000E+00
  0.00000000E+00  0.00000000E+00  0.00000000E+00
  0.00000000E+00  0.00000000E+00  0.00000000E+00
  0.00000000E+00  0.00000000E+00  0.00000000E+00
  0.00000000E+00  0.00000000E+00  0.00000000E+00
  0.00000000E+00  0.00000000E+00  0.00000000E+00
  0.00000000E+00  0.00000000E+00  0.00000000E+00
  0.00000000E+00  0.00000000E+00  0.00000000E+00
  0.00000000E+00  0.00000000E+00  0.00000000E+00
  0.00000000E+00  0.00000000E+00  0.00000000E+00
  0.00000000E+00  0.00000000E+00  0.00000000E+00
  0.00000000E+00  0.00000000E+00  0.00000000E+00
  0.00000000E+00  0.00000000E+00  0.00000000E+00
  0.00000000E+00  0.00000000E+00  0.00000000E+00
  0.00000000E+00  0.00000000E+00  0.00000000E+00
  0.00000000E+00  0.00000000E+00  0.00000000E+00
  0.00000000E+00  0.00000000E+00  0.00000000E+00
  0.00000000E+00  0.00000000E+00  0.00000000E+00
  0.00000000E+00  0.00000000E+00  0.00000000E+00
  0.00000000E+00  0.00000000E+00  0.00000000E+00
  0.00000000E+00  0.00000000E+00  0.00000000E+00
  0.00000000E+00  0.00000000E+00  0.00000000E+00
  0.00000000E+00  0.00000000E+00  0.00000000E+00
  0.00000000E+00  0.00000000E+00  0.00000000E+00
  0.00000000E+00  0.00000000E+00  0.00000000E+00
  0.00000000E+00  0.00000000E+00  0.00000000E+00
  0.00000000E+00  0.00000000E+00  0.00000000E+00
  0.00000000E+00  0.00000000E+00  0.00000000E+00
  0.00000000E+00  0.00000000E+00  0.00000000E+00
  0.00000000E+00  0.00000000E+00  0.00000000E+00
  0.00000000E+00  0.00000000E+00  0.00000000E+00
  0.00000000E+00  0.00000000E+00  0.00000000E+00
  0.00000000E+00  0.00000000E+00  0.00000000E+00
  0.00000000E+00  0.00000000E+00  0.00000000E+00
  0.00000000E+00  0.00000000E+00  0.00000000E+00
  0.00000000E+00  0.00000000E+00  0.00000000E+00
  0.00000000E+00  0.00000000E+00  0.00000000E+00
  0.00000000E+00  0.00000000E+00  0.00000000E+00
  0.00000000E+00  0.00000000E+00  0.00000000E+00
  0.00000000E+00  0.00000000E+00  0.00000000E+00
  0.00000000E+00  0.00000000E+00  0.00000000E+00
  0.00000000E+00  0.00000000E+00  0.00000000E+00
  0.00000000E+00  0.00000000E+00  0.00000000E+00
  0.00000000E+00  0.00000000E+00  0.00000000E+00
  0.00000000E+00  0.00000000E+00  0.00000000E+00
  0.00000000E+00  0.00000000E+00  0.00000000E+00
  0.00000000E+00  0.00000000E+00  0.00000000E+00
  0.00000000E+00  0.00000000E+00  0.00000000E+00
  0.00000000E+00  0.00000000E+00  0.00000000E+00
  0.00000000E+00  0.00000000E+00  0.00000000E+00
  0.00000000E+00  0.00000000E+00  0.00000000E+00
  0.00000000E+00  0.00000000E+00  0.00000000E+00
  0.00000000E+00  0.00000000E+00  0.00000000E+00
  0.00000000E+00  0.00000000E+00  0.00000000E+00
  0.00000000E+00  0.00000000E+00  0.00000000E+00
  0.00000000E+00  0.00000000E+00  0.00000000E+00
  0.00000000E+00  0.00000000E+00  0.00000000E+00
  0.00000000E+00  0.00000000E+00  0.00000000E+00
  0.00000000E+00  0.00000000E+00  0.00000000E+00
  0.00000000E+00  0.00000000E+00  0.00000000E+00
  0.00000000E+00  0.00000000E+00  0.00000000E+00
  0.00000000E+00  0.00000000E+00  0.00000000E+00
  0.00000000E+00  0.00000000E+00  0.00000000E+00
  0.00000000E+00  0.00000000E+00  0.00000000E+00
  0.00000000E+00  0.00000000E+00  0.00000000E+00
  0.00000000E+00  0.00000000E+00  0.00000000E+00
  0.00000000E+00  0.00000000E+00  0.00000000E+00
  0.00000000E+00  0.00000000E+00  0.00000000E+00
  0.00000000E+00  0.00000000E+00  0.00000000E+00
  0.00000000E+00  0.00000000E+00  0.00000000E+00
  0.00000000E+00  0.00000000E+00  0.00000000E+00
  0.00000000E+00  0.00000000E+00  0.00000000E+00
  0.00000000E+00  0.00000000E+00  0.00000000E+00
  0.00000000E+00  0.00000000E+00  0.00000000E+00
  0.00000000E+00  0.00000000E+00  0.00000000E+00
  0.00000000E+00  0.00000000E+00  0.00000000E+00
  0.00000000E+00  0.00000000E+00  0.00000000E+00
  0.00000000E+00  0.00000000E+00  0.00000000E+00
  0.00000000E+00  0.00000000E+00  0.00000000E+00
  0.00000000E+00  0.00000000E+00  0.00000000E+00
  0.00000000E+00  0.00000000E+00  0.00000000E+00
  0.00000000E+00  0.00000000E+00  0.00000000E+00
  0.00000000E+00  0.00000000E+00  0.00000000E+00
  0.00000000E+00  0.00000000E+00  0.00000000E+00
  0.00000000E+00  0.00000000E+00  0.00000000E+00
  0.00000000E+00  0.00000000E+00  0.00000000E+00
  0.00000000E+00  0.00000000E+00  0.00000000E+00
  0.00000000E+00  0.00000000E+00  0.00000000E+00
  0.00000000E+00  0.00000000E+00  0.00000000E+00
  0.00000000E+00  0.00000000E+00  0.00000000E+00
  0.00000000E+00  0.00000000E+00  0.00000000E+00
  0.00000000E+00  0.00000000E+00  0.00000000E+00
  0.00000000E+00  0.00000000E+00  0.00000000E+00
  0.00000000E+00  0.00000000E+00  0.00000000E+00
  0.00000000E+00  0.00000000E+00  0.00000000E+00
  0.00000000E+00  0.00000000E+00  0.00000000E+00
  0.00000000E+00  0.00000000E+00  0.00000000E+00
  0.00000000E+00  0.00000000E+00  0.00000000E+00
  0.00000000E+00  0.00000000E+00  0.00000000E+00
  0.00000000E+00  0.00000000E+00  0.00000000E+00
  0.00000000E+00  0.00000000E+00  0.00000000E+00
  0.00000000E+00  0.00000000E+00  0.00000000E+00
  0.00000000E+00  0.00000000E+00  0.00000000E+00
  0.00000000E+00  0.00000000E+00  0.00000000E+00
  0.00000000E+00  0.00000000E+00  0.00000000E+00
  0.00000000E+00  0.00000000E+00  0.00000000E+00
  0.00000000E+00  0.00000000E+00  0.00000000E+00
  0.00000000E+00  0.00000000E+00  0.00000000E+00
  0.00000000E+00  0.00000000E+00  0.00000000E+00
  0.00000000E+00  0.00000000E+00  0.00000000E+00
  0.00000000E+00  0.00000000E+00  0.00000000E+00
  0.00000000E+00  0.00000000E+00  0.00000000E+00
  0.00000000E+00  0.00000000E+00  0.00000000E+00
