O  C  H  Co Li                          
   1.00000000000000     
    24.7659997212880043    1.9416870248344933   -0.2185252980216133
    14.0571244440531604   21.8940818404933353   -0.2664925116115130
    -0.0576441583612870   -0.0527014377985628    6.6122555276711532
   O    C    H    Co   Li
    54    67    16    18     3
Direct
  0.0259835726501864  0.2641875249587314  0.3138076919180250
  0.9931840755499167  0.3089601532786965  0.9124331225288539
  0.0786178948320135  0.2643330488855018  0.6981904654037208
  0.6992684869186563  0.0639580649296243  0.3347216501319921
  0.6954942775738072  0.0364340424163841  0.9248694920313576
  0.6251889515466108  0.1208274667044684  0.7321710884343227
  0.0196895512675864  0.3906835557449395  0.6541499660277065
  0.3260908863537521  0.6348968475176899  0.3190848161529330
  0.3805655798317419  0.6004526378300847  0.9517772915829281
  0.3593163960565142  0.5426994129629202  0.7594869803779121
  0.5811196805582903  0.0394781756615273  0.6476309755759861
  0.3110292952298282  0.0289041054682244  0.3822105083866346
  0.2275817444365530  0.0670262884354631  0.5993173169823842
  0.2777899131361094  0.0728311766457735  0.9959374586565520
  0.6228478190981013  0.3294894512170239  0.4420032461084830
  0.7081808532079645  0.2385634337006149  0.5899720157638549
  0.0390057098557528  0.6079573641125128  0.7393531348955523
  0.0739626953002221  0.5303229724747888  0.9602135854984772
  0.5759230814279049  0.3123366961577838  0.0820003132524865
  0.0967058318770212  0.6197522200204408  0.4085718112359960
  0.1351162636217802  0.6557786348824369  0.6321381833337023
  0.3983202435460525  0.9644156697538812  0.7138957718375212
  0.4187442028493794  0.0162509347060742  0.9329382183525310
  0.1505342666096910  0.5856123800920423  0.0274805824192775
  0.7062870810279619  0.9635516614927422  0.5921481151328448
  0.7911061559239606  0.9252942769718846  0.3815030240712982
  0.7339149626408439  0.9154568197200361  0.9788240642364948
  0.3984305437872388  0.6701561010452957  0.4800735328925844
  0.3191773050600303  0.7582151378778982  0.3220110689810345
  0.9973722196245167  0.3736156598098316  0.2565843447111908
  0.9616326646214838  0.4538704628242741  0.0486783816059869
  0.3851794073217399  0.6960288564293550  0.9148981006373657
  0.9187553640990399  0.3881818545994369  0.5867056363614582
  0.8784838814857456  0.3516848604669144  0.3749465659875164
  0.6248883679824320  0.0278538316237646  0.2534292053586934
  0.6013263045817548  0.9800960745655380  0.0253932741569166
  0.8720422906518355  0.4125085750528061  0.9846554930353774
  0.9919187651980367  0.7292584800915087  0.6924594240122154
  0.0192245098449758  0.6839664393954210  0.0791906233244219
  0.9326458172029062  0.7281268163708181  0.2890864564452710
  0.3252845648621351  0.9256547636388360  0.6475222850468826
  0.3392975792866143  0.9487520171347267  0.0407381770079131
  0.3949990781824364  0.8665132296342469  0.2506661857590857
  0.0150056119568216  0.5904197046041475  0.3584572175290215
  0.6898256904528852  0.3708757201790926  0.7058264590398095
  0.6053890687763109  0.4631351437495763 -0.0031978026701995
  0.6690929623425249  0.4422751602044941  0.2893726878589846
  0.4429679647193874  0.9503487575277886  0.3233756454884241
  0.4996668521646087  0.4727218205845036  0.2564158980840913
  0.5099441847553584  0.5517820076328163  0.3062480620839899
  0.5580928035990443  0.4718607826716595  0.5299444548278235
  0.7685948735632014  0.2477640724909830  0.1624662037541752
  0.8439458786816673  0.2038715692735325  0.6190168618786061
  0.8742502192096270  0.1166185040643686  0.4089635024989048
  0.0858824980503577  0.2179066454773348  0.2280526815972926
  0.1351320950422411  0.1668532677466006  0.3493521643166800
  0.0560952365475874  0.2659500156545419  0.8709763187861022
  0.1029146466144891  0.2172444956176368  0.0215445230433811
  0.6753757111662544  0.1218687637381189  0.2608569960823179
  0.6769348955413839  0.1651348784799905  0.3863611131772230
  0.6558083757046201  0.0979979414483272  0.8999767731273611
  0.6483854883773408  0.1423195255048517  0.0604686791411132
  0.0201487145978687  0.4378764809136213  0.5768395572867988
  0.0371701727061170  0.4697671434653227  0.7047788946037858
  0.2830042067570103  0.6226733248496706  0.2466369182325906
  0.2294492980069820  0.6379890418534486  0.3671086115764163
  0.3473396357064750  0.5760994145003898  0.9214700150787981
  0.2934049706544787  0.5917581016950592  0.0564666855676051
  0.5475909315437449  0.0189766179497356  0.5596577801027675
  0.5041468049098379  0.0159000463318877  0.6806524180758124
  0.2477921285378862  0.0688702560491125  0.4274027738948842
  0.2000430699385761  0.1182626093672435  0.2805124321978732
  0.2173460414306798  0.1183899835588308  0.0762514025323463
  0.1678247917756203  0.1684090397691536  0.9524831825671880
  0.6604591852974192  0.2664758270004444  0.4644597109287709
  0.6471703432470197  0.2286831228823456  0.3312481301129636
  0.0507005418639854  0.5543342067739072  0.7868353640602277
  0.0345944611335439  0.5219171529902720  0.6394426822612744
  0.6113297526836310  0.2517896607906502  0.1424672694180551
  0.6159173192838832  0.2066160643942881  0.0088607422273695
  0.1362824873128730  0.6343594482397346  0.4551297679371971
  0.1859309782974487  0.6233582213268408  0.3062117765095947
  0.4267627346946264  0.9914430792622225  0.7592038936152935
  0.4696686307732993  0.9921503542430709  0.6108191554676039
  0.1932342238787182  0.5960100595190599  0.1087049536715958
  0.2481805754062602  0.5796704536156658  0.9904462851588606
  0.7701499123073778  0.9230817258190924  0.5522724653189429
  0.8164931060062764  0.8736928868576611  0.7019889191908304
  0.7960240980945202  0.8719046669353189  0.9001427703360345
  0.8440002419697222  0.8222530999977623  0.0270616427874195
  0.3540821137195460  0.7331033880650869  0.4808366289095286
  0.3520507220309368  0.7724282058107422  0.6479117292809023
  0.9852139454951805  0.4285484219211795  0.2200347861923268
  0.0020111109836500  0.4587201294908770  0.3723390419867174
  0.3728139677321341  0.7512921834778089  0.8512308806786411
  0.3784693673562418  0.7905174542979697  0.9837595058525450
  0.8777791357471177  0.3745445883146277  0.5484243690053822
  0.8276104444376865  0.3873967024308543  0.6985753359885550
  0.5951553004590640  0.0025624287261917  0.2033828085926485
  0.5533406587928299  0.9996611490783893  0.3516020200354023
  0.8251897005925313  0.4083162461506555  0.9017207525404427
  0.7710495645547123  0.4245603036433790  0.0245558191777870
  0.9305132458150643  0.7755743803363672  0.7664543227348882
  0.8829031191354805  0.8262580685827908  0.6403259986235516
  0.9560158077035562  0.7266671095552907  0.1177506754225144
  0.9102161369967561  0.7752115738324414  0.9665701979439479
  0.3396277070067101  0.8713383182549004  0.7229738822512779
  0.3341678861780100  0.8320458987343122  0.5909194054766409
  0.3670685082296182  0.8891408105124896  0.0802396664482348
  0.3620808181556741  0.8499634551015305  0.9256657795011179
  0.0163945511170017  0.5424057906368215  0.4347105524557988
  0.0001971651568361  0.5103027730241082  0.3066900556478046
  0.7290882525496293  0.3900375531250460  0.7603792070227066
  0.7801618933732516  0.3775256636928379  0.6347867936794978
  0.6652117672701664  0.4353961225179028  0.0889078207013668
  0.7223816752525696  0.4178321350642145  0.9566801783793829
  0.4762290632024364  0.9716048302208902  0.4051012344547044
  0.5186601625034739  0.9759301029819513  0.2815441994342691
  0.5214392996103951  0.4997046611687960  0.3708671246459148
  0.8583177134999276  0.1603766505431315  0.5124336989054148
  0.7195449042113516  0.2964129605719474  0.1015524185349081
  0.1226818396979434  0.1661189911736246  0.5058051011031350
  0.7028244294110270  0.1480196733059851  0.5324209754007473
  0.0513479031741258  0.4543579879568454  0.8611851602116645
  0.2217993938882214  0.6609383949556994  0.5147193555637380
  0.4981792252431067  0.0315755042158407  0.8380913884069149
  0.1805077067589314  0.1687230391613127  0.7960647881659733
  0.5935214621992000  0.2224891680036515  0.8585883605512324
  0.2542549265381320  0.5582008511466415  0.8412463235664573
  0.8293240838284049  0.8206464697806301  0.1791300060037813
  0.3954994343940544  0.7747786257883614  0.1386453490749494
  0.7687530412853726  0.4414984673310479  0.1786840906777298
  0.8973840608532464  0.8278971791681898  0.4877303956805563
  0.3183005626296858  0.8478621629758409  0.4354617497079513
  0.9865917001531728  0.5254336252085559  0.1497660189145349
  0.7846081479597826  0.3587239863761604  0.4818158093312650
  0.5238498260723867  0.9610360748880670  0.1236030850598882
  0.3666505457940975  0.5801565670799104  0.5385149368956037
  0.0265454435704485  0.3256727858693760  0.4909218165433722
  0.6373080970654683  0.0622572177166307  0.5131930849163224
  0.0800365355753992  0.6543935650910012  0.8404668897913843
  0.3661253543883521  0.0060009013429862  0.1329595374423757
  0.3002593942333963  0.0046749785244903  0.7958951473511875
  0.5609055635569908  0.3816554128805426  0.2122333459681936
  0.6540435426931206  0.3697865424968192  0.0143766624570033
  0.0772191293390316  0.5854201416577273  0.1642575179652023
  0.6571895346795983  0.9765406793442800  0.8236358998626319
  0.9418041426170485  0.3409164963110963  0.1715350438876463
  0.3985099304108177  0.6279203129675315  0.7101073173019501
  0.7238291937342516  0.9833911524813065  0.1659854666541888
  0.9472939067058851  0.4053144797511533  0.8471444735823289
  0.3599309106012905  0.6744158275543434  0.1605232534947060
  0.6515600114767277  0.3847797804093281  0.4123956809994338
 -0.0036517232780041  0.6687624209484798  0.4982628092886250
  0.3814383201512040  0.9339345238520175  0.4560358718477793
  0.5966151702115674  0.5155080013395886  0.4469445480498687
  0.5088777633013718  0.5213222152047624  0.0342761647019006
  0.7458008203295491  0.2753532626530835  0.7078189224033499
 
  0.00000000E+00  0.00000000E+00  0.00000000E+00
  0.00000000E+00  0.00000000E+00  0.00000000E+00
  0.00000000E+00  0.00000000E+00  0.00000000E+00
  0.00000000E+00  0.00000000E+00  0.00000000E+00
  0.00000000E+00  0.00000000E+00  0.00000000E+00
  0.00000000E+00  0.00000000E+00  0.00000000E+00
  0.00000000E+00  0.00000000E+00  0.00000000E+00
  0.00000000E+00  0.00000000E+00  0.00000000E+00
  0.00000000E+00  0.00000000E+00  0.00000000E+00
  0.00000000E+00  0.00000000E+00  0.00000000E+00
  0.00000000E+00  0.00000000E+00  0.00000000E+00
  0.00000000E+00  0.00000000E+00  0.00000000E+00
  0.00000000E+00  0.00000000E+00  0.00000000E+00
  0.00000000E+00  0.00000000E+00  0.00000000E+00
  0.00000000E+00  0.00000000E+00  0.00000000E+00
  0.00000000E+00  0.00000000E+00  0.00000000E+00
  0.00000000E+00  0.00000000E+00  0.00000000E+00
  0.00000000E+00  0.00000000E+00  0.00000000E+00
  0.00000000E+00  0.00000000E+00  0.00000000E+00
  0.00000000E+00  0.00000000E+00  0.00000000E+00
  0.00000000E+00  0.00000000E+00  0.00000000E+00
  0.00000000E+00  0.00000000E+00  0.00000000E+00
  0.00000000E+00  0.00000000E+00  0.00000000E+00
  0.00000000E+00  0.00000000E+00  0.00000000E+00
  0.00000000E+00  0.00000000E+00  0.00000000E+00
  0.00000000E+00  0.00000000E+00  0.00000000E+00
  0.00000000E+00  0.00000000E+00  0.00000000E+00
  0.00000000E+00  0.00000000E+00  0.00000000E+00
  0.00000000E+00  0.00000000E+00  0.00000000E+00
  0.00000000E+00  0.00000000E+00  0.00000000E+00
  0.00000000E+00  0.00000000E+00  0.00000000E+00
  0.00000000E+00  0.00000000E+00  0.00000000E+00
  0.00000000E+00  0.00000000E+00  0.00000000E+00
  0.00000000E+00  0.00000000E+00  0.00000000E+00
  0.00000000E+00  0.00000000E+00  0.00000000E+00
  0.00000000E+00  0.00000000E+00  0.00000000E+00
  0.00000000E+00  0.00000000E+00  0.00000000E+00
  0.00000000E+00  0.00000000E+00  0.00000000E+00
  0.00000000E+00  0.00000000E+00  0.00000000E+00
  0.00000000E+00  0.00000000E+00  0.00000000E+00
  0.00000000E+00  0.00000000E+00  0.00000000E+00
  0.00000000E+00  0.00000000E+00  0.00000000E+00
  0.00000000E+00  0.00000000E+00  0.00000000E+00
  0.00000000E+00  0.00000000E+00  0.00000000E+00
  0.00000000E+00  0.00000000E+00  0.00000000E+00
  0.00000000E+00  0.00000000E+00  0.00000000E+00
  0.00000000E+00  0.00000000E+00  0.00000000E+00
  0.00000000E+00  0.00000000E+00  0.00000000E+00
  0.00000000E+00  0.00000000E+00  0.00000000E+00
  0.00000000E+00  0.00000000E+00  0.00000000E+00
  0.00000000E+00  0.00000000E+00  0.00000000E+00
  0.00000000E+00  0.00000000E+00  0.00000000E+00
  0.00000000E+00  0.00000000E+00  0.00000000E+00
  0.00000000E+00  0.00000000E+00  0.00000000E+00
  0.00000000E+00  0.00000000E+00  0.00000000E+00
  0.00000000E+00  0.00000000E+00  0.00000000E+00
  0.00000000E+00  0.00000000E+00  0.00000000E+00
  0.00000000E+00  0.00000000E+00  0.00000000E+00
  0.00000000E+00  0.00000000E+00  0.00000000E+00
  0.00000000E+00  0.00000000E+00  0.00000000E+00
  0.00000000E+00  0.00000000E+00  0.00000000E+00
  0.00000000E+00  0.00000000E+00  0.00000000E+00
  0.00000000E+00  0.00000000E+00  0.00000000E+00
  0.00000000E+00  0.00000000E+00  0.00000000E+00
  0.00000000E+00  0.00000000E+00  0.00000000E+00
  0.00000000E+00  0.00000000E+00  0.00000000E+00
  0.00000000E+00  0.00000000E+00  0.00000000E+00
  0.00000000E+00  0.00000000E+00  0.00000000E+00
  0.00000000E+00  0.00000000E+00  0.00000000E+00
  0.00000000E+00  0.00000000E+00  0.00000000E+00
  0.00000000E+00  0.00000000E+00  0.00000000E+00
  0.00000000E+00  0.00000000E+00  0.00000000E+00
  0.00000000E+00  0.00000000E+00  0.00000000E+00
  0.00000000E+00  0.00000000E+00  0.00000000E+00
  0.00000000E+00  0.00000000E+00  0.00000000E+00
  0.00000000E+00  0.00000000E+00  0.00000000E+00
  0.00000000E+00  0.00000000E+00  0.00000000E+00
  0.00000000E+00  0.00000000E+00  0.00000000E+00
  0.00000000E+00  0.00000000E+00  0.00000000E+00
  0.00000000E+00  0.00000000E+00  0.00000000E+00
  0.00000000E+00  0.00000000E+00  0.00000000E+00
  0.00000000E+00  0.00000000E+00  0.00000000E+00
  0.00000000E+00  0.00000000E+00  0.00000000E+00
  0.00000000E+00  0.00000000E+00  0.00000000E+00
  0.00000000E+00  0.00000000E+00  0.00000000E+00
  0.00000000E+00  0.00000000E+00  0.00000000E+00
  0.00000000E+00  0.00000000E+00  0.00000000E+00
  0.00000000E+00  0.00000000E+00  0.00000000E+00
  0.00000000E+00  0.00000000E+00  0.00000000E+00
  0.00000000E+00  0.00000000E+00  0.00000000E+00
  0.00000000E+00  0.00000000E+00  0.00000000E+00
  0.00000000E+00  0.00000000E+00  0.00000000E+00
  0.00000000E+00  0.00000000E+00  0.00000000E+00
  0.00000000E+00  0.00000000E+00  0.00000000E+00
  0.00000000E+00  0.00000000E+00  0.00000000E+00
  0.00000000E+00  0.00000000E+00  0.00000000E+00
  0.00000000E+00  0.00000000E+00  0.00000000E+00
  0.00000000E+00  0.00000000E+00  0.00000000E+00
  0.00000000E+00  0.00000000E+00  0.00000000E+00
  0.00000000E+00  0.00000000E+00  0.00000000E+00
  0.00000000E+00  0.00000000E+00  0.00000000E+00
  0.00000000E+00  0.00000000E+00  0.00000000E+00
  0.00000000E+00  0.00000000E+00  0.00000000E+00
  0.00000000E+00  0.00000000E+00  0.00000000E+00
  0.00000000E+00  0.00000000E+00  0.00000000E+00
  0.00000000E+00  0.00000000E+00  0.00000000E+00
  0.00000000E+00  0.00000000E+00  0.00000000E+00
  0.00000000E+00  0.00000000E+00  0.00000000E+00
  0.00000000E+00  0.00000000E+00  0.00000000E+00
  0.00000000E+00  0.00000000E+00  0.00000000E+00
  0.00000000E+00  0.00000000E+00  0.00000000E+00
  0.00000000E+00  0.00000000E+00  0.00000000E+00
  0.00000000E+00  0.00000000E+00  0.00000000E+00
  0.00000000E+00  0.00000000E+00  0.00000000E+00
  0.00000000E+00  0.00000000E+00  0.00000000E+00
  0.00000000E+00  0.00000000E+00  0.00000000E+00
  0.00000000E+00  0.00000000E+00  0.00000000E+00
  0.00000000E+00  0.00000000E+00  0.00000000E+00
  0.00000000E+00  0.00000000E+00  0.00000000E+00
  0.00000000E+00  0.00000000E+00  0.00000000E+00
  0.00000000E+00  0.00000000E+00  0.00000000E+00
  0.00000000E+00  0.00000000E+00  0.00000000E+00
  0.00000000E+00  0.00000000E+00  0.00000000E+00
  0.00000000E+00  0.00000000E+00  0.00000000E+00
  0.00000000E+00  0.00000000E+00  0.00000000E+00
  0.00000000E+00  0.00000000E+00  0.00000000E+00
  0.00000000E+00  0.00000000E+00  0.00000000E+00
  0.00000000E+00  0.00000000E+00  0.00000000E+00
  0.00000000E+00  0.00000000E+00  0.00000000E+00
  0.00000000E+00  0.00000000E+00  0.00000000E+00
  0.00000000E+00  0.00000000E+00  0.00000000E+00
  0.00000000E+00  0.00000000E+00  0.00000000E+00
  0.00000000E+00  0.00000000E+00  0.00000000E+00
  0.00000000E+00  0.00000000E+00  0.00000000E+00
  0.00000000E+00  0.00000000E+00  0.00000000E+00
  0.00000000E+00  0.00000000E+00  0.00000000E+00
  0.00000000E+00  0.00000000E+00  0.00000000E+00
  0.00000000E+00  0.00000000E+00  0.00000000E+00
  0.00000000E+00  0.00000000E+00  0.00000000E+00
  0.00000000E+00  0.00000000E+00  0.00000000E+00
  0.00000000E+00  0.00000000E+00  0.00000000E+00
  0.00000000E+00  0.00000000E+00  0.00000000E+00
  0.00000000E+00  0.00000000E+00  0.00000000E+00
  0.00000000E+00  0.00000000E+00  0.00000000E+00
  0.00000000E+00  0.00000000E+00  0.00000000E+00
  0.00000000E+00  0.00000000E+00  0.00000000E+00
  0.00000000E+00  0.00000000E+00  0.00000000E+00
  0.00000000E+00  0.00000000E+00  0.00000000E+00
  0.00000000E+00  0.00000000E+00  0.00000000E+00
  0.00000000E+00  0.00000000E+00  0.00000000E+00
  0.00000000E+00  0.00000000E+00  0.00000000E+00
  0.00000000E+00  0.00000000E+00  0.00000000E+00
  0.00000000E+00  0.00000000E+00  0.00000000E+00
  0.00000000E+00  0.00000000E+00  0.00000000E+00
  0.00000000E+00  0.00000000E+00  0.00000000E+00
  0.00000000E+00  0.00000000E+00  0.00000000E+00
  0.00000000E+00  0.00000000E+00  0.00000000E+00
  0.00000000E+00  0.00000000E+00  0.00000000E+00
