O  C  H  Co Li                          
   1.00000000000000     
    24.4210405148533916    2.0534700579066238   -0.2930558260532345
    13.9610738943888073   21.9002635814986064   -0.1855754172637675
    -0.0801309587280618   -0.0133617921109170    6.6465079447844104
   O    C    H    Co   Li
    54    67    16    18     3
Direct
  0.0187005097422625  0.2692375438077502  0.3095251294324022
  0.9861310872075051  0.3147628577221989  0.9096891852065260
  0.0721008815897945  0.2670685625820468  0.6961429513836170
  0.6971863806089584  0.0690596793121964  0.3341356378206747
  0.6919294050484863  0.0415861789310713  0.9292410780669033
  0.6210536834066015  0.1253091378414345  0.7294155481719702
  0.0147908371673615  0.3938690707426877  0.6491020285397948
  0.3480138212409810  0.6179815622018970  0.3411605426018562
  0.3939742750594632  0.5931996302204577  0.9654653461225723
  0.3828902327728983  0.5262332717999663  0.7880940743154466
  0.5816990523531329  0.0401649888235048  0.6514823219788658
  0.3060886914752929  0.0272919165374845  0.3832061786842714
  0.2225034324019233  0.0672958254353947  0.6022139986507445
  0.2722540270120583  0.0714645829794139  0.0007744385989639
  0.6079622155444544  0.3391053077259308  0.4330623863769240
  0.6938716919775246  0.2483238488708353  0.5883625583742061
  0.0552003025660164  0.5983560597641098  0.7243450079304251
  0.0840143852840357  0.5237874956059957  0.9535983867767054
  0.5594580980323798  0.3205052784323349  0.0751130763562033
  0.1036055131356725  0.6202345935464356  0.3958427103595267
  0.1482353681169447  0.6469186317955469  0.6329905170743074
  0.3948429396508496  0.9666568401546433  0.7194343005560767
  0.4169661768428555  0.0168778244303542  0.9391362095808848
  0.1614096041529804  0.5817586160989753  0.0286615393096325
  0.7089532149975744  0.9668034479873995  0.6018850104066670
  0.7931733652462107  0.9281224017152503  0.3864903816970579
  0.7395794484830246  0.9183476163895786  0.9843697446902918
  0.4187652458420886  0.6608221776058426  0.5115176233279815
  0.3342420669356818  0.7448483283358915  0.3419410324707812
  0.9906241502344134  0.3786828585288028  0.2538336677841520
  0.9580454965317182  0.4578998315587727  0.0431431035480406
  0.4007885220685826  0.6863304697726348  0.9384001797336249
  0.9107037424947454  0.3950786379159776  0.5789532477236122
  0.8679471850181777  0.3614958124600760  0.3631624524814653
  0.6260606467338315  0.0282084853099302  0.2604572695105812
  0.6030732163101044  0.9799653388868578  0.0332316670472255
  0.8629152961603436  0.4193810228414649  0.9708396217217828
  0.9972746445741240  0.7244889735225521  0.6889928219534874
  0.0248784193428886  0.6753833998262372  0.0625132877784906
  0.9406058599676430  0.7239675363693320  0.2839441812099686
  0.3243325787546307  0.9227011271602729  0.6623053637788153
  0.3398839823982644  0.9465870836884618  0.0476533733324798
  0.3936960232116826  0.8661483701312430  0.2679390434532117
  0.0273067912954183  0.5836416284085495  0.3514114681891919
  0.6785687643773773  0.3773926695185943  0.6860415417960084
  0.5951191606463919  0.4652790610351575 -0.0230860799862978
  0.6597695009269114  0.4465628114397609  0.2675048922898459
  0.4399404230251107  0.9524475846374177  0.3336121677398690
  0.4850828117395578  0.4808743847849573  0.2385200676115372
  0.4968900799635023  0.5601258282790125  0.2605389354388681
  0.5470465707019104  0.4829338067102435  0.4958251172323097
  0.7589192652319949  0.2496302088892185  0.1548578624303118
  0.8335780614866309  0.2138658728654151  0.6109994980747333
  0.8738767267193146  0.1228625499580912  0.4097490879326267
  0.0791073078166165  0.2216724224890962  0.2265764801213659
  0.1287497868411534  0.1697982682956028  0.3497977582630802
  0.0494038996059895  0.2697427632982928  0.8690565138955376
  0.0963803086245214  0.2200583671043372  0.0206845329142540
  0.6685839343145554  0.1282348521300640  0.2590958690772218
  0.6667823695804383  0.1732226241573030  0.3840248883810422
  0.6507630095510487  0.1031419888360751  0.9003386107055243
  0.6403276978450259  0.1484271474869335  0.0594545061379344
  0.0194425160611856  0.4385979171354647  0.5706621901647262
  0.0405332080855073  0.4673455399902306  0.6979235206374776
  0.3042644197677871  0.6062988684003698  0.2671370268551934
  0.2500382904000261  0.6210922950788759  0.3844968174296879
  0.3660466120808133  0.5631781080168636  0.9420578807446942
  0.3131328170297330  0.5771945844164832  0.0760020746617018
  0.5477215924837949  0.0196066616771534  0.5642788877203989
  0.5038491825994379  0.0167414454158099  0.6858186936723629
  0.2424999157485676  0.0687911634313929  0.4299751792044604
  0.1940740469014417  0.1193745273574884  0.2830441412577405
  0.2114245166355055  0.1185758443784772  0.0791801481801303
  0.1616512391691884  0.1694052982865458  0.9542198183382645
  0.6459664717677317  0.2759963353162224  0.4598389079744061
  0.6336564877192302  0.2374939441284293  0.3279723905265303
  0.0624096704038987  0.5471117132626783  0.7777639466346319
  0.0428462043792466  0.5167849037597790  0.6321016748740683
  0.5971385430311233  0.2597541383112112  0.1389481007709157
  0.6040065643285286  0.2134430087687154  0.0072138767483623
  0.1486873244789129  0.6272472850203704  0.4550628757532283
  0.2027989697402868  0.6110395263135957  0.3155532369909397
  0.4245090703249397  0.9928145072812721  0.7654620701866085
  0.4681958135430959  0.9934638844883984  0.6181397295671373
  0.2082904493843545  0.5865287422368967  0.1162480045751818
  0.2656546749333193  0.5674110568843092  0.0051012819234253
  0.7729517611737248  0.9253351773447956  0.5573842486638340
  0.8207080802064082  0.8742365509541433  0.7029092728407963
  0.8015047280710641  0.8731582089004938  0.9030150151255925
  0.8503555420789984  0.8220672789880908  0.0281804920976702
  0.3675403228098425  0.7236321378246305  0.5051734462448433
  0.3595446059905917  0.7652975921071326  0.6721076545251364
  0.9815640834232361  0.4321878451885172  0.2148364054200365
  0.0020179502162045  0.4596883102662240  0.3659940136853412
  0.3820248188332092  0.7440392880389298  0.8756579745313094
  0.3839505826456890  0.7860551600916071  0.0055853269232471
  0.8679959985343266  0.3831123209479185  0.5370210230044302
  0.8170703223041792  0.3956168479969704  0.6837424676140584
  0.5961858759199634  0.0027402271393945  0.2099042851614382
  0.5533965295553906  0.0002025796381099  0.3577010475726318
  0.8154365028089422  0.4152535009686390  0.8864853561468001
  0.7612705710592096  0.4300868013011457  0.0074320961536049
  0.9356787059401224  0.7724398895655029  0.7627282753741965
  0.8870379069852095  0.8246309676356633  0.6386639096649062
  0.9627668564281838  0.7214212168852498  0.1102128929076544
  0.9162709233442825  0.7726602729932546  0.9636478286167379
  0.3402556179864123  0.8677737681497967  0.7413763809180507
  0.3369570221183050  0.8267003563353380  0.6128269583887694
  0.3669393909917825  0.8875243879779346  0.0944045300826316
  0.3635244744343358  0.8468568099985925  0.9442477309194692
  0.0252411064788419  0.5375138360659979  0.4274353410413887
  0.0048783889988982  0.5086166502758421  0.3000561696862890
  0.7182190882423302  0.3965261363014788  0.7416538414433040
  0.7690865108580123  0.3857369208420089  0.6176517391525461
  0.6559890377556110  0.4384709831714629  0.0690915806576424
  0.7124991199667743  0.4227183479418269  0.9378434984501105
  0.4743934503894603  0.9731492920232151  0.4138067876473280
  0.5175525218690714  0.9769340828152235  0.2901844333921496
  0.5076750661498847  0.5087388362447042  0.3400696448642962
  0.8530157422473832  0.1684539335214735  0.5087201729571714
  0.7097977136380911  0.2987153758674755  0.0899532935171227
  0.1160936343623673  0.1698927282951929  0.5058310111364983
  0.6932373360316598  0.1568909482135817  0.5298168559027187
  0.0541364366170573  0.4513463399548165  0.8539754929585032
  0.2432802391378907  0.6420655224408142  0.5337817861004279
  0.4986213072785013  0.0322344334335649  0.8418014706504996
  0.1747013438304132  0.1688440826792782  0.7983090382817906
  0.5809023244829883  0.2292318393988978  0.8569772586234675
  0.2715310223003244  0.5473389061665780  0.8548210801646399
  0.8363548204372007  0.8208904015484375  0.1814747728624857
  0.4019002076643603  0.7713079291738867  0.1605631606056181
  0.7589535613557999  0.4460338618700001  0.1616718534891614
  0.9007050167427735  0.8260085508125882  0.4850725068616865
  0.3202046373756887  0.8416074773237442  0.4571055245221495
  0.9913941632484424  0.5246818070638199  0.1440439907312376
  0.7732009823673327  0.3679868461671262  0.4647298727849579
  0.5223621330260978  0.9618690552410760  0.1337473973801280
  0.3871964882306925  0.5652533580716794  0.5645424559321067
  0.0201198687956025  0.3297187363659203  0.4880542323403074
  0.6368445059598665  0.0649026828236813  0.5148858674694695
  0.0895798918632847  0.6496368331070898  0.8349589410067111
  0.3631811587219127  0.0065982736867419  0.1380585886675374
  0.2964193403701539  0.0036015719320965  0.8009328853010174
  0.5464374730238724  0.3894021240595064  0.1989825906386864
  0.6438124429343282  0.3730237870311306  0.0014361133815125
  0.0881493211452380  0.5789809400170651  0.1555949461020624
  0.6592672724713869  0.9784500386623279  0.8300029892165303
  0.9334696645149053  0.3476567870184110  0.1638918145489366
  0.4135814104538872  0.6195030853563628  0.7312066433933815
  0.7257843301877354  0.9871239825338377  0.1708553035933639
  0.9405887976025260  0.4111694079120025  0.8408992090603289
  0.3956678650890243  0.6511701236481043  0.2003280835850308
  0.6397738435306229  0.3914581615395169  0.3946966880151920
  0.0056638257713561  0.6635286400469640  0.4918766573273571
  0.3791320030063271  0.9332769312593759  0.4680868019024294
  0.5861423073914911  0.5245056426858918  0.4024147791990079
  0.5005195414936401  0.5203711677825291 -0.0077278330513372
  0.7347293646586515  0.2830833090007639  0.6968931397135399
 
  0.00000000E+00  0.00000000E+00  0.00000000E+00
  0.00000000E+00  0.00000000E+00  0.00000000E+00
  0.00000000E+00  0.00000000E+00  0.00000000E+00
  0.00000000E+00  0.00000000E+00  0.00000000E+00
  0.00000000E+00  0.00000000E+00  0.00000000E+00
  0.00000000E+00  0.00000000E+00  0.00000000E+00
  0.00000000E+00  0.00000000E+00  0.00000000E+00
  0.00000000E+00  0.00000000E+00  0.00000000E+00
  0.00000000E+00  0.00000000E+00  0.00000000E+00
  0.00000000E+00  0.00000000E+00  0.00000000E+00
  0.00000000E+00  0.00000000E+00  0.00000000E+00
  0.00000000E+00  0.00000000E+00  0.00000000E+00
  0.00000000E+00  0.00000000E+00  0.00000000E+00
  0.00000000E+00  0.00000000E+00  0.00000000E+00
  0.00000000E+00  0.00000000E+00  0.00000000E+00
  0.00000000E+00  0.00000000E+00  0.00000000E+00
  0.00000000E+00  0.00000000E+00  0.00000000E+00
  0.00000000E+00  0.00000000E+00  0.00000000E+00
  0.00000000E+00  0.00000000E+00  0.00000000E+00
  0.00000000E+00  0.00000000E+00  0.00000000E+00
  0.00000000E+00  0.00000000E+00  0.00000000E+00
  0.00000000E+00  0.00000000E+00  0.00000000E+00
  0.00000000E+00  0.00000000E+00  0.00000000E+00
  0.00000000E+00  0.00000000E+00  0.00000000E+00
  0.00000000E+00  0.00000000E+00  0.00000000E+00
  0.00000000E+00  0.00000000E+00  0.00000000E+00
  0.00000000E+00  0.00000000E+00  0.00000000E+00
  0.00000000E+00  0.00000000E+00  0.00000000E+00
  0.00000000E+00  0.00000000E+00  0.00000000E+00
  0.00000000E+00  0.00000000E+00  0.00000000E+00
  0.00000000E+00  0.00000000E+00  0.00000000E+00
  0.00000000E+00  0.00000000E+00  0.00000000E+00
  0.00000000E+00  0.00000000E+00  0.00000000E+00
  0.00000000E+00  0.00000000E+00  0.00000000E+00
  0.00000000E+00  0.00000000E+00  0.00000000E+00
  0.00000000E+00  0.00000000E+00  0.00000000E+00
  0.00000000E+00  0.00000000E+00  0.00000000E+00
  0.00000000E+00  0.00000000E+00  0.00000000E+00
  0.00000000E+00  0.00000000E+00  0.00000000E+00
  0.00000000E+00  0.00000000E+00  0.00000000E+00
  0.00000000E+00  0.00000000E+00  0.00000000E+00
  0.00000000E+00  0.00000000E+00  0.00000000E+00
  0.00000000E+00  0.00000000E+00  0.00000000E+00
  0.00000000E+00  0.00000000E+00  0.00000000E+00
  0.00000000E+00  0.00000000E+00  0.00000000E+00
  0.00000000E+00  0.00000000E+00  0.00000000E+00
  0.00000000E+00  0.00000000E+00  0.00000000E+00
  0.00000000E+00  0.00000000E+00  0.00000000E+00
  0.00000000E+00  0.00000000E+00  0.00000000E+00
  0.00000000E+00  0.00000000E+00  0.00000000E+00
  0.00000000E+00  0.00000000E+00  0.00000000E+00
  0.00000000E+00  0.00000000E+00  0.00000000E+00
  0.00000000E+00  0.00000000E+00  0.00000000E+00
  0.00000000E+00  0.00000000E+00  0.00000000E+00
  0.00000000E+00  0.00000000E+00  0.00000000E+00
  0.00000000E+00  0.00000000E+00  0.00000000E+00
  0.00000000E+00  0.00000000E+00  0.00000000E+00
  0.00000000E+00  0.00000000E+00  0.00000000E+00
  0.00000000E+00  0.00000000E+00  0.00000000E+00
  0.00000000E+00  0.00000000E+00  0.00000000E+00
  0.00000000E+00  0.00000000E+00  0.00000000E+00
  0.00000000E+00  0.00000000E+00  0.00000000E+00
  0.00000000E+00  0.00000000E+00  0.00000000E+00
  0.00000000E+00  0.00000000E+00  0.00000000E+00
  0.00000000E+00  0.00000000E+00  0.00000000E+00
  0.00000000E+00  0.00000000E+00  0.00000000E+00
  0.00000000E+00  0.00000000E+00  0.00000000E+00
  0.00000000E+00  0.00000000E+00  0.00000000E+00
  0.00000000E+00  0.00000000E+00  0.00000000E+00
  0.00000000E+00  0.00000000E+00  0.00000000E+00
  0.00000000E+00  0.00000000E+00  0.00000000E+00
  0.00000000E+00  0.00000000E+00  0.00000000E+00
  0.00000000E+00  0.00000000E+00  0.00000000E+00
  0.00000000E+00  0.00000000E+00  0.00000000E+00
  0.00000000E+00  0.00000000E+00  0.00000000E+00
  0.00000000E+00  0.00000000E+00  0.00000000E+00
  0.00000000E+00  0.00000000E+00  0.00000000E+00
  0.00000000E+00  0.00000000E+00  0.00000000E+00
  0.00000000E+00  0.00000000E+00  0.00000000E+00
  0.00000000E+00  0.00000000E+00  0.00000000E+00
  0.00000000E+00  0.00000000E+00  0.00000000E+00
  0.00000000E+00  0.00000000E+00  0.00000000E+00
  0.00000000E+00  0.00000000E+00  0.00000000E+00
  0.00000000E+00  0.00000000E+00  0.00000000E+00
  0.00000000E+00  0.00000000E+00  0.00000000E+00
  0.00000000E+00  0.00000000E+00  0.00000000E+00
  0.00000000E+00  0.00000000E+00  0.00000000E+00
  0.00000000E+00  0.00000000E+00  0.00000000E+00
  0.00000000E+00  0.00000000E+00  0.00000000E+00
  0.00000000E+00  0.00000000E+00  0.00000000E+00
  0.00000000E+00  0.00000000E+00  0.00000000E+00
  0.00000000E+00  0.00000000E+00  0.00000000E+00
  0.00000000E+00  0.00000000E+00  0.00000000E+00
  0.00000000E+00  0.00000000E+00  0.00000000E+00
  0.00000000E+00  0.00000000E+00  0.00000000E+00
  0.00000000E+00  0.00000000E+00  0.00000000E+00
  0.00000000E+00  0.00000000E+00  0.00000000E+00
  0.00000000E+00  0.00000000E+00  0.00000000E+00
  0.00000000E+00  0.00000000E+00  0.00000000E+00
  0.00000000E+00  0.00000000E+00  0.00000000E+00
  0.00000000E+00  0.00000000E+00  0.00000000E+00
  0.00000000E+00  0.00000000E+00  0.00000000E+00
  0.00000000E+00  0.00000000E+00  0.00000000E+00
  0.00000000E+00  0.00000000E+00  0.00000000E+00
  0.00000000E+00  0.00000000E+00  0.00000000E+00
  0.00000000E+00  0.00000000E+00  0.00000000E+00
  0.00000000E+00  0.00000000E+00  0.00000000E+00
  0.00000000E+00  0.00000000E+00  0.00000000E+00
  0.00000000E+00  0.00000000E+00  0.00000000E+00
  0.00000000E+00  0.00000000E+00  0.00000000E+00
  0.00000000E+00  0.00000000E+00  0.00000000E+00
  0.00000000E+00  0.00000000E+00  0.00000000E+00
  0.00000000E+00  0.00000000E+00  0.00000000E+00
  0.00000000E+00  0.00000000E+00  0.00000000E+00
  0.00000000E+00  0.00000000E+00  0.00000000E+00
  0.00000000E+00  0.00000000E+00  0.00000000E+00
  0.00000000E+00  0.00000000E+00  0.00000000E+00
  0.00000000E+00  0.00000000E+00  0.00000000E+00
  0.00000000E+00  0.00000000E+00  0.00000000E+00
  0.00000000E+00  0.00000000E+00  0.00000000E+00
  0.00000000E+00  0.00000000E+00  0.00000000E+00
  0.00000000E+00  0.00000000E+00  0.00000000E+00
  0.00000000E+00  0.00000000E+00  0.00000000E+00
  0.00000000E+00  0.00000000E+00  0.00000000E+00
  0.00000000E+00  0.00000000E+00  0.00000000E+00
  0.00000000E+00  0.00000000E+00  0.00000000E+00
  0.00000000E+00  0.00000000E+00  0.00000000E+00
  0.00000000E+00  0.00000000E+00  0.00000000E+00
  0.00000000E+00  0.00000000E+00  0.00000000E+00
  0.00000000E+00  0.00000000E+00  0.00000000E+00
  0.00000000E+00  0.00000000E+00  0.00000000E+00
  0.00000000E+00  0.00000000E+00  0.00000000E+00
  0.00000000E+00  0.00000000E+00  0.00000000E+00
  0.00000000E+00  0.00000000E+00  0.00000000E+00
  0.00000000E+00  0.00000000E+00  0.00000000E+00
  0.00000000E+00  0.00000000E+00  0.00000000E+00
  0.00000000E+00  0.00000000E+00  0.00000000E+00
  0.00000000E+00  0.00000000E+00  0.00000000E+00
  0.00000000E+00  0.00000000E+00  0.00000000E+00
  0.00000000E+00  0.00000000E+00  0.00000000E+00
  0.00000000E+00  0.00000000E+00  0.00000000E+00
  0.00000000E+00  0.00000000E+00  0.00000000E+00
  0.00000000E+00  0.00000000E+00  0.00000000E+00
  0.00000000E+00  0.00000000E+00  0.00000000E+00
  0.00000000E+00  0.00000000E+00  0.00000000E+00
  0.00000000E+00  0.00000000E+00  0.00000000E+00
  0.00000000E+00  0.00000000E+00  0.00000000E+00
  0.00000000E+00  0.00000000E+00  0.00000000E+00
  0.00000000E+00  0.00000000E+00  0.00000000E+00
  0.00000000E+00  0.00000000E+00  0.00000000E+00
  0.00000000E+00  0.00000000E+00  0.00000000E+00
  0.00000000E+00  0.00000000E+00  0.00000000E+00
  0.00000000E+00  0.00000000E+00  0.00000000E+00
  0.00000000E+00  0.00000000E+00  0.00000000E+00
  0.00000000E+00  0.00000000E+00  0.00000000E+00
  0.00000000E+00  0.00000000E+00  0.00000000E+00
  0.00000000E+00  0.00000000E+00  0.00000000E+00
  0.00000000E+00  0.00000000E+00  0.00000000E+00
