O  C  H  Co Li                          
   1.00000000000000     
    24.5314360016474531    2.0612554688478388   -0.2406115910958149
    14.0240060545739826   21.9743308264884227   -0.2283253895395212
    -0.0643366445452692   -0.0367726917200516    6.6296189147155715
   O    C    H    Co   Li
    54    67    16    18     3
Direct
  0.0235385763807078  0.2664552800816244  0.3124462821719575
  0.9904448834198336  0.3110411999099704  0.9113979330872410
  0.0766477712183312  0.2652108244328857  0.6978859757127934
  0.6996282891062426  0.0658169210905902  0.3355746686003999
  0.6955616511705064  0.0385216687338647  0.9260939534625672
  0.6246025351375063  0.1229064643901049  0.7314721473085397
  0.0179856207775669  0.3920464560664291  0.6530047259221902
  0.3374713854328497  0.6261076072977775  0.3270049880065704
  0.3912019240884611  0.5936213775347046  0.9604838329927848
  0.3714276399844285  0.5344396143316881  0.7703364453016665
  0.5795490145926148  0.0424404689463532  0.6492534323902094
  0.3109859568852221  0.0287962195975853  0.3859441228346452
  0.2263632409521598  0.0662921992915056  0.5998133307076620
  0.2766469630718383  0.0711918842789335  0.9975087232554695
  0.6171448954731336  0.3326111209156123  0.4402020644717808
  0.7039244943153675  0.2418262047371245  0.5895294745736177
  0.0454321159804510  0.6043126938035061  0.7306810759242023
  0.0773662246553589  0.5285485033239696  0.9570251730447651
  0.5705434738131808  0.3147943426235308  0.0792841186841145
  0.0994604344632772  0.6201085928125850  0.4014322718930092
  0.1406550917733079  0.6522568707650984  0.6293550400624925
  0.3998444185589609  0.9622035477867881  0.7184960289786780
  0.4194800629706495  0.0146980692201187  0.9362839161990323
  0.1545751689602576  0.5856701620042163  0.0243535767876185
  0.7059932476499685  0.9661056572769964  0.5946542810555514
  0.7914549523672673  0.9269579466142247  0.3829664839428809
  0.7347186739773612  0.9185590089584933  0.9809759500925226
  0.4032662854380063  0.6681473896050960  0.4931746462418662
  0.3218111052392552  0.7551324341180574  0.3312839882804791
  0.9950099321433318  0.3755915805615951  0.2564971881421526
  0.9596499068750318  0.4554834505582242  0.0476851227540881
  0.3884253048792742  0.6937722750534172  0.9252748098667468
  0.9156389831697048  0.3908160231306905  0.5838624469990126
  0.8744945626873762  0.3553539528608614  0.3707283535928462
  0.6239171136370966  0.0308189315522656  0.2551201492627237
  0.6002820335682434  0.9831049946934151  0.0281442796551358
  0.8678890855154311  0.4153572575383967  0.9795584527059655
  0.9932039835559876  0.7275233312734335  0.6900902337280261
  0.0203968087187240  0.6800410735831885  0.0697762694822190
  0.9349693626062318  0.7276232135003415  0.2874168941286377
  0.3254785447330150  0.9242622449680411  0.6536701034849978
  0.3383004759415957  0.9481487086825172  0.0460622125804407
  0.3941400366067593  0.8663319801662516  0.2582204401016093
  0.0188708402208364  0.5881561033658852  0.3545873503129122
  0.6856410903675977  0.3720376788698221  0.6982749368829915
  0.6002611837733702  0.4623940886329551 -0.0115772931129980
  0.6646741263249690  0.4432770007480402  0.2795780379441989
  0.4438497102492718  0.9495768658365402  0.3276388812199418
  0.4929877636624506  0.4750082414655168  0.2489522793876043
  0.5047103883900510  0.5534747977115808  0.2853564487218303
  0.5527226904930995  0.4755279852927198  0.5163782784833122
  0.7670283239272273  0.2477414192569175  0.1597368251653969
  0.8417180684557910  0.2066044219952122  0.6149617896912100
  0.8746338896905066  0.1177949820331674  0.4114259318809947
  0.0836475699830292  0.2191951519824282  0.2275665769783080
  0.1332527680588556  0.1677693196432414  0.3496853932671542
  0.0537904870705337  0.2670848421824864  0.8703559810116941
  0.1006735172332291  0.2177150677004230  0.0207981841063440
  0.6740180336395413  0.1240621546301037  0.2609264630287581
  0.6742107336819942  0.1678998754200157  0.3862398627557668
  0.6551868100062955  0.0999952707690228  0.9003678937132030
  0.6466456194868818  0.1443841121256212  0.0606281259894321
  0.0193013156984540  0.4386528574509242  0.5752120923367363
  0.0375366337107442  0.4696713209784469  0.7025833598944474
  0.2934027675206820  0.6147397313925381  0.2534360674701470
  0.2390814561850804  0.6304895544555914  0.3719870093071660
  0.3583216093948854  0.5685962011959557  0.9298292955851493
  0.3035408011447023  0.5847400073194569  0.0625657172989869
  0.5467840027903248  0.0208825961321113  0.5615689783331596
  0.5039189240880581  0.0166612799401755  0.6828158677758667
  0.2468694277499701  0.0685326065333054  0.4290108794514843
  0.1985796245092404  0.1180890633400482  0.2815841984689432
  0.2158134380945279  0.1174579522446878  0.0770502945660302
  0.1658122932425092  0.1676695854653595  0.9526250912106462
  0.6556662431719256  0.2696081963329829  0.4633544534113443
  0.6430078314059717  0.2315941938985230  0.3306005696353209
  0.0547445762051597  0.5521499869331342  0.7821883921878688
  0.0368359673903985  0.5206664901758610  0.6366904014379013
  0.6069519702007246  0.2543286269818101  0.1417312771229353
  0.6125733186684649  0.2088046818836524  0.0087460711124416
  0.1415124067310427  0.6316019735960869  0.4523029718129506
  0.1932989826011558  0.6185056977087577  0.3069686129270476
  0.4277168468439903  0.9899860289701151  0.7626661863249673
  0.4700748609182764  0.9919054386042410  0.6140828304744270
  0.1998001447125546  0.5927946934998789  0.1082159870706636
  0.2563106859057683  0.5747714330976136  0.9934452827769022
  0.7702609084684471  0.9250014650433743  0.5537194027115029
  0.8170142282556830  0.8751241230738288  0.7018445139194440
  0.7969278876949829  0.8740196359393896  0.9010723859649427
  0.8452966855786258  0.8237507920851154  0.0277251573673042
  0.3568488985313262  0.7309008090965464  0.4916317641863379
  0.3530241150785842  0.7709611195247095  0.6582393252170595
  0.9834107633723134  0.4301748023156914  0.2192686406186017
  0.0011190024734885  0.4596862130160167  0.3710227134729480
  0.3738708324547972  0.7499509132236745  0.8618447059782985
  0.3779912595971828  0.7900238506202591  0.9939024290905356
  0.8740532226615592  0.3776041506714224  0.5444208859457448
  0.8236107664627422  0.3899306207992186  0.6933507907762613
  0.5942729022199768  0.0052486743743040  0.2059106715789901
  0.5527912561085373  0.0014934246156462  0.3544215175201598
  0.8209717959317997  0.4107863292698741  0.8957756761555747
  0.7664296995424846  0.4265211949754618  0.0172745249118708
  0.9315534867650672  0.7748979776604745  0.7646679309405358
  0.8836251669326484  0.8262443435779542  0.6394276131875140
  0.9577513700734568  0.7250570920476771  0.1141160096065430
  0.9116047178901778  0.7750563119330639  0.9655443974267107
  0.3393749219403399  0.8703757259495701  0.7311378408952995
  0.3344585720470461  0.8307205182915217  0.6000365245725020
  0.3660317166501798  0.8887082749050113  0.0872695126845029
  0.3611137621135611  0.8494816606527057  0.9344286091111519
  0.0186870896909640  0.5411723339455856  0.4317565966874174
  0.0006079882682465  0.5104118454744937  0.3050373224266231
  0.7248185520142890  0.3914925174498419  0.7531463604491907
  0.7762502755943718  0.3794717794229771  0.6288128716909843
  0.6606744611786096  0.4358103785729958  0.0800189909444543
  0.7178278196062281  0.4191916930784994  0.9485562610685884
  0.4767098611009538  0.9715496315601503  0.4089372730803231
  0.5187839335130481  0.9767602111193486  0.2855039079094895
  0.5154206599530124  0.5024543459961675  0.3567871325758017
  0.8574376006020495  0.1622289397663551  0.5113517496542204
  0.7172672119306243  0.2960583068070088  0.0971355007253130
  0.1207936813540886  0.1677291591349209  0.5063242721254854
  0.7001343849232865  0.1512444561265634  0.5322643590541947
  0.0515222419957182  0.4540804118544866  0.8588540384099702
  0.2320333134409666  0.6524695162612508  0.5203255163129415
  0.4979834973021018  0.0320697544933555  0.8396949026751207
  0.1785272142213676  0.1672925289680939  0.7960437001013754
  0.5899167864549896  0.2246649320748892  0.8583427065121280
  0.2622625881063360  0.5540782617566398  0.8438023561099861
  0.8305087501177204  0.8229525305808491  0.1806905266240157
  0.3944823552741859  0.7749968555374941  0.1492869373946764
  0.7636337255924333  0.4434635265944762  0.1709960270356386
  0.8979525139364262  0.8274189174290010  0.4861285201797760
  0.3188341953858197  0.8459768232129887  0.4441328762832206
  0.9865996360145737  0.5259621612762775  0.1489002878135442
  0.7812067244772584  0.3605383923266041  0.4764101368766041
  0.5242529435896425  0.9617971929846842  0.1281990709990067
  0.3776870626516372  0.5728210863476938  0.5498710285352705
  0.0244764890694562  0.3273154662893078  0.4908851975191256
  0.6367731067444223  0.0646134418669275  0.5140173634215964
  0.0830435411721263  0.6536309453103704  0.8353825357147369
  0.3661642364416482  0.0047760808930612  0.1356751844107594
  0.2999432295796953  0.0033968654235205  0.7977334827850467
  0.5552749510195201  0.3841183528637365  0.2079702577483537
  0.6503209983863455  0.3696110487945628  0.0094585525036421
  0.0815596017204484  0.5829132278058065  0.1599799086020159
  0.6565839675157729  0.9795439164504470  0.8251745528659046
  0.9385575280606056  0.3437364302863090  0.1685704350313102
  0.4053666043985513  0.6245443295044841  0.7202768179049857
  0.7245254562213082  0.9857563596619696  0.1682006118722825
  0.9447097158428144  0.4073356445235942  0.8454924440842729
  0.3673917415441642  0.6697778895714360  0.1736179000856494
  0.6463833209004272  0.3870672553568474  0.4068628728720974
 -0.0008862621636951  0.6668914104178488  0.4944822452555467
  0.3817375566251757  0.9331918554857402  0.4607234130094354
  0.5913163787858271  0.5185948057082024  0.4270539364285373
  0.5024612931323841  0.5208863695333157  0.0167685373524110
  0.7429671546916958  0.2772270356548635  0.7064130578912333
 
  0.00000000E+00  0.00000000E+00  0.00000000E+00
  0.00000000E+00  0.00000000E+00  0.00000000E+00
  0.00000000E+00  0.00000000E+00  0.00000000E+00
  0.00000000E+00  0.00000000E+00  0.00000000E+00
  0.00000000E+00  0.00000000E+00  0.00000000E+00
  0.00000000E+00  0.00000000E+00  0.00000000E+00
  0.00000000E+00  0.00000000E+00  0.00000000E+00
  0.00000000E+00  0.00000000E+00  0.00000000E+00
  0.00000000E+00  0.00000000E+00  0.00000000E+00
  0.00000000E+00  0.00000000E+00  0.00000000E+00
  0.00000000E+00  0.00000000E+00  0.00000000E+00
  0.00000000E+00  0.00000000E+00  0.00000000E+00
  0.00000000E+00  0.00000000E+00  0.00000000E+00
  0.00000000E+00  0.00000000E+00  0.00000000E+00
  0.00000000E+00  0.00000000E+00  0.00000000E+00
  0.00000000E+00  0.00000000E+00  0.00000000E+00
  0.00000000E+00  0.00000000E+00  0.00000000E+00
  0.00000000E+00  0.00000000E+00  0.00000000E+00
  0.00000000E+00  0.00000000E+00  0.00000000E+00
  0.00000000E+00  0.00000000E+00  0.00000000E+00
  0.00000000E+00  0.00000000E+00  0.00000000E+00
  0.00000000E+00  0.00000000E+00  0.00000000E+00
  0.00000000E+00  0.00000000E+00  0.00000000E+00
  0.00000000E+00  0.00000000E+00  0.00000000E+00
  0.00000000E+00  0.00000000E+00  0.00000000E+00
  0.00000000E+00  0.00000000E+00  0.00000000E+00
  0.00000000E+00  0.00000000E+00  0.00000000E+00
  0.00000000E+00  0.00000000E+00  0.00000000E+00
  0.00000000E+00  0.00000000E+00  0.00000000E+00
  0.00000000E+00  0.00000000E+00  0.00000000E+00
  0.00000000E+00  0.00000000E+00  0.00000000E+00
  0.00000000E+00  0.00000000E+00  0.00000000E+00
  0.00000000E+00  0.00000000E+00  0.00000000E+00
  0.00000000E+00  0.00000000E+00  0.00000000E+00
  0.00000000E+00  0.00000000E+00  0.00000000E+00
  0.00000000E+00  0.00000000E+00  0.00000000E+00
  0.00000000E+00  0.00000000E+00  0.00000000E+00
  0.00000000E+00  0.00000000E+00  0.00000000E+00
  0.00000000E+00  0.00000000E+00  0.00000000E+00
  0.00000000E+00  0.00000000E+00  0.00000000E+00
  0.00000000E+00  0.00000000E+00  0.00000000E+00
  0.00000000E+00  0.00000000E+00  0.00000000E+00
  0.00000000E+00  0.00000000E+00  0.00000000E+00
  0.00000000E+00  0.00000000E+00  0.00000000E+00
  0.00000000E+00  0.00000000E+00  0.00000000E+00
  0.00000000E+00  0.00000000E+00  0.00000000E+00
  0.00000000E+00  0.00000000E+00  0.00000000E+00
  0.00000000E+00  0.00000000E+00  0.00000000E+00
  0.00000000E+00  0.00000000E+00  0.00000000E+00
  0.00000000E+00  0.00000000E+00  0.00000000E+00
  0.00000000E+00  0.00000000E+00  0.00000000E+00
  0.00000000E+00  0.00000000E+00  0.00000000E+00
  0.00000000E+00  0.00000000E+00  0.00000000E+00
  0.00000000E+00  0.00000000E+00  0.00000000E+00
  0.00000000E+00  0.00000000E+00  0.00000000E+00
  0.00000000E+00  0.00000000E+00  0.00000000E+00
  0.00000000E+00  0.00000000E+00  0.00000000E+00
  0.00000000E+00  0.00000000E+00  0.00000000E+00
  0.00000000E+00  0.00000000E+00  0.00000000E+00
  0.00000000E+00  0.00000000E+00  0.00000000E+00
  0.00000000E+00  0.00000000E+00  0.00000000E+00
  0.00000000E+00  0.00000000E+00  0.00000000E+00
  0.00000000E+00  0.00000000E+00  0.00000000E+00
  0.00000000E+00  0.00000000E+00  0.00000000E+00
  0.00000000E+00  0.00000000E+00  0.00000000E+00
  0.00000000E+00  0.00000000E+00  0.00000000E+00
  0.00000000E+00  0.00000000E+00  0.00000000E+00
  0.00000000E+00  0.00000000E+00  0.00000000E+00
  0.00000000E+00  0.00000000E+00  0.00000000E+00
  0.00000000E+00  0.00000000E+00  0.00000000E+00
  0.00000000E+00  0.00000000E+00  0.00000000E+00
  0.00000000E+00  0.00000000E+00  0.00000000E+00
  0.00000000E+00  0.00000000E+00  0.00000000E+00
  0.00000000E+00  0.00000000E+00  0.00000000E+00
  0.00000000E+00  0.00000000E+00  0.00000000E+00
  0.00000000E+00  0.00000000E+00  0.00000000E+00
  0.00000000E+00  0.00000000E+00  0.00000000E+00
  0.00000000E+00  0.00000000E+00  0.00000000E+00
  0.00000000E+00  0.00000000E+00  0.00000000E+00
  0.00000000E+00  0.00000000E+00  0.00000000E+00
  0.00000000E+00  0.00000000E+00  0.00000000E+00
  0.00000000E+00  0.00000000E+00  0.00000000E+00
  0.00000000E+00  0.00000000E+00  0.00000000E+00
  0.00000000E+00  0.00000000E+00  0.00000000E+00
  0.00000000E+00  0.00000000E+00  0.00000000E+00
  0.00000000E+00  0.00000000E+00  0.00000000E+00
  0.00000000E+00  0.00000000E+00  0.00000000E+00
  0.00000000E+00  0.00000000E+00  0.00000000E+00
  0.00000000E+00  0.00000000E+00  0.00000000E+00
  0.00000000E+00  0.00000000E+00  0.00000000E+00
  0.00000000E+00  0.00000000E+00  0.00000000E+00
  0.00000000E+00  0.00000000E+00  0.00000000E+00
  0.00000000E+00  0.00000000E+00  0.00000000E+00
  0.00000000E+00  0.00000000E+00  0.00000000E+00
  0.00000000E+00  0.00000000E+00  0.00000000E+00
  0.00000000E+00  0.00000000E+00  0.00000000E+00
  0.00000000E+00  0.00000000E+00  0.00000000E+00
  0.00000000E+00  0.00000000E+00  0.00000000E+00
  0.00000000E+00  0.00000000E+00  0.00000000E+00
  0.00000000E+00  0.00000000E+00  0.00000000E+00
  0.00000000E+00  0.00000000E+00  0.00000000E+00
  0.00000000E+00  0.00000000E+00  0.00000000E+00
  0.00000000E+00  0.00000000E+00  0.00000000E+00
  0.00000000E+00  0.00000000E+00  0.00000000E+00
  0.00000000E+00  0.00000000E+00  0.00000000E+00
  0.00000000E+00  0.00000000E+00  0.00000000E+00
  0.00000000E+00  0.00000000E+00  0.00000000E+00
  0.00000000E+00  0.00000000E+00  0.00000000E+00
  0.00000000E+00  0.00000000E+00  0.00000000E+00
  0.00000000E+00  0.00000000E+00  0.00000000E+00
  0.00000000E+00  0.00000000E+00  0.00000000E+00
  0.00000000E+00  0.00000000E+00  0.00000000E+00
  0.00000000E+00  0.00000000E+00  0.00000000E+00
  0.00000000E+00  0.00000000E+00  0.00000000E+00
  0.00000000E+00  0.00000000E+00  0.00000000E+00
  0.00000000E+00  0.00000000E+00  0.00000000E+00
  0.00000000E+00  0.00000000E+00  0.00000000E+00
  0.00000000E+00  0.00000000E+00  0.00000000E+00
  0.00000000E+00  0.00000000E+00  0.00000000E+00
  0.00000000E+00  0.00000000E+00  0.00000000E+00
  0.00000000E+00  0.00000000E+00  0.00000000E+00
  0.00000000E+00  0.00000000E+00  0.00000000E+00
  0.00000000E+00  0.00000000E+00  0.00000000E+00
  0.00000000E+00  0.00000000E+00  0.00000000E+00
  0.00000000E+00  0.00000000E+00  0.00000000E+00
  0.00000000E+00  0.00000000E+00  0.00000000E+00
  0.00000000E+00  0.00000000E+00  0.00000000E+00
  0.00000000E+00  0.00000000E+00  0.00000000E+00
  0.00000000E+00  0.00000000E+00  0.00000000E+00
  0.00000000E+00  0.00000000E+00  0.00000000E+00
  0.00000000E+00  0.00000000E+00  0.00000000E+00
  0.00000000E+00  0.00000000E+00  0.00000000E+00
  0.00000000E+00  0.00000000E+00  0.00000000E+00
  0.00000000E+00  0.00000000E+00  0.00000000E+00
  0.00000000E+00  0.00000000E+00  0.00000000E+00
  0.00000000E+00  0.00000000E+00  0.00000000E+00
  0.00000000E+00  0.00000000E+00  0.00000000E+00
  0.00000000E+00  0.00000000E+00  0.00000000E+00
  0.00000000E+00  0.00000000E+00  0.00000000E+00
  0.00000000E+00  0.00000000E+00  0.00000000E+00
  0.00000000E+00  0.00000000E+00  0.00000000E+00
  0.00000000E+00  0.00000000E+00  0.00000000E+00
  0.00000000E+00  0.00000000E+00  0.00000000E+00
  0.00000000E+00  0.00000000E+00  0.00000000E+00
  0.00000000E+00  0.00000000E+00  0.00000000E+00
  0.00000000E+00  0.00000000E+00  0.00000000E+00
  0.00000000E+00  0.00000000E+00  0.00000000E+00
  0.00000000E+00  0.00000000E+00  0.00000000E+00
  0.00000000E+00  0.00000000E+00  0.00000000E+00
  0.00000000E+00  0.00000000E+00  0.00000000E+00
  0.00000000E+00  0.00000000E+00  0.00000000E+00
  0.00000000E+00  0.00000000E+00  0.00000000E+00
  0.00000000E+00  0.00000000E+00  0.00000000E+00
  0.00000000E+00  0.00000000E+00  0.00000000E+00
  0.00000000E+00  0.00000000E+00  0.00000000E+00
  0.00000000E+00  0.00000000E+00  0.00000000E+00
  0.00000000E+00  0.00000000E+00  0.00000000E+00
  0.00000000E+00  0.00000000E+00  0.00000000E+00
