O  C  H  Co Li                          
   1.00000000000000     
    25.5463193396185027    1.1844205207712428   -0.3057919222405339
    13.8063479840535095   22.3239459219669882   -0.2517585420208890
    -0.0820407837579140   -0.0326003663690748    6.6203286544646245
   O    C    H    Co   Li
    54    67    16    18     3
Direct
  0.0445543591419678  0.2636953566591145  0.3034103051891738
  0.0122314585582283  0.3045558653455890  0.9028624995972739
  0.0918107519637269  0.2684862232467917  0.6906520421607879
  0.6959345844943182  0.0571192354975878  0.3314419363807965
  0.6896510626689354  0.0316743714488923  0.9253346585715204
  0.6325141945731881  0.1127580405452499  0.7266580110452954
  0.0270874733312746  0.3935021568368688  0.6457647935893351
  0.2777210622073528  0.6805468124030172  0.3209334477625577
  0.3328116936129334  0.6401625392566790  0.9483133038970653
  0.3056185981096295  0.5872763374676836  0.7569181651051896
  0.5782989828544006  0.0377251479259515  0.6494657291415981
  0.3093151583024206  0.0415991360359576  0.3792542480697575
  0.2294998244979723  0.0752774741285096  0.5877978163935278
  0.2771407432383267  0.0812755573502092  0.9856930762871675
  0.6561120109147027  0.2998065475031566  0.4683619156769877
  0.7335869573122109  0.2092303909244815  0.5998898494879893
  0.0082080032845808  0.6297117034204861  0.7507726667023950
  0.0521538150089583  0.5516937259302606  0.9644289611671971
  0.6258695541249175  0.2860342797985203  0.0654960301515757
  0.0703025826520742  0.6414896971703771  0.4213482090389348
  0.1029801303837761  0.6825682927319044  0.6436194571813684
  0.3899405272798093 -0.0264518000285240  0.7123551162586572
  0.4127576624436540  0.0240595796111607  0.9278115731842251
  0.1143917680108849  0.6197968725778977  0.0343280378610557
  0.6947435039364019  0.9614129292661642  0.5895486281413849
  0.7750058974379647  0.9260713798614810  0.3832851970563498
  0.7210155710690636  0.9171429197807227  0.9805067529360814
  0.3651714862517090  0.6947790536207722  0.4833686903166985
  0.3021100506878409  0.7798498792127994  0.3128775872036221
  0.0099473955881300  0.3729263035339787  0.2478665288790498
  0.9695269901916619  0.4515065632560273  0.0391495898941678
  0.3555746002292871  0.7212273423474566  0.9102574930964347
  0.9371802909990956  0.3776723755117181  0.5735336877174407
  0.9069769718160866  0.3324470681197731  0.3616668683653443
  0.6202847901391741  0.0258532964002336  0.2536377505884659
  0.5941101279295415  0.9802234339087509  0.0273551831284764
  0.8962846131683883  0.3939079518509493  0.9697219734027372
  0.9632618845812321  0.7474724845053646  0.6991138847602753
  0.9914038076781744  0.7052869908980155  0.0877594664623337
  0.9120027235388297  0.7406611305741992  0.2992741619345414
  0.3140939128987981  0.9401623718511811  0.6429327647333377
  0.3247185180215120  0.9641537219614682  0.0396184767627250
  0.3762305138864397  0.8847788453004536  0.2476760554202131
  0.9936945956898479  0.6070661260062292  0.3582849678138452
  0.7407339873798029  0.3216689761368237  0.6987726249620742
  0.6613615132835023  0.4043366821302633  0.9965394219227213
  0.7232350533029470  0.3907122165426971  0.2822444566766635
  0.4304343169180285  0.9622962583982080  0.3180209651304602
  0.5544186772769991  0.4397156176576636  0.2662593537801914
  0.5809245041448677  0.5076920453590796  0.2913759048709732
  0.6148959841723297  0.4366245654960407  0.5334701705741601
  0.8124642686051727  0.2029702167030945  0.1894662292929840
  0.8657533459870379  0.1476766008973361  0.6681574952930973
  0.8603982770727923  0.0729866352391906  0.4871117625781465
  0.1001279249190507  0.2203769305160823  0.2183963200109615
  0.1458882651159220  0.1720492822697411  0.3405478259775703
  0.0713127910645154  0.2667066762136880  0.8617477591623006
  0.1157328570060658  0.2199939829273556  0.0114224821893500
  0.6824679571531750  0.1102961140869275  0.2560497449573874
  0.6902069320110140  0.1485145207071514  0.3846391139514976
  0.6600131878481809  0.0902369095779830  0.8959302193005672
  0.6608567619316874  0.1306120088767733  0.0532194227621620
  0.0206016014173675  0.4441395937889933  0.5701679301661265
  0.0300284048386205  0.4810565623099314  0.7004720080835465
  0.2412253239122077  0.6603060702355044  0.2538911882518112
  0.1913945411922375  0.6718324904927442  0.3754293343530346
  0.2991919198708016  0.6168903842090127  0.9227508087154516
  0.2514840516008794  0.6284805413171118  0.0660981431204229
  0.5429948767736772  0.0199031398763209  0.5596807878019466
  0.4996656317199936  0.0184221554818731  0.6795694205229764
  0.2496328293223642  0.0784261323688882  0.4185228818629653
  0.2056927697852425  0.1256422078318877  0.2713430707841355
  0.2214758413264345  0.1255045424154536  0.0659701932560124
  0.1755785040420733  0.1734796242967722  0.9426058138783658
  0.6888718517991996  0.2394509174369746  0.4739215543962446
  0.6730010397458321  0.2068404314643224  0.3276285690620019
  0.0281619896713752  0.5734683028019349  0.7914991478326906
  0.0198927957023198  0.5365885001714932  0.6388687760423026
  0.6457635008326691  0.2300201386382607  0.1311499625214504
  0.6424372389235659  0.1896869404440725 -0.0026678896754436
  0.1054877162151957  0.6609284235806749  0.4677481550149314
  0.1509326122299744  0.6539316690297448  0.3177562625519852
  0.4197219146277923 -0.0008528843930416  0.7554880592656803
  0.4624149773515450 -0.0016160473062951  0.6084894505534610
  0.1566298484361225  0.6284833682976306  0.1193418867449504
  0.2087212294056842  0.6138919866493999  0.0038812566071172
  0.7546526101487601  0.9241053136322068  0.5541426844696029
  0.7980650471330402  0.8787353741590870  0.7059550948224097
  0.7794075953241416  0.8765298575459329  0.9052568294345340
  0.8252212825551294  0.8304278697510387  0.0342287578602531
  0.3310086936234348  0.7553835992225105  0.4777380877926873
  0.3317757788060668  0.7930283555937736  0.6432786770708949
  0.9925405051528486  0.4289340380378374  0.2120741356709736
  0.0020116928102490  0.4639136906471504  0.3659875574661775
  0.3491026713222923  0.7732798949061445  0.8477164376457158
  0.3565100654251372  0.8110441186837897  0.9813126771831571
  0.9038445477877695  0.3558778034344592  0.5356266129303014
  0.8601479283531845  0.3594794805040348  0.6856718317316339
  0.5889584734057542  0.0026556163095885  0.2040886898252521
  0.5465149999481833  0.0020643589110427  0.3514777060975376
  0.8569547333557797  0.3803665281200893  0.8886414108652507
  0.8102233535200751  0.3865022667214022  0.0138093876397591
  0.9057963217078104  0.7889031152918220  0.7740766691657980
  0.8601663108533730  0.8355615725548549  0.6463887586593597
  0.9318986991349761  0.7423743274640913  0.1275683807736138
  0.8875054179861582  0.7876434320391578  0.9753789957882355
  0.3246398464424183  0.8881933202365913  0.7186640248372598
  0.3185098578212024  0.8497957736344637  0.5857632344644271
  0.3496775369488901  0.9064829480733572  0.0772802775763308
  0.3438341590347796  0.8681627963163696  0.9230614925331129
  0.0014407953243808  0.5561232667305956  0.4339882362591336
  0.9925213142446978  0.5190248046423279  0.3042102002369469
  0.7755087686174617  0.3447472233943611  0.7515694272411584
  0.8204534598953553  0.3406936365469526  0.6241465435169484
  0.7188771984169289  0.3807241497668416  0.0833432149908687
  0.7690063870832672  0.3711079707652759  0.9480019088899733
  0.4662136087953657  0.9799096856868664  0.4017619451534687
  0.5089469102716182  0.9823473559924354  0.2805192641117497
  0.5823623319867074  0.4622326064429544  0.3700145896143509
  0.8620934789590381  0.1110020200791214  0.5765561142272698
  0.7668156343830056  0.2479064762680556  0.1267366308171427
  0.1341518575880399  0.1717142600841781  0.4974830641248931
  0.7107601548263915  0.1316864986349679  0.5348116047494649
  0.0442439356984009  0.4668084862678493  0.8570426770075036
  0.1826988925008174  0.6967447775891935  0.5184729290832117
  0.4959284610115426  0.0327030723376384  0.8370957389316470
  0.1872471524507101  0.1735273022363840  0.7848243263972164
  0.6247906433256439  0.2050063667146511  0.8435915646495378
  0.2135325462974762  0.5932298508130645  0.8551269181632817
  0.8121303698708736  0.8284300945667389  0.1875690999293335
  0.3708080717491996  0.7967769217272481  0.1377508820858416
  0.8073391212959898  0.4028777726242094  0.1681145707432937
  0.8732447752070702  0.8372659862595014  0.4924211093645449
  0.3049826720009662  0.8642708139939882  0.4293258274501135
  0.9788087011640746  0.5332259999378225  0.1475618078101407
  0.8253360047217350  0.3223967677872696  0.4713378019181234
  0.5122530439224267  0.9687483458971938  0.1219819120670182
  0.3061987091672349  0.6286722136556169  0.5415083078558892
  0.0404466440827805  0.3266550339070014  0.4825048183601206
  0.6363075748366879  0.0566770005073131  0.5157285852134812
  0.0437363627738559  0.6801061352155418  0.8391499796385619
  0.3588511641501027  0.0164659643311883  0.1247510033102956
  0.2956907474724894  0.0153966501121783  0.7875981248465767
  0.6045141374234075  0.3520547085828014  0.2322835398094190
  0.7038729658595376  0.3175895328336622  0.0392495978151487
  0.0486862866534001  0.6128350893716806  0.1667166185129069
  0.6485300700570156  0.9762357344451840  0.8224598656439045
  0.9634763480372350  0.3313940056489854  0.1615746516556737
  0.3529047368584720  0.6645033147498461  0.7142811629516237
  0.7146619240042704  0.9814536611265458  0.1694378438912041
  0.9626156817560922  0.3978813607199593  0.8362918395742687
  0.3257257616394522  0.7026757656325858  0.1566457527537568
  0.6967845011478027  0.3428452965726968  0.4177902734946469
  0.9777665455765122  0.6822015289350495  0.5042573538331575
  0.3683633064765676  0.9490441167285751  0.4505913364162517
  0.6643924241398683  0.4668687977016172  0.4264490706424642
  0.5781450264290958  0.4717825315055459  0.0327683068260549
  0.7812014335184305  0.2338730210902300  0.7273615668419061
 
  0.00000000E+00  0.00000000E+00  0.00000000E+00
  0.00000000E+00  0.00000000E+00  0.00000000E+00
  0.00000000E+00  0.00000000E+00  0.00000000E+00
  0.00000000E+00  0.00000000E+00  0.00000000E+00
  0.00000000E+00  0.00000000E+00  0.00000000E+00
  0.00000000E+00  0.00000000E+00  0.00000000E+00
  0.00000000E+00  0.00000000E+00  0.00000000E+00
  0.00000000E+00  0.00000000E+00  0.00000000E+00
  0.00000000E+00  0.00000000E+00  0.00000000E+00
  0.00000000E+00  0.00000000E+00  0.00000000E+00
  0.00000000E+00  0.00000000E+00  0.00000000E+00
  0.00000000E+00  0.00000000E+00  0.00000000E+00
  0.00000000E+00  0.00000000E+00  0.00000000E+00
  0.00000000E+00  0.00000000E+00  0.00000000E+00
  0.00000000E+00  0.00000000E+00  0.00000000E+00
  0.00000000E+00  0.00000000E+00  0.00000000E+00
  0.00000000E+00  0.00000000E+00  0.00000000E+00
  0.00000000E+00  0.00000000E+00  0.00000000E+00
  0.00000000E+00  0.00000000E+00  0.00000000E+00
  0.00000000E+00  0.00000000E+00  0.00000000E+00
  0.00000000E+00  0.00000000E+00  0.00000000E+00
  0.00000000E+00  0.00000000E+00  0.00000000E+00
  0.00000000E+00  0.00000000E+00  0.00000000E+00
  0.00000000E+00  0.00000000E+00  0.00000000E+00
  0.00000000E+00  0.00000000E+00  0.00000000E+00
  0.00000000E+00  0.00000000E+00  0.00000000E+00
  0.00000000E+00  0.00000000E+00  0.00000000E+00
  0.00000000E+00  0.00000000E+00  0.00000000E+00
  0.00000000E+00  0.00000000E+00  0.00000000E+00
  0.00000000E+00  0.00000000E+00  0.00000000E+00
  0.00000000E+00  0.00000000E+00  0.00000000E+00
  0.00000000E+00  0.00000000E+00  0.00000000E+00
  0.00000000E+00  0.00000000E+00  0.00000000E+00
  0.00000000E+00  0.00000000E+00  0.00000000E+00
  0.00000000E+00  0.00000000E+00  0.00000000E+00
  0.00000000E+00  0.00000000E+00  0.00000000E+00
  0.00000000E+00  0.00000000E+00  0.00000000E+00
  0.00000000E+00  0.00000000E+00  0.00000000E+00
  0.00000000E+00  0.00000000E+00  0.00000000E+00
  0.00000000E+00  0.00000000E+00  0.00000000E+00
  0.00000000E+00  0.00000000E+00  0.00000000E+00
  0.00000000E+00  0.00000000E+00  0.00000000E+00
  0.00000000E+00  0.00000000E+00  0.00000000E+00
  0.00000000E+00  0.00000000E+00  0.00000000E+00
  0.00000000E+00  0.00000000E+00  0.00000000E+00
  0.00000000E+00  0.00000000E+00  0.00000000E+00
  0.00000000E+00  0.00000000E+00  0.00000000E+00
  0.00000000E+00  0.00000000E+00  0.00000000E+00
  0.00000000E+00  0.00000000E+00  0.00000000E+00
  0.00000000E+00  0.00000000E+00  0.00000000E+00
  0.00000000E+00  0.00000000E+00  0.00000000E+00
  0.00000000E+00  0.00000000E+00  0.00000000E+00
  0.00000000E+00  0.00000000E+00  0.00000000E+00
  0.00000000E+00  0.00000000E+00  0.00000000E+00
  0.00000000E+00  0.00000000E+00  0.00000000E+00
  0.00000000E+00  0.00000000E+00  0.00000000E+00
  0.00000000E+00  0.00000000E+00  0.00000000E+00
  0.00000000E+00  0.00000000E+00  0.00000000E+00
  0.00000000E+00  0.00000000E+00  0.00000000E+00
  0.00000000E+00  0.00000000E+00  0.00000000E+00
  0.00000000E+00  0.00000000E+00  0.00000000E+00
  0.00000000E+00  0.00000000E+00  0.00000000E+00
  0.00000000E+00  0.00000000E+00  0.00000000E+00
  0.00000000E+00  0.00000000E+00  0.00000000E+00
  0.00000000E+00  0.00000000E+00  0.00000000E+00
  0.00000000E+00  0.00000000E+00  0.00000000E+00
  0.00000000E+00  0.00000000E+00  0.00000000E+00
  0.00000000E+00  0.00000000E+00  0.00000000E+00
  0.00000000E+00  0.00000000E+00  0.00000000E+00
  0.00000000E+00  0.00000000E+00  0.00000000E+00
  0.00000000E+00  0.00000000E+00  0.00000000E+00
  0.00000000E+00  0.00000000E+00  0.00000000E+00
  0.00000000E+00  0.00000000E+00  0.00000000E+00
  0.00000000E+00  0.00000000E+00  0.00000000E+00
  0.00000000E+00  0.00000000E+00  0.00000000E+00
  0.00000000E+00  0.00000000E+00  0.00000000E+00
  0.00000000E+00  0.00000000E+00  0.00000000E+00
  0.00000000E+00  0.00000000E+00  0.00000000E+00
  0.00000000E+00  0.00000000E+00  0.00000000E+00
  0.00000000E+00  0.00000000E+00  0.00000000E+00
  0.00000000E+00  0.00000000E+00  0.00000000E+00
  0.00000000E+00  0.00000000E+00  0.00000000E+00
  0.00000000E+00  0.00000000E+00  0.00000000E+00
  0.00000000E+00  0.00000000E+00  0.00000000E+00
  0.00000000E+00  0.00000000E+00  0.00000000E+00
  0.00000000E+00  0.00000000E+00  0.00000000E+00
  0.00000000E+00  0.00000000E+00  0.00000000E+00
  0.00000000E+00  0.00000000E+00  0.00000000E+00
  0.00000000E+00  0.00000000E+00  0.00000000E+00
  0.00000000E+00  0.00000000E+00  0.00000000E+00
  0.00000000E+00  0.00000000E+00  0.00000000E+00
  0.00000000E+00  0.00000000E+00  0.00000000E+00
  0.00000000E+00  0.00000000E+00  0.00000000E+00
  0.00000000E+00  0.00000000E+00  0.00000000E+00
  0.00000000E+00  0.00000000E+00  0.00000000E+00
  0.00000000E+00  0.00000000E+00  0.00000000E+00
  0.00000000E+00  0.00000000E+00  0.00000000E+00
  0.00000000E+00  0.00000000E+00  0.00000000E+00
  0.00000000E+00  0.00000000E+00  0.00000000E+00
  0.00000000E+00  0.00000000E+00  0.00000000E+00
  0.00000000E+00  0.00000000E+00  0.00000000E+00
  0.00000000E+00  0.00000000E+00  0.00000000E+00
  0.00000000E+00  0.00000000E+00  0.00000000E+00
  0.00000000E+00  0.00000000E+00  0.00000000E+00
  0.00000000E+00  0.00000000E+00  0.00000000E+00
  0.00000000E+00  0.00000000E+00  0.00000000E+00
  0.00000000E+00  0.00000000E+00  0.00000000E+00
  0.00000000E+00  0.00000000E+00  0.00000000E+00
  0.00000000E+00  0.00000000E+00  0.00000000E+00
  0.00000000E+00  0.00000000E+00  0.00000000E+00
  0.00000000E+00  0.00000000E+00  0.00000000E+00
  0.00000000E+00  0.00000000E+00  0.00000000E+00
  0.00000000E+00  0.00000000E+00  0.00000000E+00
  0.00000000E+00  0.00000000E+00  0.00000000E+00
  0.00000000E+00  0.00000000E+00  0.00000000E+00
  0.00000000E+00  0.00000000E+00  0.00000000E+00
  0.00000000E+00  0.00000000E+00  0.00000000E+00
  0.00000000E+00  0.00000000E+00  0.00000000E+00
  0.00000000E+00  0.00000000E+00  0.00000000E+00
  0.00000000E+00  0.00000000E+00  0.00000000E+00
  0.00000000E+00  0.00000000E+00  0.00000000E+00
  0.00000000E+00  0.00000000E+00  0.00000000E+00
  0.00000000E+00  0.00000000E+00  0.00000000E+00
  0.00000000E+00  0.00000000E+00  0.00000000E+00
  0.00000000E+00  0.00000000E+00  0.00000000E+00
  0.00000000E+00  0.00000000E+00  0.00000000E+00
  0.00000000E+00  0.00000000E+00  0.00000000E+00
  0.00000000E+00  0.00000000E+00  0.00000000E+00
  0.00000000E+00  0.00000000E+00  0.00000000E+00
  0.00000000E+00  0.00000000E+00  0.00000000E+00
  0.00000000E+00  0.00000000E+00  0.00000000E+00
  0.00000000E+00  0.00000000E+00  0.00000000E+00
  0.00000000E+00  0.00000000E+00  0.00000000E+00
  0.00000000E+00  0.00000000E+00  0.00000000E+00
  0.00000000E+00  0.00000000E+00  0.00000000E+00
  0.00000000E+00  0.00000000E+00  0.00000000E+00
  0.00000000E+00  0.00000000E+00  0.00000000E+00
  0.00000000E+00  0.00000000E+00  0.00000000E+00
  0.00000000E+00  0.00000000E+00  0.00000000E+00
  0.00000000E+00  0.00000000E+00  0.00000000E+00
  0.00000000E+00  0.00000000E+00  0.00000000E+00
  0.00000000E+00  0.00000000E+00  0.00000000E+00
  0.00000000E+00  0.00000000E+00  0.00000000E+00
  0.00000000E+00  0.00000000E+00  0.00000000E+00
  0.00000000E+00  0.00000000E+00  0.00000000E+00
  0.00000000E+00  0.00000000E+00  0.00000000E+00
  0.00000000E+00  0.00000000E+00  0.00000000E+00
  0.00000000E+00  0.00000000E+00  0.00000000E+00
  0.00000000E+00  0.00000000E+00  0.00000000E+00
  0.00000000E+00  0.00000000E+00  0.00000000E+00
  0.00000000E+00  0.00000000E+00  0.00000000E+00
  0.00000000E+00  0.00000000E+00  0.00000000E+00
  0.00000000E+00  0.00000000E+00  0.00000000E+00
  0.00000000E+00  0.00000000E+00  0.00000000E+00
  0.00000000E+00  0.00000000E+00  0.00000000E+00
  0.00000000E+00  0.00000000E+00  0.00000000E+00
  0.00000000E+00  0.00000000E+00  0.00000000E+00
  0.00000000E+00  0.00000000E+00  0.00000000E+00
