O  C  H  Co Li                          
   1.00000000000000     
    24.4073886316890167    2.0662916751794800   -0.2831151317804169
    13.9638686451486986   21.9102932110125224   -0.1839010477178191
    -0.0772769945055795   -0.0146902250150602    6.6463938424759821
   O    C    H    Co   Li
    54    67    16    18     3
Direct
  0.0188394744703203  0.2694260927294297  0.3091743515990379
  0.9864331014392123  0.3147392265004084  0.9096137772739020
  0.0725498196600348  0.2672536675513411  0.6960893335760805
  0.6974438269393477  0.0689656024013160  0.3337833252273823
  0.6922335833638195  0.0415154392932282  0.9291937259443992
  0.6216066351046665  0.1251170890389992  0.7288345272149127
  0.0146443804397517  0.3941406499391196  0.6492727427781891
  0.3489606968186165  0.6166206679062634  0.3406948197393400
  0.3948481339712251  0.5923480473352644  0.9665616285626361
  0.3837563370905366  0.5254779611620102  0.7885129480759129
  0.5813966592638077  0.0406512510100806  0.6511554554396194
  0.3062768583879966  0.0271464788870248  0.3834104215878672
  0.2226249306665750  0.0671711144571267  0.6025087786378718
  0.2725522449271107  0.0713036794130195  0.0008335070720168
  0.6077342942854597  0.3390950241173243  0.4339370094661590
  0.6941249541139495  0.2482366137470078  0.5880685234196615
  0.0549999249190529  0.5985478318389321  0.7235714936893635
  0.0840246983423355  0.5238906750879281  0.9529943867150035
  0.5593707013545354  0.3205486821989179  0.0762769055232457
  0.1034408612155454  0.6201306822599708  0.3953133102668755
  0.1482814519104860  0.6465996446672493  0.6324325111753413
  0.3953127877019086  0.9661802958887475  0.7197011547759795
  0.4172279483701677  0.0164806146384272  0.9395769991602536
  0.1614956242278060  0.5817204037665283  0.0280642179632249
  0.7087444811408482  0.9670704063289053  0.6012089419043225
  0.7932395913406158  0.9282205257626893  0.3858914308371134
  0.7393088321141739  0.9186629598551049  0.9838782628134477
  0.4164505593636150  0.6615626005941334  0.5105856977259045
  0.3341543970679161  0.7460158676435780  0.3384953073878705
  0.9905785945475092  0.3788057284634099  0.2547820843728346
  0.9581625568098773  0.4577825535861204  0.0436650418184098
  0.4005524426593005  0.6864798141481077  0.9378191907463795
  0.9108935373233369  0.3947495439641916  0.5791802772804000
  0.8679444176802276  0.3615001352400898  0.3629632067159350
  0.6258545936197398  0.0285500899905281  0.2597521065287758
  0.6025229204301625  0.9806614567334005  0.0323991896736877
  0.8627830185248880  0.4194794543856644  0.9707958680094561
  0.9970696990830402  0.7245653759262775  0.6883837694229485
  0.0247153347428897  0.6753043757751999  0.0621722437667755
  0.9402735686941406  0.7241569980585936  0.2835617179147688
  0.3242908767817729  0.9228016564023300  0.6624337517197159
  0.3395340587780651  0.9466573230783504  0.0481047426578186
  0.3934294442421427  0.8662008705087412  0.2682092968868995
  0.0269072833405231  0.5839143437137028  0.3508299770495152
  0.6787340798613040  0.3769823189295964  0.6866856461262696
  0.5947097940008315  0.4654037164521558 -0.0219141856201473
  0.6595981172682484  0.4463065218524814  0.2681828529567268
  0.4403892528034535  0.9520438794083667  0.3335666226800704
  0.4849136374734557  0.4811210328831149  0.2393855815159337
  0.4965408092439105  0.5605640092878506  0.2650362738492386
  0.5467686888949965  0.4826562336961552  0.4985733863919358
  0.7591772253223441  0.2497303455777332  0.1549150753707819
  0.8340099727318495  0.2134966474860461  0.6118098705630951
  0.8738393705673393  0.1226826632955000  0.4101765162873022
  0.0793732990647850  0.2218517459022267  0.2265488565034783
  0.1289136984411731  0.1699803840799685  0.3499286842627564
  0.0498291858691786  0.2698590343701915  0.8690144497969456
  0.0967900233027911  0.2202287868625647  0.0207387620656277
  0.6690294714064977  0.1280626828876064  0.2585704748746163
  0.6671952298981494  0.1730760820641404  0.3834964829170172
  0.6512257804009604  0.1030512051295661  0.8998241180378697
  0.6408381772658461  0.1483289143815797  0.0589274757255920
  0.0195227646828205  0.4386725781468633  0.5707987934934299
  0.0406874959994974  0.4673888801784317  0.6977638370413919
  0.3047690607564617  0.6055000795472517  0.2668527920554787
  0.2504599309271845  0.6204460487340711  0.3846391322450243
  0.3667617090180255  0.5624373532320958  0.9423522697282527
  0.3134791448067842  0.5767547897073242  0.0754987866357032
  0.5475454747816362  0.0199326157342512  0.5641307522346933
  0.5037011748966942  0.0169321987545663  0.6856591207711341
  0.2426233691114306  0.0687064502039258  0.4302417658976435
  0.1942749079979203  0.1193815109760354  0.2833342475770277
  0.2117383921139362  0.1185508032155887  0.0793976789553585
  0.1620920141230897  0.1694754892692096  0.9544771630742835
  0.6459832419955516  0.2759918911092701  0.4598455513748398
  0.6338679003489499  0.2373752169496014  0.3279308078564310
  0.0623709810260692  0.5472454403559120  0.7771974244166070
  0.0429417205485987  0.5168374275845773  0.6316486256817000
  0.5972194710936573  0.2597046793396033  0.1391173023091965
  0.6042579009583321  0.2133919608036695  0.0070063863669847
  0.1486139613197848  0.6270337475285310  0.4544397815007327
  0.2030174339075509  0.6107813577390406  0.3149638509519703
  0.4248011554959293  0.9925127626563444  0.7657489259351000
  0.4682661005237384  0.9934307759055282  0.6180035619881565
  0.2084456196628475  0.5864441849262001  0.1154693928396713
  0.2657700636226983  0.5672755416067812  0.0041333122285549
  0.7728543146104525  0.9255448991215969  0.5567452882529605
  0.8205101660227330  0.8744361538726173  0.7022713716928992
  0.8012099601686619  0.8733912841839759  0.9024605764815158
  0.8499565923904111  0.8222127496993900  0.0277133955043175
  0.3664143287618993  0.7246118185433050  0.5033293198989879
  0.3587258336606860  0.7657866200372742  0.6713965983608164
  0.9816838126601197  0.4321858125782602  0.2154438179227105
  0.0021972244062831  0.4596846744087574  0.3661478328839890
  0.3815471212843354  0.7442672081109005  0.8747269930669876
  0.3836892341137993  0.7861143108170979  0.0048081450317599
  0.8679931796979529  0.3830440218161698  0.5369478228724901
  0.8169911630273698  0.3956674960794329  0.6838858803205642
  0.5958750612194905  0.0031784687777156  0.2093440005118332
  0.5532712327236913  0.0004653723998145  0.3576223511519135
  0.8153711832678175  0.4151744732763367  0.8867181316943061
  0.7612327924839519  0.4298342229534259  0.0079661202531910
  0.9353376754591798  0.7725203321734360  0.7623080369890590
  0.8868762515041583  0.8246763447327349  0.6380416102681452
  0.9625449904691348  0.7213900440238589  0.1096556862309136
  0.9158959382739583  0.7726423273936740  0.9631039336173027
  0.3400202748391765  0.8679631633492546  0.7414931696211033
  0.3364268925914551  0.8271283063676367  0.6128927114832505
  0.3667124089003528  0.8875676739416196  0.0946808174668604
  0.3633783399137481  0.8468961230911443  0.9442321073990880
  0.0251402426583718  0.5376360340524522  0.4269801721872051
  0.0049416168117373  0.5086144928286834  0.2998144371762689
  0.7182811981107650  0.3962310164717580  0.7420934147545847
  0.7690587062264749  0.3856941712953617  0.6178240328105461
  0.6557280759395125  0.4383523986090694  0.0696691692497431
  0.7124498152995242  0.4224526317292550  0.9384630955651747
  0.4745812430380279  0.9730453055613204  0.4137230314087466
  0.5176255790162135  0.9770279522083699  0.2900940895740480
  0.5072585196904470  0.5090121276671454  0.3430350996351753
  0.8532172144253106  0.1681776841220393  0.5093282364743906
  0.7098685111901450  0.2986848203775700  0.0901622325695170
  0.1161455975524829  0.1701664824497126  0.5058606720193739
  0.6938134779194339  0.1567585508084191  0.5291161829191077
  0.0542768068907562  0.4514161707540967  0.8538351485702949
  0.2440611783273444  0.6412447013353941  0.5340828689233325
  0.4983558647232212  0.0322928770445250  0.8418221391541670
  0.1751420992366250  0.1689288371005607  0.7984729881633772
  0.5810578610500488  0.2290131643064912  0.8568627355167081
  0.2715575743935570  0.5472073517620291  0.8536211577208033
  0.8355958024027813  0.8214944220210639  0.1810477386266749
  0.4016630470490919  0.7712149201805253  0.1595658667062087
  0.7588704926155077  0.4458994684879670  0.1620739442647736
  0.9006591099912663  0.8258477129002593  0.4843548125443536
  0.3199529918782580  0.8420983803682039  0.4571813883743249
  0.9915576869412028  0.5243767920376864  0.1436547511103200
  0.7732336550248647  0.3680909528761833  0.4645124084988358
  0.5225672251557287  0.9620767813185250  0.1334328641479141
  0.3882818414034971  0.5643643180343176  0.5649776487172431
  0.0201231687738979  0.3298299609674252  0.4885165140168341
  0.6369915244412523  0.0649060021968325  0.5141632467354394
  0.0894933572147779  0.6495962573443278  0.8346299246038725
  0.3633355821122430  0.0063110862903069  0.1385069884808520
  0.2966924240352649  0.0034540045607536  0.8010142217213740
  0.5461493187546400  0.3896343755732645  0.1996276817141023
  0.6435642674519318  0.3730068804755869  0.0017273917617002
  0.0885128193428534  0.5785575927169095  0.1557911317457177
  0.6589950979836080  0.9789914128590442  0.8296197088268082
  0.9335109382617892  0.3479517942730134  0.1635930991348643
  0.4122544741478681  0.6203186762218117  0.7316374408322677
  0.7258175284724243  0.9870570864645887  0.1705418348471411
  0.9407019154009477  0.4111573747399702  0.8409108402119023
  0.3948923944773600  0.6516462933324626  0.2004182763906159
  0.6395385238249159  0.3913771221518824  0.3951675410489119
  0.0049290239985230  0.6637853413277218  0.4917018942109841
  0.3794515176666338  0.9331367568446050  0.4681465166442523
  0.5862750036190938  0.5239331614499505  0.4055393697306917
  0.4998704119535740  0.5211383228748909 -0.0052358311946971
  0.7349623527646987  0.2827831438135217  0.6988515199425922
 
  0.00000000E+00  0.00000000E+00  0.00000000E+00
  0.00000000E+00  0.00000000E+00  0.00000000E+00
  0.00000000E+00  0.00000000E+00  0.00000000E+00
  0.00000000E+00  0.00000000E+00  0.00000000E+00
  0.00000000E+00  0.00000000E+00  0.00000000E+00
  0.00000000E+00  0.00000000E+00  0.00000000E+00
  0.00000000E+00  0.00000000E+00  0.00000000E+00
  0.00000000E+00  0.00000000E+00  0.00000000E+00
  0.00000000E+00  0.00000000E+00  0.00000000E+00
  0.00000000E+00  0.00000000E+00  0.00000000E+00
  0.00000000E+00  0.00000000E+00  0.00000000E+00
  0.00000000E+00  0.00000000E+00  0.00000000E+00
  0.00000000E+00  0.00000000E+00  0.00000000E+00
  0.00000000E+00  0.00000000E+00  0.00000000E+00
  0.00000000E+00  0.00000000E+00  0.00000000E+00
  0.00000000E+00  0.00000000E+00  0.00000000E+00
  0.00000000E+00  0.00000000E+00  0.00000000E+00
  0.00000000E+00  0.00000000E+00  0.00000000E+00
  0.00000000E+00  0.00000000E+00  0.00000000E+00
  0.00000000E+00  0.00000000E+00  0.00000000E+00
  0.00000000E+00  0.00000000E+00  0.00000000E+00
  0.00000000E+00  0.00000000E+00  0.00000000E+00
  0.00000000E+00  0.00000000E+00  0.00000000E+00
  0.00000000E+00  0.00000000E+00  0.00000000E+00
  0.00000000E+00  0.00000000E+00  0.00000000E+00
  0.00000000E+00  0.00000000E+00  0.00000000E+00
  0.00000000E+00  0.00000000E+00  0.00000000E+00
  0.00000000E+00  0.00000000E+00  0.00000000E+00
  0.00000000E+00  0.00000000E+00  0.00000000E+00
  0.00000000E+00  0.00000000E+00  0.00000000E+00
  0.00000000E+00  0.00000000E+00  0.00000000E+00
  0.00000000E+00  0.00000000E+00  0.00000000E+00
  0.00000000E+00  0.00000000E+00  0.00000000E+00
  0.00000000E+00  0.00000000E+00  0.00000000E+00
  0.00000000E+00  0.00000000E+00  0.00000000E+00
  0.00000000E+00  0.00000000E+00  0.00000000E+00
  0.00000000E+00  0.00000000E+00  0.00000000E+00
  0.00000000E+00  0.00000000E+00  0.00000000E+00
  0.00000000E+00  0.00000000E+00  0.00000000E+00
  0.00000000E+00  0.00000000E+00  0.00000000E+00
  0.00000000E+00  0.00000000E+00  0.00000000E+00
  0.00000000E+00  0.00000000E+00  0.00000000E+00
  0.00000000E+00  0.00000000E+00  0.00000000E+00
  0.00000000E+00  0.00000000E+00  0.00000000E+00
  0.00000000E+00  0.00000000E+00  0.00000000E+00
  0.00000000E+00  0.00000000E+00  0.00000000E+00
  0.00000000E+00  0.00000000E+00  0.00000000E+00
  0.00000000E+00  0.00000000E+00  0.00000000E+00
  0.00000000E+00  0.00000000E+00  0.00000000E+00
  0.00000000E+00  0.00000000E+00  0.00000000E+00
  0.00000000E+00  0.00000000E+00  0.00000000E+00
  0.00000000E+00  0.00000000E+00  0.00000000E+00
  0.00000000E+00  0.00000000E+00  0.00000000E+00
  0.00000000E+00  0.00000000E+00  0.00000000E+00
  0.00000000E+00  0.00000000E+00  0.00000000E+00
  0.00000000E+00  0.00000000E+00  0.00000000E+00
  0.00000000E+00  0.00000000E+00  0.00000000E+00
  0.00000000E+00  0.00000000E+00  0.00000000E+00
  0.00000000E+00  0.00000000E+00  0.00000000E+00
  0.00000000E+00  0.00000000E+00  0.00000000E+00
  0.00000000E+00  0.00000000E+00  0.00000000E+00
  0.00000000E+00  0.00000000E+00  0.00000000E+00
  0.00000000E+00  0.00000000E+00  0.00000000E+00
  0.00000000E+00  0.00000000E+00  0.00000000E+00
  0.00000000E+00  0.00000000E+00  0.00000000E+00
  0.00000000E+00  0.00000000E+00  0.00000000E+00
  0.00000000E+00  0.00000000E+00  0.00000000E+00
  0.00000000E+00  0.00000000E+00  0.00000000E+00
  0.00000000E+00  0.00000000E+00  0.00000000E+00
  0.00000000E+00  0.00000000E+00  0.00000000E+00
  0.00000000E+00  0.00000000E+00  0.00000000E+00
  0.00000000E+00  0.00000000E+00  0.00000000E+00
  0.00000000E+00  0.00000000E+00  0.00000000E+00
  0.00000000E+00  0.00000000E+00  0.00000000E+00
  0.00000000E+00  0.00000000E+00  0.00000000E+00
  0.00000000E+00  0.00000000E+00  0.00000000E+00
  0.00000000E+00  0.00000000E+00  0.00000000E+00
  0.00000000E+00  0.00000000E+00  0.00000000E+00
  0.00000000E+00  0.00000000E+00  0.00000000E+00
  0.00000000E+00  0.00000000E+00  0.00000000E+00
  0.00000000E+00  0.00000000E+00  0.00000000E+00
  0.00000000E+00  0.00000000E+00  0.00000000E+00
  0.00000000E+00  0.00000000E+00  0.00000000E+00
  0.00000000E+00  0.00000000E+00  0.00000000E+00
  0.00000000E+00  0.00000000E+00  0.00000000E+00
  0.00000000E+00  0.00000000E+00  0.00000000E+00
  0.00000000E+00  0.00000000E+00  0.00000000E+00
  0.00000000E+00  0.00000000E+00  0.00000000E+00
  0.00000000E+00  0.00000000E+00  0.00000000E+00
  0.00000000E+00  0.00000000E+00  0.00000000E+00
  0.00000000E+00  0.00000000E+00  0.00000000E+00
  0.00000000E+00  0.00000000E+00  0.00000000E+00
  0.00000000E+00  0.00000000E+00  0.00000000E+00
  0.00000000E+00  0.00000000E+00  0.00000000E+00
  0.00000000E+00  0.00000000E+00  0.00000000E+00
  0.00000000E+00  0.00000000E+00  0.00000000E+00
  0.00000000E+00  0.00000000E+00  0.00000000E+00
  0.00000000E+00  0.00000000E+00  0.00000000E+00
  0.00000000E+00  0.00000000E+00  0.00000000E+00
  0.00000000E+00  0.00000000E+00  0.00000000E+00
  0.00000000E+00  0.00000000E+00  0.00000000E+00
  0.00000000E+00  0.00000000E+00  0.00000000E+00
  0.00000000E+00  0.00000000E+00  0.00000000E+00
  0.00000000E+00  0.00000000E+00  0.00000000E+00
  0.00000000E+00  0.00000000E+00  0.00000000E+00
  0.00000000E+00  0.00000000E+00  0.00000000E+00
  0.00000000E+00  0.00000000E+00  0.00000000E+00
  0.00000000E+00  0.00000000E+00  0.00000000E+00
  0.00000000E+00  0.00000000E+00  0.00000000E+00
  0.00000000E+00  0.00000000E+00  0.00000000E+00
  0.00000000E+00  0.00000000E+00  0.00000000E+00
  0.00000000E+00  0.00000000E+00  0.00000000E+00
  0.00000000E+00  0.00000000E+00  0.00000000E+00
  0.00000000E+00  0.00000000E+00  0.00000000E+00
  0.00000000E+00  0.00000000E+00  0.00000000E+00
  0.00000000E+00  0.00000000E+00  0.00000000E+00
  0.00000000E+00  0.00000000E+00  0.00000000E+00
  0.00000000E+00  0.00000000E+00  0.00000000E+00
  0.00000000E+00  0.00000000E+00  0.00000000E+00
  0.00000000E+00  0.00000000E+00  0.00000000E+00
  0.00000000E+00  0.00000000E+00  0.00000000E+00
  0.00000000E+00  0.00000000E+00  0.00000000E+00
  0.00000000E+00  0.00000000E+00  0.00000000E+00
  0.00000000E+00  0.00000000E+00  0.00000000E+00
  0.00000000E+00  0.00000000E+00  0.00000000E+00
  0.00000000E+00  0.00000000E+00  0.00000000E+00
  0.00000000E+00  0.00000000E+00  0.00000000E+00
  0.00000000E+00  0.00000000E+00  0.00000000E+00
  0.00000000E+00  0.00000000E+00  0.00000000E+00
  0.00000000E+00  0.00000000E+00  0.00000000E+00
  0.00000000E+00  0.00000000E+00  0.00000000E+00
  0.00000000E+00  0.00000000E+00  0.00000000E+00
  0.00000000E+00  0.00000000E+00  0.00000000E+00
  0.00000000E+00  0.00000000E+00  0.00000000E+00
  0.00000000E+00  0.00000000E+00  0.00000000E+00
  0.00000000E+00  0.00000000E+00  0.00000000E+00
  0.00000000E+00  0.00000000E+00  0.00000000E+00
  0.00000000E+00  0.00000000E+00  0.00000000E+00
  0.00000000E+00  0.00000000E+00  0.00000000E+00
  0.00000000E+00  0.00000000E+00  0.00000000E+00
  0.00000000E+00  0.00000000E+00  0.00000000E+00
  0.00000000E+00  0.00000000E+00  0.00000000E+00
  0.00000000E+00  0.00000000E+00  0.00000000E+00
  0.00000000E+00  0.00000000E+00  0.00000000E+00
  0.00000000E+00  0.00000000E+00  0.00000000E+00
  0.00000000E+00  0.00000000E+00  0.00000000E+00
  0.00000000E+00  0.00000000E+00  0.00000000E+00
  0.00000000E+00  0.00000000E+00  0.00000000E+00
  0.00000000E+00  0.00000000E+00  0.00000000E+00
  0.00000000E+00  0.00000000E+00  0.00000000E+00
  0.00000000E+00  0.00000000E+00  0.00000000E+00
  0.00000000E+00  0.00000000E+00  0.00000000E+00
  0.00000000E+00  0.00000000E+00  0.00000000E+00
  0.00000000E+00  0.00000000E+00  0.00000000E+00
  0.00000000E+00  0.00000000E+00  0.00000000E+00
  0.00000000E+00  0.00000000E+00  0.00000000E+00
  0.00000000E+00  0.00000000E+00  0.00000000E+00
  0.00000000E+00  0.00000000E+00  0.00000000E+00
