O  C  H  Co Li                          
   1.00000000000000     
    25.8659565473081301    0.5247452541510138   -0.3405189020601367
    13.3896043733092398   22.6059226684940491   -0.3346691871234848
    -0.0892451951952419   -0.0502882158440168    6.7504969181486389
   O    C    H    Co   Li
    54    67    16    18     3
Direct
  0.0563732890533214  0.2639932301499617  0.2981134908829896
  0.0306258664568110  0.3064733140471847  0.9264460831054300
  0.1036335324780866  0.2669782516856758  0.7029175965147190
  0.6922959964996970  0.0558587605949651  0.3319581990811802
  0.6730134773580828  0.0354996199713517  0.9552220517428586
  0.6387691963230104  0.1074191469004684  0.7330668978676382
  0.0232566148869019  0.4019820874918050  0.6432841315740697
  0.2673808468602907  0.6892181048681678  0.3260347221364292
  0.3180836980920271  0.6519519172481621  0.9533441401933167
  0.2858626593067569  0.6026676158141658  0.7616805900034438
  0.5821509917009065  0.0292788455594137  0.6527293164917251
  0.2973471399647694  0.0356781462967854  0.3495964708931670
  0.2267559555667748  0.0782172059581683  0.5829401885712162
  0.2752199536376503  0.0830368192365434 -0.0080940984055295
  0.6627707638508487  0.2900350835402507  0.4986070686101869
  0.7349956094559066  0.2021792751666879  0.6222273732167706
  0.0084297172343106  0.6355072265138623  0.7255837421514997
  0.0374737087500047  0.5658111290461897  0.9541376985772057
  0.6490174218993828  0.2740870572571262  0.0804491012234356
  0.0522835973848121  0.6630260381917239  0.3989100412307685
  0.0922749445154391  0.6930615207259416  0.6355056072510030
  0.3688052365993392  0.0001876060342226  0.6860546408736344
  0.4087067614156631  0.0281407023918545  0.9305368058671738
  0.0987332680611781  0.6363927554974965  0.0317313126160812
  0.7002601714184234  0.9617116228644298  0.6166561454412722
  0.7727602438542502  0.9234178901105524  0.3914692309309330
  0.7264386070846456  0.9186233365544106  0.9869471185097699
  0.3549436043450543  0.7028580788629213  0.4948543487779340
  0.2983846924852275  0.7836138198285562  0.3187371276977565
  0.0048290401070185  0.3786848127648301  0.2650891995003887
  0.9695207496273086  0.4506502917690578  0.0425149518403367
  0.3414482635001982  0.7327087277314516  0.9106116647883290
  0.9564494946648943  0.3567830349122990  0.5891553920544619
  0.9217934517227965  0.3202764690388275  0.3574642374570895
  0.6260547642418267  0.0103986728710200  0.2820512399319015
  0.5905625366551862  0.9755786256176623  0.0475229335107578
  0.9126858053840039  0.3740161689112216  0.9626619731306608
  0.9542795354813437  0.7522144676676583  0.6947492548997609
  0.9802590257568502  0.7087974267621162  0.0651165893510080
  0.9070895294912250  0.7458366813200062  0.2879737565088620
  0.3100810006120990  0.9451858055228145  0.6463724460478444
  0.3328506098492125  0.9650418474854663  0.0134991367737118
  0.3642314631165676  0.8944674332892071  0.2414248154072625
  0.9871454523906492  0.6134939784082764  0.3524110159389289
  0.7588242674324007  0.3043189849383398  0.6543189058754612
  0.6819868135480536  0.3739943791299776 -0.0338067173677320
  0.7349560118382121  0.3800703127300361  0.2390064166563965
  0.4177023169286710  0.9745206025382693  0.3285427944738090
  0.5757308088351243  0.4244165464088399  0.2500947430711898
  0.6039701805255182  0.4908962058531259  0.2236931189532444
  0.6361609354396821  0.4312657057566167  0.4884933864992396
  0.8264984723656262  0.1950575908654337  0.2572929557928720
  0.8652874007137563  0.1360905704249278  0.6969550089029362
  0.8576948019467298  0.0610504145338111  0.5292388537296084
  0.1087922529102431  0.2204930355607226  0.2188558211523790
  0.1499959173373357  0.1732240173037501  0.3398533912345878
  0.0851011828732195  0.2666776453627951  0.8747423338569383
  0.1250877197209423  0.2198142978762479  0.0176698567649426
  0.6837604137675798  0.1067922399957694  0.2587130613286786
  0.6931774334635935  0.1431550635849211  0.3899672831609454
  0.6581185684779370  0.0887690479547961  0.9070676803689814
  0.6657561293528612  0.1261585118975251  0.0591375171934284
  0.0141806374551800  0.4527751234045628  0.5671009076322480
  0.0205018424456783  0.4921491191304166  0.6942701833516287
  0.2291202067633984  0.6714163698030627  0.2555417702222478
  0.1804359582104336  0.6825364929779241  0.3750896161107816
  0.2820924799893982  0.6313449716348957  0.9243003334116012
  0.2358347270173075  0.6428451537659747  0.0669025107318373
  0.5425398963384138  0.0164909257708930  0.5683549674356834
  0.4976110749903835  0.0191673849519716  0.6873590328426716
  0.2451477261256719  0.0777723421088241  0.4093574010413098
  0.2058160766417620  0.1264753454827187  0.2710081234640436
  0.2224073296205500  0.1261976176792931  0.0706241794595859
  0.1812992871613265  0.1734597591473758  0.9497235744328680
  0.6945523242816293  0.2315730885523343  0.4941472039491532
  0.6817250554827253  0.1989797382371772  0.3372141528865543
  0.0199295012226152  0.5838737048764038  0.7787029462317641
  0.0113346433168850  0.5463788043991704  0.6305150394381596
  0.6610986666223446  0.2201324824117770  0.1411915002721905
  0.6547591318278062  0.1823767564003199  0.0056350231547100
  0.0918130841318087  0.6757530944089116  0.4581858893612984
  0.1381378196042164  0.6671184624261095  0.3148272127738054
  0.4086432106309812  0.0115736998589648  0.7516964828667561
  0.4552482861785332  0.0055289816385808  0.6145784024959517
  0.1414157243990262  0.6440159119362195  0.1178865959726977
  0.1917161865576885  0.6302277638031788  0.0038451483269581
  0.7551501496701620  0.9233789536493378  0.5648883587728462
  0.7972120591752564  0.8787348326013794  0.7104183022180515
  0.7809321467160665  0.8784972325810734  0.9107411116916408
  0.8247836630802209  0.8340725371028154  0.0349689334917545
  0.3240841844698099  0.7613990492306855  0.4832261316559260
  0.3238564351378990  0.8000818156158228  0.6451543086345338
 -0.0102207011886111  0.4317181813241375  0.2156484281740866
 -0.0021535324528454  0.4694876600265359  0.3643061959376768
  0.3375538281959601  0.7830060710332163  0.8474268671147156
  0.3448350469524610  0.8209237336464988  0.9791610800523901
  0.9201587765471111  0.3393552309624180  0.5336367089127136
  0.8759878257002622  0.3430525297484168  0.6746696523762675
  0.5888050773280153  0.9945962097338671  0.2234426669125085
  0.5436088053227095 -0.0003193590917095  0.3645581225543857
  0.8733472865104106  0.3610869009287080  0.8772840268382498
  0.8270093050071273  0.3651898596970123 -0.0058205054966018
  0.8996057924780381  0.7920376994096447  0.7708340660791572
  0.8555951762433290  0.8362434145337220  0.6463770870261315
  0.9250623240806938  0.7467341248760048  0.1158615737811771
  0.8831906244378350  0.7915976152654238  0.9709453652423484
  0.3190064491383189  0.8939448422097114  0.7187100525942077
  0.3130175409644275  0.8554480775477024  0.5872615347495239
  0.3450202094898986  0.9131691333752099  0.0668950673709559
  0.3358564682604745  0.8757603775535278  0.9195665153907500
  0.9953505897303224  0.5629339803393781  0.4277927110116209
  0.9884521909766354  0.5238670932435537  0.3007932005947498
  0.7919725878503464  0.3273270965764729  0.7236314617341334
  0.8359003326010070  0.3258717519793481  0.6045108798805723
  0.7359096060697220  0.3589942188757749  0.0530722097666506
  0.7855507871080275  0.3503197227165311  0.9220386437337497
  0.4568005148511913  0.9882632311098224  0.4116541130607168
  0.5014598747032221  0.9856957300264322  0.2923471497628913
  0.6038991486772425  0.4503737234750848  0.3256931860100395
  0.8606513516934000  0.0989087868152016  0.6116591591629986
  0.7826278022696753  0.2336856566910110  0.1791497758333902
  0.1378578926900119  0.1731754388405242  0.4931684041325488
  0.7088826344917850  0.1274027441326480  0.5400401720522450
  0.0327554004085840  0.4798361510270244  0.8489504537178720
  0.1736975104775579  0.7057895449509314  0.5177427582258429
  0.4960067390522585  0.0321770072093663  0.8426997760982416
  0.1935075120386090  0.1735991614021706  0.7964889569074735
  0.6406016310632120  0.1973276617587575  0.8537628822492458
  0.1947335612135104  0.6115726506318668  0.8555583217045263
  0.8129698278686741  0.8331051294796659  0.1879464992164197
  0.3567380242905472  0.8082215988740680  0.1334996694546705
  0.8245199398010273  0.3794961245656807  0.1484503831871537
  0.8672868081598277  0.8371137433108289  0.4931660710148401
  0.3018080552244929  0.8683173596676962  0.4327008168311267
  0.9761809257506178  0.5361854967759003  0.1461064295932013
  0.8398577448165712  0.3099144832104584  0.4514489114783811
  0.5031137021806432  0.9726399095715760  0.1369938933920752
  0.2885036172656681  0.6423802468302280  0.5486299426726789
  0.0433110012552493  0.3249262455568152  0.5042993695430624
  0.6415361542152211  0.0470815614751985  0.5294748398710781
  0.0345137290388606  0.6913126986151404  0.8299908685090999
  0.3563225124868716  0.0232404745204403  0.1274623104336498
  0.2845992313363840  0.0244555744942440  0.7871964651266313
  0.6244729629147241  0.3389108166721531  0.2648000474336626
  0.7195724726040247  0.2946884451788937  0.0755338176347883
  0.0367398491646710  0.6236483339241971  0.1582387611645239
  0.6464528450880099  0.9792792870060891  0.8536024488710653
  0.9766750995620859  0.3238050627486544  0.1628578197078619
  0.3425479245994358  0.6740807609413801  0.7253609348746329
  0.7115712531982350  0.9801536821364482  0.1911396048772066
  0.9725042667901729  0.3917407219700798  0.8372871216771003
  0.3153939344202671  0.7110338502253766  0.1599664809022323
  0.7053012859170290  0.3404322727955941  0.4247790064300541
  0.9678529412562566  0.6907036836052813  0.4914650128239604
  0.3602576746493889  0.9523484970858163  0.4473674598223846
  0.6849471858354043  0.4569772080984706  0.3458647048662218
  0.6042584716903610  0.4431440909588519  0.9900821883829171
  0.7903747486705747  0.2228322160214115  0.6984854175568211
 
  0.00000000E+00  0.00000000E+00  0.00000000E+00
  0.00000000E+00  0.00000000E+00  0.00000000E+00
  0.00000000E+00  0.00000000E+00  0.00000000E+00
  0.00000000E+00  0.00000000E+00  0.00000000E+00
  0.00000000E+00  0.00000000E+00  0.00000000E+00
  0.00000000E+00  0.00000000E+00  0.00000000E+00
  0.00000000E+00  0.00000000E+00  0.00000000E+00
  0.00000000E+00  0.00000000E+00  0.00000000E+00
  0.00000000E+00  0.00000000E+00  0.00000000E+00
  0.00000000E+00  0.00000000E+00  0.00000000E+00
  0.00000000E+00  0.00000000E+00  0.00000000E+00
  0.00000000E+00  0.00000000E+00  0.00000000E+00
  0.00000000E+00  0.00000000E+00  0.00000000E+00
  0.00000000E+00  0.00000000E+00  0.00000000E+00
  0.00000000E+00  0.00000000E+00  0.00000000E+00
  0.00000000E+00  0.00000000E+00  0.00000000E+00
  0.00000000E+00  0.00000000E+00  0.00000000E+00
  0.00000000E+00  0.00000000E+00  0.00000000E+00
  0.00000000E+00  0.00000000E+00  0.00000000E+00
  0.00000000E+00  0.00000000E+00  0.00000000E+00
  0.00000000E+00  0.00000000E+00  0.00000000E+00
  0.00000000E+00  0.00000000E+00  0.00000000E+00
  0.00000000E+00  0.00000000E+00  0.00000000E+00
  0.00000000E+00  0.00000000E+00  0.00000000E+00
  0.00000000E+00  0.00000000E+00  0.00000000E+00
  0.00000000E+00  0.00000000E+00  0.00000000E+00
  0.00000000E+00  0.00000000E+00  0.00000000E+00
  0.00000000E+00  0.00000000E+00  0.00000000E+00
  0.00000000E+00  0.00000000E+00  0.00000000E+00
  0.00000000E+00  0.00000000E+00  0.00000000E+00
  0.00000000E+00  0.00000000E+00  0.00000000E+00
  0.00000000E+00  0.00000000E+00  0.00000000E+00
  0.00000000E+00  0.00000000E+00  0.00000000E+00
  0.00000000E+00  0.00000000E+00  0.00000000E+00
  0.00000000E+00  0.00000000E+00  0.00000000E+00
  0.00000000E+00  0.00000000E+00  0.00000000E+00
  0.00000000E+00  0.00000000E+00  0.00000000E+00
  0.00000000E+00  0.00000000E+00  0.00000000E+00
  0.00000000E+00  0.00000000E+00  0.00000000E+00
  0.00000000E+00  0.00000000E+00  0.00000000E+00
  0.00000000E+00  0.00000000E+00  0.00000000E+00
  0.00000000E+00  0.00000000E+00  0.00000000E+00
  0.00000000E+00  0.00000000E+00  0.00000000E+00
  0.00000000E+00  0.00000000E+00  0.00000000E+00
  0.00000000E+00  0.00000000E+00  0.00000000E+00
  0.00000000E+00  0.00000000E+00  0.00000000E+00
  0.00000000E+00  0.00000000E+00  0.00000000E+00
  0.00000000E+00  0.00000000E+00  0.00000000E+00
  0.00000000E+00  0.00000000E+00  0.00000000E+00
  0.00000000E+00  0.00000000E+00  0.00000000E+00
  0.00000000E+00  0.00000000E+00  0.00000000E+00
  0.00000000E+00  0.00000000E+00  0.00000000E+00
  0.00000000E+00  0.00000000E+00  0.00000000E+00
  0.00000000E+00  0.00000000E+00  0.00000000E+00
  0.00000000E+00  0.00000000E+00  0.00000000E+00
  0.00000000E+00  0.00000000E+00  0.00000000E+00
  0.00000000E+00  0.00000000E+00  0.00000000E+00
  0.00000000E+00  0.00000000E+00  0.00000000E+00
  0.00000000E+00  0.00000000E+00  0.00000000E+00
  0.00000000E+00  0.00000000E+00  0.00000000E+00
  0.00000000E+00  0.00000000E+00  0.00000000E+00
  0.00000000E+00  0.00000000E+00  0.00000000E+00
  0.00000000E+00  0.00000000E+00  0.00000000E+00
  0.00000000E+00  0.00000000E+00  0.00000000E+00
  0.00000000E+00  0.00000000E+00  0.00000000E+00
  0.00000000E+00  0.00000000E+00  0.00000000E+00
  0.00000000E+00  0.00000000E+00  0.00000000E+00
  0.00000000E+00  0.00000000E+00  0.00000000E+00
  0.00000000E+00  0.00000000E+00  0.00000000E+00
  0.00000000E+00  0.00000000E+00  0.00000000E+00
  0.00000000E+00  0.00000000E+00  0.00000000E+00
  0.00000000E+00  0.00000000E+00  0.00000000E+00
  0.00000000E+00  0.00000000E+00  0.00000000E+00
  0.00000000E+00  0.00000000E+00  0.00000000E+00
  0.00000000E+00  0.00000000E+00  0.00000000E+00
  0.00000000E+00  0.00000000E+00  0.00000000E+00
  0.00000000E+00  0.00000000E+00  0.00000000E+00
  0.00000000E+00  0.00000000E+00  0.00000000E+00
  0.00000000E+00  0.00000000E+00  0.00000000E+00
  0.00000000E+00  0.00000000E+00  0.00000000E+00
  0.00000000E+00  0.00000000E+00  0.00000000E+00
  0.00000000E+00  0.00000000E+00  0.00000000E+00
  0.00000000E+00  0.00000000E+00  0.00000000E+00
  0.00000000E+00  0.00000000E+00  0.00000000E+00
  0.00000000E+00  0.00000000E+00  0.00000000E+00
  0.00000000E+00  0.00000000E+00  0.00000000E+00
  0.00000000E+00  0.00000000E+00  0.00000000E+00
  0.00000000E+00  0.00000000E+00  0.00000000E+00
  0.00000000E+00  0.00000000E+00  0.00000000E+00
  0.00000000E+00  0.00000000E+00  0.00000000E+00
  0.00000000E+00  0.00000000E+00  0.00000000E+00
  0.00000000E+00  0.00000000E+00  0.00000000E+00
  0.00000000E+00  0.00000000E+00  0.00000000E+00
  0.00000000E+00  0.00000000E+00  0.00000000E+00
  0.00000000E+00  0.00000000E+00  0.00000000E+00
  0.00000000E+00  0.00000000E+00  0.00000000E+00
  0.00000000E+00  0.00000000E+00  0.00000000E+00
  0.00000000E+00  0.00000000E+00  0.00000000E+00
  0.00000000E+00  0.00000000E+00  0.00000000E+00
  0.00000000E+00  0.00000000E+00  0.00000000E+00
  0.00000000E+00  0.00000000E+00  0.00000000E+00
  0.00000000E+00  0.00000000E+00  0.00000000E+00
  0.00000000E+00  0.00000000E+00  0.00000000E+00
  0.00000000E+00  0.00000000E+00  0.00000000E+00
  0.00000000E+00  0.00000000E+00  0.00000000E+00
  0.00000000E+00  0.00000000E+00  0.00000000E+00
  0.00000000E+00  0.00000000E+00  0.00000000E+00
  0.00000000E+00  0.00000000E+00  0.00000000E+00
  0.00000000E+00  0.00000000E+00  0.00000000E+00
  0.00000000E+00  0.00000000E+00  0.00000000E+00
  0.00000000E+00  0.00000000E+00  0.00000000E+00
  0.00000000E+00  0.00000000E+00  0.00000000E+00
  0.00000000E+00  0.00000000E+00  0.00000000E+00
  0.00000000E+00  0.00000000E+00  0.00000000E+00
  0.00000000E+00  0.00000000E+00  0.00000000E+00
  0.00000000E+00  0.00000000E+00  0.00000000E+00
  0.00000000E+00  0.00000000E+00  0.00000000E+00
  0.00000000E+00  0.00000000E+00  0.00000000E+00
  0.00000000E+00  0.00000000E+00  0.00000000E+00
  0.00000000E+00  0.00000000E+00  0.00000000E+00
  0.00000000E+00  0.00000000E+00  0.00000000E+00
  0.00000000E+00  0.00000000E+00  0.00000000E+00
  0.00000000E+00  0.00000000E+00  0.00000000E+00
  0.00000000E+00  0.00000000E+00  0.00000000E+00
  0.00000000E+00  0.00000000E+00  0.00000000E+00
  0.00000000E+00  0.00000000E+00  0.00000000E+00
  0.00000000E+00  0.00000000E+00  0.00000000E+00
  0.00000000E+00  0.00000000E+00  0.00000000E+00
  0.00000000E+00  0.00000000E+00  0.00000000E+00
  0.00000000E+00  0.00000000E+00  0.00000000E+00
  0.00000000E+00  0.00000000E+00  0.00000000E+00
  0.00000000E+00  0.00000000E+00  0.00000000E+00
  0.00000000E+00  0.00000000E+00  0.00000000E+00
  0.00000000E+00  0.00000000E+00  0.00000000E+00
  0.00000000E+00  0.00000000E+00  0.00000000E+00
  0.00000000E+00  0.00000000E+00  0.00000000E+00
  0.00000000E+00  0.00000000E+00  0.00000000E+00
  0.00000000E+00  0.00000000E+00  0.00000000E+00
  0.00000000E+00  0.00000000E+00  0.00000000E+00
  0.00000000E+00  0.00000000E+00  0.00000000E+00
  0.00000000E+00  0.00000000E+00  0.00000000E+00
  0.00000000E+00  0.00000000E+00  0.00000000E+00
  0.00000000E+00  0.00000000E+00  0.00000000E+00
  0.00000000E+00  0.00000000E+00  0.00000000E+00
  0.00000000E+00  0.00000000E+00  0.00000000E+00
  0.00000000E+00  0.00000000E+00  0.00000000E+00
  0.00000000E+00  0.00000000E+00  0.00000000E+00
  0.00000000E+00  0.00000000E+00  0.00000000E+00
  0.00000000E+00  0.00000000E+00  0.00000000E+00
  0.00000000E+00  0.00000000E+00  0.00000000E+00
  0.00000000E+00  0.00000000E+00  0.00000000E+00
  0.00000000E+00  0.00000000E+00  0.00000000E+00
  0.00000000E+00  0.00000000E+00  0.00000000E+00
  0.00000000E+00  0.00000000E+00  0.00000000E+00
  0.00000000E+00  0.00000000E+00  0.00000000E+00
  0.00000000E+00  0.00000000E+00  0.00000000E+00
  0.00000000E+00  0.00000000E+00  0.00000000E+00
  0.00000000E+00  0.00000000E+00  0.00000000E+00
