O  C  H  Co Li                          
   1.00000000000000     
    25.9869300222800774    0.0014776472087939   -0.0002841704448074
    12.9947443186480527   22.5035161465627063   -0.0005769115704474
    -0.0000740905812471   -0.0001328080293999    6.8098320633878924
   O    C    H    Co   Li
    56    73    18    18     1
Direct
  0.0553722026470807  0.2600777171824636  0.3022186151913034
  0.0341113320494634  0.3050894254201025  0.9449791572789482
  0.1041751298082778  0.2643828621379202  0.7131800826206620
  0.3974397254111052  0.5872792364120775  0.6494210123149967
  0.6866690927867959  0.0591808629636304  0.3111059687002591
  0.6630560348360394  0.0368741155700367  0.9558810390313496
  0.6367916538317440  0.1042860937286193  0.7170961043586740
  0.0167427950774612  0.3966020567370829  0.6415732523504001
  0.2572791885787211  0.6881044650367396  0.3131056544617466
  0.3044886666498758  0.6646609480574087  0.9586294955955984
  0.2637187675523512  0.6383931591237105  0.7194584120764154
  0.5848798915432900  0.0236834478595444  0.6453905825189147
  0.2955837176827670  0.0379589127099693  0.3634291375639816
  0.2270436377529368  0.0791913250509154  0.5985880113827493
  0.6381803553331722  0.3669883611560547  0.7078877697982497
  0.5688619455425331  0.4087001040587650  0.9403324086460363
  0.2723350911092215  0.0823310882869841  0.0031597400164300
  0.6668288819465596  0.2957957291011520  0.3717335421703404
  0.6946722071665513  0.2269150248309054  0.6043495518850733
  0.0049165454802068  0.6307382114319580  0.6990553945230584
  0.0322479888166901  0.5627808657661157  0.9349275325030323
  0.6472293837681741  0.2729599873328595  0.0079149198758111
  0.0403792322497815  0.6659102887520256  0.3654309374716065
  0.0804009561652740  0.6935272518317752  0.6014955445357424
  0.3676134388797926  0.0017581539376280  0.6978736490695900
  0.4079045277556965  0.0291245286728623  0.9338571129354727
  0.0859364506939657  0.6442439996821856  0.0050915160552877
  0.7019454983471577  0.9662489755760515  0.6218507778672282
  0.7708904480999448  0.9254032968745634  0.3863877259143086
  0.3744984434210895  0.6338871233890304  0.2921755850212251
  0.4436028016529283  0.5937228784384900  0.0572207252170612
  0.7259613538361790  0.9203568407423531  0.9789203278117432
  0.3355308333649539  0.7033668275761015  0.6243852620761980
  0.3065842275148177  0.7716902497459386  0.3876219302602143
 -0.0096675564847454  0.3771911006387624  0.2908855094387399
  0.9694005136276312  0.4430035481222026  0.0499505390249347
  0.3575238417997739  0.7269276373583777  0.9813435431072579
  0.9717769419023924  0.3204216027089028  0.6152263254792700
  0.9143974317685365  0.3211231346272895  0.3630725867556195
  0.6322896264247633 -0.0013546812046657  0.2888613180858652
  0.5921304750543321  0.9709261513617500  0.0525522729865870
  0.9070879946985846  0.3742599137641986  0.9520037652488992
  0.9442267621456486  0.7471801342613431  0.6730014102196433
  0.9689350072406667  0.7022971574005514  0.0330105680084603
  0.9003713835132470  0.7426957500872587  0.2686660974345264
  0.6158281620981060  0.4135060236094226  0.3438845579983648
  0.3110778856420842  0.9428412320610802  0.6717495280588331
  0.3322590273633673  0.9665868418353637  0.0314816164801803
  0.3607326409588477  0.8987692049437555  0.2685917980129136
  0.9834305116483918  0.6083547458823850  0.3387035536843594
  0.7582344631258331  0.2952541920905574  0.6753719805869126
  0.7062564197862446  0.3298288171200177  0.0386483234130156
  0.7519708751709462  0.3535982054279441  0.2688366613060487
  0.4128088397526805  0.9802417367540769  0.3380249436267561
  0.6890117155738883  0.4833800219168612  0.6499619498908650
  0.7759492836958218  0.4444865828869486  0.4588940004932708
  0.1078418551422888  0.2178407968997579  0.2261664215241869
  0.1489573674439859  0.1718066933624052  0.3487265089928088
  0.0861307321135422  0.2639796297077875  0.8856043143506610
  0.1244946050323877  0.2167214096583157  0.0259202410412846
  0.4501436620609962  0.5461359738002426  0.5708829664831282
  0.4917043522825911  0.5003336532258215  0.6919116679463083
  0.6757875188595166  0.1109584434432387  0.2327470772743192
  0.6799941228489962  0.1515313059076009  0.3550796251347882
  0.6530148741605110  0.0874475437304392  0.8927750068394598
  0.6605152826085439  0.1267572210110544  0.0317672611541006
  0.0088947876030657  0.4477870601090140  0.5659438582156899
  0.0154864855845880  0.4871467707360138  0.6875966566451384
  0.2167206228831106  0.6766996926334534  0.2340896714756222
  0.1714215779568448  0.6805162753082880  0.3549959942121443
  0.2640504534212867  0.6544069012128887  0.8951247824741790
  0.2169867205275587  0.6612964020920973  0.0332944034163583
  0.5441067818156275  0.0124510040649540  0.5658664844995774
  0.4986265059701997  0.0166388824068574  0.6865247097084407
  0.2438272953360746  0.0788711059886568  0.4240270093907659
  0.2043464463531813  0.1258659419942126  0.2824680263894378
  0.5862573847719166  0.4083676009603960  0.7666101311789733
  0.5474946326671051  0.4552886464333591  0.6248763021836380
  0.2204803729787891  0.1248007522857301  0.0816712892541580
  0.1797527848961793  0.1708001908525457  0.9594293085453118
  0.6778561418665943  0.2442500832379027  0.4300104255351131
  0.6703426805857851  0.2061056677316502  0.2874520416556318
  0.0154705024951872  0.5796924304835109  0.7601230423188990
  0.0071061693203650  0.5413656243358285  0.6194700963915659
  0.6558521895188393  0.2218899327555252  0.0856919843726640
  0.6508953527400367  0.1813931364631668  0.9639077517629866
  0.0804907549364607  0.6769908949662399  0.4267375972439334
  0.1270563795357517  0.6699597662805190  0.2862530386578978
  0.4078103133394539  0.0128281501632539  0.7589331505861787
  0.4542327265895118  0.0059476555082253  0.6183023271201117
  0.1270362281121495  0.6547520807591950  0.0849802749250684
  0.1725755965847997  0.6507456924477754  0.9643980668831870
  0.7537502643341929  0.9256618519990265  0.5609033954193118
  0.7940035687459751  0.8787335583113287  0.7001175029760884
  0.4262611011937791  0.5934573121180116  0.2313244609708177
  0.4661815602455950  0.5461464835293270  0.3707464358658734
  0.7785625185732529  0.8790665985598086  0.9010306698030088
  0.8208300229508089  0.8336399902910130  0.0221232294499581
  0.3238127453853372  0.7546599726214226  0.5625207086284927
  0.3304015196416159  0.7943754471008352  0.7012695940388307
  0.9841280536311364  0.4263813507424984  0.2264046367555133
  0.9939331785302945  0.4638997459731209  0.3653264525129872
  0.3458297988228786  0.7789548582957674  0.9025149607878588
  0.3489848690885926  0.8206082952282853  0.0229608605135284
  0.9261102500419298  0.3212953122875905  0.5473245237601830
  0.8814494782365460  0.3253161249870816  0.6911793295357131
  0.5917540459817161  0.9883894271596499  0.2269731421107470
  0.5443358313008412  0.9966003787966033  0.3653749781377269
  0.8729703499801698  0.3547860431761298  0.8745830465592989
  0.8237570879098943  0.3635451842445067  0.9850407760279309
  0.8918408643864042  0.7885382157884414  0.7522332644932307
  0.8496149938433258  0.8339798349034153  0.6312571845367939
  0.9169267316870544  0.7425269114279738  0.0938965268029396
  0.8765133165653624  0.7890118738013462  0.9534333430537627
  0.5635941310959340  0.4550190845582041  0.4244223216496965
  0.5219399140735618  0.5010922785186137  0.3035408999864476
  0.3224499965751693  0.8910113945870072  0.7519771222306249
  0.3192340668363295  0.8493877914033473  0.6316444284818626
  0.3440542003927797  0.9152733426886940  0.0934465245884441
  0.3376862065481558  0.8756512762681555  0.9534796260480675
  0.9921691329242058  0.5573780367315443  0.4182708073876547
  0.9861938425444496  0.5176968578670340  0.2966539488403582
  0.7944005027044927  0.3124118106654965  0.7518013779707764
  0.8436643463675727  0.3037043342593332  0.6395130942501291
  0.7456234084052893  0.3423366091073060  0.0886060438605901
  0.7869274738875853  0.3406371474638177  0.9377513486519041
  0.4540843658174136  0.9906668171700536  0.4174852111000054
  0.4996819975656082  0.9862944169168198  0.2968382504323022
  0.7322173357867806  0.4639627955162604  0.5547055245643805
  0.1370793467580519  0.1720942808816627  0.5018796622853217
  0.4798642615507996  0.4998279171980828  0.8446054274319852
  0.6913176713676678  0.1398233790514428  0.5087225480075833
  0.0269377746761977  0.4753075727851374  0.8411462050894142
  0.1709966737150632  0.6922362079060426  0.5083650391233635
  0.4980858635343448  0.0286019114097339  0.8396882161608378
  0.1918398679938668  0.1703830296257827  0.8065263515873047
  0.6396473038396950  0.1930169099660874  0.8101874282469427
  0.1728530878076026  0.6392223880014080  0.8109143846303218
  0.8097165165302588  0.8333560245114027  0.1757467494421019
  0.3606548256275977  0.8094705168539201  0.1767594315704007
  0.8125730555851643  0.3939184799585269  0.1087700539596267
  0.8608013104156991  0.8341785444029878  0.4777009102087528
  0.5336028214035552  0.5012993616854766  0.1504585010845836
  0.3076345996532021  0.8605622891953849  0.4778555535230006
  0.9750122953268502  0.5295035591250852  0.1430184583339426
  0.8532332217187930  0.2765912791987579  0.5071429070378588
  0.5000683147651196  0.9744626886368724  0.1436514146886955
  0.3162664625672065  0.6427504764274888  0.5167700001565856
  0.0459477879179938  0.3164616718469707  0.5080372215557794
  0.6408199796750399  0.0475135658587805  0.5144319783944282
  0.0248597385894419  0.6905209540001582  0.8017638811772732
  0.3522947743852377  0.0262639588537658  0.1336419119265903
  0.2867878813858269  0.0225579660390707  0.7993859889053123
  0.6252684238117718  0.3521382569895538  0.1462861370115773
  0.6941160299910308  0.2840790842140839  0.8041191159840129
  0.0296500323424801  0.6212365562940323  0.1341965580528318
  0.6439200860524689  0.9756012029651936  0.8488435210462250
  0.9746959955550060  0.3192452396149366  0.1526512997680523
  0.3857486119343166  0.6455795102719258  0.8525603161745025
  0.7135444947867563  0.9783866810477254  0.1844697255159427
  0.9725469286661376  0.3854546189058954  0.8514586773620372
  0.3116081759841490  0.7146430641795170  0.1868957551271455
  0.6922769118429130  0.3505521553776806  0.4773312906244347
  0.9595374577456695  0.6872776067111702  0.4692886845592924
  0.3565164183103445  0.9573749561380056  0.4683382181333261
  0.8257266349198076  0.3530743879208081  0.3465324294464299
 
  0.00000000E+00  0.00000000E+00  0.00000000E+00
  0.00000000E+00  0.00000000E+00  0.00000000E+00
  0.00000000E+00  0.00000000E+00  0.00000000E+00
  0.00000000E+00  0.00000000E+00  0.00000000E+00
  0.00000000E+00  0.00000000E+00  0.00000000E+00
  0.00000000E+00  0.00000000E+00  0.00000000E+00
  0.00000000E+00  0.00000000E+00  0.00000000E+00
  0.00000000E+00  0.00000000E+00  0.00000000E+00
  0.00000000E+00  0.00000000E+00  0.00000000E+00
  0.00000000E+00  0.00000000E+00  0.00000000E+00
  0.00000000E+00  0.00000000E+00  0.00000000E+00
  0.00000000E+00  0.00000000E+00  0.00000000E+00
  0.00000000E+00  0.00000000E+00  0.00000000E+00
  0.00000000E+00  0.00000000E+00  0.00000000E+00
  0.00000000E+00  0.00000000E+00  0.00000000E+00
  0.00000000E+00  0.00000000E+00  0.00000000E+00
  0.00000000E+00  0.00000000E+00  0.00000000E+00
  0.00000000E+00  0.00000000E+00  0.00000000E+00
  0.00000000E+00  0.00000000E+00  0.00000000E+00
  0.00000000E+00  0.00000000E+00  0.00000000E+00
  0.00000000E+00  0.00000000E+00  0.00000000E+00
  0.00000000E+00  0.00000000E+00  0.00000000E+00
  0.00000000E+00  0.00000000E+00  0.00000000E+00
  0.00000000E+00  0.00000000E+00  0.00000000E+00
  0.00000000E+00  0.00000000E+00  0.00000000E+00
  0.00000000E+00  0.00000000E+00  0.00000000E+00
  0.00000000E+00  0.00000000E+00  0.00000000E+00
  0.00000000E+00  0.00000000E+00  0.00000000E+00
  0.00000000E+00  0.00000000E+00  0.00000000E+00
  0.00000000E+00  0.00000000E+00  0.00000000E+00
  0.00000000E+00  0.00000000E+00  0.00000000E+00
  0.00000000E+00  0.00000000E+00  0.00000000E+00
  0.00000000E+00  0.00000000E+00  0.00000000E+00
  0.00000000E+00  0.00000000E+00  0.00000000E+00
  0.00000000E+00  0.00000000E+00  0.00000000E+00
  0.00000000E+00  0.00000000E+00  0.00000000E+00
  0.00000000E+00  0.00000000E+00  0.00000000E+00
  0.00000000E+00  0.00000000E+00  0.00000000E+00
  0.00000000E+00  0.00000000E+00  0.00000000E+00
  0.00000000E+00  0.00000000E+00  0.00000000E+00
  0.00000000E+00  0.00000000E+00  0.00000000E+00
  0.00000000E+00  0.00000000E+00  0.00000000E+00
  0.00000000E+00  0.00000000E+00  0.00000000E+00
  0.00000000E+00  0.00000000E+00  0.00000000E+00
  0.00000000E+00  0.00000000E+00  0.00000000E+00
  0.00000000E+00  0.00000000E+00  0.00000000E+00
  0.00000000E+00  0.00000000E+00  0.00000000E+00
  0.00000000E+00  0.00000000E+00  0.00000000E+00
  0.00000000E+00  0.00000000E+00  0.00000000E+00
  0.00000000E+00  0.00000000E+00  0.00000000E+00
  0.00000000E+00  0.00000000E+00  0.00000000E+00
  0.00000000E+00  0.00000000E+00  0.00000000E+00
  0.00000000E+00  0.00000000E+00  0.00000000E+00
  0.00000000E+00  0.00000000E+00  0.00000000E+00
  0.00000000E+00  0.00000000E+00  0.00000000E+00
  0.00000000E+00  0.00000000E+00  0.00000000E+00
  0.00000000E+00  0.00000000E+00  0.00000000E+00
  0.00000000E+00  0.00000000E+00  0.00000000E+00
  0.00000000E+00  0.00000000E+00  0.00000000E+00
  0.00000000E+00  0.00000000E+00  0.00000000E+00
  0.00000000E+00  0.00000000E+00  0.00000000E+00
  0.00000000E+00  0.00000000E+00  0.00000000E+00
  0.00000000E+00  0.00000000E+00  0.00000000E+00
  0.00000000E+00  0.00000000E+00  0.00000000E+00
  0.00000000E+00  0.00000000E+00  0.00000000E+00
  0.00000000E+00  0.00000000E+00  0.00000000E+00
  0.00000000E+00  0.00000000E+00  0.00000000E+00
  0.00000000E+00  0.00000000E+00  0.00000000E+00
  0.00000000E+00  0.00000000E+00  0.00000000E+00
  0.00000000E+00  0.00000000E+00  0.00000000E+00
  0.00000000E+00  0.00000000E+00  0.00000000E+00
  0.00000000E+00  0.00000000E+00  0.00000000E+00
  0.00000000E+00  0.00000000E+00  0.00000000E+00
  0.00000000E+00  0.00000000E+00  0.00000000E+00
  0.00000000E+00  0.00000000E+00  0.00000000E+00
  0.00000000E+00  0.00000000E+00  0.00000000E+00
  0.00000000E+00  0.00000000E+00  0.00000000E+00
  0.00000000E+00  0.00000000E+00  0.00000000E+00
  0.00000000E+00  0.00000000E+00  0.00000000E+00
  0.00000000E+00  0.00000000E+00  0.00000000E+00
  0.00000000E+00  0.00000000E+00  0.00000000E+00
  0.00000000E+00  0.00000000E+00  0.00000000E+00
  0.00000000E+00  0.00000000E+00  0.00000000E+00
  0.00000000E+00  0.00000000E+00  0.00000000E+00
  0.00000000E+00  0.00000000E+00  0.00000000E+00
  0.00000000E+00  0.00000000E+00  0.00000000E+00
  0.00000000E+00  0.00000000E+00  0.00000000E+00
  0.00000000E+00  0.00000000E+00  0.00000000E+00
  0.00000000E+00  0.00000000E+00  0.00000000E+00
  0.00000000E+00  0.00000000E+00  0.00000000E+00
  0.00000000E+00  0.00000000E+00  0.00000000E+00
  0.00000000E+00  0.00000000E+00  0.00000000E+00
  0.00000000E+00  0.00000000E+00  0.00000000E+00
  0.00000000E+00  0.00000000E+00  0.00000000E+00
  0.00000000E+00  0.00000000E+00  0.00000000E+00
  0.00000000E+00  0.00000000E+00  0.00000000E+00
  0.00000000E+00  0.00000000E+00  0.00000000E+00
  0.00000000E+00  0.00000000E+00  0.00000000E+00
  0.00000000E+00  0.00000000E+00  0.00000000E+00
  0.00000000E+00  0.00000000E+00  0.00000000E+00
  0.00000000E+00  0.00000000E+00  0.00000000E+00
  0.00000000E+00  0.00000000E+00  0.00000000E+00
  0.00000000E+00  0.00000000E+00  0.00000000E+00
  0.00000000E+00  0.00000000E+00  0.00000000E+00
  0.00000000E+00  0.00000000E+00  0.00000000E+00
  0.00000000E+00  0.00000000E+00  0.00000000E+00
  0.00000000E+00  0.00000000E+00  0.00000000E+00
  0.00000000E+00  0.00000000E+00  0.00000000E+00
  0.00000000E+00  0.00000000E+00  0.00000000E+00
  0.00000000E+00  0.00000000E+00  0.00000000E+00
  0.00000000E+00  0.00000000E+00  0.00000000E+00
  0.00000000E+00  0.00000000E+00  0.00000000E+00
  0.00000000E+00  0.00000000E+00  0.00000000E+00
  0.00000000E+00  0.00000000E+00  0.00000000E+00
  0.00000000E+00  0.00000000E+00  0.00000000E+00
  0.00000000E+00  0.00000000E+00  0.00000000E+00
  0.00000000E+00  0.00000000E+00  0.00000000E+00
  0.00000000E+00  0.00000000E+00  0.00000000E+00
  0.00000000E+00  0.00000000E+00  0.00000000E+00
  0.00000000E+00  0.00000000E+00  0.00000000E+00
  0.00000000E+00  0.00000000E+00  0.00000000E+00
  0.00000000E+00  0.00000000E+00  0.00000000E+00
  0.00000000E+00  0.00000000E+00  0.00000000E+00
  0.00000000E+00  0.00000000E+00  0.00000000E+00
  0.00000000E+00  0.00000000E+00  0.00000000E+00
  0.00000000E+00  0.00000000E+00  0.00000000E+00
  0.00000000E+00  0.00000000E+00  0.00000000E+00
  0.00000000E+00  0.00000000E+00  0.00000000E+00
  0.00000000E+00  0.00000000E+00  0.00000000E+00
  0.00000000E+00  0.00000000E+00  0.00000000E+00
  0.00000000E+00  0.00000000E+00  0.00000000E+00
  0.00000000E+00  0.00000000E+00  0.00000000E+00
  0.00000000E+00  0.00000000E+00  0.00000000E+00
  0.00000000E+00  0.00000000E+00  0.00000000E+00
  0.00000000E+00  0.00000000E+00  0.00000000E+00
  0.00000000E+00  0.00000000E+00  0.00000000E+00
  0.00000000E+00  0.00000000E+00  0.00000000E+00
  0.00000000E+00  0.00000000E+00  0.00000000E+00
  0.00000000E+00  0.00000000E+00  0.00000000E+00
  0.00000000E+00  0.00000000E+00  0.00000000E+00
  0.00000000E+00  0.00000000E+00  0.00000000E+00
  0.00000000E+00  0.00000000E+00  0.00000000E+00
  0.00000000E+00  0.00000000E+00  0.00000000E+00
  0.00000000E+00  0.00000000E+00  0.00000000E+00
  0.00000000E+00  0.00000000E+00  0.00000000E+00
  0.00000000E+00  0.00000000E+00  0.00000000E+00
  0.00000000E+00  0.00000000E+00  0.00000000E+00
  0.00000000E+00  0.00000000E+00  0.00000000E+00
  0.00000000E+00  0.00000000E+00  0.00000000E+00
  0.00000000E+00  0.00000000E+00  0.00000000E+00
  0.00000000E+00  0.00000000E+00  0.00000000E+00
  0.00000000E+00  0.00000000E+00  0.00000000E+00
  0.00000000E+00  0.00000000E+00  0.00000000E+00
  0.00000000E+00  0.00000000E+00  0.00000000E+00
  0.00000000E+00  0.00000000E+00  0.00000000E+00
  0.00000000E+00  0.00000000E+00  0.00000000E+00
  0.00000000E+00  0.00000000E+00  0.00000000E+00
  0.00000000E+00  0.00000000E+00  0.00000000E+00
  0.00000000E+00  0.00000000E+00  0.00000000E+00
  0.00000000E+00  0.00000000E+00  0.00000000E+00
  0.00000000E+00  0.00000000E+00  0.00000000E+00
  0.00000000E+00  0.00000000E+00  0.00000000E+00
  0.00000000E+00  0.00000000E+00  0.00000000E+00
  0.00000000E+00  0.00000000E+00  0.00000000E+00
  0.00000000E+00  0.00000000E+00  0.00000000E+00
  0.00000000E+00  0.00000000E+00  0.00000000E+00
